********************************************************************************
Field Output Report, written Fri Feb 15 16:32:09 2019

Source 1
---------

   ODB: C:/Scratch/A320-19.odb
   Step: RotationDown
   Frame: Increment      1: Step Time =    1.000

Loc 1 : Element nodal  values at shell < ALUMINIUM > < 5 section points > from source 1 : SNEG, (fraction = -1.0) ( Average criteria = 75%, Not averaged across region boundaries )
Loc 2 : Element nodal  values at shell < ALUMINIUM > < 5 section points > from source 1 : SPOS, (fraction = 1.0) ( Average criteria = 75%, Not averaged across region boundaries )

Output sorted by column "Node Label".

Field Output reported at element nodes for region: A320-1.Region_1
   Computation algorithm: EXTRAPOLATE_COMPUTE_AVERAGE
   Averaged at nodes
   Averaging regions: ODB_REGIONS

   Element Label      Node Label         S.Mises         S.Mises
                                          @Loc 1          @Loc 2
-----------------------------------------------------------------
            2271               3     1.60021E-03     2.55063E-03
             874               3     1.60021E-03     2.55063E-03
            2325               4     13.0801E-15     17.7158E-15
            3976               6     83.9939E-03     86.8711E-03
            1756               6     83.9939E-03     86.8711E-03
            4066               8     94.5932E-03     100.497E-03
            3410               8     94.5932E-03     100.497E-03
            5864              10     78.0159E-03     78.6797E-03
            3500              10     78.0159E-03     78.6797E-03
            5084              15     1.35429E-03     2.55901E-03
            6566              15     1.35429E-03     2.55901E-03
            2288              16     2.11108E-03     2.55365E-03
             857              16     2.11108E-03     2.55365E-03
            2342              19     24.0878E-15     21.3198E-15
            1739              20     3.72182E-03     5.03602E-03
            3959              20     3.72182E-03     5.03602E-03
            4049              23     2.77720E-03     4.30860E-03
            3393              23     2.77720E-03     4.30860E-03
            5847              24     6.45917E-03     8.10552E-03
            3483              24     6.45917E-03     8.10552E-03
            5067              26     2.34619E-03     2.71731E-03
            6549              26     2.34619E-03     2.71731E-03
            5174              27     26.7895E-15     28.7076E-15
            5157              28     13.0302E-15     10.4604E-15
            2289              38     30.5593E-15     28.7721E-15
            2271              38     30.5593E-15     28.7721E-15
            2289              39     32.2920E-15     32.2957E-15
            2307              39     32.2920E-15     32.2957E-15
            2307              40     24.8185E-15     27.1078E-15
            2325              40     24.8185E-15     27.1078E-15
            1738             102     87.9024E-03     88.3088E-03
            1756             102     87.9024E-03     88.3088E-03
            1738             103     86.2086E-03     86.1723E-03
            1720             103     86.2086E-03     86.1723E-03
            1720             104     83.7266E-03     85.2651E-03
            1702             104     83.7266E-03     85.2651E-03
            1702             105     82.0037E-03     82.4729E-03
            1684             105     82.0037E-03     82.4729E-03
            1684             106     79.4990E-03     80.6185E-03
            1666             106     79.4990E-03     80.6185E-03
            1666             107     77.4562E-03     77.8741E-03
            1648             107     77.4562E-03     77.8741E-03
            1648             108     74.6394E-03     75.5988E-03
            1630             108     74.6394E-03     75.5988E-03
            1630             109     71.6676E-03     71.6994E-03
            1612             109     71.6676E-03     71.6994E-03
            1612             110     68.0450E-03     67.0658E-03
            1594             110     68.0450E-03     67.0658E-03
            1576             111     68.1098E-03     70.0609E-03
            1594             111     68.1098E-03     70.0609E-03
            1558             112     70.8798E-03     71.3437E-03
            1576             112     70.8798E-03     71.3437E-03
            1558             113     69.0139E-03     68.9972E-03
            1540             113     69.0139E-03     68.9972E-03
            1540             114     66.5439E-03     67.7515E-03
            1522             114     66.5439E-03     67.7515E-03
            1504             115     64.6766E-03     65.1224E-03
            1522             115     64.6766E-03     65.1224E-03
            1504             116     62.4125E-03     63.1721E-03
            1486             116     62.4125E-03     63.1721E-03
            1486             117     60.3302E-03     60.8448E-03
            1468             117     60.3302E-03     60.8448E-03
            1468             118     57.9539E-03     58.3913E-03
            1450             118     57.9539E-03     58.3913E-03
            1450             119     55.4437E-03     55.9384E-03
            1432             119     55.4437E-03     55.9384E-03
            1414             120     52.4637E-03     52.5262E-03
            1432             120     52.4637E-03     52.5262E-03
            1396             121     49.1215E-03     48.1667E-03
            1414             121     49.1215E-03     48.1667E-03
            1396             122     49.4908E-03     50.9302E-03
            1378             122     49.4908E-03     50.9302E-03
            1378             123     51.8731E-03     52.4180E-03
            1360             123     51.8731E-03     52.4180E-03
            1360             124     49.8115E-03     49.7668E-03
            1342             124     49.8115E-03     49.7668E-03
            1324             125     47.2745E-03     48.1952E-03
            1342             125     47.2745E-03     48.1952E-03
            1324             126     45.3188E-03     45.6113E-03
            1306             126     45.3188E-03     45.6113E-03
            1306             127     43.0482E-03     43.5926E-03
            1288             127     43.0482E-03     43.5926E-03
            1270             128     40.9763E-03     41.2760E-03
            1288             128     40.9763E-03     41.2760E-03
            1252             129     38.6292E-03     38.9113E-03
            1270             129     38.6292E-03     38.9113E-03
            1252             130     36.2289E-03     36.4341E-03
            1234             130     36.2289E-03     36.4341E-03
            1216             131     33.3426E-03     33.3665E-03
            1234             131     33.3426E-03     33.3665E-03
            1198             132     30.2019E-03     29.3413E-03
            1216             132     30.2019E-03     29.3413E-03
            1180             133     30.8901E-03     31.8427E-03
            1198             133     30.8901E-03     31.8427E-03
            1180             134     32.9369E-03     33.5619E-03
            1162             134     32.9369E-03     33.5619E-03
            1144             135     30.7152E-03     30.6290E-03
            1162             135     30.7152E-03     30.6290E-03
            1126             136     28.1376E-03     28.7589E-03
            1144             136     28.1376E-03     28.7589E-03
            1108             137     26.1222E-03     26.2511E-03
            1126             137     26.1222E-03     26.2511E-03
            1090             138     23.8782E-03     24.1955E-03
            1108             138     23.8782E-03     24.1955E-03
            1090             139     21.8541E-03     21.9280E-03
            1072             139     21.8541E-03     21.9280E-03
            1054             140     19.5874E-03     19.6959E-03
            1072             140     19.5874E-03     19.6959E-03
            1036             141     17.3538E-03     17.2515E-03
            1054             141     17.3538E-03     17.2515E-03
            1018             142     14.6699E-03     14.5945E-03
            1036             142     14.6699E-03     14.5945E-03
            1000             143     11.7650E-03     11.1151E-03
            1018             143     11.7650E-03     11.1151E-03
            1000             144     12.2142E-03     12.7805E-03
             982             144     12.2142E-03     12.7805E-03
             982             145     13.3121E-03     13.9833E-03
             964             145     13.3121E-03     13.9833E-03
             964             146     10.8924E-03     10.6607E-03
             946             146     10.8924E-03     10.6607E-03
             928             147     8.22366E-03     8.44778E-03
             946             147     8.22366E-03     8.44778E-03
             910             148     6.21825E-03     5.93544E-03
             928             148     6.21825E-03     5.93544E-03
             892             149     4.39721E-03     4.07676E-03
             910             149     4.39721E-03     4.07676E-03
             892             150     3.41529E-03     4.21817E-03
             874             150     3.41529E-03     4.21817E-03
            4048             162     94.8607E-03     95.5314E-03
            4066             162     94.8607E-03     95.5314E-03
            4030             163     92.5839E-03     93.0911E-03
            4048             163     92.5839E-03     93.0911E-03
            4030             164     89.1648E-03     90.2983E-03
            4012             164     89.1648E-03     90.2983E-03
            3994             165     85.9057E-03     84.9762E-03
            4012             165     85.9057E-03     84.9762E-03
            3994             166     81.8169E-03     83.1345E-03
            3976             166     81.8169E-03     83.1345E-03
            3500             178     81.7542E-03     81.1056E-03
            3482             178     81.7542E-03     81.1056E-03
            3464             179     86.3810E-03     86.2770E-03
            3482             179     86.3810E-03     86.2770E-03
            3464             180     89.5476E-03     91.8617E-03
            3446             180     89.5476E-03     91.8617E-03
            3446             181     93.4378E-03     93.1856E-03
            3428             181     93.4378E-03     93.1856E-03
            3410             182     95.7088E-03     96.7392E-03
            3428             182     95.7088E-03     96.7392E-03
            6566             250     2.99700E-03     4.08740E-03
            6548             250     2.99700E-03     4.08740E-03
            6530             251     4.66602E-03     4.57075E-03
            6548             251     4.66602E-03     4.57075E-03
            6512             252     8.08417E-03     7.56069E-03
            6530             252     8.08417E-03     7.56069E-03
            6512             253     11.2341E-03     12.1415E-03
            6494             253     11.2341E-03     12.1415E-03
            6476             254     10.6539E-03     11.4687E-03
            6494             254     10.6539E-03     11.4687E-03
            6458             255     10.5304E-03     9.94060E-03
            6476             255     10.5304E-03     9.94060E-03
            6458             256     13.9360E-03     13.7753E-03
            6440             256     13.9360E-03     13.7753E-03
            6440             257     17.0741E-03     16.8693E-03
            6422             257     17.0741E-03     16.8693E-03
            6422             258     19.7254E-03     19.8067E-03
            6404             258     19.7254E-03     19.8067E-03
            6386             259     22.4405E-03     22.4743E-03
            6404             259     22.4405E-03     22.4743E-03
            6386             260     24.8801E-03     25.2104E-03
            6368             260     24.8801E-03     25.2104E-03
            6368             261     27.6031E-03     27.7186E-03
            6350             261     27.6031E-03     27.7186E-03
            6332             262     30.0651E-03     30.7566E-03
            6350             262     30.0651E-03     30.7566E-03
            6314             263     33.2288E-03     33.0915E-03
            6332             263     33.2288E-03     33.0915E-03
            6314             264     35.9615E-03     36.7702E-03
            6296             264     35.9615E-03     36.7702E-03
            6278             265     33.4878E-03     34.5650E-03
            6296             265     33.4878E-03     34.5650E-03
            6260             266     32.5240E-03     31.4690E-03
            6278             266     32.5240E-03     31.4690E-03
            6242             267     36.2978E-03     36.2383E-03
            6260             267     36.2978E-03     36.2383E-03
            6242             268     39.7335E-03     39.9496E-03
            6224             268     39.7335E-03     39.9496E-03
            6206             269     42.7119E-03     42.8853E-03
            6224             269     42.7119E-03     42.8853E-03
            6206             270     45.4211E-03     45.8507E-03
            6188             270     45.4211E-03     45.8507E-03
            6170             271     48.1829E-03     48.5093E-03
            6188             271     48.1829E-03     48.5093E-03
            6152             272     50.5909E-03     51.2793E-03
            6170             272     50.5909E-03     51.2793E-03
            6152             273     53.3463E-03     53.6806E-03
            6134             273     53.3463E-03     53.6806E-03
            6116             274     55.6948E-03     56.8175E-03
            6134             274     55.6948E-03     56.8175E-03
            6116             275     58.7944E-03     58.6999E-03
            6098             275     58.7944E-03     58.6999E-03
            6098             276     61.2925E-03     62.0121E-03
            6080             276     61.2925E-03     62.0121E-03
            6080             277     58.2077E-03     59.9643E-03
            6062             277     58.2077E-03     59.9643E-03
            6044             278     57.5475E-03     56.3578E-03
            6062             278     57.5475E-03     56.3578E-03
            6044             279     61.5940E-03     61.6424E-03
            6026             279     61.5940E-03     61.6424E-03
            6026             280     65.2321E-03     65.8017E-03
            6008             280     65.2321E-03     65.8017E-03
            5990             281     68.3000E-03     68.8140E-03
            6008             281     68.3000E-03     68.8140E-03
            5972             282     71.1967E-03     71.8017E-03
            5990             282     71.1967E-03     71.8017E-03
            5954             283     73.7397E-03     74.6439E-03
            5972             283     73.7397E-03     74.6439E-03
            5954             284     76.5152E-03     77.0411E-03
            5936             284     76.5152E-03     77.0411E-03
            5936             285     78.7999E-03     80.2498E-03
            5918             285     78.7999E-03     80.2498E-03
            5918             286     81.8480E-03     81.7856E-03
            5900             286     81.8480E-03     81.7856E-03
            5882             287     84.1538E-03     84.7520E-03
            5900             287     84.1538E-03     84.7520E-03
            5882             288     80.2949E-03     83.4208E-03
            5864             288     80.2949E-03     83.4208E-03
            2324             326     22.7082E-15     20.5918E-15
            2342             326     22.7082E-15     20.5918E-15
            2324             327     20.8621E-15     20.4020E-15
            2306             327     20.8621E-15     20.4020E-15
            2306             328     35.1245E-15     29.5019E-15
            2288             328     35.1245E-15     29.5019E-15
             857             329     2.24384E-03     2.50072E-03
            2287             329     2.24384E-03     2.50072E-03
            2288             329     2.24384E-03     2.50072E-03
             858             329     2.24384E-03     2.50072E-03
             859             330     2.40964E-03     2.40018E-03
            2287             330     2.40964E-03     2.40018E-03
            2286             330     2.40964E-03     2.40018E-03
             858             330     2.40964E-03     2.40018E-03
            2285             331     2.47955E-03     2.37648E-03
            2286             331     2.47955E-03     2.37648E-03
             860             331     2.47955E-03     2.37648E-03
             859             331     2.47955E-03     2.37648E-03
            2285             332     2.54447E-03     2.40067E-03
            2284             332     2.54447E-03     2.40067E-03
             861             332     2.54447E-03     2.40067E-03
             860             332     2.54447E-03     2.40067E-03
            2283             333     2.60871E-03     2.42427E-03
            2284             333     2.60871E-03     2.42427E-03
             862             333     2.60871E-03     2.42427E-03
             861             333     2.60871E-03     2.42427E-03
             863             334     2.67943E-03     2.46293E-03
             862             334     2.67943E-03     2.46293E-03
            2283             334     2.67943E-03     2.46293E-03
            2282             334     2.67943E-03     2.46293E-03
             864             335     2.75245E-03     2.50603E-03
             863             335     2.75245E-03     2.50603E-03
            2282             335     2.75245E-03     2.50603E-03
            2281             335     2.75245E-03     2.50603E-03
            2280             336     2.82840E-03     2.55218E-03
             864             336     2.82840E-03     2.55218E-03
            2281             336     2.82840E-03     2.55218E-03
             865             336     2.82840E-03     2.55218E-03
             866             337     2.90277E-03     2.60076E-03
            2279             337     2.90277E-03     2.60076E-03
            2280             337     2.90277E-03     2.60076E-03
             865             337     2.90277E-03     2.60076E-03
            2279             338     2.97001E-03     2.63956E-03
             866             338     2.97001E-03     2.63956E-03
            2278             338     2.97001E-03     2.63956E-03
             867             338     2.97001E-03     2.63956E-03
             868             339     3.01949E-03     2.66366E-03
            2277             339     3.01949E-03     2.66366E-03
             867             339     3.01949E-03     2.66366E-03
            2278             339     3.01949E-03     2.66366E-03
            2277             340     3.03615E-03     2.65101E-03
             869             340     3.03615E-03     2.65101E-03
            2276             340     3.03615E-03     2.65101E-03
             868             340     3.03615E-03     2.65101E-03
            2275             341     2.97820E-03     2.56218E-03
            2276             341     2.97820E-03     2.56218E-03
             869             341     2.97820E-03     2.56218E-03
             870             341     2.97820E-03     2.56218E-03
            2275             342     2.82975E-03     2.36769E-03
            2274             342     2.82975E-03     2.36769E-03
             871             342     2.82975E-03     2.36769E-03
             870             342     2.82975E-03     2.36769E-03
             872             343     2.44221E-03     1.91979E-03
            2274             343     2.44221E-03     1.91979E-03
             871             343     2.44221E-03     1.91979E-03
            2273             343     2.44221E-03     1.91979E-03
            2273             344     1.82880E-03     1.21195E-03
             873             344     1.82880E-03     1.21195E-03
             872             344     1.82880E-03     1.21195E-03
            2272             344     1.82880E-03     1.21195E-03
             874             345     1.55509E-03     1.68444E-03
            2272             345     1.55509E-03     1.68444E-03
             873             345     1.55509E-03     1.68444E-03
            2271             345     1.55509E-03     1.68444E-03
            3976             346     79.3906E-03     81.5988E-03
            1755             346     79.3906E-03     81.5988E-03
            1756             346     79.3906E-03     81.5988E-03
            3975             346     79.3906E-03     81.5988E-03
            3974             347     72.1449E-03     73.4057E-03
            3975             347     72.1449E-03     73.4057E-03
            1755             347     72.1449E-03     73.4057E-03
            1754             347     72.1449E-03     73.4057E-03
            1753             348     66.8033E-03     67.9271E-03
            3974             348     66.8033E-03     67.9271E-03
            1754             348     66.8033E-03     67.9271E-03
            3973             348     66.8033E-03     67.9271E-03
            3973             349     61.8140E-03     63.0260E-03
            3972             349     61.8140E-03     63.0260E-03
            1752             349     61.8140E-03     63.0260E-03
            1753             349     61.8140E-03     63.0260E-03
            3971             350     57.1724E-03     58.4550E-03
            3972             350     57.1724E-03     58.4550E-03
            1752             350     57.1724E-03     58.4550E-03
            1751             350     57.1724E-03     58.4550E-03
            1751             351     52.6245E-03     54.0298E-03
            3971             351     52.6245E-03     54.0298E-03
            3970             351     52.6245E-03     54.0298E-03
            1750             351     52.6245E-03     54.0298E-03
            1749             352     48.1880E-03     49.6643E-03
            3970             352     48.1880E-03     49.6643E-03
            1750             352     48.1880E-03     49.6643E-03
            3969             352     48.1880E-03     49.6643E-03
            3969             353     43.7717E-03     45.3239E-03
            3968             353     43.7717E-03     45.3239E-03
            1749             353     43.7717E-03     45.3239E-03
            1748             353     43.7717E-03     45.3239E-03
            1748             354     39.3910E-03     40.9818E-03
            3968             354     39.3910E-03     40.9818E-03
            1747             354     39.3910E-03     40.9818E-03
            3967             354     39.3910E-03     40.9818E-03
            1746             355     35.0109E-03     36.6332E-03
            1747             355     35.0109E-03     36.6332E-03
            3967             355     35.0109E-03     36.6332E-03
            3966             355     35.0109E-03     36.6332E-03
            3966             356     30.6447E-03     32.2725E-03
            1745             356     30.6447E-03     32.2725E-03
            1746             356     30.6447E-03     32.2725E-03
            3965             356     30.6447E-03     32.2725E-03
            3964             357     26.2863E-03     27.9022E-03
            3965             357     26.2863E-03     27.9022E-03
            1744             357     26.2863E-03     27.9022E-03
            1745             357     26.2863E-03     27.9022E-03
            1743             358     21.9508E-03     23.5252E-03
            3964             358     21.9508E-03     23.5252E-03
            1744             358     21.9508E-03     23.5252E-03
            3963             358     21.9508E-03     23.5252E-03
            1743             359     17.6586E-03     19.1532E-03
            1742             359     17.6586E-03     19.1532E-03
            3963             359     17.6586E-03     19.1532E-03
            3962             359     17.6586E-03     19.1532E-03
            3962             360     13.4477E-03     14.8044E-03
            1742             360     13.4477E-03     14.8044E-03
            1741             360     13.4477E-03     14.8044E-03
            3961             360     13.4477E-03     14.8044E-03
            1740             361     9.40077E-03     10.5696E-03
            3961             361     9.40077E-03     10.5696E-03
            1741             361     9.40077E-03     10.5696E-03
            3960             361     9.40077E-03     10.5696E-03
            3959             362     5.58095E-03     6.76793E-03
            3960             362     5.58095E-03     6.76793E-03
            1740             362     5.58095E-03     6.76793E-03
            1739             362     5.58095E-03     6.76793E-03
            1721             363     4.60490E-03     6.58089E-03
            1739             363     4.60490E-03     6.58089E-03
            1703             364     2.68806E-03     4.56528E-03
            1721             364     2.68806E-03     4.56528E-03
            1703             365     1.93094E-03     3.29264E-03
            1685             365     1.93094E-03     3.29264E-03
            1667             366     2.83974E-03     4.11044E-03
            1685             366     2.83974E-03     4.11044E-03
            1649             367     4.96402E-03     5.39760E-03
            1667             367     4.96402E-03     5.39760E-03
            1649             368     7.05259E-03     7.56541E-03
            1631             368     7.05259E-03     7.56541E-03
            1631             369     9.19203E-03     9.48784E-03
            1613             369     9.19203E-03     9.48784E-03
            1613             370     11.6684E-03     12.3373E-03
            1595             370     11.6684E-03     12.3373E-03
            1595             371     13.1930E-03     15.7146E-03
            1577             371     13.1930E-03     15.7146E-03
            1577             372     8.62435E-03     10.6631E-03
            1559             372     8.62435E-03     10.6631E-03
            1559             373     2.83912E-03     4.31991E-03
            1541             373     2.83912E-03     4.31991E-03
            1541             374     1.59422E-03     3.13364E-03
            1523             374     1.59422E-03     3.13364E-03
            1523             375     1.58028E-03     2.55392E-03
            1505             375     1.58028E-03     2.55392E-03
            1505             376     2.76784E-03     3.32648E-03
            1487             376     2.76784E-03     3.32648E-03
            1487             377     4.25484E-03     4.56465E-03
            1469             377     4.25484E-03     4.56465E-03
            1469             378     5.80154E-03     5.83867E-03
            1451             378     5.80154E-03     5.83867E-03
            1451             379     7.29375E-03     7.55464E-03
            1433             379     7.29375E-03     7.55464E-03
            1415             380     8.83915E-03     8.94428E-03
            1433             380     8.83915E-03     8.94428E-03
            1397             381     10.6564E-03     11.1298E-03
            1415             381     10.6564E-03     11.1298E-03
            1379             382     11.6694E-03     13.7852E-03
            1397             382     11.6694E-03     13.7852E-03
            1361             383     6.54983E-03     8.21972E-03
            1379             383     6.54983E-03     8.21972E-03
            1361             384     931.248E-06     1.91062E-03
            1343             384     931.248E-06     1.91062E-03
            1343             385     1.15091E-03     1.96039E-03
            1325             385     1.15091E-03     1.96039E-03
            1325             386     2.27337E-03     2.44647E-03
            1307             386     2.27337E-03     2.44647E-03
            1307             387     3.38116E-03     3.33741E-03
            1289             387     3.38116E-03     3.33741E-03
            1271             388     4.42768E-03     4.38192E-03
            1289             388     4.42768E-03     4.38192E-03
            1253             389     5.49782E-03     5.31813E-03
            1271             389     5.49782E-03     5.31813E-03
            1235             390     6.51611E-03     6.53515E-03
            1253             390     6.51611E-03     6.53515E-03
            1235             391     7.55200E-03     7.49576E-03
            1217             391     7.55200E-03     7.49576E-03
            1199             392     8.79641E-03     9.03538E-03
            1217             392     8.79641E-03     9.03538E-03
            1181             393     9.37002E-03     10.9713E-03
            1199             393     9.37002E-03     10.9713E-03
            1181             394     5.36091E-03     6.72547E-03
            1163             394     5.36091E-03     6.72547E-03
            1163             395     1.90632E-03     2.14543E-03
            1145             395     1.90632E-03     2.14543E-03
            1127             396     2.77345E-03     2.59624E-03
            1145             396     2.77345E-03     2.59624E-03
            1109             397     3.42048E-03     3.19624E-03
            1127             397     3.42048E-03     3.19624E-03
            1091             398     4.06781E-03     3.76520E-03
            1109             398     4.06781E-03     3.76520E-03
            1073             399     4.63652E-03     4.36408E-03
            1091             399     4.63652E-03     4.36408E-03
            1073             400     5.21096E-03     4.88771E-03
            1055             400     5.21096E-03     4.88771E-03
            1055             401     5.74856E-03     5.56832E-03
            1037             401     5.74856E-03     5.56832E-03
            1019             402     6.27095E-03     6.07857E-03
            1037             402     6.27095E-03     6.07857E-03
            1019             403     6.94041E-03     6.96168E-03
            1001             403     6.94041E-03     6.96168E-03
             983             404     7.07268E-03     8.17076E-03
            1001             404     7.07268E-03     8.17076E-03
             983             405     4.98714E-03     6.13169E-03
             965             405     4.98714E-03     6.13169E-03
             965             406     3.49876E-03     3.79971E-03
             947             406     3.49876E-03     3.79971E-03
             929             407     4.04468E-03     3.63118E-03
             947             407     4.04468E-03     3.63118E-03
             911             408     4.24005E-03     3.79731E-03
             929             408     4.24005E-03     3.79731E-03
             911             409     4.44239E-03     3.98652E-03
             893             409     4.44239E-03     3.98652E-03
             875             410     4.66894E-03     4.32440E-03
             893             410     4.66894E-03     4.32440E-03
             875             411     4.48406E-03     4.96977E-03
             857             411     4.48406E-03     4.96977E-03
            2342             497     29.4767E-15     34.4485E-15
            2341             497     29.4767E-15     34.4485E-15
            2340             498     31.0350E-15     36.2496E-15
            2341             498     31.0350E-15     36.2496E-15
            2340             499     22.6484E-15     26.0586E-15
            2339             499     22.6484E-15     26.0586E-15
            2339             500     23.8321E-15     21.9990E-15
            2338             500     23.8321E-15     21.9990E-15
            2337             501     21.6777E-15     16.8392E-15
            2338             501     21.6777E-15     16.8392E-15
            2337             502     12.2317E-15     13.8282E-15
            2336             502     12.2317E-15     13.8282E-15
            2336             503     10.5751E-15     12.2206E-15
            2335             503     10.5751E-15     12.2206E-15
            2334             504     9.28148E-15     14.2187E-15
            2335             504     9.28148E-15     14.2187E-15
            2334             505     17.0176E-15     20.9630E-15
            2333             505     17.0176E-15     20.9630E-15
            2332             506     43.0743E-15     45.1584E-15
            2333             506     43.0743E-15     45.1584E-15
            2331             507     39.3898E-15     39.9772E-15
            2332             507     39.3898E-15     39.9772E-15
            2331             508     16.8256E-15     15.2099E-15
            2330             508     16.8256E-15     15.2099E-15
            2330             509     12.9458E-15     12.0450E-15
            2329             509     12.9458E-15     12.0450E-15
            2328             510     12.5078E-15     12.7888E-15
            2329             510     12.5078E-15     12.7888E-15
            2327             511     16.7534E-15     18.5768E-15
            2328             511     16.7534E-15     18.5768E-15
            2327             512     21.6413E-15     24.9779E-15
            2326             512     21.6413E-15     24.9779E-15
            2326             513     18.5286E-15     22.8195E-15
            2325             513     18.5286E-15     22.8195E-15
            3977             548     5.48052E-03     6.93699E-03
            3959             548     5.48052E-03     6.93699E-03
            3977             549     8.27013E-03     9.99456E-03
            3995             549     8.27013E-03     9.99456E-03
            3995             550     6.00330E-03     6.79967E-03
            4013             550     6.00330E-03     6.79967E-03
            4031             551     3.11961E-03     4.43236E-03
            4013             551     3.11961E-03     4.43236E-03
            4031             552     2.11586E-03     4.33932E-03
            4049             552     2.11586E-03     4.33932E-03
            4050             570     4.85297E-03     6.80432E-03
            3394             570     4.85297E-03     6.80432E-03
            4049             570     4.85297E-03     6.80432E-03
            3393             570     4.85297E-03     6.80432E-03
            4051             571     9.30546E-03     11.9050E-03
            3395             571     9.30546E-03     11.9050E-03
            4050             571     9.30546E-03     11.9050E-03
            3394             571     9.30546E-03     11.9050E-03
            4051             572     14.1760E-03     17.0756E-03
            3395             572     14.1760E-03     17.0756E-03
            3396             572     14.1760E-03     17.0756E-03
            4052             572     14.1760E-03     17.0756E-03
            3396             573     19.1903E-03     22.1929E-03
            3397             573     19.1903E-03     22.1929E-03
            4052             573     19.1903E-03     22.1929E-03
            4053             573     19.1903E-03     22.1929E-03
            4054             574     24.2689E-03     27.2793E-03
            3397             574     24.2689E-03     27.2793E-03
            4053             574     24.2689E-03     27.2793E-03
            3398             574     24.2689E-03     27.2793E-03
            3398             575     29.3592E-03     32.3534E-03
            3399             575     29.3592E-03     32.3534E-03
            4054             575     29.3592E-03     32.3534E-03
            4055             575     29.3592E-03     32.3534E-03
            3400             576     34.4490E-03     37.4264E-03
            4055             576     34.4490E-03     37.4264E-03
            4056             576     34.4490E-03     37.4264E-03
            3399             576     34.4490E-03     37.4264E-03
            4056             577     39.5060E-03     42.4866E-03
            3401             577     39.5060E-03     42.4866E-03
            3400             577     39.5060E-03     42.4866E-03
            4057             577     39.5060E-03     42.4866E-03
            3402             578     44.5547E-03     47.5228E-03
            4057             578     44.5547E-03     47.5228E-03
            3401             578     44.5547E-03     47.5228E-03
            4058             578     44.5547E-03     47.5228E-03
            3402             579     49.5376E-03     52.5221E-03
            4059             579     49.5376E-03     52.5221E-03
            3403             579     49.5376E-03     52.5221E-03
            4058             579     49.5376E-03     52.5221E-03
            3404             580     54.5080E-03     57.4625E-03
            3403             580     54.5080E-03     57.4625E-03
            4060             580     54.5080E-03     57.4625E-03
            4059             580     54.5080E-03     57.4625E-03
            4061             581     59.3558E-03     62.3257E-03
            3404             581     59.3558E-03     62.3257E-03
            3405             581     59.3558E-03     62.3257E-03
            4060             581     59.3558E-03     62.3257E-03
            3405             582     64.2391E-03     67.0869E-03
            4062             582     64.2391E-03     67.0869E-03
            4061             582     64.2391E-03     67.0869E-03
            3406             582     64.2391E-03     67.0869E-03
            3407             583     68.9513E-03     71.7591E-03
            4063             583     68.9513E-03     71.7591E-03
            4062             583     68.9513E-03     71.7591E-03
            3406             583     68.9513E-03     71.7591E-03
            3408             584     74.0286E-03     76.5450E-03
            4063             584     74.0286E-03     76.5450E-03
            3407             584     74.0286E-03     76.5450E-03
            4064             584     74.0286E-03     76.5450E-03
            3409             585     79.1873E-03     81.7442E-03
            4065             585     79.1873E-03     81.7442E-03
            4064             585     79.1873E-03     81.7442E-03
            3408             585     79.1873E-03     81.7442E-03
            3409             586     88.0008E-03     92.4891E-03
            4066             586     88.0008E-03     92.4891E-03
            3410             586     88.0008E-03     92.4891E-03
            4065             586     88.0008E-03     92.4891E-03
            3500             587     76.4072E-03     76.7989E-03
            5864             587     76.4072E-03     76.7989E-03
            5863             587     76.4072E-03     76.7989E-03
            3499             587     76.4072E-03     76.7989E-03
            5863             588     73.2356E-03     73.2357E-03
            5862             588     73.2356E-03     73.2357E-03
            3499             588     73.2356E-03     73.2357E-03
            3498             588     73.2356E-03     73.2357E-03
            3498             589     69.5874E-03     69.6676E-03
            3497             589     69.5874E-03     69.6676E-03
            5861             589     69.5874E-03     69.6676E-03
            5862             589     69.5874E-03     69.6676E-03
            5861             590     65.4581E-03     65.6908E-03
            3496             590     65.4581E-03     65.6908E-03
            5860             590     65.4581E-03     65.6908E-03
            3497             590     65.4581E-03     65.6908E-03
            3495             591     61.1925E-03     61.4797E-03
            3496             591     61.1925E-03     61.4797E-03
            5860             591     61.1925E-03     61.4797E-03
            5859             591     61.1925E-03     61.4797E-03
            3495             592     56.7566E-03     57.0953E-03
            5859             592     56.7566E-03     57.0953E-03
            5858             592     56.7566E-03     57.0953E-03
            3494             592     56.7566E-03     57.0953E-03
            5857             593     52.2724E-03     52.6198E-03
            3493             593     52.2724E-03     52.6198E-03
            5858             593     52.2724E-03     52.6198E-03
            3494             593     52.2724E-03     52.6198E-03
            3493             594     47.7368E-03     48.1010E-03
            5857             594     47.7368E-03     48.1010E-03
            5856             594     47.7368E-03     48.1010E-03
            3492             594     47.7368E-03     48.1010E-03
            5856             595     43.1803E-03     43.5370E-03
            5855             595     43.1803E-03     43.5370E-03
            3492             595     43.1803E-03     43.5370E-03
            3491             595     43.1803E-03     43.5370E-03
            5855             596     38.6072E-03     38.9744E-03
            3490             596     38.6072E-03     38.9744E-03
            3491             596     38.6072E-03     38.9744E-03
            5854             596     38.6072E-03     38.9744E-03
            5854             597     34.0389E-03     34.4061E-03
            3489             597     34.0389E-03     34.4061E-03
            5853             597     34.0389E-03     34.4061E-03
            3490             597     34.0389E-03     34.4061E-03
            3489             598     29.4873E-03     29.8690E-03
            5852             598     29.4873E-03     29.8690E-03
            5853             598     29.4873E-03     29.8690E-03
            3488             598     29.4873E-03     29.8690E-03
            5851             599     24.9799E-03     25.3728E-03
            5852             599     24.9799E-03     25.3728E-03
            3488             599     24.9799E-03     25.3728E-03
            3487             599     24.9799E-03     25.3728E-03
            3487             600     20.5568E-03     20.9666E-03
            3486             600     20.5568E-03     20.9666E-03
            5850             600     20.5568E-03     20.9666E-03
            5851             600     20.5568E-03     20.9666E-03
            5850             601     16.2794E-03     16.6845E-03
            5849             601     16.2794E-03     16.6845E-03
            3485             601     16.2794E-03     16.6845E-03
            3486             601     16.2794E-03     16.6845E-03
            5848             602     12.2637E-03     12.7375E-03
            3485             602     12.2637E-03     12.7375E-03
            5849             602     12.2637E-03     12.7375E-03
            3484             602     12.2637E-03     12.7375E-03
            3484             603     8.40147E-03     9.49659E-03
            5847             603     8.40147E-03     9.49659E-03
            5848             603     8.40147E-03     9.49659E-03
            3483             603     8.40147E-03     9.49659E-03
            3465             604     10.4626E-03     12.5488E-03
            3483             604     10.4626E-03     12.5488E-03
            3465             605     8.37364E-03     8.97208E-03
            3447             605     8.37364E-03     8.97208E-03
            3429             606     5.51097E-03     5.76619E-03
            3447             606     5.51097E-03     5.76619E-03
            3411             607     2.70021E-03     4.76526E-03
            3429             607     2.70021E-03     4.76526E-03
            3393             608     2.16618E-03     4.25550E-03
            3411             608     2.16618E-03     4.25550E-03
            5865             692     2.87508E-03     4.01137E-03
            5847             692     2.87508E-03     4.01137E-03
            5883             693     3.08607E-03     4.85093E-03
            5865             693     3.08607E-03     4.85093E-03
            5901             694     1.75287E-03     3.60196E-03
            5883             694     1.75287E-03     3.60196E-03
            5919             695     1.99063E-03     3.06935E-03
            5901             695     1.99063E-03     3.06935E-03
            5919             696     3.50316E-03     4.06426E-03
            5937             696     3.50316E-03     4.06426E-03
            5937             697     5.26261E-03     5.57309E-03
            5955             697     5.26261E-03     5.57309E-03
            5973             698     7.09303E-03     7.09587E-03
            5955             698     7.09303E-03     7.09587E-03
            5973             699     8.84900E-03     9.12985E-03
            5991             699     8.84900E-03     9.12985E-03
            6009             700     10.6688E-03     10.7690E-03
            5991             700     10.6688E-03     10.7690E-03
            6027             701     12.7920E-03     13.3616E-03
            6009             701     12.7920E-03     13.3616E-03
            6027             702     13.9450E-03     16.4888E-03
            6045             702     13.9450E-03     16.4888E-03
            6045             703     7.64166E-03     9.63859E-03
            6063             703     7.64166E-03     9.63859E-03
            6081             704     1.05553E-03     2.03315E-03
            6063             704     1.05553E-03     2.03315E-03
            6099             705     1.56550E-03     2.29596E-03
            6081             705     1.56550E-03     2.29596E-03
            6117             706     2.88420E-03     2.98526E-03
            6099             706     2.88420E-03     2.98526E-03
            6117             707     4.06383E-03     4.02215E-03
            6135             707     4.06383E-03     4.02215E-03
            6153             708     5.24545E-03     5.06259E-03
            6135             708     5.24545E-03     5.06259E-03
            6153             709     6.31844E-03     6.18681E-03
            6171             709     6.31844E-03     6.18681E-03
            6189             710     7.43043E-03     7.19261E-03
            6171             710     7.43043E-03     7.19261E-03
            6207             711     8.49351E-03     8.49509E-03
            6189             711     8.49351E-03     8.49509E-03
            6225             712     9.58221E-03     9.50936E-03
            6207             712     9.58221E-03     9.50936E-03
            6243             713     10.9329E-03     11.2216E-03
            6225             713     10.9329E-03     11.2216E-03
            6243             714     11.4617E-03     13.4235E-03
            6261             714     11.4617E-03     13.4235E-03
            6261             715     6.81551E-03     8.52377E-03
            6279             715     6.81551E-03     8.52377E-03
            6279             716     2.88991E-03     3.20721E-03
            6297             716     2.88991E-03     3.20721E-03
            6297             717     3.85592E-03     3.59229E-03
            6315             717     3.85592E-03     3.59229E-03
            6333             718     4.50924E-03     4.18770E-03
            6315             718     4.50924E-03     4.18770E-03
            6333             719     5.18113E-03     4.77703E-03
            6351             719     5.18113E-03     4.77703E-03
            6351             720     5.76354E-03     5.38322E-03
            6369             720     5.76354E-03     5.38322E-03
            6369             721     6.35052E-03     5.92251E-03
            6387             721     6.35052E-03     5.92251E-03
            6405             722     6.89486E-03     6.62896E-03
            6387             722     6.89486E-03     6.62896E-03
            6423             723     7.41617E-03     7.14574E-03
            6405             723     7.41617E-03     7.14574E-03
            6423             724     8.09458E-03     8.08275E-03
            6441             724     8.09458E-03     8.08275E-03
            6459             725     8.14229E-03     9.39175E-03
            6441             725     8.14229E-03     9.39175E-03
            6477             726     5.94426E-03     7.19910E-03
            6459             726     5.94426E-03     7.19910E-03
            6495             727     4.51679E-03     4.77596E-03
            6477             727     4.51679E-03     4.77596E-03
            6495             728     5.12633E-03     4.38870E-03
            6513             728     5.12633E-03     4.38870E-03
            6531             729     5.31408E-03     4.61992E-03
            6513             729     5.31408E-03     4.61992E-03
            6531             730     5.04104E-03     5.38800E-03
            6549             730     5.04104E-03     5.38800E-03
            5067             748     2.49374E-03     2.69918E-03
            6550             748     2.49374E-03     2.69918E-03
            6549             748     2.49374E-03     2.69918E-03
            5068             748     2.49374E-03     2.69918E-03
            5068             749     2.66752E-03     2.61569E-03
            6551             749     2.66752E-03     2.61569E-03
            6550             749     2.66752E-03     2.61569E-03
            5069             749     2.66752E-03     2.61569E-03
            6551             750     2.73220E-03     2.57491E-03
            6552             750     2.73220E-03     2.57491E-03
            5070             750     2.73220E-03     2.57491E-03
            5069             750     2.73220E-03     2.57491E-03
            6553             751     2.79426E-03     2.59647E-03
            5071             751     2.79426E-03     2.59647E-03
            5070             751     2.79426E-03     2.59647E-03
            6552             751     2.79426E-03     2.59647E-03
            5072             752     2.84856E-03     2.60483E-03
            6553             752     2.84856E-03     2.60483E-03
            5071             752     2.84856E-03     2.60483E-03
            6554             752     2.84856E-03     2.60483E-03
            5072             753     2.91280E-03     2.62404E-03
            6554             753     2.91280E-03     2.62404E-03
            5073             753     2.91280E-03     2.62404E-03
            6555             753     2.91280E-03     2.62404E-03
            5073             754     2.97948E-03     2.64960E-03
            6556             754     2.97948E-03     2.64960E-03
            6555             754     2.97948E-03     2.64960E-03
            5074             754     2.97948E-03     2.64960E-03
            6556             755     3.05147E-03     2.67968E-03
            6557             755     3.05147E-03     2.67968E-03
            5074             755     3.05147E-03     2.67968E-03
            5075             755     3.05147E-03     2.67968E-03
            6558             756     3.12511E-03     2.71837E-03
            5075             756     3.12511E-03     2.71837E-03
            6557             756     3.12511E-03     2.71837E-03
            5076             756     3.12511E-03     2.71837E-03
            5076             757     3.20190E-03     2.75544E-03
            6558             757     3.20190E-03     2.75544E-03
            6559             757     3.20190E-03     2.75544E-03
            5077             757     3.20190E-03     2.75544E-03
            5077             758     3.27733E-03     2.80067E-03
            5078             758     3.27733E-03     2.80067E-03
            6559             758     3.27733E-03     2.80067E-03
            6560             758     3.27733E-03     2.80067E-03
            5078             759     3.34571E-03     2.82879E-03
            5079             759     3.34571E-03     2.82879E-03
            6560             759     3.34571E-03     2.82879E-03
            6561             759     3.34571E-03     2.82879E-03
            6561             760     3.39165E-03     2.83882E-03
            5079             760     3.39165E-03     2.83882E-03
            6562             760     3.39165E-03     2.83882E-03
            5080             760     3.39165E-03     2.83882E-03
            5080             761     3.36560E-03     2.77842E-03
            5081             761     3.36560E-03     2.77842E-03
            6563             761     3.36560E-03     2.77842E-03
            6562             761     3.36560E-03     2.77842E-03
            5082             762     3.08506E-03     2.45447E-03
            6563             762     3.08506E-03     2.45447E-03
            5081             762     3.08506E-03     2.45447E-03
            6564             762     3.08506E-03     2.45447E-03
            6565             763     2.54564E-03     1.82370E-03
            5083             763     2.54564E-03     1.82370E-03
            5082             763     2.54564E-03     1.82370E-03
            6564             763     2.54564E-03     1.82370E-03
            6566             764     1.80201E-03     1.99955E-03
            6565             764     1.80201E-03     1.99955E-03
            5084             764     1.80201E-03     1.99955E-03
            5083             764     1.80201E-03     1.99955E-03
            5084             765     22.0818E-15     22.0891E-15
            5102             765     22.0818E-15     22.0891E-15
            5120             766     20.6751E-15     21.0828E-15
            5102             766     20.6751E-15     21.0828E-15
            5120             767     16.3292E-15     16.4683E-15
            5138             767     16.3292E-15     16.4683E-15
            5156             768     19.0860E-15     18.0917E-15
            5138             768     19.0860E-15     18.0917E-15
            5174             769     24.0757E-15     24.6839E-15
            5156             769     24.0757E-15     24.6839E-15
            5173             770     20.4581E-15     23.6892E-15
            5174             770     20.4581E-15     23.6892E-15
            5172             771     12.9755E-15     16.2464E-15
            5173             771     12.9755E-15     16.2464E-15
            5172             772     11.9124E-15     11.6481E-15
            5171             772     11.9124E-15     11.6481E-15
            5170             773     19.2305E-15     20.4219E-15
            5171             773     19.2305E-15     20.4219E-15
            5169             774     17.8303E-15     18.5429E-15
            5170             774     17.8303E-15     18.5429E-15
            5168             775     11.4214E-15     9.75773E-15
            5169             775     11.4214E-15     9.75773E-15
            5168             776     11.6539E-15     14.8426E-15
            5167             776     11.6539E-15     14.8426E-15
            5167             777     6.42199E-15     14.0536E-15
            5166             777     6.42199E-15     14.0536E-15
            5166             778     8.08878E-15     10.4707E-15
            5165             778     8.08878E-15     10.4707E-15
            5164             779     18.5810E-15     15.0647E-15
            5165             779     18.5810E-15     15.0647E-15
            5163             780     23.3609E-15     20.0040E-15
            5164             780     23.3609E-15     20.0040E-15
            5162             781     15.4522E-15     10.9575E-15
            5163             781     15.4522E-15     10.9575E-15
            5162             782     14.3206E-15     11.6378E-15
            5161             782     14.3206E-15     11.6378E-15
            5161             783     22.8025E-15     23.3908E-15
            5160             783     22.8025E-15     23.3908E-15
            5159             784     28.4854E-15     25.9119E-15
            5160             784     28.4854E-15     25.9119E-15
            5159             785     35.7807E-15     29.2667E-15
            5158             785     35.7807E-15     29.2667E-15
            5157             786     26.4652E-15     21.9959E-15
            5158             786     26.4652E-15     21.9959E-15
            5157             787     12.7133E-15     10.9325E-15
            5139             787     12.7133E-15     10.9325E-15
            5121             788     26.6275E-15     25.5173E-15
            5139             788     26.6275E-15     25.5173E-15
            5103             789     31.6377E-15     31.9484E-15
            5121             789     31.6377E-15     31.9484E-15
            5085             790     26.5269E-15     28.8836E-15
            5103             790     26.5269E-15     28.8836E-15
            5085             791     32.5305E-15     36.4293E-15
            5067             791     32.5305E-15     36.4293E-15
             876            1518     4.53653E-03     4.88541E-03
             858            1518     4.53653E-03     4.88541E-03
             875            1518     4.53653E-03     4.88541E-03
             857            1518     4.53653E-03     4.88541E-03
             876            1519     4.67282E-03     4.73930E-03
             877            1519     4.67282E-03     4.73930E-03
             859            1519     4.67282E-03     4.73930E-03
             858            1519     4.67282E-03     4.73930E-03
             878            1520     4.82930E-03     4.68735E-03
             877            1520     4.82930E-03     4.68735E-03
             859            1520     4.82930E-03     4.68735E-03
             860            1520     4.82930E-03     4.68735E-03
             879            1521     4.95917E-03     4.72019E-03
             860            1521     4.95917E-03     4.72019E-03
             878            1521     4.95917E-03     4.72019E-03
             861            1521     4.95917E-03     4.72019E-03
             879            1522     5.08921E-03     4.78230E-03
             862            1522     5.08921E-03     4.78230E-03
             861            1522     5.08921E-03     4.78230E-03
             880            1522     5.08921E-03     4.78230E-03
             880            1523     5.23061E-03     4.86907E-03
             863            1523     5.23061E-03     4.86907E-03
             881            1523     5.23061E-03     4.86907E-03
             862            1523     5.23061E-03     4.86907E-03
             882            1524     5.38150E-03     4.96930E-03
             881            1524     5.38150E-03     4.96930E-03
             864            1524     5.38150E-03     4.96930E-03
             863            1524     5.38150E-03     4.96930E-03
             864            1525     5.54218E-03     5.08331E-03
             865            1525     5.54218E-03     5.08331E-03
             883            1525     5.54218E-03     5.08331E-03
             882            1525     5.54218E-03     5.08331E-03
             866            1526     5.70632E-03     5.20275E-03
             865            1526     5.70632E-03     5.20275E-03
             884            1526     5.70632E-03     5.20275E-03
             883            1526     5.70632E-03     5.20275E-03
             866            1527     5.86794E-03     5.32051E-03
             867            1527     5.86794E-03     5.32051E-03
             884            1527     5.86794E-03     5.32051E-03
             885            1527     5.86794E-03     5.32051E-03
             867            1528     6.00910E-03     5.42032E-03
             886            1528     6.00910E-03     5.42032E-03
             885            1528     6.00910E-03     5.42032E-03
             868            1528     6.00910E-03     5.42032E-03
             868            1529     6.10755E-03     5.47069E-03
             887            1529     6.10755E-03     5.47069E-03
             869            1529     6.10755E-03     5.47069E-03
             886            1529     6.10755E-03     5.47069E-03
             887            1530     6.09906E-03     5.41836E-03
             888            1530     6.09906E-03     5.41836E-03
             869            1530     6.09906E-03     5.41836E-03
             870            1530     6.09906E-03     5.41836E-03
             889            1531     5.88359E-03     5.14579E-03
             870            1531     5.88359E-03     5.14579E-03
             871            1531     5.88359E-03     5.14579E-03
             888            1531     5.88359E-03     5.14579E-03
             890            1532     5.28966E-03     4.46784E-03
             871            1532     5.28966E-03     4.46784E-03
             889            1532     5.28966E-03     4.46784E-03
             872            1532     5.28966E-03     4.46784E-03
             873            1533     3.89497E-03     3.05139E-03
             891            1533     3.89497E-03     3.05139E-03
             872            1533     3.89497E-03     3.05139E-03
             890            1533     3.89497E-03     3.05139E-03
             892            1534     3.16784E-03     3.16060E-03
             874            1534     3.16784E-03     3.16060E-03
             891            1534     3.16784E-03     3.16060E-03
             873            1534     3.16784E-03     3.16060E-03
             875            1535     4.58380E-03     4.42949E-03
             876            1535     4.58380E-03     4.42949E-03
             894            1535     4.58380E-03     4.42949E-03
             893            1535     4.58380E-03     4.42949E-03
             876            1536     4.50932E-03     4.53319E-03
             894            1536     4.50932E-03     4.53319E-03
             895            1536     4.50932E-03     4.53319E-03
             877            1536     4.50932E-03     4.53319E-03
             896            1537     4.58702E-03     4.52996E-03
             877            1537     4.58702E-03     4.52996E-03
             895            1537     4.58702E-03     4.52996E-03
             878            1537     4.58702E-03     4.52996E-03
             897            1538     4.71091E-03     4.57065E-03
             878            1538     4.71091E-03     4.57065E-03
             896            1538     4.71091E-03     4.57065E-03
             879            1538     4.71091E-03     4.57065E-03
             898            1539     4.83310E-03     4.65872E-03
             897            1539     4.83310E-03     4.65872E-03
             879            1539     4.83310E-03     4.65872E-03
             880            1539     4.83310E-03     4.65872E-03
             881            1540     4.97683E-03     4.76563E-03
             899            1540     4.97683E-03     4.76563E-03
             898            1540     4.97683E-03     4.76563E-03
             880            1540     4.97683E-03     4.76563E-03
             899            1541     5.13735E-03     4.89791E-03
             881            1541     5.13735E-03     4.89791E-03
             882            1541     5.13735E-03     4.89791E-03
             900            1541     5.13735E-03     4.89791E-03
             900            1542     5.31499E-03     5.04896E-03
             883            1542     5.31499E-03     5.04896E-03
             882            1542     5.31499E-03     5.04896E-03
             901            1542     5.31499E-03     5.04896E-03
             884            1543     5.50962E-03     5.21949E-03
             902            1543     5.50962E-03     5.21949E-03
             883            1543     5.50962E-03     5.21949E-03
             901            1543     5.50962E-03     5.21949E-03
             903            1544     5.71838E-03     5.40521E-03
             902            1544     5.71838E-03     5.40521E-03
             885            1544     5.71838E-03     5.40521E-03
             884            1544     5.71838E-03     5.40521E-03
             904            1545     5.93881E-03     5.60346E-03
             885            1545     5.93881E-03     5.60346E-03
             886            1545     5.93881E-03     5.60346E-03
             903            1545     5.93881E-03     5.60346E-03
             905            1546     6.14472E-03     5.78876E-03
             886            1546     6.14472E-03     5.78876E-03
             887            1546     6.14472E-03     5.78876E-03
             904            1546     6.14472E-03     5.78876E-03
             887            1547     6.31136E-03     5.93298E-03
             905            1547     6.31136E-03     5.93298E-03
             906            1547     6.31136E-03     5.93298E-03
             888            1547     6.31136E-03     5.93298E-03
             889            1548     6.27356E-03     5.90106E-03
             906            1548     6.27356E-03     5.90106E-03
             907            1548     6.27356E-03     5.90106E-03
             888            1548     6.27356E-03     5.90106E-03
             890            1549     5.85179E-03     5.50724E-03
             908            1549     5.85179E-03     5.50724E-03
             889            1549     5.85179E-03     5.50724E-03
             907            1549     5.85179E-03     5.50724E-03
             909            1550     4.46204E-03     4.27323E-03
             890            1550     4.46204E-03     4.27323E-03
             891            1550     4.46204E-03     4.27323E-03
             908            1550     4.46204E-03     4.27323E-03
             910            1551     3.89098E-03     3.70800E-03
             891            1551     3.89098E-03     3.70800E-03
             909            1551     3.89098E-03     3.70800E-03
             892            1551     3.89098E-03     3.70800E-03
             893            1552     4.43706E-03     4.05276E-03
             894            1552     4.43706E-03     4.05276E-03
             912            1552     4.43706E-03     4.05276E-03
             911            1552     4.43706E-03     4.05276E-03
             894            1553     4.40800E-03     4.20661E-03
             912            1553     4.40800E-03     4.20661E-03
             913            1553     4.40800E-03     4.20661E-03
             895            1553     4.40800E-03     4.20661E-03
             914            1554     4.39769E-03     4.34455E-03
             896            1554     4.39769E-03     4.34455E-03
             895            1554     4.39769E-03     4.34455E-03
             913            1554     4.39769E-03     4.34455E-03
             915            1555     4.46423E-03     4.44027E-03
             914            1555     4.46423E-03     4.44027E-03
             896            1555     4.46423E-03     4.44027E-03
             897            1555     4.46423E-03     4.44027E-03
             898            1556     4.58262E-03     4.54733E-03
             897            1556     4.58262E-03     4.54733E-03
             915            1556     4.58262E-03     4.54733E-03
             916            1556     4.58262E-03     4.54733E-03
             898            1557     4.72560E-03     4.68205E-03
             899            1557     4.72560E-03     4.68205E-03
             916            1557     4.72560E-03     4.68205E-03
             917            1557     4.72560E-03     4.68205E-03
             899            1558     4.89370E-03     4.84206E-03
             900            1558     4.89370E-03     4.84206E-03
             918            1558     4.89370E-03     4.84206E-03
             917            1558     4.89370E-03     4.84206E-03
             901            1559     5.08453E-03     5.02726E-03
             900            1559     5.08453E-03     5.02726E-03
             918            1559     5.08453E-03     5.02726E-03
             919            1559     5.08453E-03     5.02726E-03
             902            1560     5.30030E-03     5.23794E-03
             901            1560     5.30030E-03     5.23794E-03
             919            1560     5.30030E-03     5.23794E-03
             920            1560     5.30030E-03     5.23794E-03
             903            1561     5.54149E-03     5.47509E-03
             921            1561     5.54149E-03     5.47509E-03
             902            1561     5.54149E-03     5.47509E-03
             920            1561     5.54149E-03     5.47509E-03
             903            1562     5.80521E-03     5.73475E-03
             921            1562     5.80521E-03     5.73475E-03
             922            1562     5.80521E-03     5.73475E-03
             904            1562     5.80521E-03     5.73475E-03
             922            1563     6.08658E-03     6.01401E-03
             923            1563     6.08658E-03     6.01401E-03
             905            1563     6.08658E-03     6.01401E-03
             904            1563     6.08658E-03     6.01401E-03
             906            1564     6.32695E-03     6.26176E-03
             924            1564     6.32695E-03     6.26176E-03
             923            1564     6.32695E-03     6.26176E-03
             905            1564     6.32695E-03     6.26176E-03
             907            1565     6.48386E-03     6.42568E-03
             925            1565     6.48386E-03     6.42568E-03
             906            1565     6.48386E-03     6.42568E-03
             924            1565     6.48386E-03     6.42568E-03
             926            1566     6.18563E-03     6.24912E-03
             908            1566     6.18563E-03     6.24912E-03
             925            1566     6.18563E-03     6.24912E-03
             907            1566     6.18563E-03     6.24912E-03
             908            1567     5.35669E-03     5.54078E-03
             926            1567     5.35669E-03     5.54078E-03
             909            1567     5.35669E-03     5.54078E-03
             927            1567     5.35669E-03     5.54078E-03
             909            1568     5.55216E-03     5.50244E-03
             927            1568     5.55216E-03     5.50244E-03
             928            1568     5.55216E-03     5.50244E-03
             910            1568     5.55216E-03     5.50244E-03
             912            1569     4.23106E-03     3.84629E-03
             911            1569     4.23106E-03     3.84629E-03
             930            1569     4.23106E-03     3.84629E-03
             929            1569     4.23106E-03     3.84629E-03
             912            1570     4.19720E-03     3.99743E-03
             930            1570     4.19720E-03     3.99743E-03
             913            1570     4.19720E-03     3.99743E-03
             931            1570     4.19720E-03     3.99743E-03
             932            1571     4.17396E-03     4.17796E-03
             931            1571     4.17396E-03     4.17796E-03
             914            1571     4.17396E-03     4.17796E-03
             913            1571     4.17396E-03     4.17796E-03
             932            1572     4.22061E-03     4.31359E-03
             915            1572     4.22061E-03     4.31359E-03
             933            1572     4.22061E-03     4.31359E-03
             914            1572     4.22061E-03     4.31359E-03
             933            1573     4.33076E-03     4.44607E-03
             916            1573     4.33076E-03     4.44607E-03
             934            1573     4.33076E-03     4.44607E-03
             915            1573     4.33076E-03     4.44607E-03
             917            1574     4.47281E-03     4.60720E-03
             934            1574     4.47281E-03     4.60720E-03
             916            1574     4.47281E-03     4.60720E-03
             935            1574     4.47281E-03     4.60720E-03
             935            1575     4.64188E-03     4.79096E-03
             918            1575     4.64188E-03     4.79096E-03
             917            1575     4.64188E-03     4.79096E-03
             936            1575     4.64188E-03     4.79096E-03
             936            1576     4.83833E-03     5.00098E-03
             919            1576     4.83833E-03     5.00098E-03
             918            1576     4.83833E-03     5.00098E-03
             937            1576     4.83833E-03     5.00098E-03
             919            1577     5.05933E-03     5.23418E-03
             938            1577     5.05933E-03     5.23418E-03
             920            1577     5.05933E-03     5.23418E-03
             937            1577     5.05933E-03     5.23418E-03
             920            1578     5.30771E-03     5.49311E-03
             921            1578     5.30771E-03     5.49311E-03
             939            1578     5.30771E-03     5.49311E-03
             938            1578     5.30771E-03     5.49311E-03
             939            1579     5.57918E-03     5.77600E-03
             922            1579     5.57918E-03     5.77600E-03
             940            1579     5.57918E-03     5.77600E-03
             921            1579     5.57918E-03     5.77600E-03
             922            1580     5.87039E-03     6.07714E-03
             941            1580     5.87039E-03     6.07714E-03
             940            1580     5.87039E-03     6.07714E-03
             923            1580     5.87039E-03     6.07714E-03
             923            1581     6.15847E-03     6.38473E-03
             924            1581     6.15847E-03     6.38473E-03
             942            1581     6.15847E-03     6.38473E-03
             941            1581     6.15847E-03     6.38473E-03
             943            1582     6.38645E-03     6.63917E-03
             924            1582     6.38645E-03     6.63917E-03
             925            1582     6.38645E-03     6.63917E-03
             942            1582     6.38645E-03     6.63917E-03
             926            1583     6.54144E-03     6.80949E-03
             925            1583     6.54144E-03     6.80949E-03
             944            1583     6.54144E-03     6.80949E-03
             943            1583     6.54144E-03     6.80949E-03
             944            1584     6.68425E-03     6.88983E-03
             945            1584     6.68425E-03     6.88983E-03
             926            1584     6.68425E-03     6.88983E-03
             927            1584     6.68425E-03     6.88983E-03
             928            1585     7.49352E-03     7.67531E-03
             945            1585     7.49352E-03     7.67531E-03
             946            1585     7.49352E-03     7.67531E-03
             927            1585     7.49352E-03     7.67531E-03
             948            1586     3.96631E-03     3.75540E-03
             947            1586     3.96631E-03     3.75540E-03
             929            1586     3.96631E-03     3.75540E-03
             930            1586     3.96631E-03     3.75540E-03
             949            1587     3.87022E-03     3.94003E-03
             931            1587     3.87022E-03     3.94003E-03
             930            1587     3.87022E-03     3.94003E-03
             948            1587     3.87022E-03     3.94003E-03
             949            1588     3.89044E-03     4.05228E-03
             932            1588     3.89044E-03     4.05228E-03
             950            1588     3.89044E-03     4.05228E-03
             931            1588     3.89044E-03     4.05228E-03
             950            1589     3.97154E-03     4.18707E-03
             933            1589     3.97154E-03     4.18707E-03
             932            1589     3.97154E-03     4.18707E-03
             951            1589     3.97154E-03     4.18707E-03
             934            1590     4.07379E-03     4.35349E-03
             952            1590     4.07379E-03     4.35349E-03
             933            1590     4.07379E-03     4.35349E-03
             951            1590     4.07379E-03     4.35349E-03
             935            1591     4.21196E-03     4.53421E-03
             952            1591     4.21196E-03     4.53421E-03
             934            1591     4.21196E-03     4.53421E-03
             953            1591     4.21196E-03     4.53421E-03
             936            1592     4.37919E-03     4.74023E-03
             954            1592     4.37919E-03     4.74023E-03
             935            1592     4.37919E-03     4.74023E-03
             953            1592     4.37919E-03     4.74023E-03
             937            1593     4.57096E-03     4.96357E-03
             954            1593     4.57096E-03     4.96357E-03
             955            1593     4.57096E-03     4.96357E-03
             936            1593     4.57096E-03     4.96357E-03
             956            1594     4.78656E-03     5.20732E-03
             955            1594     4.78656E-03     5.20732E-03
             938            1594     4.78656E-03     5.20732E-03
             937            1594     4.78656E-03     5.20732E-03
             938            1595     5.02055E-03     5.46439E-03
             957            1595     5.02055E-03     5.46439E-03
             939            1595     5.02055E-03     5.46439E-03
             956            1595     5.02055E-03     5.46439E-03
             939            1596     5.27383E-03     5.73989E-03
             957            1596     5.27383E-03     5.73989E-03
             958            1596     5.27383E-03     5.73989E-03
             940            1596     5.27383E-03     5.73989E-03
             941            1597     5.53446E-03     6.02358E-03
             940            1597     5.53446E-03     6.02358E-03
             959            1597     5.53446E-03     6.02358E-03
             958            1597     5.53446E-03     6.02358E-03
             941            1598     5.82046E-03     6.33199E-03
             959            1598     5.82046E-03     6.33199E-03
             960            1598     5.82046E-03     6.33199E-03
             942            1598     5.82046E-03     6.33199E-03
             942            1599     6.10778E-03     6.65910E-03
             960            1599     6.10778E-03     6.65910E-03
             943            1599     6.10778E-03     6.65910E-03
             961            1599     6.10778E-03     6.65910E-03
             943            1600     6.57922E-03     7.10000E-03
             944            1600     6.57922E-03     7.10000E-03
             962            1600     6.57922E-03     7.10000E-03
             961            1600     6.57922E-03     7.10000E-03
             945            1601     7.72521E-03     8.05578E-03
             963            1601     7.72521E-03     8.05578E-03
             962            1601     7.72521E-03     8.05578E-03
             944            1601     7.72521E-03     8.05578E-03
             946            1602     9.71144E-03     9.69304E-03
             963            1602     9.71144E-03     9.69304E-03
             964            1602     9.71144E-03     9.69304E-03
             945            1602     9.71144E-03     9.69304E-03
             948            1603     3.50311E-03     3.80611E-03
             966            1603     3.50311E-03     3.80611E-03
             965            1603     3.50311E-03     3.80611E-03
             947            1603     3.50311E-03     3.80611E-03
             948            1604     3.54451E-03     3.83346E-03
             949            1604     3.54451E-03     3.83346E-03
             967            1604     3.54451E-03     3.83346E-03
             966            1604     3.54451E-03     3.83346E-03
             950            1605     3.62328E-03     3.92334E-03
             968            1605     3.62328E-03     3.92334E-03
             967            1605     3.62328E-03     3.92334E-03
             949            1605     3.62328E-03     3.92334E-03
             950            1606     3.70585E-03     4.07829E-03
             968            1606     3.70585E-03     4.07829E-03
             951            1606     3.70585E-03     4.07829E-03
             969            1606     3.70585E-03     4.07829E-03
             970            1607     3.80880E-03     4.26168E-03
             952            1607     3.80880E-03     4.26168E-03
             969            1607     3.80880E-03     4.26168E-03
             951            1607     3.80880E-03     4.26168E-03
             953            1608     3.94179E-03     4.46687E-03
             971            1608     3.94179E-03     4.46687E-03
             970            1608     3.94179E-03     4.46687E-03
             952            1608     3.94179E-03     4.46687E-03
             954            1609     4.10250E-03     4.68644E-03
             972            1609     4.10250E-03     4.68644E-03
             971            1609     4.10250E-03     4.68644E-03
             953            1609     4.10250E-03     4.68644E-03
             955            1610     4.28728E-03     4.92294E-03
             972            1610     4.28728E-03     4.92294E-03
             954            1610     4.28728E-03     4.92294E-03
             973            1610     4.28728E-03     4.92294E-03
             973            1611     4.49162E-03     5.16790E-03
             956            1611     4.49162E-03     5.16790E-03
             974            1611     4.49162E-03     5.16790E-03
             955            1611     4.49162E-03     5.16790E-03
             975            1612     4.70914E-03     5.42375E-03
             974            1612     4.70914E-03     5.42375E-03
             956            1612     4.70914E-03     5.42375E-03
             957            1612     4.70914E-03     5.42375E-03
             957            1613     4.93266E-03     5.67859E-03
             975            1613     4.93266E-03     5.67859E-03
             976            1613     4.93266E-03     5.67859E-03
             958            1613     4.93266E-03     5.67859E-03
             976            1614     5.16834E-03     5.94791E-03
             959            1614     5.16834E-03     5.94791E-03
             958            1614     5.16834E-03     5.94791E-03
             977            1614     5.16834E-03     5.94791E-03
             959            1615     5.40941E-03     6.22636E-03
             960            1615     5.40941E-03     6.22636E-03
             977            1615     5.40941E-03     6.22636E-03
             978            1615     5.40941E-03     6.22636E-03
             960            1616     5.76425E-03     6.61550E-03
             979            1616     5.76425E-03     6.61550E-03
             978            1616     5.76425E-03     6.61550E-03
             961            1616     5.76425E-03     6.61550E-03
             979            1617     6.32110E-03     7.22736E-03
             980            1617     6.32110E-03     7.22736E-03
             962            1617     6.32110E-03     7.22736E-03
             961            1617     6.32110E-03     7.22736E-03
             963            1618     7.71124E-03     8.64378E-03
             981            1618     7.71124E-03     8.64378E-03
             962            1618     7.71124E-03     8.64378E-03
             980            1618     7.71124E-03     8.64378E-03
             964            1619     11.0454E-03     11.8462E-03
             963            1619     11.0454E-03     11.8462E-03
             981            1619     11.0454E-03     11.8462E-03
             982            1619     11.0454E-03     11.8462E-03
             966            1620     5.31869E-03     6.04260E-03
             984            1620     5.31869E-03     6.04260E-03
             965            1620     5.31869E-03     6.04260E-03
             983            1620     5.31869E-03     6.04260E-03
             966            1621     5.77047E-03     5.94128E-03
             985            1621     5.77047E-03     5.94128E-03
             967            1621     5.77047E-03     5.94128E-03
             984            1621     5.77047E-03     5.94128E-03
             967            1622     6.04055E-03     6.09978E-03
             985            1622     6.04055E-03     6.09978E-03
             968            1622     6.04055E-03     6.09978E-03
             986            1622     6.04055E-03     6.09978E-03
             969            1623     6.34197E-03     6.41498E-03
             968            1623     6.34197E-03     6.41498E-03
             987            1623     6.34197E-03     6.41498E-03
             986            1623     6.34197E-03     6.41498E-03
             988            1624     6.68403E-03     6.76909E-03
             970            1624     6.68403E-03     6.76909E-03
             969            1624     6.68403E-03     6.76909E-03
             987            1624     6.68403E-03     6.76909E-03
             989            1625     7.07047E-03     7.17926E-03
             988            1625     7.07047E-03     7.17926E-03
             970            1625     7.07047E-03     7.17926E-03
             971            1625     7.07047E-03     7.17926E-03
             972            1626     7.48583E-03     7.60933E-03
             989            1626     7.48583E-03     7.60933E-03
             990            1626     7.48583E-03     7.60933E-03
             971            1626     7.48583E-03     7.60933E-03
             972            1627     7.92223E-03     8.05508E-03
             973            1627     7.92223E-03     8.05508E-03
             990            1627     7.92223E-03     8.05508E-03
             991            1627     7.92223E-03     8.05508E-03
             974            1628     8.36093E-03     8.49538E-03
             991            1628     8.36093E-03     8.49538E-03
             992            1628     8.36093E-03     8.49538E-03
             973            1628     8.36093E-03     8.49538E-03
             975            1629     8.78919E-03     8.91946E-03
             974            1629     8.78919E-03     8.91946E-03
             992            1629     8.78919E-03     8.91946E-03
             993            1629     8.78919E-03     8.91946E-03
             994            1630     9.18377E-03     9.30043E-03
             975            1630     9.18377E-03     9.30043E-03
             976            1630     9.18377E-03     9.30043E-03
             993            1630     9.18377E-03     9.30043E-03
             995            1631     9.53432E-03     9.63098E-03
             977            1631     9.53432E-03     9.63098E-03
             994            1631     9.53432E-03     9.63098E-03
             976            1631     9.53432E-03     9.63098E-03
             995            1632     9.81499E-03     9.87925E-03
             978            1632     9.81499E-03     9.87925E-03
             996            1632     9.81499E-03     9.87925E-03
             977            1632     9.81499E-03     9.87925E-03
             997            1633     10.0493E-03     10.0755E-03
             979            1633     10.0493E-03     10.0755E-03
             996            1633     10.0493E-03     10.0755E-03
             978            1633     10.0493E-03     10.0755E-03
             997            1634     10.2682E-03     10.2450E-03
             998            1634     10.2682E-03     10.2450E-03
             980            1634     10.2682E-03     10.2450E-03
             979            1634     10.2682E-03     10.2450E-03
             980            1635     10.5502E-03     10.5447E-03
             981            1635     10.5502E-03     10.5447E-03
             999            1635     10.5502E-03     10.5447E-03
             998            1635     10.5502E-03     10.5447E-03
             982            1636     11.4718E-03     11.7765E-03
            1000            1636     11.4718E-03     11.7765E-03
             999            1636     11.4718E-03     11.7765E-03
             981            1636     11.4718E-03     11.7765E-03
             983            1637     7.23990E-03     8.06193E-03
             984            1637     7.23990E-03     8.06193E-03
            1002            1637     7.23990E-03     8.06193E-03
            1001            1637     7.23990E-03     8.06193E-03
            1002            1638     7.67783E-03     7.96046E-03
             985            1638     7.67783E-03     7.96046E-03
            1003            1638     7.67783E-03     7.96046E-03
             984            1638     7.67783E-03     7.96046E-03
            1003            1639     8.23731E-03     8.15581E-03
             986            1639     8.23731E-03     8.15581E-03
            1004            1639     8.23731E-03     8.15581E-03
             985            1639     8.23731E-03     8.15581E-03
             987            1640     8.82695E-03     8.60214E-03
             986            1640     8.82695E-03     8.60214E-03
            1005            1640     8.82695E-03     8.60214E-03
            1004            1640     8.82695E-03     8.60214E-03
             988            1641     9.47203E-03     9.16936E-03
             987            1641     9.47203E-03     9.16936E-03
            1005            1641     9.47203E-03     9.16936E-03
            1006            1641     9.47203E-03     9.16936E-03
            1007            1642     10.1765E-03     9.82121E-03
             989            1642     10.1765E-03     9.82121E-03
            1006            1642     10.1765E-03     9.82121E-03
             988            1642     10.1765E-03     9.82121E-03
             990            1643     10.9165E-03     10.5237E-03
            1007            1643     10.9165E-03     10.5237E-03
            1008            1643     10.9165E-03     10.5237E-03
             989            1643     10.9165E-03     10.5237E-03
             991            1644     11.6795E-03     11.2486E-03
            1009            1644     11.6795E-03     11.2486E-03
            1008            1644     11.6795E-03     11.2486E-03
             990            1644     11.6795E-03     11.2486E-03
             991            1645     12.4388E-03     11.9723E-03
             992            1645     12.4388E-03     11.9723E-03
            1010            1645     12.4388E-03     11.9723E-03
            1009            1645     12.4388E-03     11.9723E-03
             992            1646     13.1728E-03     12.6632E-03
            1011            1646     13.1728E-03     12.6632E-03
             993            1646     13.1728E-03     12.6632E-03
            1010            1646     13.1728E-03     12.6632E-03
            1011            1647     13.8494E-03     13.2935E-03
             994            1647     13.8494E-03     13.2935E-03
            1012            1647     13.8494E-03     13.2935E-03
             993            1647     13.8494E-03     13.2935E-03
             994            1648     14.4268E-03     13.8149E-03
            1012            1648     14.4268E-03     13.8149E-03
             995            1648     14.4268E-03     13.8149E-03
            1013            1648     14.4268E-03     13.8149E-03
            1013            1649     14.8589E-03     14.1814E-03
             996            1649     14.8589E-03     14.1814E-03
            1014            1649     14.8589E-03     14.1814E-03
             995            1649     14.8589E-03     14.1814E-03
             996            1650     15.0480E-03     14.3051E-03
            1015            1650     15.0480E-03     14.3051E-03
            1014            1650     15.0480E-03     14.3051E-03
             997            1650     15.0480E-03     14.3051E-03
            1015            1651     14.9042E-03     14.0919E-03
             997            1651     14.9042E-03     14.0919E-03
            1016            1651     14.9042E-03     14.0919E-03
             998            1651     14.9042E-03     14.0919E-03
             998            1652     14.1001E-03     13.2898E-03
            1017            1652     14.1001E-03     13.2898E-03
            1016            1652     14.1001E-03     13.2898E-03
             999            1652     14.1001E-03     13.2898E-03
             999            1653     12.6101E-03     11.8985E-03
            1018            1653     12.6101E-03     11.8985E-03
            1017            1653     12.6101E-03     11.8985E-03
            1000            1653     12.6101E-03     11.8985E-03
            1002            1654     6.88601E-03     7.17506E-03
            1019            1654     6.88601E-03     7.17506E-03
            1001            1654     6.88601E-03     7.17506E-03
            1020            1654     6.88601E-03     7.17506E-03
            1020            1655     7.04798E-03     7.47881E-03
            1003            1655     7.04798E-03     7.47881E-03
            1021            1655     7.04798E-03     7.47881E-03
            1002            1655     7.04798E-03     7.47881E-03
            1021            1656     7.60446E-03     7.75683E-03
            1022            1656     7.60446E-03     7.75683E-03
            1003            1656     7.60446E-03     7.75683E-03
            1004            1656     7.60446E-03     7.75683E-03
            1022            1657     8.30254E-03     8.24524E-03
            1005            1657     8.30254E-03     8.24524E-03
            1023            1657     8.30254E-03     8.24524E-03
            1004            1657     8.30254E-03     8.24524E-03
            1006            1658     9.06043E-03     8.90165E-03
            1023            1658     9.06043E-03     8.90165E-03
            1024            1658     9.06043E-03     8.90165E-03
            1005            1658     9.06043E-03     8.90165E-03
            1006            1659     9.88278E-03     9.65971E-03
            1025            1659     9.88278E-03     9.65971E-03
            1007            1659     9.88278E-03     9.65971E-03
            1024            1659     9.88278E-03     9.65971E-03
            1007            1660     10.7501E-03     10.4900E-03
            1025            1660     10.7501E-03     10.4900E-03
            1026            1660     10.7501E-03     10.4900E-03
            1008            1660     10.7501E-03     10.4900E-03
            1026            1661     11.6471E-03     11.3608E-03
            1009            1661     11.6471E-03     11.3608E-03
            1027            1661     11.6471E-03     11.3608E-03
            1008            1661     11.6471E-03     11.3608E-03
            1009            1662     12.5567E-03     12.2480E-03
            1028            1662     12.5567E-03     12.2480E-03
            1027            1662     12.5567E-03     12.2480E-03
            1010            1662     12.5567E-03     12.2480E-03
            1028            1663     13.4518E-03     13.1258E-03
            1029            1663     13.4518E-03     13.1258E-03
            1011            1663     13.4518E-03     13.1258E-03
            1010            1663     13.4518E-03     13.1258E-03
            1030            1664     14.3032E-03     13.9605E-03
            1011            1664     14.3032E-03     13.9605E-03
            1012            1664     14.3032E-03     13.9605E-03
            1029            1664     14.3032E-03     13.9605E-03
            1013            1665     15.0622E-03     14.7111E-03
            1031            1665     15.0622E-03     14.7111E-03
            1012            1665     15.0622E-03     14.7111E-03
            1030            1665     15.0622E-03     14.7111E-03
            1014            1666     15.6597E-03     15.3150E-03
            1032            1666     15.6597E-03     15.3150E-03
            1013            1666     15.6597E-03     15.3150E-03
            1031            1666     15.6597E-03     15.3150E-03
            1014            1667     15.9951E-03     15.6826E-03
            1032            1667     15.9951E-03     15.6826E-03
            1033            1667     15.9951E-03     15.6826E-03
            1015            1667     15.9951E-03     15.6826E-03
            1033            1668     15.9157E-03     15.6998E-03
            1016            1668     15.9157E-03     15.6998E-03
            1034            1668     15.9157E-03     15.6998E-03
            1015            1668     15.9157E-03     15.6998E-03
            1034            1669     15.1683E-03     15.1333E-03
            1035            1669     15.1683E-03     15.1333E-03
            1017            1669     15.1683E-03     15.1333E-03
            1016            1669     15.1683E-03     15.1333E-03
            1035            1670     14.6269E-03     14.6285E-03
            1018            1670     14.6269E-03     14.6285E-03
            1036            1670     14.6269E-03     14.6285E-03
            1017            1670     14.6269E-03     14.6285E-03
            1038            1671     6.37086E-03     6.29400E-03
            1020            1671     6.37086E-03     6.29400E-03
            1019            1671     6.37086E-03     6.29400E-03
            1037            1671     6.37086E-03     6.29400E-03
            1039            1672     6.63661E-03     6.78631E-03
            1038            1672     6.63661E-03     6.78631E-03
            1020            1672     6.63661E-03     6.78631E-03
            1021            1672     6.63661E-03     6.78631E-03
            1040            1673     7.12358E-03     7.32372E-03
            1021            1673     7.12358E-03     7.32372E-03
            1022            1673     7.12358E-03     7.32372E-03
            1039            1673     7.12358E-03     7.32372E-03
            1022            1674     7.85500E-03     7.93005E-03
            1040            1674     7.85500E-03     7.93005E-03
            1041            1674     7.85500E-03     7.93005E-03
            1023            1674     7.85500E-03     7.93005E-03
            1023            1675     8.70510E-03     8.68693E-03
            1024            1675     8.70510E-03     8.68693E-03
            1041            1675     8.70510E-03     8.68693E-03
            1042            1675     8.70510E-03     8.68693E-03
            1043            1676     9.62461E-03     9.55311E-03
            1025            1676     9.62461E-03     9.55311E-03
            1042            1676     9.62461E-03     9.55311E-03
            1024            1676     9.62461E-03     9.55311E-03
            1025            1677     10.5999E-03     10.4959E-03
            1026            1677     10.5999E-03     10.4959E-03
            1044            1677     10.5999E-03     10.4959E-03
            1043            1677     10.5999E-03     10.4959E-03
            1045            1678     11.6112E-03     11.4910E-03
            1026            1678     11.6112E-03     11.4910E-03
            1044            1678     11.6112E-03     11.4910E-03
            1027            1678     11.6112E-03     11.4910E-03
            1028            1679     12.6399E-03     12.5134E-03
            1046            1679     12.6399E-03     12.5134E-03
            1027            1679     12.6399E-03     12.5134E-03
            1045            1679     12.6399E-03     12.5134E-03
            1029            1680     13.6671E-03     13.5403E-03
            1047            1680     13.6671E-03     13.5403E-03
            1028            1680     13.6671E-03     13.5403E-03
            1046            1680     13.6671E-03     13.5403E-03
            1030            1681     14.6530E-03     14.5395E-03
            1029            1681     14.6530E-03     14.5395E-03
            1048            1681     14.6530E-03     14.5395E-03
            1047            1681     14.6530E-03     14.5395E-03
            1031            1682     15.5567E-03     15.4671E-03
            1030            1682     15.5567E-03     15.4671E-03
            1049            1682     15.5567E-03     15.4671E-03
            1048            1682     15.5567E-03     15.4671E-03
            1049            1683     16.2942E-03     16.2567E-03
            1032            1683     16.2942E-03     16.2567E-03
            1050            1683     16.2942E-03     16.2567E-03
            1031            1683     16.2942E-03     16.2567E-03
            1032            1684     16.7746E-03     16.8237E-03
            1051            1684     16.7746E-03     16.8237E-03
            1033            1684     16.7746E-03     16.8237E-03
            1050            1684     16.7746E-03     16.8237E-03
            1051            1685     16.8568E-03     17.0304E-03
            1052            1685     16.8568E-03     17.0304E-03
            1034            1685     16.8568E-03     17.0304E-03
            1033            1685     16.8568E-03     17.0304E-03
            1034            1686     16.6602E-03     16.9197E-03
            1053            1686     16.6602E-03     16.9197E-03
            1052            1686     16.6602E-03     16.9197E-03
            1035            1686     16.6602E-03     16.9197E-03
            1053            1687     16.9550E-03     17.0359E-03
            1035            1687     16.9550E-03     17.0359E-03
            1036            1687     16.9550E-03     17.0359E-03
            1054            1687     16.9550E-03     17.0359E-03
            1038            1688     5.83809E-03     5.72189E-03
            1056            1688     5.83809E-03     5.72189E-03
            1055            1688     5.83809E-03     5.72189E-03
            1037            1688     5.83809E-03     5.72189E-03
            1057            1689     6.15835E-03     6.17603E-03
            1056            1689     6.15835E-03     6.17603E-03
            1039            1689     6.15835E-03     6.17603E-03
            1038            1689     6.15835E-03     6.17603E-03
            1057            1690     6.71603E-03     6.84586E-03
            1058            1690     6.71603E-03     6.84586E-03
            1039            1690     6.71603E-03     6.84586E-03
            1040            1690     6.71603E-03     6.84586E-03
            1041            1691     7.46595E-03     7.61633E-03
            1040            1691     7.46595E-03     7.61633E-03
            1058            1691     7.46595E-03     7.61633E-03
            1059            1691     7.46595E-03     7.61633E-03
            1042            1692     8.37169E-03     8.47961E-03
            1059            1692     8.37169E-03     8.47961E-03
            1060            1692     8.37169E-03     8.47961E-03
            1041            1692     8.37169E-03     8.47961E-03
            1043            1693     9.36669E-03     9.44381E-03
            1060            1693     9.36669E-03     9.44381E-03
            1042            1693     9.36669E-03     9.44381E-03
            1061            1693     9.36669E-03     9.44381E-03
            1044            1694     10.4209E-03     10.4807E-03
            1043            1694     10.4209E-03     10.4807E-03
            1062            1694     10.4209E-03     10.4807E-03
            1061            1694     10.4209E-03     10.4807E-03
            1063            1695     11.5155E-03     11.5701E-03
            1044            1695     11.5155E-03     11.5701E-03
            1045            1695     11.5155E-03     11.5701E-03
            1062            1695     11.5155E-03     11.5701E-03
            1063            1696     12.6354E-03     12.6945E-03
            1045            1696     12.6354E-03     12.6945E-03
            1046            1696     12.6354E-03     12.6945E-03
            1064            1696     12.6354E-03     12.6945E-03
            1046            1697     13.7551E-03     13.8308E-03
            1047            1697     13.7551E-03     13.8308E-03
            1064            1697     13.7551E-03     13.8308E-03
            1065            1697     13.7551E-03     13.8308E-03
            1047            1698     14.8553E-03     14.9551E-03
            1048            1698     14.8553E-03     14.9551E-03
            1065            1698     14.8553E-03     14.9551E-03
            1066            1698     14.8553E-03     14.9551E-03
            1049            1699     15.8775E-03     16.0244E-03
            1048            1699     15.8775E-03     16.0244E-03
            1067            1699     15.8775E-03     16.0244E-03
            1066            1699     15.8775E-03     16.0244E-03
            1049            1700     16.7743E-03     16.9805E-03
            1067            1700     16.7743E-03     16.9805E-03
            1050            1700     16.7743E-03     16.9805E-03
            1068            1700     16.7743E-03     16.9805E-03
            1051            1701     17.4517E-03     17.7404E-03
            1050            1701     17.4517E-03     17.7404E-03
            1068            1701     17.4517E-03     17.7404E-03
            1069            1701     17.4517E-03     17.7404E-03
            1051            1702     17.8875E-03     18.2487E-03
            1052            1702     17.8875E-03     18.2487E-03
            1070            1702     17.8875E-03     18.2487E-03
            1069            1702     17.8875E-03     18.2487E-03
            1052            1703     18.3141E-03     18.6164E-03
            1053            1703     18.3141E-03     18.6164E-03
            1070            1703     18.3141E-03     18.6164E-03
            1071            1703     18.3141E-03     18.6164E-03
            1053            1704     19.0737E-03     19.2434E-03
            1054            1704     19.0737E-03     19.2434E-03
            1072            1704     19.0737E-03     19.2434E-03
            1071            1704     19.0737E-03     19.2434E-03
            1056            1705     5.32227E-03     5.12165E-03
            1073            1705     5.32227E-03     5.12165E-03
            1074            1705     5.32227E-03     5.12165E-03
            1055            1705     5.32227E-03     5.12165E-03
            1056            1706     5.67710E-03     5.67265E-03
            1075            1706     5.67710E-03     5.67265E-03
            1074            1706     5.67710E-03     5.67265E-03
            1057            1706     5.67710E-03     5.67265E-03
            1057            1707     6.28411E-03     6.40340E-03
            1076            1707     6.28411E-03     6.40340E-03
            1058            1707     6.28411E-03     6.40340E-03
            1075            1707     6.28411E-03     6.40340E-03
            1059            1708     7.08896E-03     7.28384E-03
            1076            1708     7.08896E-03     7.28384E-03
            1077            1708     7.08896E-03     7.28384E-03
            1058            1708     7.08896E-03     7.28384E-03
            1078            1709     8.03351E-03     8.25318E-03
            1077            1709     8.03351E-03     8.25318E-03
            1060            1709     8.03351E-03     8.25318E-03
            1059            1709     8.03351E-03     8.25318E-03
            1061            1710     9.07797E-03     9.29721E-03
            1060            1710     9.07797E-03     9.29721E-03
            1078            1710     9.07797E-03     9.29721E-03
            1079            1710     9.07797E-03     9.29721E-03
            1080            1711     10.1844E-03     10.4053E-03
            1079            1711     10.1844E-03     10.4053E-03
            1061            1711     10.1844E-03     10.4053E-03
            1062            1711     10.1844E-03     10.4053E-03
            1063            1712     11.3348E-03     11.5619E-03
            1062            1712     11.3348E-03     11.5619E-03
            1080            1712     11.3348E-03     11.5619E-03
            1081            1712     11.3348E-03     11.5619E-03
            1082            1713     12.5113E-03     12.7528E-03
            1064            1713     12.5113E-03     12.7528E-03
            1081            1713     12.5113E-03     12.7528E-03
            1063            1713     12.5113E-03     12.7528E-03
            1065            1714     13.7043E-03     13.9673E-03
            1064            1714     13.7043E-03     13.9673E-03
            1083            1714     13.7043E-03     13.9673E-03
            1082            1714     13.7043E-03     13.9673E-03
            1065            1715     14.8842E-03     15.1820E-03
            1083            1715     14.8842E-03     15.1820E-03
            1084            1715     14.8842E-03     15.1820E-03
            1066            1715     14.8842E-03     15.1820E-03
            1084            1716     16.0411E-03     16.3752E-03
            1066            1716     16.0411E-03     16.3752E-03
            1067            1716     16.0411E-03     16.3752E-03
            1085            1716     16.0411E-03     16.3752E-03
            1085            1717     17.1106E-03     17.5021E-03
            1067            1717     17.1106E-03     17.5021E-03
            1086            1717     17.1106E-03     17.5021E-03
            1068            1717     17.1106E-03     17.5021E-03
            1069            1718     18.0737E-03     18.5061E-03
            1068            1718     18.0737E-03     18.5061E-03
            1086            1718     18.0737E-03     18.5061E-03
            1087            1718     18.0737E-03     18.5061E-03
            1070            1719     18.9589E-03     19.3807E-03
            1087            1719     18.9589E-03     19.3807E-03
            1088            1719     18.9589E-03     19.3807E-03
            1069            1719     18.9589E-03     19.3807E-03
            1088            1720     19.8570E-03     20.2308E-03
            1071            1720     19.8570E-03     20.2308E-03
            1070            1720     19.8570E-03     20.2308E-03
            1089            1720     19.8570E-03     20.2308E-03
            1072            1721     21.0980E-03     21.3016E-03
            1071            1721     21.0980E-03     21.3016E-03
            1089            1721     21.0980E-03     21.3016E-03
            1090            1721     21.0980E-03     21.3016E-03
            1074            1722     4.77201E-03     4.57812E-03
            1091            1722     4.77201E-03     4.57812E-03
            1073            1722     4.77201E-03     4.57812E-03
            1092            1722     4.77201E-03     4.57812E-03
            1075            1723     5.17854E-03     5.17221E-03
            1074            1723     5.17854E-03     5.17221E-03
            1093            1723     5.17854E-03     5.17221E-03
            1092            1723     5.17854E-03     5.17221E-03
            1075            1724     5.83230E-03     5.99731E-03
            1076            1724     5.83230E-03     5.99731E-03
            1093            1724     5.83230E-03     5.99731E-03
            1094            1724     5.83230E-03     5.99731E-03
            1095            1725     6.68260E-03     6.94902E-03
            1077            1725     6.68260E-03     6.94902E-03
            1094            1725     6.68260E-03     6.94902E-03
            1076            1725     6.68260E-03     6.94902E-03
            1077            1726     7.66709E-03     7.99598E-03
            1078            1726     7.66709E-03     7.99598E-03
            1095            1726     7.66709E-03     7.99598E-03
            1096            1726     7.66709E-03     7.99598E-03
            1079            1727     8.74171E-03     9.10189E-03
            1097            1727     8.74171E-03     9.10189E-03
            1096            1727     8.74171E-03     9.10189E-03
            1078            1727     8.74171E-03     9.10189E-03
            1097            1728     9.87976E-03     10.2572E-03
            1080            1728     9.87976E-03     10.2572E-03
            1098            1728     9.87976E-03     10.2572E-03
            1079            1728     9.87976E-03     10.2572E-03
            1099            1729     11.0595E-03     11.4535E-03
            1081            1729     11.0595E-03     11.4535E-03
            1098            1729     11.0595E-03     11.4535E-03
            1080            1729     11.0595E-03     11.4535E-03
            1099            1730     12.2713E-03     12.6852E-03
            1082            1730     12.2713E-03     12.6852E-03
            1100            1730     12.2713E-03     12.6852E-03
            1081            1730     12.2713E-03     12.6852E-03
            1083            1731     13.5050E-03     13.9431E-03
            1101            1731     13.5050E-03     13.9431E-03
            1100            1731     13.5050E-03     13.9431E-03
            1082            1731     13.5050E-03     13.9431E-03
            1102            1732     14.7613E-03     15.2275E-03
            1084            1732     14.7613E-03     15.2275E-03
            1083            1732     14.7613E-03     15.2275E-03
            1101            1732     14.7613E-03     15.2275E-03
            1084            1733     16.0215E-03     16.5217E-03
            1103            1733     16.0215E-03     16.5217E-03
            1085            1733     16.0215E-03     16.5217E-03
            1102            1733     16.0215E-03     16.5217E-03
            1085            1734     17.3125E-03     17.8262E-03
            1103            1734     17.3125E-03     17.8262E-03
            1086            1734     17.3125E-03     17.8262E-03
            1104            1734     17.3125E-03     17.8262E-03
            1104            1735     18.6019E-03     19.1280E-03
            1105            1735     18.6019E-03     19.1280E-03
            1087            1735     18.6019E-03     19.1280E-03
            1086            1735     18.6019E-03     19.1280E-03
            1087            1736     19.9198E-03     20.4135E-03
            1088            1736     19.9198E-03     20.4135E-03
            1105            1736     19.9198E-03     20.4135E-03
            1106            1736     19.9198E-03     20.4135E-03
            1088            1737     21.3664E-03     21.7372E-03
            1106            1737     21.3664E-03     21.7372E-03
            1089            1737     21.3664E-03     21.7372E-03
            1107            1737     21.3664E-03     21.7372E-03
            1090            1738     22.9985E-03     23.3056E-03
            1107            1738     22.9985E-03     23.3056E-03
            1089            1738     22.9985E-03     23.3056E-03
            1108            1738     22.9985E-03     23.3056E-03
            1092            1739     4.20401E-03     4.03752E-03
            1109            1739     4.20401E-03     4.03752E-03
            1110            1739     4.20401E-03     4.03752E-03
            1091            1739     4.20401E-03     4.03752E-03
            1111            1740     4.64112E-03     4.70339E-03
            1093            1740     4.64112E-03     4.70339E-03
            1092            1740     4.64112E-03     4.70339E-03
            1110            1740     4.64112E-03     4.70339E-03
            1093            1741     5.35118E-03     5.59357E-03
            1094            1741     5.35118E-03     5.59357E-03
            1111            1741     5.35118E-03     5.59357E-03
            1112            1741     5.35118E-03     5.59357E-03
            1113            1742     6.24059E-03     6.62167E-03
            1094            1742     6.24059E-03     6.62167E-03
            1095            1742     6.24059E-03     6.62167E-03
            1112            1742     6.24059E-03     6.62167E-03
            1114            1743     7.25694E-03     7.71633E-03
            1095            1743     7.25694E-03     7.71633E-03
            1113            1743     7.25694E-03     7.71633E-03
            1096            1743     7.25694E-03     7.71633E-03
            1096            1744     8.35604E-03     8.86166E-03
            1097            1744     8.35604E-03     8.86166E-03
            1114            1744     8.35604E-03     8.86166E-03
            1115            1744     8.35604E-03     8.86166E-03
            1116            1745     9.50881E-03     10.0436E-03
            1097            1745     9.50881E-03     10.0436E-03
            1115            1745     9.50881E-03     10.0436E-03
            1098            1745     9.50881E-03     10.0436E-03
            1117            1746     10.7009E-03     11.2580E-03
            1099            1746     10.7009E-03     11.2580E-03
            1098            1746     10.7009E-03     11.2580E-03
            1116            1746     10.7009E-03     11.2580E-03
            1099            1747     11.9261E-03     12.5030E-03
            1100            1747     11.9261E-03     12.5030E-03
            1117            1747     11.9261E-03     12.5030E-03
            1118            1747     11.9261E-03     12.5030E-03
            1101            1748     13.1838E-03     13.7836E-03
            1118            1748     13.1838E-03     13.7836E-03
            1100            1748     13.1838E-03     13.7836E-03
            1119            1748     13.1838E-03     13.7836E-03
            1102            1749     14.4824E-03     15.1024E-03
            1120            1749     14.4824E-03     15.1024E-03
            1101            1749     14.4824E-03     15.1024E-03
            1119            1749     14.4824E-03     15.1024E-03
            1120            1750     15.8460E-03     16.4826E-03
            1103            1750     15.8460E-03     16.4826E-03
            1102            1750     15.8460E-03     16.4826E-03
            1121            1750     15.8460E-03     16.4826E-03
            1103            1751     17.2941E-03     17.9350E-03
            1104            1751     17.2941E-03     17.9350E-03
            1121            1751     17.2941E-03     17.9350E-03
            1122            1751     17.2941E-03     17.9350E-03
            1105            1752     18.9419E-03     19.5270E-03
            1123            1752     18.9419E-03     19.5270E-03
            1122            1752     18.9419E-03     19.5270E-03
            1104            1752     18.9419E-03     19.5270E-03
            1124            1753     20.7557E-03     21.2851E-03
            1105            1753     20.7557E-03     21.2851E-03
            1106            1753     20.7557E-03     21.2851E-03
            1123            1753     20.7557E-03     21.2851E-03
            1125            1754     22.7173E-03     23.1918E-03
            1106            1754     22.7173E-03     23.1918E-03
            1107            1754     22.7173E-03     23.1918E-03
            1124            1754     22.7173E-03     23.1918E-03
            1108            1755     24.9435E-03     25.2214E-03
            1126            1755     24.9435E-03     25.2214E-03
            1107            1755     24.9435E-03     25.2214E-03
            1125            1755     24.9435E-03     25.2214E-03
            1109            1756     3.59041E-03     3.49002E-03
            1110            1756     3.59041E-03     3.49002E-03
            1127            1756     3.59041E-03     3.49002E-03
            1128            1756     3.59041E-03     3.49002E-03
            1129            1757     4.07622E-03     4.24593E-03
            1110            1757     4.07622E-03     4.24593E-03
            1111            1757     4.07622E-03     4.24593E-03
            1128            1757     4.07622E-03     4.24593E-03
            1112            1758     4.82343E-03     5.22479E-03
            1130            1758     4.82343E-03     5.22479E-03
            1129            1758     4.82343E-03     5.22479E-03
            1111            1758     4.82343E-03     5.22479E-03
            1131            1759     5.76167E-03     6.29838E-03
            1112            1759     5.76167E-03     6.29838E-03
            1130            1759     5.76167E-03     6.29838E-03
            1113            1759     5.76167E-03     6.29838E-03
            1132            1760     6.81148E-03     7.42902E-03
            1113            1760     6.81148E-03     7.42902E-03
            1114            1760     6.81148E-03     7.42902E-03
            1131            1760     6.81148E-03     7.42902E-03
            1133            1761     7.92791E-03     8.59458E-03
            1114            1761     7.92791E-03     8.59458E-03
            1132            1761     7.92791E-03     8.59458E-03
            1115            1761     7.92791E-03     8.59458E-03
            1134            1762     9.08794E-03     9.78621E-03
            1115            1762     9.08794E-03     9.78621E-03
            1133            1762     9.08794E-03     9.78621E-03
            1116            1762     9.08794E-03     9.78621E-03
            1116            1763     10.2822E-03     11.0013E-03
            1134            1763     10.2822E-03     11.0013E-03
            1117            1763     10.2822E-03     11.0013E-03
            1135            1763     10.2822E-03     11.0013E-03
            1135            1764     11.5054E-03     12.2427E-03
            1117            1764     11.5054E-03     12.2427E-03
            1118            1764     11.5054E-03     12.2427E-03
            1136            1764     11.5054E-03     12.2427E-03
            1118            1765     12.7701E-03     13.5197E-03
            1137            1765     12.7701E-03     13.5197E-03
            1136            1765     12.7701E-03     13.5197E-03
            1119            1765     12.7701E-03     13.5197E-03
            1138            1766     14.0877E-03     14.8523E-03
            1120            1766     14.0877E-03     14.8523E-03
            1119            1766     14.0877E-03     14.8523E-03
            1137            1766     14.0877E-03     14.8523E-03
            1138            1767     15.5035E-03     16.2686E-03
            1139            1767     15.5035E-03     16.2686E-03
            1120            1767     15.5035E-03     16.2686E-03
            1121            1767     15.5035E-03     16.2686E-03
            1122            1768     17.0784E-03     17.8362E-03
            1139            1768     17.0784E-03     17.8362E-03
            1121            1768     17.0784E-03     17.8362E-03
            1140            1768     17.0784E-03     17.8362E-03
            1141            1769     18.9033E-03     19.6177E-03
            1140            1769     18.9033E-03     19.6177E-03
            1122            1769     18.9033E-03     19.6177E-03
            1123            1769     18.9033E-03     19.6177E-03
            1141            1770     21.2633E-03     21.8176E-03
            1123            1770     21.2633E-03     21.8176E-03
            1142            1770     21.2633E-03     21.8176E-03
            1124            1770     21.2633E-03     21.8176E-03
            1143            1771     24.0044E-03     24.4243E-03
            1142            1771     24.0044E-03     24.4243E-03
            1124            1771     24.0044E-03     24.4243E-03
            1125            1771     24.0044E-03     24.4243E-03
            1143            1772     26.7602E-03     27.2693E-03
            1144            1772     26.7602E-03     27.2693E-03
            1125            1772     26.7602E-03     27.2693E-03
            1126            1772     26.7602E-03     27.2693E-03
            1146            1773     2.92510E-03     2.97836E-03
            1145            1773     2.92510E-03     2.97836E-03
            1128            1773     2.92510E-03     2.97836E-03
            1127            1773     2.92510E-03     2.97836E-03
            1146            1774     3.43275E-03     3.85349E-03
            1147            1774     3.43275E-03     3.85349E-03
            1128            1774     3.43275E-03     3.85349E-03
            1129            1774     3.43275E-03     3.85349E-03
            1129            1775     4.26245E-03     4.88850E-03
            1148            1775     4.26245E-03     4.88850E-03
            1147            1775     4.26245E-03     4.88850E-03
            1130            1775     4.26245E-03     4.88850E-03
            1148            1776     5.26182E-03     5.99732E-03
            1130            1776     5.26182E-03     5.99732E-03
            1131            1776     5.26182E-03     5.99732E-03
            1149            1776     5.26182E-03     5.99732E-03
            1131            1777     6.34576E-03     7.15025E-03
            1150            1777     6.34576E-03     7.15025E-03
            1132            1777     6.34576E-03     7.15025E-03
            1149            1777     6.34576E-03     7.15025E-03
            1150            1778     7.47785E-03     8.32553E-03
            1132            1778     7.47785E-03     8.32553E-03
            1133            1778     7.47785E-03     8.32553E-03
            1151            1778     7.47785E-03     8.32553E-03
            1152            1779     8.64345E-03     9.51648E-03
            1133            1779     8.64345E-03     9.51648E-03
            1151            1779     8.64345E-03     9.51648E-03
            1134            1779     8.64345E-03     9.51648E-03
            1153            1780     9.83289E-03     10.7214E-03
            1134            1780     9.83289E-03     10.7214E-03
            1135            1780     9.83289E-03     10.7214E-03
            1152            1780     9.83289E-03     10.7214E-03
            1154            1781     11.0527E-03     11.9482E-03
            1135            1781     11.0527E-03     11.9482E-03
            1153            1781     11.0527E-03     11.9482E-03
            1136            1781     11.0527E-03     11.9482E-03
            1154            1782     12.3073E-03     13.2067E-03
            1137            1782     12.3073E-03     13.2067E-03
            1155            1782     12.3073E-03     13.2067E-03
            1136            1782     12.3073E-03     13.2067E-03
            1155            1783     13.6316E-03     14.5268E-03
            1138            1783     13.6316E-03     14.5268E-03
            1137            1783     13.6316E-03     14.5268E-03
            1156            1783     13.6316E-03     14.5268E-03
            1138            1784     15.0525E-03     15.9461E-03
            1156            1784     15.0525E-03     15.9461E-03
            1139            1784     15.0525E-03     15.9461E-03
            1157            1784     15.0525E-03     15.9461E-03
            1158            1785     16.6707E-03     17.5430E-03
            1139            1785     16.6707E-03     17.5430E-03
            1140            1785     16.6707E-03     17.5430E-03
            1157            1785     16.6707E-03     17.5430E-03
            1140            1786     18.5837E-03     19.4383E-03
            1159            1786     18.5837E-03     19.4383E-03
            1158            1786     18.5837E-03     19.4383E-03
            1141            1786     18.5837E-03     19.4383E-03
            1141            1787     21.0364E-03     21.8157E-03
            1159            1787     21.0364E-03     21.8157E-03
            1160            1787     21.0364E-03     21.8157E-03
            1142            1787     21.0364E-03     21.8157E-03
            1161            1788     24.6659E-03     25.1460E-03
            1142            1788     24.6659E-03     25.1460E-03
            1160            1788     24.6659E-03     25.1460E-03
            1143            1788     24.6659E-03     25.1460E-03
            1143            1789     28.7909E-03     28.8801E-03
            1161            1789     28.7909E-03     28.8801E-03
            1162            1789     28.7909E-03     28.8801E-03
            1144            1789     28.7909E-03     28.8801E-03
            1164            1790     2.11474E-03     2.57574E-03
            1145            1790     2.11474E-03     2.57574E-03
            1163            1790     2.11474E-03     2.57574E-03
            1146            1790     2.11474E-03     2.57574E-03
            1164            1791     2.75606E-03     3.52011E-03
            1147            1791     2.75606E-03     3.52011E-03
            1146            1791     2.75606E-03     3.52011E-03
            1165            1791     2.75606E-03     3.52011E-03
            1147            1792     3.70424E-03     4.59381E-03
            1148            1792     3.70424E-03     4.59381E-03
            1166            1792     3.70424E-03     4.59381E-03
            1165            1792     3.70424E-03     4.59381E-03
            1167            1793     4.76823E-03     5.73626E-03
            1166            1793     4.76823E-03     5.73626E-03
            1149            1793     4.76823E-03     5.73626E-03
            1148            1793     4.76823E-03     5.73626E-03
            1149            1794     5.88447E-03     6.90361E-03
            1168            1794     5.88447E-03     6.90361E-03
            1167            1794     5.88447E-03     6.90361E-03
            1150            1794     5.88447E-03     6.90361E-03
            1150            1795     7.03354E-03     8.08249E-03
            1168            1795     7.03354E-03     8.08249E-03
            1151            1795     7.03354E-03     8.08249E-03
            1169            1795     7.03354E-03     8.08249E-03
            1151            1796     8.20202E-03     9.26690E-03
            1152            1796     8.20202E-03     9.26690E-03
            1169            1796     8.20202E-03     9.26690E-03
            1170            1796     8.20202E-03     9.26690E-03
            1153            1797     9.39196E-03     10.4607E-03
            1171            1797     9.39196E-03     10.4607E-03
            1170            1797     9.39196E-03     10.4607E-03
            1152            1797     9.39196E-03     10.4607E-03
            1153            1798     10.6045E-03     11.6666E-03
            1171            1798     10.6045E-03     11.6666E-03
            1172            1798     10.6045E-03     11.6666E-03
            1154            1798     10.6045E-03     11.6666E-03
            1173            1799     11.8587E-03     12.9068E-03
            1155            1799     11.8587E-03     12.9068E-03
            1154            1799     11.8587E-03     12.9068E-03
            1172            1799     11.8587E-03     12.9068E-03
            1155            1800     13.1704E-03     14.1970E-03
            1174            1800     13.1704E-03     14.1970E-03
            1156            1800     13.1704E-03     14.1970E-03
            1173            1800     13.1704E-03     14.1970E-03
            1156            1801     14.5986E-03     15.5994E-03
            1157            1801     14.5986E-03     15.5994E-03
            1174            1801     14.5986E-03     15.5994E-03
            1175            1801     14.5986E-03     15.5994E-03
            1176            1802     16.1847E-03     17.1641E-03
            1158            1802     16.1847E-03     17.1641E-03
            1175            1802     16.1847E-03     17.1641E-03
            1157            1802     16.1847E-03     17.1641E-03
            1159            1803     18.1008E-03     19.0655E-03
            1176            1803     18.1008E-03     19.0655E-03
            1177            1803     18.1008E-03     19.0655E-03
            1158            1803     18.1008E-03     19.0655E-03
            1178            1804     20.4511E-03     21.4469E-03
            1177            1804     20.4511E-03     21.4469E-03
            1159            1804     20.4511E-03     21.4469E-03
            1160            1804     20.4511E-03     21.4469E-03
            1160            1805     23.9012E-03     24.9644E-03
            1161            1805     23.9012E-03     24.9644E-03
            1178            1805     23.9012E-03     24.9644E-03
            1179            1805     23.9012E-03     24.9644E-03
            1161            1806     29.5146E-03     30.3746E-03
            1179            1806     29.5146E-03     30.3746E-03
            1162            1806     29.5146E-03     30.3746E-03
            1180            1806     29.5146E-03     30.3746E-03
            1164            1807     5.90784E-03     6.87188E-03
            1163            1807     5.90784E-03     6.87188E-03
            1181            1807     5.90784E-03     6.87188E-03
            1182            1807     5.90784E-03     6.87188E-03
            1165            1808     6.92268E-03     7.39154E-03
            1164            1808     6.92268E-03     7.39154E-03
            1182            1808     6.92268E-03     7.39154E-03
            1183            1808     6.92268E-03     7.39154E-03
            1165            1809     7.94802E-03     8.34614E-03
            1183            1809     7.94802E-03     8.34614E-03
            1166            1809     7.94802E-03     8.34614E-03
            1184            1809     7.94802E-03     8.34614E-03
            1185            1810     9.10628E-03     9.52855E-03
            1166            1810     9.10628E-03     9.52855E-03
            1167            1810     9.10628E-03     9.52855E-03
            1184            1810     9.10628E-03     9.52855E-03
            1186            1811     10.3659E-03     10.8008E-03
            1185            1811     10.3659E-03     10.8008E-03
            1167            1811     10.3659E-03     10.8008E-03
            1168            1811     10.3659E-03     10.8008E-03
            1168            1812     11.6944E-03     12.1426E-03
            1186            1812     11.6944E-03     12.1426E-03
            1169            1812     11.6944E-03     12.1426E-03
            1187            1812     11.6944E-03     12.1426E-03
            1188            1813     13.0737E-03     13.5169E-03
            1170            1813     13.0737E-03     13.5169E-03
            1169            1813     13.0737E-03     13.5169E-03
            1187            1813     13.0737E-03     13.5169E-03
            1171            1814     14.4801E-03     14.9090E-03
            1188            1814     14.4801E-03     14.9090E-03
            1189            1814     14.4801E-03     14.9090E-03
            1170            1814     14.4801E-03     14.9090E-03
            1171            1815     15.9056E-03     16.3015E-03
            1172            1815     15.9056E-03     16.3015E-03
            1189            1815     15.9056E-03     16.3015E-03
            1190            1815     15.9056E-03     16.3015E-03
            1172            1816     17.3351E-03     17.6906E-03
            1173            1816     17.3351E-03     17.6906E-03
            1191            1816     17.3351E-03     17.6906E-03
            1190            1816     17.3351E-03     17.6906E-03
            1173            1817     18.7732E-03     19.0624E-03
            1174            1817     18.7732E-03     19.0624E-03
            1192            1817     18.7732E-03     19.0624E-03
            1191            1817     18.7732E-03     19.0624E-03
            1192            1818     20.2109E-03     20.4327E-03
            1193            1818     20.2109E-03     20.4327E-03
            1175            1818     20.2109E-03     20.4327E-03
            1174            1818     20.2109E-03     20.4327E-03
            1193            1819     21.6788E-03     21.7990E-03
            1175            1819     21.6788E-03     21.7990E-03
            1194            1819     21.6788E-03     21.7990E-03
            1176            1819     21.6788E-03     21.7990E-03
            1176            1820     23.1701E-03     23.2141E-03
            1177            1820     23.1701E-03     23.2141E-03
            1195            1820     23.1701E-03     23.2141E-03
            1194            1820     23.1701E-03     23.2141E-03
            1177            1821     24.7981E-03     24.7522E-03
            1178            1821     24.7981E-03     24.7522E-03
            1195            1821     24.7981E-03     24.7522E-03
            1196            1821     24.7981E-03     24.7522E-03
            1197            1822     26.5386E-03     26.5368E-03
            1178            1822     26.5386E-03     26.5368E-03
            1196            1822     26.5386E-03     26.5368E-03
            1179            1822     26.5386E-03     26.5368E-03
            1197            1823     29.1328E-03     29.6790E-03
            1180            1823     29.1328E-03     29.6790E-03
            1179            1823     29.1328E-03     29.6790E-03
            1198            1823     29.1328E-03     29.6790E-03
            1200            1824     9.73087E-03     10.9060E-03
            1181            1824     9.73087E-03     10.9060E-03
            1182            1824     9.73087E-03     10.9060E-03
            1199            1824     9.73087E-03     10.9060E-03
            1182            1825     10.6600E-03     11.0798E-03
            1183            1825     10.6600E-03     11.0798E-03
            1201            1825     10.6600E-03     11.0798E-03
            1200            1825     10.6600E-03     11.0798E-03
            1183            1826     11.8798E-03     11.8729E-03
            1201            1826     11.8798E-03     11.8729E-03
            1184            1826     11.8798E-03     11.8729E-03
            1202            1826     11.8798E-03     11.8729E-03
            1184            1827     13.2418E-03     13.1130E-03
            1202            1827     13.2418E-03     13.1130E-03
            1203            1827     13.2418E-03     13.1130E-03
            1185            1827     13.2418E-03     13.1130E-03
            1204            1828     14.7422E-03     14.5720E-03
            1185            1828     14.7422E-03     14.5720E-03
            1203            1828     14.7422E-03     14.5720E-03
            1186            1828     14.7422E-03     14.5720E-03
            1187            1829     16.3633E-03     16.1708E-03
            1204            1829     16.3633E-03     16.1708E-03
            1186            1829     16.3633E-03     16.1708E-03
            1205            1829     16.3633E-03     16.1708E-03
            1187            1830     18.0562E-03     17.8482E-03
            1188            1830     18.0562E-03     17.8482E-03
            1206            1830     18.0562E-03     17.8482E-03
            1205            1830     18.0562E-03     17.8482E-03
            1207            1831     19.7978E-03     19.5623E-03
            1188            1831     19.7978E-03     19.5623E-03
            1189            1831     19.7978E-03     19.5623E-03
            1206            1831     19.7978E-03     19.5623E-03
            1189            1832     21.5498E-03     21.2817E-03
            1190            1832     21.5498E-03     21.2817E-03
            1208            1832     21.5498E-03     21.2817E-03
            1207            1832     21.5498E-03     21.2817E-03
            1209            1833     23.2894E-03     22.9710E-03
            1190            1833     23.2894E-03     22.9710E-03
            1208            1833     23.2894E-03     22.9710E-03
            1191            1833     23.2894E-03     22.9710E-03
            1192            1834     24.9790E-03     24.6015E-03
            1191            1834     24.9790E-03     24.6015E-03
            1209            1834     24.9790E-03     24.6015E-03
            1210            1834     24.9790E-03     24.6015E-03
            1210            1835     26.5841E-03     26.1300E-03
            1193            1835     26.5841E-03     26.1300E-03
            1192            1835     26.5841E-03     26.1300E-03
            1211            1835     26.5841E-03     26.1300E-03
            1193            1836     28.0557E-03     27.5138E-03
            1211            1836     28.0557E-03     27.5138E-03
            1212            1836     28.0557E-03     27.5138E-03
            1194            1836     28.0557E-03     27.5138E-03
            1213            1837     29.3246E-03     28.6946E-03
            1195            1837     29.3246E-03     28.6946E-03
            1194            1837     29.3246E-03     28.6946E-03
            1212            1837     29.3246E-03     28.6946E-03
            1196            1838     30.2957E-03     29.5861E-03
            1213            1838     30.2957E-03     29.5861E-03
            1214            1838     30.2957E-03     29.5861E-03
            1195            1838     30.2957E-03     29.5861E-03
            1197            1839     30.7702E-03     30.0608E-03
            1196            1839     30.7702E-03     30.0608E-03
            1215            1839     30.7702E-03     30.0608E-03
            1214            1839     30.7702E-03     30.0608E-03
            1198            1840     30.5278E-03     29.7565E-03
            1216            1840     30.5278E-03     29.7565E-03
            1197            1840     30.5278E-03     29.7565E-03
            1215            1840     30.5278E-03     29.7565E-03
            1218            1841     8.85928E-03     9.46392E-03
            1199            1841     8.85928E-03     9.46392E-03
            1217            1841     8.85928E-03     9.46392E-03
            1200            1841     8.85928E-03     9.46392E-03
            1200            1842     9.48493E-03     10.2435E-03
            1201            1842     9.48493E-03     10.2435E-03
            1218            1842     9.48493E-03     10.2435E-03
            1219            1842     9.48493E-03     10.2435E-03
            1219            1843     10.8207E-03     11.1831E-03
            1202            1843     10.8207E-03     11.1831E-03
            1220            1843     10.8207E-03     11.1831E-03
            1201            1843     10.8207E-03     11.1831E-03
            1221            1844     12.4219E-03     12.5416E-03
            1202            1844     12.4219E-03     12.5416E-03
            1203            1844     12.4219E-03     12.5416E-03
            1220            1844     12.4219E-03     12.5416E-03
            1204            1845     14.1503E-03     14.1726E-03
            1221            1845     14.1503E-03     14.1726E-03
            1203            1845     14.1503E-03     14.1726E-03
            1222            1845     14.1503E-03     14.1726E-03
            1205            1846     15.9848E-03     15.9574E-03
            1223            1846     15.9848E-03     15.9574E-03
            1204            1846     15.9848E-03     15.9574E-03
            1222            1846     15.9848E-03     15.9574E-03
            1224            1847     17.8901E-03     17.8391E-03
            1205            1847     17.8901E-03     17.8391E-03
            1206            1847     17.8901E-03     17.8391E-03
            1223            1847     17.8901E-03     17.8391E-03
            1206            1848     19.8402E-03     19.7739E-03
            1224            1848     19.8402E-03     19.7739E-03
            1207            1848     19.8402E-03     19.7739E-03
            1225            1848     19.8402E-03     19.7739E-03
            1207            1849     21.8146E-03     21.7319E-03
            1208            1849     21.8146E-03     21.7319E-03
            1226            1849     21.8146E-03     21.7319E-03
            1225            1849     21.8146E-03     21.7319E-03
            1208            1850     23.7820E-03     23.6873E-03
            1209            1850     23.7820E-03     23.6873E-03
            1226            1850     23.7820E-03     23.6873E-03
            1227            1850     23.7820E-03     23.6873E-03
            1210            1851     25.7175E-03     25.6071E-03
            1228            1851     25.7175E-03     25.6071E-03
            1209            1851     25.7175E-03     25.6071E-03
            1227            1851     25.7175E-03     25.6071E-03
            1229            1852     27.5722E-03     27.4593E-03
            1228            1852     27.5722E-03     27.4593E-03
            1211            1852     27.5722E-03     27.4593E-03
            1210            1852     27.5722E-03     27.4593E-03
            1229            1853     29.2909E-03     29.1887E-03
            1211            1853     29.2909E-03     29.1887E-03
            1230            1853     29.2909E-03     29.1887E-03
            1212            1853     29.2909E-03     29.1887E-03
            1212            1854     30.7885E-03     30.7312E-03
            1230            1854     30.7885E-03     30.7312E-03
            1231            1854     30.7885E-03     30.7312E-03
            1213            1854     30.7885E-03     30.7312E-03
            1232            1855     31.9393E-03     31.9911E-03
            1213            1855     31.9393E-03     31.9911E-03
            1231            1855     31.9393E-03     31.9911E-03
            1214            1855     31.9393E-03     31.9911E-03
            1215            1856     32.5987E-03     32.7757E-03
            1232            1856     32.5987E-03     32.7757E-03
            1233            1856     32.5987E-03     32.7757E-03
            1214            1856     32.5987E-03     32.7757E-03
            1234            1857     33.0601E-03     33.1934E-03
            1216            1857     33.0601E-03     33.1934E-03
            1233            1857     33.0601E-03     33.1934E-03
            1215            1857     33.0601E-03     33.1934E-03
            1235            1858     7.83709E-03     7.99925E-03
            1217            1858     7.83709E-03     7.99925E-03
            1236            1858     7.83709E-03     7.99925E-03
            1218            1858     7.83709E-03     7.99925E-03
            1236            1859     8.65170E-03     9.16213E-03
            1219            1859     8.65170E-03     9.16213E-03
            1218            1859     8.65170E-03     9.16213E-03
            1237            1859     8.65170E-03     9.16213E-03
            1238            1860     9.99180E-03     10.5212E-03
            1219            1860     9.99180E-03     10.5212E-03
            1237            1860     9.99180E-03     10.5212E-03
            1220            1860     9.99180E-03     10.5212E-03
            1238            1861     11.7400E-03     12.0799E-03
            1239            1861     11.7400E-03     12.0799E-03
            1221            1861     11.7400E-03     12.0799E-03
            1220            1861     11.7400E-03     12.0799E-03
            1221            1862     13.6590E-03     13.8861E-03
            1240            1862     13.6590E-03     13.8861E-03
            1222            1862     13.6590E-03     13.8861E-03
            1239            1862     13.6590E-03     13.8861E-03
            1222            1863     15.6734E-03     15.8415E-03
            1240            1863     15.6734E-03     15.8415E-03
            1223            1863     15.6734E-03     15.8415E-03
            1241            1863     15.6734E-03     15.8415E-03
            1223            1864     17.7549E-03     17.8954E-03
            1224            1864     17.7549E-03     17.8954E-03
            1242            1864     17.7549E-03     17.8954E-03
            1241            1864     17.7549E-03     17.8954E-03
            1224            1865     19.8804E-03     20.0113E-03
            1242            1865     19.8804E-03     20.0113E-03
            1225            1865     19.8804E-03     20.0113E-03
            1243            1865     19.8804E-03     20.0113E-03
            1244            1866     22.0290E-03     22.1640E-03
            1225            1866     22.0290E-03     22.1640E-03
            1226            1866     22.0290E-03     22.1640E-03
            1243            1866     22.0290E-03     22.1640E-03
            1226            1867     24.1849E-03     24.3298E-03
            1244            1867     24.1849E-03     24.3298E-03
            1227            1867     24.1849E-03     24.3298E-03
            1245            1867     24.1849E-03     24.3298E-03
            1228            1868     26.3109E-03     26.4844E-03
            1227            1868     26.3109E-03     26.4844E-03
            1245            1868     26.3109E-03     26.4844E-03
            1246            1868     26.3109E-03     26.4844E-03
            1246            1869     28.3728E-03     28.5865E-03
            1247            1869     28.3728E-03     28.5865E-03
            1229            1869     28.3728E-03     28.5865E-03
            1228            1869     28.3728E-03     28.5865E-03
            1248            1870     30.3023E-03     30.5857E-03
            1247            1870     30.3023E-03     30.5857E-03
            1229            1870     30.3023E-03     30.5857E-03
            1230            1870     30.3023E-03     30.5857E-03
            1231            1871     32.0088E-03     32.4003E-03
            1230            1871     32.0088E-03     32.4003E-03
            1249            1871     32.0088E-03     32.4003E-03
            1248            1871     32.0088E-03     32.4003E-03
            1249            1872     33.4098E-03     33.9047E-03
            1231            1872     33.4098E-03     33.9047E-03
            1250            1872     33.4098E-03     33.9047E-03
            1232            1872     33.4098E-03     33.9047E-03
            1251            1873     34.4649E-03     35.0304E-03
            1232            1873     34.4649E-03     35.0304E-03
            1233            1873     34.4649E-03     35.0304E-03
            1250            1873     34.4649E-03     35.0304E-03
            1233            1874     35.5726E-03     35.9660E-03
            1252            1874     35.5726E-03     35.9660E-03
            1234            1874     35.5726E-03     35.9660E-03
            1251            1874     35.5726E-03     35.9660E-03
            1236            1875     6.82863E-03     6.98180E-03
            1254            1875     6.82863E-03     6.98180E-03
            1235            1875     6.82863E-03     6.98180E-03
            1253            1875     6.82863E-03     6.98180E-03
            1237            1876     7.80093E-03     8.19203E-03
            1254            1876     7.80093E-03     8.19203E-03
            1255            1876     7.80093E-03     8.19203E-03
            1236            1876     7.80093E-03     8.19203E-03
            1237            1877     9.31539E-03     9.83867E-03
            1255            1877     9.31539E-03     9.83867E-03
            1238            1877     9.31539E-03     9.83867E-03
            1256            1877     9.31539E-03     9.83867E-03
            1238            1878     11.1655E-03     11.6629E-03
            1239            1878     11.1655E-03     11.6629E-03
            1257            1878     11.1655E-03     11.6629E-03
            1256            1878     11.1655E-03     11.6629E-03
            1239            1879     13.2220E-03     13.6335E-03
            1258            1879     13.2220E-03     13.6335E-03
            1257            1879     13.2220E-03     13.6335E-03
            1240            1879     13.2220E-03     13.6335E-03
            1258            1880     15.3734E-03     15.7373E-03
            1241            1880     15.3734E-03     15.7373E-03
            1259            1880     15.3734E-03     15.7373E-03
            1240            1880     15.3734E-03     15.7373E-03
            1242            1881     17.5858E-03     17.9253E-03
            1259            1881     17.5858E-03     17.9253E-03
            1241            1881     17.5858E-03     17.9253E-03
            1260            1881     17.5858E-03     17.9253E-03
            1261            1882     19.8380E-03     20.1764E-03
            1260            1882     19.8380E-03     20.1764E-03
            1243            1882     19.8380E-03     20.1764E-03
            1242            1882     19.8380E-03     20.1764E-03
            1262            1883     22.1189E-03     22.4709E-03
            1261            1883     22.1189E-03     22.4709E-03
            1244            1883     22.1189E-03     22.4709E-03
            1243            1883     22.1189E-03     22.4709E-03
            1263            1884     24.4071E-03     24.7915E-03
            1244            1884     24.4071E-03     24.7915E-03
            1245            1884     24.4071E-03     24.7915E-03
            1262            1884     24.4071E-03     24.7915E-03
            1264            1885     26.6904E-03     27.1175E-03
            1245            1885     26.6904E-03     27.1175E-03
            1263            1885     26.6904E-03     27.1175E-03
            1246            1885     26.6904E-03     27.1175E-03
            1265            1886     28.9209E-03     29.4162E-03
            1246            1886     28.9209E-03     29.4162E-03
            1264            1886     28.9209E-03     29.4162E-03
            1247            1886     28.9209E-03     29.4162E-03
            1266            1887     31.0529E-03     31.6301E-03
            1265            1887     31.0529E-03     31.6301E-03
            1247            1887     31.0529E-03     31.6301E-03
            1248            1887     31.0529E-03     31.6301E-03
            1248            1888     33.0151E-03     33.6750E-03
            1266            1888     33.0151E-03     33.6750E-03
            1249            1888     33.0151E-03     33.6750E-03
            1267            1888     33.0151E-03     33.6750E-03
            1250            1889     34.7256E-03     35.4578E-03
            1249            1889     34.7256E-03     35.4578E-03
            1267            1889     34.7256E-03     35.4578E-03
            1268            1889     34.7256E-03     35.4578E-03
            1250            1890     36.2887E-03     36.9405E-03
            1268            1890     36.2887E-03     36.9405E-03
            1251            1890     36.2887E-03     36.9405E-03
            1269            1890     36.2887E-03     36.9405E-03
            1270            1891     37.8427E-03     38.2595E-03
            1251            1891     37.8427E-03     38.2595E-03
            1252            1891     37.8427E-03     38.2595E-03
            1269            1891     37.8427E-03     38.2595E-03
            1271            1892     5.87664E-03     5.95349E-03
            1272            1892     5.87664E-03     5.95349E-03
            1254            1892     5.87664E-03     5.95349E-03
            1253            1892     5.87664E-03     5.95349E-03
            1273            1893     6.98840E-03     7.41532E-03
            1254            1893     6.98840E-03     7.41532E-03
            1272            1893     6.98840E-03     7.41532E-03
            1255            1893     6.98840E-03     7.41532E-03
            1274            1894     8.66541E-03     9.22029E-03
            1255            1894     8.66541E-03     9.22029E-03
            1273            1894     8.66541E-03     9.22029E-03
            1256            1894     8.66541E-03     9.22029E-03
            1274            1895     10.6513E-03     11.2433E-03
            1257            1895     10.6513E-03     11.2433E-03
            1256            1895     10.6513E-03     11.2433E-03
            1275            1895     10.6513E-03     11.2433E-03
            1275            1896     12.7995E-03     13.3718E-03
            1276            1896     12.7995E-03     13.3718E-03
            1258            1896     12.7995E-03     13.3718E-03
            1257            1896     12.7995E-03     13.3718E-03
            1258            1897     15.0447E-03     15.5853E-03
            1276            1897     15.0447E-03     15.5853E-03
            1277            1897     15.0447E-03     15.5853E-03
            1259            1897     15.0447E-03     15.5853E-03
            1259            1898     17.3411E-03     17.8712E-03
            1260            1898     17.3411E-03     17.8712E-03
            1277            1898     17.3411E-03     17.8712E-03
            1278            1898     17.3411E-03     17.8712E-03
            1278            1899     19.6759E-03     20.2113E-03
            1279            1899     19.6759E-03     20.2113E-03
            1260            1899     19.6759E-03     20.2113E-03
            1261            1899     19.6759E-03     20.2113E-03
            1280            1900     22.0370E-03     22.5955E-03
            1279            1900     22.0370E-03     22.5955E-03
            1261            1900     22.0370E-03     22.5955E-03
            1262            1900     22.0370E-03     22.5955E-03
            1262            1901     24.4222E-03     25.0173E-03
            1280            1901     24.4222E-03     25.0173E-03
            1281            1901     24.4222E-03     25.0173E-03
            1263            1901     24.4222E-03     25.0173E-03
            1282            1902     26.8109E-03     27.4609E-03
            1281            1902     26.8109E-03     27.4609E-03
            1264            1902     26.8109E-03     27.4609E-03
            1263            1902     26.8109E-03     27.4609E-03
            1283            1903     29.2018E-03     29.9095E-03
            1264            1903     29.2018E-03     29.9095E-03
            1282            1903     29.2018E-03     29.9095E-03
            1265            1903     29.2018E-03     29.9095E-03
            1283            1904     31.5410E-03     32.3206E-03
            1284            1904     31.5410E-03     32.3206E-03
            1266            1904     31.5410E-03     32.3206E-03
            1265            1904     31.5410E-03     32.3206E-03
            1285            1905     33.7900E-03     34.6188E-03
            1284            1905     33.7900E-03     34.6188E-03
            1267            1905     33.7900E-03     34.6188E-03
            1266            1905     33.7900E-03     34.6188E-03
            1268            1906     35.9247E-03     36.7284E-03
            1285            1906     35.9247E-03     36.7284E-03
            1286            1906     35.9247E-03     36.7284E-03
            1267            1906     35.9247E-03     36.7284E-03
            1269            1907     37.9150E-03     38.6259E-03
            1287            1907     37.9150E-03     38.6259E-03
            1268            1907     37.9150E-03     38.6259E-03
            1286            1907     37.9150E-03     38.6259E-03
            1287            1908     39.9302E-03     40.4018E-03
            1269            1908     39.9302E-03     40.4018E-03
            1288            1908     39.9302E-03     40.4018E-03
            1270            1908     39.9302E-03     40.4018E-03
            1272            1909     4.90106E-03     5.04971E-03
            1271            1909     4.90106E-03     5.04971E-03
            1289            1909     4.90106E-03     5.04971E-03
            1290            1909     4.90106E-03     5.04971E-03
            1272            1910     6.20880E-03     6.68103E-03
            1273            1910     6.20880E-03     6.68103E-03
            1290            1910     6.20880E-03     6.68103E-03
            1291            1910     6.20880E-03     6.68103E-03
            1274            1911     8.04599E-03     8.68768E-03
            1292            1911     8.04599E-03     8.68768E-03
            1291            1911     8.04599E-03     8.68768E-03
            1273            1911     8.04599E-03     8.68768E-03
            1274            1912     10.1425E-03     10.8352E-03
            1292            1912     10.1425E-03     10.8352E-03
            1275            1912     10.1425E-03     10.8352E-03
            1293            1912     10.1425E-03     10.8352E-03
            1294            1913     12.3690E-03     13.0733E-03
            1275            1913     12.3690E-03     13.0733E-03
            1293            1913     12.3690E-03     13.0733E-03
            1276            1913     12.3690E-03     13.0733E-03
            1277            1914     14.6650E-03     15.3665E-03
            1295            1914     14.6650E-03     15.3665E-03
            1276            1914     14.6650E-03     15.3665E-03
            1294            1914     14.6650E-03     15.3665E-03
            1295            1915     17.0062E-03     17.7092E-03
            1277            1915     17.0062E-03     17.7092E-03
            1296            1915     17.0062E-03     17.7092E-03
            1278            1915     17.0062E-03     17.7092E-03
            1296            1916     19.3790E-03     20.0948E-03
            1278            1916     19.3790E-03     20.0948E-03
            1297            1916     19.3790E-03     20.0948E-03
            1279            1916     19.3790E-03     20.0948E-03
            1279            1917     21.7816E-03     22.5236E-03
            1280            1917     21.7816E-03     22.5236E-03
            1297            1917     21.7816E-03     22.5236E-03
            1298            1917     21.7816E-03     22.5236E-03
            1298            1918     24.2125E-03     24.9918E-03
            1280            1918     24.2125E-03     24.9918E-03
            1281            1918     24.2125E-03     24.9918E-03
            1299            1918     24.2125E-03     24.9918E-03
            1282            1919     26.6826E-03     27.5080E-03
            1299            1919     26.6826E-03     27.5080E-03
            1300            1919     26.6826E-03     27.5080E-03
            1281            1919     26.6826E-03     27.5080E-03
            1300            1920     29.1814E-03     30.0604E-03
            1282            1920     29.1814E-03     30.0604E-03
            1283            1920     29.1814E-03     30.0604E-03
            1301            1920     29.1814E-03     30.0604E-03
            1284            1921     31.7467E-03     32.6515E-03
            1283            1921     31.7467E-03     32.6515E-03
            1302            1921     31.7467E-03     32.6515E-03
            1301            1921     31.7467E-03     32.6515E-03
            1284            1922     34.3241E-03     35.2481E-03
            1303            1922     34.3241E-03     35.2481E-03
            1285            1922     34.3241E-03     35.2481E-03
            1302            1922     34.3241E-03     35.2481E-03
            1304            1923     36.8884E-03     37.7649E-03
            1285            1923     36.8884E-03     37.7649E-03
            1303            1923     36.8884E-03     37.7649E-03
            1286            1923     36.8884E-03     37.7649E-03
            1286            1924     39.4282E-03     40.1351E-03
            1304            1924     39.4282E-03     40.1351E-03
            1287            1924     39.4282E-03     40.1351E-03
            1305            1924     39.4282E-03     40.1351E-03
            1288            1925     41.8578E-03     42.4323E-03
            1287            1925     41.8578E-03     42.4323E-03
            1305            1925     41.8578E-03     42.4323E-03
            1306            1925     41.8578E-03     42.4323E-03
            1307            1926     3.95295E-03     4.18137E-03
            1308            1926     3.95295E-03     4.18137E-03
            1290            1926     3.95295E-03     4.18137E-03
            1289            1926     3.95295E-03     4.18137E-03
            1308            1927     5.45592E-03     6.05712E-03
            1309            1927     5.45592E-03     6.05712E-03
            1290            1927     5.45592E-03     6.05712E-03
            1291            1927     5.45592E-03     6.05712E-03
            1309            1928     7.45448E-03     8.20336E-03
            1291            1928     7.45448E-03     8.20336E-03
            1292            1928     7.45448E-03     8.20336E-03
            1310            1928     7.45448E-03     8.20336E-03
            1292            1929     9.64238E-03     10.4515E-03
            1310            1929     9.64238E-03     10.4515E-03
            1311            1929     9.64238E-03     10.4515E-03
            1293            1929     9.64238E-03     10.4515E-03
            1312            1930     11.9161E-03     12.7491E-03
            1294            1930     11.9161E-03     12.7491E-03
            1293            1930     11.9161E-03     12.7491E-03
            1311            1930     11.9161E-03     12.7491E-03
            1295            1931     14.2345E-03     15.0856E-03
            1313            1931     14.2345E-03     15.0856E-03
            1312            1931     14.2345E-03     15.0856E-03
            1294            1931     14.2345E-03     15.0856E-03
            1296            1932     16.5848E-03     17.4476E-03
            1314            1932     16.5848E-03     17.4476E-03
            1295            1932     16.5848E-03     17.4476E-03
            1313            1932     16.5848E-03     17.4476E-03
            1297            1933     18.9605E-03     19.8411E-03
            1314            1933     18.9605E-03     19.8411E-03
            1315            1933     18.9605E-03     19.8411E-03
            1296            1933     18.9605E-03     19.8411E-03
            1316            1934     21.3654E-03     22.2678E-03
            1315            1934     21.3654E-03     22.2678E-03
            1297            1934     21.3654E-03     22.2678E-03
            1298            1934     21.3654E-03     22.2678E-03
            1317            1935     23.8066E-03     24.7417E-03
            1316            1935     23.8066E-03     24.7417E-03
            1299            1935     23.8066E-03     24.7417E-03
            1298            1935     23.8066E-03     24.7417E-03
            1318            1936     26.3018E-03     27.2699E-03
            1317            1936     26.3018E-03     27.2699E-03
            1300            1936     26.3018E-03     27.2699E-03
            1299            1936     26.3018E-03     27.2699E-03
            1319            1937     28.8875E-03     29.8876E-03
            1300            1937     28.8875E-03     29.8876E-03
            1318            1937     28.8875E-03     29.8876E-03
            1301            1937     28.8875E-03     29.8876E-03
            1302            1938     31.5830E-03     32.6043E-03
            1301            1938     31.5830E-03     32.6043E-03
            1319            1938     31.5830E-03     32.6043E-03
            1320            1938     31.5830E-03     32.6043E-03
            1321            1939     34.5224E-03     35.4830E-03
            1320            1939     34.5224E-03     35.4830E-03
            1302            1939     34.5224E-03     35.4830E-03
            1303            1939     34.5224E-03     35.4830E-03
            1321            1940     37.6046E-03     38.5071E-03
            1303            1940     37.6046E-03     38.5071E-03
            1322            1940     37.6046E-03     38.5071E-03
            1304            1940     37.6046E-03     38.5071E-03
            1304            1941     40.7006E-03     41.5242E-03
            1323            1941     40.7006E-03     41.5242E-03
            1305            1941     40.7006E-03     41.5242E-03
            1322            1941     40.7006E-03     41.5242E-03
            1305            1942     43.7972E-03     44.3157E-03
            1324            1942     43.7972E-03     44.3157E-03
            1323            1942     43.7972E-03     44.3157E-03
            1306            1942     43.7972E-03     44.3157E-03
            1325            1943     3.00208E-03     3.44840E-03
            1308            1943     3.00208E-03     3.44840E-03
            1326            1943     3.00208E-03     3.44840E-03
            1307            1943     3.00208E-03     3.44840E-03
            1309            1944     4.76954E-03     5.55605E-03
            1308            1944     4.76954E-03     5.55605E-03
            1327            1944     4.76954E-03     5.55605E-03
            1326            1944     4.76954E-03     5.55605E-03
            1328            1945     6.92006E-03     7.79657E-03
            1309            1945     6.92006E-03     7.79657E-03
            1310            1945     6.92006E-03     7.79657E-03
            1327            1945     6.92006E-03     7.79657E-03
            1329            1946     9.16893E-03     10.1010E-03
            1311            1946     9.16893E-03     10.1010E-03
            1310            1946     9.16893E-03     10.1010E-03
            1328            1946     9.16893E-03     10.1010E-03
            1330            1947     11.4547E-03     12.4327E-03
            1311            1947     11.4547E-03     12.4327E-03
            1312            1947     11.4547E-03     12.4327E-03
            1329            1947     11.4547E-03     12.4327E-03
            1330            1948     13.7691E-03     14.7703E-03
            1313            1948     13.7691E-03     14.7703E-03
            1331            1948     13.7691E-03     14.7703E-03
            1312            1948     13.7691E-03     14.7703E-03
            1331            1949     16.1003E-03     17.1212E-03
            1332            1949     16.1003E-03     17.1212E-03
            1313            1949     16.1003E-03     17.1212E-03
            1314            1949     16.1003E-03     17.1212E-03
            1332            1950     18.4523E-03     19.4861E-03
            1314            1950     18.4523E-03     19.4861E-03
            1333            1950     18.4523E-03     19.4861E-03
            1315            1950     18.4523E-03     19.4861E-03
            1316            1951     20.8266E-03     21.8772E-03
            1333            1951     20.8266E-03     21.8772E-03
            1315            1951     20.8266E-03     21.8772E-03
            1334            1951     20.8266E-03     21.8772E-03
            1317            1952     23.2443E-03     24.3076E-03
            1335            1952     23.2443E-03     24.3076E-03
            1316            1952     23.2443E-03     24.3076E-03
            1334            1952     23.2443E-03     24.3076E-03
            1317            1953     25.7229E-03     26.8078E-03
            1318            1953     25.7229E-03     26.8078E-03
            1335            1953     25.7229E-03     26.8078E-03
            1336            1953     25.7229E-03     26.8078E-03
            1337            1954     28.3169E-03     29.4098E-03
            1318            1954     28.3169E-03     29.4098E-03
            1319            1954     28.3169E-03     29.4098E-03
            1336            1954     28.3169E-03     29.4098E-03
            1319            1955     31.1013E-03     32.1963E-03
            1338            1955     31.1013E-03     32.1963E-03
            1337            1955     31.1013E-03     32.1963E-03
            1320            1955     31.1013E-03     32.1963E-03
            1338            1956     34.1636E-03     35.2281E-03
            1339            1956     34.1636E-03     35.2281E-03
            1321            1956     34.1636E-03     35.2281E-03
            1320            1956     34.1636E-03     35.2281E-03
            1339            1957     37.8378E-03     38.7158E-03
            1321            1957     37.8378E-03     38.7158E-03
            1340            1957     37.8378E-03     38.7158E-03
            1322            1957     37.8378E-03     38.7158E-03
            1323            1958     41.8251E-03     42.5488E-03
            1322            1958     41.8251E-03     42.5488E-03
            1340            1958     41.8251E-03     42.5488E-03
            1341            1958     41.8251E-03     42.5488E-03
            1323            1959     45.5180E-03     46.3326E-03
            1324            1959     45.5180E-03     46.3326E-03
            1341            1959     45.5180E-03     46.3326E-03
            1342            1959     45.5180E-03     46.3326E-03
            1326            1960     2.15624E-03     3.01486E-03
            1343            1960     2.15624E-03     3.01486E-03
            1344            1960     2.15624E-03     3.01486E-03
            1325            1960     2.15624E-03     3.01486E-03
            1344            1961     4.27295E-03     5.20228E-03
            1326            1961     4.27295E-03     5.20228E-03
            1327            1961     4.27295E-03     5.20228E-03
            1345            1961     4.27295E-03     5.20228E-03
            1345            1962     6.50234E-03     7.50978E-03
            1346            1962     6.50234E-03     7.50978E-03
            1328            1962     6.50234E-03     7.50978E-03
            1327            1962     6.50234E-03     7.50978E-03
            1328            1963     8.75028E-03     9.84037E-03
            1347            1963     8.75028E-03     9.84037E-03
            1346            1963     8.75028E-03     9.84037E-03
            1329            1963     8.75028E-03     9.84037E-03
            1329            1964     11.0211E-03     12.1585E-03
            1330            1964     11.0211E-03     12.1585E-03
            1347            1964     11.0211E-03     12.1585E-03
            1348            1964     11.0211E-03     12.1585E-03
            1349            1965     13.3011E-03     14.4713E-03
            1331            1965     13.3011E-03     14.4713E-03
            1330            1965     13.3011E-03     14.4713E-03
            1348            1965     13.3011E-03     14.4713E-03
            1331            1966     15.5940E-03     16.7791E-03
            1350            1966     15.5940E-03     16.7791E-03
            1349            1966     15.5940E-03     16.7791E-03
            1332            1966     15.5940E-03     16.7791E-03
            1351            1967     17.8972E-03     19.0895E-03
            1333            1967     17.8972E-03     19.0895E-03
            1332            1967     17.8972E-03     19.0895E-03
            1350            1967     17.8972E-03     19.0895E-03
            1352            1968     20.2256E-03     21.4146E-03
            1333            1968     20.2256E-03     21.4146E-03
            1334            1968     20.2256E-03     21.4146E-03
            1351            1968     20.2256E-03     21.4146E-03
            1353            1969     22.5856E-03     23.7706E-03
            1352            1969     22.5856E-03     23.7706E-03
            1334            1969     22.5856E-03     23.7706E-03
            1335            1969     22.5856E-03     23.7706E-03
            1335            1970     25.0211E-03     26.1914E-03
            1353            1970     25.0211E-03     26.1914E-03
            1336            1970     25.0211E-03     26.1914E-03
            1354            1970     25.0211E-03     26.1914E-03
            1355            1971     27.5606E-03     28.7243E-03
            1354            1971     27.5606E-03     28.7243E-03
            1336            1971     27.5606E-03     28.7243E-03
            1337            1971     27.5606E-03     28.7243E-03
            1355            1972     30.3195E-03     31.4558E-03
            1338            1972     30.3195E-03     31.4558E-03
            1356            1972     30.3195E-03     31.4558E-03
            1337            1972     30.3195E-03     31.4558E-03
            1338            1973     33.4064E-03     34.5279E-03
            1339            1973     33.4064E-03     34.5279E-03
            1356            1973     33.4064E-03     34.5279E-03
            1357            1973     33.4064E-03     34.5279E-03
            1357            1974     37.0888E-03     38.1384E-03
            1339            1974     37.0888E-03     38.1384E-03
            1358            1974     37.0888E-03     38.1384E-03
            1340            1974     37.0888E-03     38.1384E-03
            1359            1975     42.1144E-03     42.8046E-03
            1358            1975     42.1144E-03     42.8046E-03
            1340            1975     42.1144E-03     42.8046E-03
            1341            1975     42.1144E-03     42.8046E-03
            1359            1976     47.4413E-03     47.6320E-03
            1341            1976     47.4413E-03     47.6320E-03
            1342            1976     47.4413E-03     47.6320E-03
            1360            1976     47.4413E-03     47.6320E-03
            1362            1977     1.99673E-03     2.93709E-03
            1361            1977     1.99673E-03     2.93709E-03
            1344            1977     1.99673E-03     2.93709E-03
            1343            1977     1.99673E-03     2.93709E-03
            1362            1978     4.11560E-03     5.12296E-03
            1363            1978     4.11560E-03     5.12296E-03
            1344            1978     4.11560E-03     5.12296E-03
            1345            1978     4.11560E-03     5.12296E-03
            1364            1979     6.25988E-03     7.42905E-03
            1345            1979     6.25988E-03     7.42905E-03
            1346            1979     6.25988E-03     7.42905E-03
            1363            1979     6.25988E-03     7.42905E-03
            1364            1980     8.45234E-03     9.71779E-03
            1346            1980     8.45234E-03     9.71779E-03
            1347            1980     8.45234E-03     9.71779E-03
            1365            1980     8.45234E-03     9.71779E-03
            1366            1981     10.6597E-03     11.9876E-03
            1365            1981     10.6597E-03     11.9876E-03
            1348            1981     10.6597E-03     11.9876E-03
            1347            1981     10.6597E-03     11.9876E-03
            1348            1982     12.8823E-03     14.2422E-03
            1367            1982     12.8823E-03     14.2422E-03
            1349            1982     12.8823E-03     14.2422E-03
            1366            1982     12.8823E-03     14.2422E-03
            1368            1983     15.1119E-03     16.4833E-03
            1349            1983     15.1119E-03     16.4833E-03
            1367            1983     15.1119E-03     16.4833E-03
            1350            1983     15.1119E-03     16.4833E-03
            1368            1984     17.3566E-03     18.7202E-03
            1350            1984     17.3566E-03     18.7202E-03
            1369            1984     17.3566E-03     18.7202E-03
            1351            1984     17.3566E-03     18.7202E-03
            1352            1985     19.6177E-03     20.9584E-03
            1369            1985     19.6177E-03     20.9584E-03
            1370            1985     19.6177E-03     20.9584E-03
            1351            1985     19.6177E-03     20.9584E-03
            1371            1986     21.9199E-03     23.2229E-03
            1352            1986     21.9199E-03     23.2229E-03
            1370            1986     21.9199E-03     23.2229E-03
            1353            1986     21.9199E-03     23.2229E-03
            1353            1987     24.2770E-03     25.5311E-03
            1371            1987     24.2770E-03     25.5311E-03
            1354            1987     24.2770E-03     25.5311E-03
            1372            1987     24.2770E-03     25.5311E-03
            1354            1988     26.7577E-03     27.9524E-03
            1372            1988     26.7577E-03     27.9524E-03
            1373            1988     26.7577E-03     27.9524E-03
            1355            1988     26.7577E-03     27.9524E-03
            1355            1989     29.3998E-03     30.5386E-03
            1356            1989     29.3998E-03     30.5386E-03
            1373            1989     29.3998E-03     30.5386E-03
            1374            1989     29.3998E-03     30.5386E-03
            1375            1990     32.4032E-03     33.4933E-03
            1356            1990     32.4032E-03     33.4933E-03
            1374            1990     32.4032E-03     33.4933E-03
            1357            1990     32.4032E-03     33.4933E-03
            1376            1991     35.8650E-03     36.9659E-03
            1358            1991     35.8650E-03     36.9659E-03
            1357            1991     35.8650E-03     36.9659E-03
            1375            1991     35.8650E-03     36.9659E-03
            1358            1992     40.5802E-03     41.7514E-03
            1377            1992     40.5802E-03     41.7514E-03
            1376            1992     40.5802E-03     41.7514E-03
            1359            1992     40.5802E-03     41.7514E-03
            1359            1993     47.6823E-03     48.5564E-03
            1360            1993     47.6823E-03     48.5564E-03
            1377            1993     47.6823E-03     48.5564E-03
            1378            1993     47.6823E-03     48.5564E-03
            1380            1994     7.56052E-03     8.70360E-03
            1362            1994     7.56052E-03     8.70360E-03
            1361            1994     7.56052E-03     8.70360E-03
            1379            1994     7.56052E-03     8.70360E-03
            1363            1995     9.44522E-03     10.0003E-03
            1362            1995     9.44522E-03     10.0003E-03
            1380            1995     9.44522E-03     10.0003E-03
            1381            1995     9.44522E-03     10.0003E-03
            1364            1996     11.3177E-03     11.8612E-03
            1381            1996     11.3177E-03     11.8612E-03
            1363            1996     11.3177E-03     11.8612E-03
            1382            1996     11.3177E-03     11.8612E-03
            1365            1997     13.3695E-03     13.9926E-03
            1383            1997     13.3695E-03     13.9926E-03
            1364            1997     13.3695E-03     13.9926E-03
            1382            1997     13.3695E-03     13.9926E-03
            1366            1998     15.5605E-03     16.2358E-03
            1384            1998     15.5605E-03     16.2358E-03
            1383            1998     15.5605E-03     16.2358E-03
            1365            1998     15.5605E-03     16.2358E-03
            1366            1999     17.8433E-03     18.5521E-03
            1385            1999     17.8433E-03     18.5521E-03
            1384            1999     17.8433E-03     18.5521E-03
            1367            1999     17.8433E-03     18.5521E-03
            1367            2000     20.1933E-03     20.9041E-03
            1386            2000     20.1933E-03     20.9041E-03
            1385            2000     20.1933E-03     20.9041E-03
            1368            2000     20.1933E-03     20.9041E-03
            1387            2001     22.5755E-03     23.2682E-03
            1369            2001     22.5755E-03     23.2682E-03
            1386            2001     22.5755E-03     23.2682E-03
            1368            2001     22.5755E-03     23.2682E-03
            1388            2002     24.9839E-03     25.6271E-03
            1370            2002     24.9839E-03     25.6271E-03
            1369            2002     24.9839E-03     25.6271E-03
            1387            2002     24.9839E-03     25.6271E-03
            1389            2003     27.3940E-03     27.9747E-03
            1388            2003     27.3940E-03     27.9747E-03
            1370            2003     27.3940E-03     27.9747E-03
            1371            2003     27.3940E-03     27.9747E-03
            1372            2004     29.8203E-03     30.2958E-03
            1390            2004     29.8203E-03     30.2958E-03
            1371            2004     29.8203E-03     30.2958E-03
            1389            2004     29.8203E-03     30.2958E-03
            1391            2005     32.2416E-03     32.6108E-03
            1373            2005     32.2416E-03     32.6108E-03
            1372            2005     32.2416E-03     32.6108E-03
            1390            2005     32.2416E-03     32.6108E-03
            1391            2006     34.7120E-03     34.9190E-03
            1392            2006     34.7120E-03     34.9190E-03
            1373            2006     34.7120E-03     34.9190E-03
            1374            2006     34.7120E-03     34.9190E-03
            1392            2007     37.2070E-03     37.2910E-03
            1393            2007     37.2070E-03     37.2910E-03
            1374            2007     37.2070E-03     37.2910E-03
            1375            2007     37.2070E-03     37.2910E-03
            1375            2008     39.9001E-03     39.8394E-03
            1393            2008     39.9001E-03     39.8394E-03
            1376            2008     39.9001E-03     39.8394E-03
            1394            2008     39.9001E-03     39.8394E-03
            1376            2009     42.7492E-03     42.7363E-03
            1377            2009     42.7492E-03     42.7363E-03
            1395            2009     42.7492E-03     42.7363E-03
            1394            2009     42.7492E-03     42.7363E-03
            1395            2010     46.7973E-03     47.6152E-03
            1396            2010     46.7973E-03     47.6152E-03
            1377            2010     46.7973E-03     47.6152E-03
            1378            2010     46.7973E-03     47.6152E-03
            1398            2011     12.2430E-03     13.7914E-03
            1380            2011     12.2430E-03     13.7914E-03
            1379            2011     12.2430E-03     13.7914E-03
            1397            2011     12.2430E-03     13.7914E-03
            1380            2012     13.7089E-03     14.3076E-03
            1399            2012     13.7089E-03     14.3076E-03
            1398            2012     13.7089E-03     14.3076E-03
            1381            2012     13.7089E-03     14.3076E-03
            1382            2013     15.6403E-03     15.7680E-03
            1381            2013     15.6403E-03     15.7680E-03
            1399            2013     15.6403E-03     15.7680E-03
            1400            2013     15.6403E-03     15.7680E-03
            1400            2014     17.8172E-03     17.8506E-03
            1382            2014     17.8172E-03     17.8506E-03
            1401            2014     17.8172E-03     17.8506E-03
            1383            2014     17.8172E-03     17.8506E-03
            1384            2015     20.2013E-03     20.2272E-03
            1383            2015     20.2013E-03     20.2272E-03
            1401            2015     20.2013E-03     20.2272E-03
            1402            2015     20.2013E-03     20.2272E-03
            1402            2016     22.7534E-03     22.7808E-03
            1385            2016     22.7534E-03     22.7808E-03
            1403            2016     22.7534E-03     22.7808E-03
            1384            2016     22.7534E-03     22.7808E-03
            1403            2017     25.4029E-03     25.4289E-03
            1385            2017     25.4029E-03     25.4289E-03
            1386            2017     25.4029E-03     25.4289E-03
            1404            2017     25.4029E-03     25.4289E-03
            1386            2018     28.1188E-03     28.1200E-03
            1404            2018     28.1188E-03     28.1200E-03
            1387            2018     28.1188E-03     28.1200E-03
            1405            2018     28.1188E-03     28.1200E-03
            1405            2019     30.8530E-03     30.8170E-03
            1406            2019     30.8530E-03     30.8170E-03
            1387            2019     30.8530E-03     30.8170E-03
            1388            2019     30.8530E-03     30.8170E-03
            1406            2020     33.5829E-03     33.4826E-03
            1407            2020     33.5829E-03     33.4826E-03
            1389            2020     33.5829E-03     33.4826E-03
            1388            2020     33.5829E-03     33.4826E-03
            1407            2021     36.2659E-03     36.0867E-03
            1389            2021     36.2659E-03     36.0867E-03
            1390            2021     36.2659E-03     36.0867E-03
            1408            2021     36.2659E-03     36.0867E-03
            1390            2022     38.8752E-03     38.5926E-03
            1408            2022     38.8752E-03     38.5926E-03
            1391            2022     38.8752E-03     38.5926E-03
            1409            2022     38.8752E-03     38.5926E-03
            1392            2023     41.3588E-03     40.9596E-03
            1409            2023     41.3588E-03     40.9596E-03
            1410            2023     41.3588E-03     40.9596E-03
            1391            2023     41.3588E-03     40.9596E-03
            1411            2024     43.6769E-03     43.1608E-03
            1410            2024     43.6769E-03     43.1608E-03
            1393            2024     43.6769E-03     43.1608E-03
            1392            2024     43.6769E-03     43.1608E-03
            1394            2025     45.7306E-03     45.1200E-03
            1412            2025     45.7306E-03     45.1200E-03
            1393            2025     45.7306E-03     45.1200E-03
            1411            2025     45.7306E-03     45.1200E-03
            1394            2026     47.4544E-03     46.8512E-03
            1395            2026     47.4544E-03     46.8512E-03
            1412            2026     47.4544E-03     46.8512E-03
            1413            2026     47.4544E-03     46.8512E-03
            1395            2027     48.6873E-03     47.9234E-03
            1413            2027     48.6873E-03     47.9234E-03
            1396            2027     48.6873E-03     47.9234E-03
            1414            2027     48.6873E-03     47.9234E-03
            1397            2028     10.8657E-03     11.8093E-03
            1416            2028     10.8657E-03     11.8093E-03
            1398            2028     10.8657E-03     11.8093E-03
            1415            2028     10.8657E-03     11.8093E-03
            1417            2029     12.0243E-03     13.1451E-03
            1416            2029     12.0243E-03     13.1451E-03
            1398            2029     12.0243E-03     13.1451E-03
            1399            2029     12.0243E-03     13.1451E-03
            1400            2030     14.2068E-03     14.8241E-03
            1417            2030     14.2068E-03     14.8241E-03
            1399            2030     14.2068E-03     14.8241E-03
            1418            2030     14.2068E-03     14.8241E-03
            1418            2031     16.7541E-03     17.1018E-03
            1419            2031     16.7541E-03     17.1018E-03
            1400            2031     16.7541E-03     17.1018E-03
            1401            2031     16.7541E-03     17.1018E-03
            1419            2032     19.4749E-03     19.7275E-03
            1401            2032     19.4749E-03     19.7275E-03
            1402            2032     19.4749E-03     19.7275E-03
            1420            2032     19.4749E-03     19.7275E-03
            1420            2033     22.3283E-03     22.5400E-03
            1402            2033     22.3283E-03     22.5400E-03
            1421            2033     22.3283E-03     22.5400E-03
            1403            2033     22.3283E-03     22.5400E-03
            1404            2034     25.2684E-03     25.4633E-03
            1422            2034     25.2684E-03     25.4633E-03
            1403            2034     25.2684E-03     25.4633E-03
            1421            2034     25.2684E-03     25.4633E-03
            1404            2035     28.2623E-03     28.4464E-03
            1422            2035     28.2623E-03     28.4464E-03
            1405            2035     28.2623E-03     28.4464E-03
            1423            2035     28.2623E-03     28.4464E-03
            1423            2036     31.2885E-03     31.4562E-03
            1406            2036     31.2885E-03     31.4562E-03
            1424            2036     31.2885E-03     31.4562E-03
            1405            2036     31.2885E-03     31.4562E-03
            1425            2037     34.3121E-03     34.4679E-03
            1424            2037     34.3121E-03     34.4679E-03
            1406            2037     34.3121E-03     34.4679E-03
            1407            2037     34.3121E-03     34.4679E-03
            1426            2038     37.3133E-03     37.4497E-03
            1425            2038     37.3133E-03     37.4497E-03
            1407            2038     37.3133E-03     37.4497E-03
            1408            2038     37.3133E-03     37.4497E-03
            1408            2039     40.2419E-03     40.3766E-03
            1409            2039     40.2419E-03     40.3766E-03
            1427            2039     40.2419E-03     40.3766E-03
            1426            2039     40.2419E-03     40.3766E-03
            1409            2040     43.0565E-03     43.2013E-03
            1428            2040     43.0565E-03     43.2013E-03
            1410            2040     43.0565E-03     43.2013E-03
            1427            2040     43.0565E-03     43.2013E-03
            1428            2041     45.6829E-03     45.8812E-03
            1429            2041     45.6829E-03     45.8812E-03
            1410            2041     45.6829E-03     45.8812E-03
            1411            2041     45.6829E-03     45.8812E-03
            1429            2042     48.0239E-03     48.3400E-03
            1411            2042     48.0239E-03     48.3400E-03
            1412            2042     48.0239E-03     48.3400E-03
            1430            2042     48.0239E-03     48.3400E-03
            1412            2043     50.0566E-03     50.4415E-03
            1430            2043     50.0566E-03     50.4415E-03
            1413            2043     50.0566E-03     50.4415E-03
            1431            2043     50.0566E-03     50.4415E-03
            1413            2044     51.7244E-03     51.9572E-03
            1414            2044     51.7244E-03     51.9572E-03
            1431            2044     51.7244E-03     51.9572E-03
            1432            2044     51.7244E-03     51.9572E-03
            1416            2045     9.35381E-03     9.78771E-03
            1415            2045     9.35381E-03     9.78771E-03
            1433            2045     9.35381E-03     9.78771E-03
            1434            2045     9.35381E-03     9.78771E-03
            1416            2046     10.8150E-03     11.7203E-03
            1434            2046     10.8150E-03     11.7203E-03
            1417            2046     10.8150E-03     11.7203E-03
            1435            2046     10.8150E-03     11.7203E-03
            1435            2047     13.0914E-03     13.9794E-03
            1417            2047     13.0914E-03     13.9794E-03
            1418            2047     13.0914E-03     13.9794E-03
            1436            2047     13.0914E-03     13.9794E-03
            1419            2048     15.8971E-03     16.5333E-03
            1436            2048     15.8971E-03     16.5333E-03
            1437            2048     15.8971E-03     16.5333E-03
            1418            2048     15.8971E-03     16.5333E-03
            1438            2049     18.8971E-03     19.4005E-03
            1437            2049     18.8971E-03     19.4005E-03
            1420            2049     18.8971E-03     19.4005E-03
            1419            2049     18.8971E-03     19.4005E-03
            1420            2050     22.0031E-03     22.4388E-03
            1439            2050     22.0031E-03     22.4388E-03
            1421            2050     22.0031E-03     22.4388E-03
            1438            2050     22.0031E-03     22.4388E-03
            1421            2051     25.1805E-03     25.5892E-03
            1439            2051     25.1805E-03     25.5892E-03
            1422            2051     25.1805E-03     25.5892E-03
            1440            2051     25.1805E-03     25.5892E-03
            1422            2052     28.4065E-03     28.8081E-03
            1440            2052     28.4065E-03     28.8081E-03
            1441            2052     28.4065E-03     28.8081E-03
            1423            2052     28.4065E-03     28.8081E-03
            1423            2053     31.6595E-03     32.0716E-03
            1424            2053     31.6595E-03     32.0716E-03
            1441            2053     31.6595E-03     32.0716E-03
            1442            2053     31.6595E-03     32.0716E-03
            1424            2054     34.9275E-03     35.3563E-03
            1443            2054     34.9275E-03     35.3563E-03
            1425            2054     34.9275E-03     35.3563E-03
            1442            2054     34.9275E-03     35.3563E-03
            1426            2055     38.1740E-03     38.6439E-03
            1443            2055     38.1740E-03     38.6439E-03
            1425            2055     38.1740E-03     38.6439E-03
            1444            2055     38.1740E-03     38.6439E-03
            1445            2056     41.3716E-03     41.8944E-03
            1444            2056     41.3716E-03     41.8944E-03
            1426            2056     41.3716E-03     41.8944E-03
            1427            2056     41.3716E-03     41.8944E-03
            1446            2057     44.4614E-03     45.0698E-03
            1427            2057     44.4614E-03     45.0698E-03
            1428            2057     44.4614E-03     45.0698E-03
            1445            2057     44.4614E-03     45.0698E-03
            1447            2058     47.3523E-03     48.0872E-03
            1428            2058     47.3523E-03     48.0872E-03
            1429            2058     47.3523E-03     48.0872E-03
            1446            2058     47.3523E-03     48.0872E-03
            1429            2059     50.0177E-03     50.8346E-03
            1447            2059     50.0177E-03     50.8346E-03
            1448            2059     50.0177E-03     50.8346E-03
            1430            2059     50.0177E-03     50.8346E-03
            1430            2060     52.2944E-03     53.1635E-03
            1449            2060     52.2944E-03     53.1635E-03
            1448            2060     52.2944E-03     53.1635E-03
            1431            2060     52.2944E-03     53.1635E-03
            1432            2061     54.3735E-03     55.0665E-03
            1449            2061     54.3735E-03     55.0665E-03
            1450            2061     54.3735E-03     55.0665E-03
            1431            2061     54.3735E-03     55.0665E-03
            1451            2062     7.89541E-03     8.36605E-03
            1434            2062     7.89541E-03     8.36605E-03
            1452            2062     7.89541E-03     8.36605E-03
            1433            2062     7.89541E-03     8.36605E-03
            1452            2063     9.65215E-03     10.4539E-03
            1434            2063     9.65215E-03     10.4539E-03
            1435            2063     9.65215E-03     10.4539E-03
            1453            2063     9.65215E-03     10.4539E-03
            1453            2064     12.2186E-03     13.1502E-03
            1454            2064     12.2186E-03     13.1502E-03
            1435            2064     12.2186E-03     13.1502E-03
            1436            2064     12.2186E-03     13.1502E-03
            1437            2065     15.2013E-03     16.0561E-03
            1454            2065     15.2013E-03     16.0561E-03
            1436            2065     15.2013E-03     16.0561E-03
            1455            2065     15.2013E-03     16.0561E-03
            1437            2066     18.4069E-03     19.1336E-03
            1455            2066     18.4069E-03     19.1336E-03
            1456            2066     18.4069E-03     19.1336E-03
            1438            2066     18.4069E-03     19.1336E-03
            1438            2067     21.7003E-03     22.3624E-03
            1439            2067     21.7003E-03     22.3624E-03
            1456            2067     21.7003E-03     22.3624E-03
            1457            2067     21.7003E-03     22.3624E-03
            1439            2068     25.0527E-03     25.6823E-03
            1440            2068     25.0527E-03     25.6823E-03
            1458            2068     25.0527E-03     25.6823E-03
            1457            2068     25.0527E-03     25.6823E-03
            1459            2069     28.4440E-03     29.0747E-03
            1441            2069     28.4440E-03     29.0747E-03
            1458            2069     28.4440E-03     29.0747E-03
            1440            2069     28.4440E-03     29.0747E-03
            1460            2070     31.8678E-03     32.5195E-03
            1441            2070     31.8678E-03     32.5195E-03
            1459            2070     31.8678E-03     32.5195E-03
            1442            2070     31.8678E-03     32.5195E-03
            1442            2071     35.3055E-03     36.0039E-03
            1443            2071     35.3055E-03     36.0039E-03
            1461            2071     35.3055E-03     36.0039E-03
            1460            2071     35.3055E-03     36.0039E-03
            1461            2072     38.7504E-03     39.5087E-03
            1444            2072     38.7504E-03     39.5087E-03
            1462            2072     38.7504E-03     39.5087E-03
            1443            2072     38.7504E-03     39.5087E-03
            1444            2073     42.1608E-03     43.0082E-03
            1445            2073     42.1608E-03     43.0082E-03
            1463            2073     42.1608E-03     43.0082E-03
            1462            2073     42.1608E-03     43.0082E-03
            1464            2074     45.4888E-03     46.4402E-03
            1445            2074     45.4888E-03     46.4402E-03
            1446            2074     45.4888E-03     46.4402E-03
            1463            2074     45.4888E-03     46.4402E-03
            1447            2075     48.6818E-03     49.7172E-03
            1446            2075     48.6818E-03     49.7172E-03
            1464            2075     48.6818E-03     49.7172E-03
            1465            2075     48.6818E-03     49.7172E-03
            1448            2076     51.6032E-03     52.7116E-03
            1465            2076     51.6032E-03     52.7116E-03
            1447            2076     51.6032E-03     52.7116E-03
            1466            2076     51.6032E-03     52.7116E-03
            1467            2077     54.2835E-03     55.2831E-03
            1448            2077     54.2835E-03     55.2831E-03
            1449            2077     54.2835E-03     55.2831E-03
            1466            2077     54.2835E-03     55.2831E-03
            1468            2078     56.7695E-03     57.4203E-03
            1450            2078     56.7695E-03     57.4203E-03
            1449            2078     56.7695E-03     57.4203E-03
            1467            2078     56.7695E-03     57.4203E-03
            1451            2079     6.54833E-03     6.97186E-03
            1470            2079     6.54833E-03     6.97186E-03
            1452            2079     6.54833E-03     6.97186E-03
            1469            2079     6.54833E-03     6.97186E-03
            1470            2080     8.59274E-03     9.48971E-03
            1471            2080     8.59274E-03     9.48971E-03
            1452            2080     8.59274E-03     9.48971E-03
            1453            2080     8.59274E-03     9.48971E-03
            1454            2081     11.4348E-03     12.4267E-03
            1453            2081     11.4348E-03     12.4267E-03
            1472            2081     11.4348E-03     12.4267E-03
            1471            2081     11.4348E-03     12.4267E-03
            1472            2082     14.6164E-03     15.5958E-03
            1455            2082     14.6164E-03     15.5958E-03
            1454            2082     14.6164E-03     15.5958E-03
            1473            2082     14.6164E-03     15.5958E-03
            1455            2083     17.9495E-03     18.8669E-03
            1456            2083     17.9495E-03     18.8669E-03
            1474            2083     17.9495E-03     18.8669E-03
            1473            2083     17.9495E-03     18.8669E-03
            1474            2084     21.3680E-03     22.2257E-03
            1456            2084     21.3680E-03     22.2257E-03
            1457            2084     21.3680E-03     22.2257E-03
            1475            2084     21.3680E-03     22.2257E-03
            1458            2085     24.8279E-03     25.6642E-03
            1457            2085     24.8279E-03     25.6642E-03
            1476            2085     24.8279E-03     25.6642E-03
            1475            2085     24.8279E-03     25.6642E-03
            1459            2086     28.3233E-03     29.1646E-03
            1477            2086     28.3233E-03     29.1646E-03
            1476            2086     28.3233E-03     29.1646E-03
            1458            2086     28.3233E-03     29.1646E-03
            1460            2087     31.8469E-03     32.7204E-03
            1477            2087     31.8469E-03     32.7204E-03
            1459            2087     31.8469E-03     32.7204E-03
            1478            2087     31.8469E-03     32.7204E-03
            1479            2088     35.4025E-03     36.3278E-03
            1478            2088     35.4025E-03     36.3278E-03
            1460            2088     35.4025E-03     36.3278E-03
            1461            2088     35.4025E-03     36.3278E-03
            1479            2089     38.9745E-03     39.9756E-03
            1480            2089     38.9745E-03     39.9756E-03
            1461            2089     38.9745E-03     39.9756E-03
            1462            2089     38.9745E-03     39.9756E-03
            1481            2090     42.5660E-03     43.6476E-03
            1462            2090     42.5660E-03     43.6476E-03
            1480            2090     42.5660E-03     43.6476E-03
            1463            2090     42.5660E-03     43.6476E-03
            1481            2091     46.1277E-03     47.2986E-03
            1463            2091     46.1277E-03     47.2986E-03
            1482            2091     46.1277E-03     47.2986E-03
            1464            2091     46.1277E-03     47.2986E-03
            1482            2092     49.6001E-03     50.8313E-03
            1464            2092     49.6001E-03     50.8313E-03
            1483            2092     49.6001E-03     50.8313E-03
            1465            2092     49.6001E-03     50.8313E-03
            1465            2093     52.9223E-03     54.1128E-03
            1483            2093     52.9223E-03     54.1128E-03
            1466            2093     52.9223E-03     54.1128E-03
            1484            2093     52.9223E-03     54.1128E-03
            1467            2094     55.9919E-03     57.0376E-03
            1484            2094     55.9919E-03     57.0376E-03
            1485            2094     55.9919E-03     57.0376E-03
            1466            2094     55.9919E-03     57.0376E-03
            1485            2095     58.8948E-03     59.6249E-03
            1467            2095     58.8948E-03     59.6249E-03
            1468            2095     58.8948E-03     59.6249E-03
            1486            2095     58.8948E-03     59.6249E-03
            1487            2096     5.21687E-03     5.81795E-03
            1488            2096     5.21687E-03     5.81795E-03
            1469            2096     5.21687E-03     5.81795E-03
            1470            2096     5.21687E-03     5.81795E-03
            1488            2097     7.64950E-03     8.64279E-03
            1470            2097     7.64950E-03     8.64279E-03
            1489            2097     7.64950E-03     8.64279E-03
            1471            2097     7.64950E-03     8.64279E-03
            1489            2098     10.7468E-03     11.8475E-03
            1471            2098     10.7468E-03     11.8475E-03
            1490            2098     10.7468E-03     11.8475E-03
            1472            2098     10.7468E-03     11.8475E-03
            1490            2099     14.0736E-03     15.1649E-03
            1473            2099     14.0736E-03     15.1649E-03
            1472            2099     14.0736E-03     15.1649E-03
            1491            2099     14.0736E-03     15.1649E-03
            1473            2100     17.5004E-03     18.5568E-03
            1474            2100     17.5004E-03     18.5568E-03
            1491            2100     17.5004E-03     18.5568E-03
            1492            2100     17.5004E-03     18.5568E-03
            1475            2101     20.9766E-03     22.0008E-03
            1492            2101     20.9766E-03     22.0008E-03
            1493            2101     20.9766E-03     22.0008E-03
            1474            2101     20.9766E-03     22.0008E-03
            1476            2102     24.4853E-03     25.4988E-03
            1494            2102     24.4853E-03     25.4988E-03
            1493            2102     24.4853E-03     25.4988E-03
            1475            2102     24.4853E-03     25.4988E-03
            1494            2103     28.0211E-03     29.0461E-03
            1476            2103     28.0211E-03     29.0461E-03
            1495            2103     28.0211E-03     29.0461E-03
            1477            2103     28.0211E-03     29.0461E-03
            1496            2104     31.5880E-03     32.6475E-03
            1478            2104     31.5880E-03     32.6475E-03
            1495            2104     31.5880E-03     32.6475E-03
            1477            2104     31.5880E-03     32.6475E-03
            1497            2105     35.1904E-03     36.3020E-03
            1496            2105     35.1904E-03     36.3020E-03
            1479            2105     35.1904E-03     36.3020E-03
            1478            2105     35.1904E-03     36.3020E-03
            1498            2106     38.8449E-03     40.0231E-03
            1479            2106     38.8449E-03     40.0231E-03
            1480            2106     38.8449E-03     40.0231E-03
            1497            2106     38.8449E-03     40.0231E-03
            1499            2107     42.5453E-03     43.7995E-03
            1480            2107     42.5453E-03     43.7995E-03
            1498            2107     42.5453E-03     43.7995E-03
            1481            2107     42.5453E-03     43.7995E-03
            1499            2108     46.3343E-03     47.6310E-03
            1481            2108     46.3343E-03     47.6310E-03
            1482            2108     46.3343E-03     47.6310E-03
            1500            2108     46.3343E-03     47.6310E-03
            1483            2109     50.1354E-03     51.4621E-03
            1482            2109     50.1354E-03     51.4621E-03
            1501            2109     50.1354E-03     51.4621E-03
            1500            2109     50.1354E-03     51.4621E-03
            1502            2110     53.8866E-03     55.1500E-03
            1501            2110     53.8866E-03     55.1500E-03
            1483            2110     53.8866E-03     55.1500E-03
            1484            2110     53.8866E-03     55.1500E-03
            1485            2111     57.5059E-03     58.5473E-03
            1503            2111     57.5059E-03     58.5473E-03
            1502            2111     57.5059E-03     58.5473E-03
            1484            2111     57.5059E-03     58.5473E-03
            1485            2112     60.8283E-03     61.6612E-03
            1503            2112     60.8283E-03     61.6612E-03
            1486            2112     60.8283E-03     61.6612E-03
            1504            2112     60.8283E-03     61.6612E-03
            1506            2113     4.01153E-03     4.84070E-03
            1487            2113     4.01153E-03     4.84070E-03
            1505            2113     4.01153E-03     4.84070E-03
            1488            2113     4.01153E-03     4.84070E-03
            1489            2114     6.86022E-03     8.01729E-03
            1506            2114     6.86022E-03     8.01729E-03
            1507            2114     6.86022E-03     8.01729E-03
            1488            2114     6.86022E-03     8.01729E-03
            1507            2115     10.1612E-03     11.3781E-03
            1490            2115     10.1612E-03     11.3781E-03
            1508            2115     10.1612E-03     11.3781E-03
            1489            2115     10.1612E-03     11.3781E-03
            1490            2116     13.5820E-03     14.7776E-03
            1508            2116     13.5820E-03     14.7776E-03
            1509            2116     13.5820E-03     14.7776E-03
            1491            2116     13.5820E-03     14.7776E-03
            1491            2117     17.0463E-03     18.2152E-03
            1509            2117     17.0463E-03     18.2152E-03
            1510            2117     17.0463E-03     18.2152E-03
            1492            2117     17.0463E-03     18.2152E-03
            1492            2118     20.5274E-03     21.6924E-03
            1493            2118     20.5274E-03     21.6924E-03
            1511            2118     20.5274E-03     21.6924E-03
            1510            2118     20.5274E-03     21.6924E-03
            1512            2119     24.0294E-03     25.1944E-03
            1494            2119     24.0294E-03     25.1944E-03
            1511            2119     24.0294E-03     25.1944E-03
            1493            2119     24.0294E-03     25.1944E-03
            1513            2120     27.5513E-03     28.7338E-03
            1495            2120     27.5513E-03     28.7338E-03
            1512            2120     27.5513E-03     28.7338E-03
            1494            2120     27.5513E-03     28.7338E-03
            1513            2121     31.1038E-03     32.3135E-03
            1514            2121     31.1038E-03     32.3135E-03
            1496            2121     31.1038E-03     32.3135E-03
            1495            2121     31.1038E-03     32.3135E-03
            1497            2122     34.6982E-03     35.9535E-03
            1514            2122     34.6982E-03     35.9535E-03
            1515            2122     34.6982E-03     35.9535E-03
            1496            2122     34.6982E-03     35.9535E-03
            1497            2123     38.3582E-03     39.6623E-03
            1516            2123     38.3582E-03     39.6623E-03
            1515            2123     38.3582E-03     39.6623E-03
            1498            2123     38.3582E-03     39.6623E-03
            1499            2124     42.1269E-03     43.4825E-03
            1517            2124     42.1269E-03     43.4825E-03
            1498            2124     42.1269E-03     43.4825E-03
            1516            2124     42.1269E-03     43.4825E-03
            1499            2125     46.0211E-03     47.4188E-03
            1500            2125     46.0211E-03     47.4188E-03
            1517            2125     46.0211E-03     47.4188E-03
            1518            2125     46.0211E-03     47.4188E-03
            1501            2126     50.1928E-03     51.5299E-03
            1500            2126     50.1928E-03     51.5299E-03
            1519            2126     50.1928E-03     51.5299E-03
            1518            2126     50.1928E-03     51.5299E-03
            1519            2127     54.4846E-03     55.7637E-03
            1501            2127     54.4846E-03     55.7637E-03
            1502            2127     54.4846E-03     55.7637E-03
            1520            2127     54.4846E-03     55.7637E-03
            1520            2128     58.6972E-03     59.8684E-03
            1502            2128     58.6972E-03     59.8684E-03
            1503            2128     58.6972E-03     59.8684E-03
            1521            2128     58.6972E-03     59.8684E-03
            1504            2129     62.7421E-03     63.4932E-03
            1521            2129     62.7421E-03     63.4932E-03
            1503            2129     62.7421E-03     63.4932E-03
            1522            2129     62.7421E-03     63.4932E-03
            1505            2130     3.09414E-03     4.28724E-03
            1524            2130     3.09414E-03     4.28724E-03
            1506            2130     3.09414E-03     4.28724E-03
            1523            2130     3.09414E-03     4.28724E-03
            1507            2131     6.31176E-03     7.69193E-03
            1524            2131     6.31176E-03     7.69193E-03
            1506            2131     6.31176E-03     7.69193E-03
            1525            2131     6.31176E-03     7.69193E-03
            1507            2132     9.74008E-03     11.0415E-03
            1508            2132     9.74008E-03     11.0415E-03
            1525            2132     9.74008E-03     11.0415E-03
            1526            2132     9.74008E-03     11.0415E-03
            1509            2133     13.1794E-03     14.4491E-03
            1508            2133     13.1794E-03     14.4491E-03
            1527            2133     13.1794E-03     14.4491E-03
            1526            2133     13.1794E-03     14.4491E-03
            1528            2134     16.6063E-03     17.8929E-03
            1527            2134     16.6063E-03     17.8929E-03
            1509            2134     16.6063E-03     17.8929E-03
            1510            2134     16.6063E-03     17.8929E-03
            1529            2135     20.0448E-03     21.3382E-03
            1528            2135     20.0448E-03     21.3382E-03
            1510            2135     20.0448E-03     21.3382E-03
            1511            2135     20.0448E-03     21.3382E-03
            1511            2136     23.4904E-03     24.7988E-03
            1530            2136     23.4904E-03     24.7988E-03
            1529            2136     23.4904E-03     24.7988E-03
            1512            2136     23.4904E-03     24.7988E-03
            1513            2137     26.9546E-03     28.2743E-03
            1531            2137     26.9546E-03     28.2743E-03
            1530            2137     26.9546E-03     28.2743E-03
            1512            2137     26.9546E-03     28.2743E-03
            1513            2138     30.4411E-03     31.7810E-03
            1532            2138     30.4411E-03     31.7810E-03
            1531            2138     30.4411E-03     31.7810E-03
            1514            2138     30.4411E-03     31.7810E-03
            1515            2139     33.9768E-03     35.3337E-03
            1533            2139     33.9768E-03     35.3337E-03
            1532            2139     33.9768E-03     35.3337E-03
            1514            2139     33.9768E-03     35.3337E-03
            1534            2140     37.5809E-03     38.9698E-03
            1515            2140     37.5809E-03     38.9698E-03
            1533            2140     37.5809E-03     38.9698E-03
            1516            2140     37.5809E-03     38.9698E-03
            1534            2141     41.3150E-03     42.7226E-03
            1535            2141     41.3150E-03     42.7226E-03
            1517            2141     41.3150E-03     42.7226E-03
            1516            2141     41.3150E-03     42.7226E-03
            1536            2142     45.2637E-03     46.6873E-03
            1518            2142     45.2637E-03     46.6873E-03
            1535            2142     45.2637E-03     46.6873E-03
            1517            2142     45.2637E-03     46.6873E-03
            1536            2143     49.5127E-03     50.9224E-03
            1518            2143     49.5127E-03     50.9224E-03
            1519            2143     49.5127E-03     50.9224E-03
            1537            2143     49.5127E-03     50.9224E-03
            1519            2144     54.4503E-03     55.6508E-03
            1520            2144     54.4503E-03     55.6508E-03
            1537            2144     54.4503E-03     55.6508E-03
            1538            2144     54.4503E-03     55.6508E-03
            1538            2145     59.6579E-03     60.6848E-03
            1520            2145     59.6579E-03     60.6848E-03
            1521            2145     59.6579E-03     60.6848E-03
            1539            2145     59.6579E-03     60.6848E-03
            1540            2146     64.3480E-03     65.4604E-03
            1521            2146     64.3480E-03     65.4604E-03
            1539            2146     64.3480E-03     65.4604E-03
            1522            2146     64.3480E-03     65.4604E-03
            1542            2147     3.06478E-03     4.59804E-03
            1523            2147     3.06478E-03     4.59804E-03
            1524            2147     3.06478E-03     4.59804E-03
            1541            2147     3.06478E-03     4.59804E-03
            1542            2148     6.23098E-03     7.63213E-03
            1543            2148     6.23098E-03     7.63213E-03
            1524            2148     6.23098E-03     7.63213E-03
            1525            2148     6.23098E-03     7.63213E-03
            1526            2149     9.58471E-03     10.8946E-03
            1544            2149     9.58471E-03     10.8946E-03
            1525            2149     9.58471E-03     10.8946E-03
            1543            2149     9.58471E-03     10.8946E-03
            1544            2150     12.9027E-03     14.2681E-03
            1527            2150     12.9027E-03     14.2681E-03
            1526            2150     12.9027E-03     14.2681E-03
            1545            2150     12.9027E-03     14.2681E-03
            1545            2151     16.2350E-03     17.6418E-03
            1546            2151     16.2350E-03     17.6418E-03
            1528            2151     16.2350E-03     17.6418E-03
            1527            2151     16.2350E-03     17.6418E-03
            1528            2152     19.5736E-03     21.0146E-03
            1546            2152     19.5736E-03     21.0146E-03
            1547            2152     19.5736E-03     21.0146E-03
            1529            2152     19.5736E-03     21.0146E-03
            1530            2153     22.9258E-03     24.3818E-03
            1547            2153     22.9258E-03     24.3818E-03
            1548            2153     22.9258E-03     24.3818E-03
            1529            2153     22.9258E-03     24.3818E-03
            1549            2154     26.2886E-03     27.7511E-03
            1530            2154     26.2886E-03     27.7511E-03
            1531            2154     26.2886E-03     27.7511E-03
            1548            2154     26.2886E-03     27.7511E-03
            1550            2155     29.6796E-03     31.1348E-03
            1531            2155     29.6796E-03     31.1348E-03
            1532            2155     29.6796E-03     31.1348E-03
            1549            2155     29.6796E-03     31.1348E-03
            1550            2156     33.1038E-03     34.5517E-03
            1533            2156     33.1038E-03     34.5517E-03
            1532            2156     33.1038E-03     34.5517E-03
            1551            2156     33.1038E-03     34.5517E-03
            1533            2157     36.6113E-03     38.0379E-03
            1551            2157     36.6113E-03     38.0379E-03
            1534            2157     36.6113E-03     38.0379E-03
            1552            2157     36.6113E-03     38.0379E-03
            1534            2158     40.2297E-03     41.6483E-03
            1552            2158     40.2297E-03     41.6483E-03
            1535            2158     40.2297E-03     41.6483E-03
            1553            2158     40.2297E-03     41.6483E-03
            1553            2159     44.0889E-03     45.4769E-03
            1536            2159     44.0889E-03     45.4769E-03
            1535            2159     44.0889E-03     45.4769E-03
            1554            2159     44.0889E-03     45.4769E-03
            1537            2160     48.3072E-03     49.6866E-03
            1555            2160     48.3072E-03     49.6866E-03
            1536            2160     48.3072E-03     49.6866E-03
            1554            2160     48.3072E-03     49.6866E-03
            1538            2161     53.1794E-03     54.4939E-03
            1537            2161     53.1794E-03     54.4939E-03
            1555            2161     53.1794E-03     54.4939E-03
            1556            2161     53.1794E-03     54.4939E-03
            1538            2162     59.5760E-03     60.4737E-03
            1557            2162     59.5760E-03     60.4737E-03
            1556            2162     59.5760E-03     60.4737E-03
            1539            2162     59.5760E-03     60.4737E-03
            1540            2163     66.1473E-03     66.4319E-03
            1539            2163     66.1473E-03     66.4319E-03
            1558            2163     66.1473E-03     66.4319E-03
            1557            2163     66.1473E-03     66.4319E-03
            1542            2164     4.09319E-03     5.35761E-03
            1541            2164     4.09319E-03     5.35761E-03
            1559            2164     4.09319E-03     5.35761E-03
            1560            2164     4.09319E-03     5.35761E-03
            1560            2165     6.78009E-03     7.92645E-03
            1542            2165     6.78009E-03     7.92645E-03
            1561            2165     6.78009E-03     7.92645E-03
            1543            2165     6.78009E-03     7.92645E-03
            1562            2166     9.74291E-03     11.0690E-03
            1561            2166     9.74291E-03     11.0690E-03
            1543            2166     9.74291E-03     11.0690E-03
            1544            2166     9.74291E-03     11.0690E-03
            1545            2167     12.8399E-03     14.3084E-03
            1563            2167     12.8399E-03     14.3084E-03
            1544            2167     12.8399E-03     14.3084E-03
            1562            2167     12.8399E-03     14.3084E-03
            1564            2168     15.9938E-03     17.5582E-03
            1546            2168     15.9938E-03     17.5582E-03
            1545            2168     15.9938E-03     17.5582E-03
            1563            2168     15.9938E-03     17.5582E-03
            1565            2169     19.1890E-03     20.8040E-03
            1546            2169     19.1890E-03     20.8040E-03
            1547            2169     19.1890E-03     20.8040E-03
            1564            2169     19.1890E-03     20.8040E-03
            1547            2170     22.4033E-03     24.0375E-03
            1566            2170     22.4033E-03     24.0375E-03
            1548            2170     22.4033E-03     24.0375E-03
            1565            2170     22.4033E-03     24.0375E-03
            1567            2171     25.6414E-03     27.2649E-03
            1566            2171     25.6414E-03     27.2649E-03
            1549            2171     25.6414E-03     27.2649E-03
            1548            2171     25.6414E-03     27.2649E-03
            1550            2172     28.8983E-03     30.4896E-03
            1568            2172     28.8983E-03     30.4896E-03
            1567            2172     28.8983E-03     30.4896E-03
            1549            2172     28.8983E-03     30.4896E-03
            1569            2173     32.2008E-03     33.7363E-03
            1550            2173     32.2008E-03     33.7363E-03
            1568            2173     32.2008E-03     33.7363E-03
            1551            2173     32.2008E-03     33.7363E-03
            1552            2174     35.5587E-03     37.0222E-03
            1569            2174     35.5587E-03     37.0222E-03
            1551            2174     35.5587E-03     37.0222E-03
            1570            2174     35.5587E-03     37.0222E-03
            1570            2175     39.0491E-03     40.4232E-03
            1552            2175     39.0491E-03     40.4232E-03
            1571            2175     39.0491E-03     40.4232E-03
            1553            2175     39.0491E-03     40.4232E-03
            1553            2176     42.7068E-03     43.9934E-03
            1572            2176     42.7068E-03     43.9934E-03
            1571            2176     42.7068E-03     43.9934E-03
            1554            2176     42.7068E-03     43.9934E-03
            1573            2177     46.7610E-03     47.9675E-03
            1555            2177     46.7610E-03     47.9675E-03
            1554            2177     46.7610E-03     47.9675E-03
            1572            2177     46.7610E-03     47.9675E-03
            1555            2178     51.3047E-03     52.5050E-03
            1573            2178     51.3047E-03     52.5050E-03
            1574            2178     51.3047E-03     52.5050E-03
            1556            2178     51.3047E-03     52.5050E-03
            1556            2179     57.2663E-03     58.5448E-03
            1575            2179     57.2663E-03     58.5448E-03
            1557            2179     57.2663E-03     58.5448E-03
            1574            2179     57.2663E-03     58.5448E-03
            1575            2180     65.8854E-03     66.7751E-03
            1558            2180     65.8854E-03     66.7751E-03
            1576            2180     65.8854E-03     66.7751E-03
            1557            2180     65.8854E-03     66.7751E-03
            1560            2181     9.88325E-03     11.1937E-03
            1577            2181     9.88325E-03     11.1937E-03
            1559            2181     9.88325E-03     11.1937E-03
            1578            2181     9.88325E-03     11.1937E-03
            1579            2182     12.3189E-03     12.8815E-03
            1560            2182     12.3189E-03     12.8815E-03
            1561            2182     12.3189E-03     12.8815E-03
            1578            2182     12.3189E-03     12.8815E-03
            1561            2183     14.8815E-03     15.5160E-03
            1562            2183     14.8815E-03     15.5160E-03
            1579            2183     14.8815E-03     15.5160E-03
            1580            2183     14.8815E-03     15.5160E-03
            1562            2184     17.7673E-03     18.5587E-03
            1563            2184     17.7673E-03     18.5587E-03
            1580            2184     17.7673E-03     18.5587E-03
            1581            2184     17.7673E-03     18.5587E-03
            1581            2185     20.8639E-03     21.7518E-03
            1563            2185     20.8639E-03     21.7518E-03
            1582            2185     20.8639E-03     21.7518E-03
            1564            2185     20.8639E-03     21.7518E-03
            1582            2186     24.0968E-03     25.0427E-03
            1564            2186     24.0968E-03     25.0427E-03
            1583            2186     24.0968E-03     25.0427E-03
            1565            2186     24.0968E-03     25.0427E-03
            1583            2187     27.4147E-03     28.3717E-03
            1565            2187     27.4147E-03     28.3717E-03
            1584            2187     27.4147E-03     28.3717E-03
            1566            2187     27.4147E-03     28.3717E-03
            1584            2188     30.7757E-03     31.7158E-03
            1585            2188     30.7757E-03     31.7158E-03
            1567            2188     30.7757E-03     31.7158E-03
            1566            2188     30.7757E-03     31.7158E-03
            1586            2189     34.1684E-03     35.0497E-03
            1585            2189     34.1684E-03     35.0497E-03
            1567            2189     34.1684E-03     35.0497E-03
            1568            2189     34.1684E-03     35.0497E-03
            1587            2190     37.5593E-03     38.3634E-03
            1586            2190     37.5593E-03     38.3634E-03
            1568            2190     37.5593E-03     38.3634E-03
            1569            2190     37.5593E-03     38.3634E-03
            1587            2191     40.9757E-03     41.6454E-03
            1570            2191     40.9757E-03     41.6454E-03
            1588            2191     40.9757E-03     41.6454E-03
            1569            2191     40.9757E-03     41.6454E-03
            1588            2192     44.3726E-03     44.9035E-03
            1570            2192     44.3726E-03     44.9035E-03
            1589            2192     44.3726E-03     44.9035E-03
            1571            2192     44.3726E-03     44.9035E-03
            1571            2193     47.8450E-03     48.1565E-03
            1572            2193     47.8450E-03     48.1565E-03
            1590            2193     47.8450E-03     48.1565E-03
            1589            2193     47.8450E-03     48.1565E-03
            1590            2194     51.3224E-03     51.4672E-03
            1573            2194     51.3224E-03     51.4672E-03
            1591            2194     51.3224E-03     51.4672E-03
            1572            2194     51.3224E-03     51.4672E-03
            1573            2195     55.0689E-03     55.0045E-03
            1574            2195     55.0689E-03     55.0045E-03
            1591            2195     55.0689E-03     55.0045E-03
            1592            2195     55.0689E-03     55.0045E-03
            1592            2196     58.9893E-03     58.9802E-03
            1574            2196     58.9893E-03     58.9802E-03
            1593            2196     58.9893E-03     58.9802E-03
            1575            2196     58.9893E-03     58.9802E-03
            1593            2197     64.4680E-03     65.5859E-03
            1576            2197     64.4680E-03     65.5859E-03
            1594            2197     64.4680E-03     65.5859E-03
            1575            2197     64.4680E-03     65.5859E-03
            1595            2198     14.0227E-03     15.8483E-03
            1596            2198     14.0227E-03     15.8483E-03
            1577            2198     14.0227E-03     15.8483E-03
            1578            2198     14.0227E-03     15.8483E-03
            1596            2199     16.1124E-03     16.8501E-03
            1578            2199     16.1124E-03     16.8501E-03
            1597            2199     16.1124E-03     16.8501E-03
            1579            2199     16.1124E-03     16.8501E-03
            1580            2200     18.8517E-03     19.1282E-03
            1579            2200     18.8517E-03     19.1282E-03
            1598            2200     18.8517E-03     19.1282E-03
            1597            2200     18.8517E-03     19.1282E-03
            1599            2201     21.9431E-03     22.1599E-03
            1598            2201     21.9431E-03     22.1599E-03
            1580            2201     21.9431E-03     22.1599E-03
            1581            2201     21.9431E-03     22.1599E-03
            1599            2202     25.3014E-03     25.5404E-03
            1581            2202     25.3014E-03     25.5404E-03
            1600            2202     25.3014E-03     25.5404E-03
            1582            2202     25.3014E-03     25.5404E-03
            1582            2203     28.8559E-03     29.1170E-03
            1583            2203     28.8559E-03     29.1170E-03
            1600            2203     28.8559E-03     29.1170E-03
            1601            2203     28.8559E-03     29.1170E-03
            1602            2204     32.5273E-03     32.7932E-03
            1601            2204     32.5273E-03     32.7932E-03
            1583            2204     32.5273E-03     32.7932E-03
            1584            2204     32.5273E-03     32.7932E-03
            1584            2205     36.2690E-03     36.5187E-03
            1585            2205     36.2690E-03     36.5187E-03
            1602            2205     36.2690E-03     36.5187E-03
            1603            2205     36.2690E-03     36.5187E-03
            1585            2206     40.0377E-03     40.2447E-03
            1586            2206     40.0377E-03     40.2447E-03
            1603            2206     40.0377E-03     40.2447E-03
            1604            2206     40.0377E-03     40.2447E-03
            1586            2207     43.8030E-03     43.9462E-03
            1605            2207     43.8030E-03     43.9462E-03
            1604            2207     43.8030E-03     43.9462E-03
            1587            2207     43.8030E-03     43.9462E-03
            1588            2208     47.5256E-03     47.5746E-03
            1587            2208     47.5256E-03     47.5746E-03
            1606            2208     47.5256E-03     47.5746E-03
            1605            2208     47.5256E-03     47.5746E-03
            1588            2209     51.1860E-03     51.1137E-03
            1589            2209     51.1860E-03     51.1137E-03
            1607            2209     51.1860E-03     51.1137E-03
            1606            2209     51.1860E-03     51.1137E-03
            1608            2210     54.7117E-03     54.5040E-03
            1589            2210     54.7117E-03     54.5040E-03
            1607            2210     54.7117E-03     54.5040E-03
            1590            2210     54.7117E-03     54.5040E-03
            1590            2211     58.1148E-03     57.7462E-03
            1591            2211     58.1148E-03     57.7462E-03
            1609            2211     58.1148E-03     57.7462E-03
            1608            2211     58.1148E-03     57.7462E-03
            1609            2212     61.2404E-03     60.7774E-03
            1610            2212     61.2404E-03     60.7774E-03
            1592            2212     61.2404E-03     60.7774E-03
            1591            2212     61.2404E-03     60.7774E-03
            1592            2213     64.1851E-03     63.7104E-03
            1593            2213     64.1851E-03     63.7104E-03
            1610            2213     64.1851E-03     63.7104E-03
            1611            2213     64.1851E-03     63.7104E-03
            1611            2214     66.8696E-03     66.1415E-03
            1594            2214     66.8696E-03     66.1415E-03
            1612            2214     66.8696E-03     66.1415E-03
            1593            2214     66.8696E-03     66.1415E-03
            1613            2215     12.0884E-03     13.3212E-03
            1595            2215     12.0884E-03     13.3212E-03
            1596            2215     12.0884E-03     13.3212E-03
            1614            2215     12.0884E-03     13.3212E-03
            1614            2216     13.9141E-03     15.3451E-03
            1596            2216     13.9141E-03     15.3451E-03
            1597            2216     13.9141E-03     15.3451E-03
            1615            2216     13.9141E-03     15.3451E-03
            1615            2217     17.0586E-03     17.9046E-03
            1616            2217     17.0586E-03     17.9046E-03
            1598            2217     17.0586E-03     17.9046E-03
            1597            2217     17.0586E-03     17.9046E-03
            1598            2218     20.6319E-03     21.2092E-03
            1617            2218     20.6319E-03     21.2092E-03
            1599            2218     20.6319E-03     21.2092E-03
            1616            2218     20.6319E-03     21.2092E-03
            1600            2219     24.3994E-03     24.8957E-03
            1599            2219     24.3994E-03     24.8957E-03
            1617            2219     24.3994E-03     24.8957E-03
            1618            2219     24.3994E-03     24.8957E-03
            1600            2220     28.3155E-03     28.7793E-03
            1619            2220     28.3155E-03     28.7793E-03
            1601            2220     28.3155E-03     28.7793E-03
            1618            2220     28.3155E-03     28.7793E-03
            1619            2221     32.3188E-03     32.7784E-03
            1601            2221     32.3188E-03     32.7784E-03
            1620            2221     32.3188E-03     32.7784E-03
            1602            2221     32.3188E-03     32.7784E-03
            1603            2222     36.3871E-03     36.8379E-03
            1602            2222     36.3871E-03     36.8379E-03
            1620            2222     36.3871E-03     36.8379E-03
            1621            2222     36.3871E-03     36.8379E-03
            1604            2223     40.4888E-03     40.9328E-03
            1622            2223     40.4888E-03     40.9328E-03
            1603            2223     40.4888E-03     40.9328E-03
            1621            2223     40.4888E-03     40.9328E-03
            1622            2224     44.6063E-03     45.0358E-03
            1604            2224     44.6063E-03     45.0358E-03
            1605            2224     44.6063E-03     45.0358E-03
            1623            2224     44.6063E-03     45.0358E-03
            1624            2225     48.7109E-03     49.1297E-03
            1606            2225     48.7109E-03     49.1297E-03
            1605            2225     48.7109E-03     49.1297E-03
            1623            2225     48.7109E-03     49.1297E-03
            1607            2226     52.7651E-03     53.1840E-03
            1606            2226     52.7651E-03     53.1840E-03
            1625            2226     52.7651E-03     53.1840E-03
            1624            2226     52.7651E-03     53.1840E-03
            1607            2227     56.7362E-03     57.1664E-03
            1608            2227     56.7362E-03     57.1664E-03
            1626            2227     56.7362E-03     57.1664E-03
            1625            2227     56.7362E-03     57.1664E-03
            1626            2228     60.5326E-03     61.0434E-03
            1608            2228     60.5326E-03     61.0434E-03
            1609            2228     60.5326E-03     61.0434E-03
            1627            2228     60.5326E-03     61.0434E-03
            1627            2229     64.1178E-03     64.7299E-03
            1610            2229     64.1178E-03     64.7299E-03
            1628            2229     64.1178E-03     64.7299E-03
            1609            2229     64.1178E-03     64.7299E-03
            1628            2230     67.5144E-03     68.1709E-03
            1610            2230     67.5144E-03     68.1709E-03
            1629            2230     67.5144E-03     68.1709E-03
            1611            2230     67.5144E-03     68.1709E-03
            1611            2231     70.4163E-03     70.7651E-03
            1630            2231     70.4163E-03     70.7651E-03
            1629            2231     70.4163E-03     70.7651E-03
            1612            2231     70.4163E-03     70.7651E-03
            1613            2232     10.0184E-03     10.7459E-03
            1632            2232     10.0184E-03     10.7459E-03
            1614            2232     10.0184E-03     10.7459E-03
            1631            2232     10.0184E-03     10.7459E-03
            1614            2233     12.3044E-03     13.5872E-03
            1633            2233     12.3044E-03     13.5872E-03
            1632            2233     12.3044E-03     13.5872E-03
            1615            2233     12.3044E-03     13.5872E-03
            1615            2234     15.6553E-03     16.8721E-03
            1616            2234     15.6553E-03     16.8721E-03
            1634            2234     15.6553E-03     16.8721E-03
            1633            2234     15.6553E-03     16.8721E-03
            1635            2235     19.5790E-03     20.5038E-03
            1616            2235     19.5790E-03     20.5038E-03
            1617            2235     19.5790E-03     20.5038E-03
            1634            2235     19.5790E-03     20.5038E-03
            1636            2236     23.6900E-03     24.4709E-03
            1618            2236     23.6900E-03     24.4709E-03
            1617            2236     23.6900E-03     24.4709E-03
            1635            2236     23.6900E-03     24.4709E-03
            1637            2237     27.8934E-03     28.6113E-03
            1636            2237     27.8934E-03     28.6113E-03
            1618            2237     27.8934E-03     28.6113E-03
            1619            2237     27.8934E-03     28.6113E-03
            1637            2238     32.1693E-03     32.8622E-03
            1638            2238     32.1693E-03     32.8622E-03
            1619            2238     32.1693E-03     32.8622E-03
            1620            2238     32.1693E-03     32.8622E-03
            1639            2239     36.4896E-03     37.1861E-03
            1620            2239     36.4896E-03     37.1861E-03
            1638            2239     36.4896E-03     37.1861E-03
            1621            2239     36.4896E-03     37.1861E-03
            1640            2240     40.8536E-03     41.5648E-03
            1622            2240     40.8536E-03     41.5648E-03
            1621            2240     40.8536E-03     41.5648E-03
            1639            2240     40.8536E-03     41.5648E-03
            1641            2241     45.2369E-03     45.9835E-03
            1622            2241     45.2369E-03     45.9835E-03
            1640            2241     45.2369E-03     45.9835E-03
            1623            2241     45.2369E-03     45.9835E-03
            1624            2242     49.6393E-03     50.4332E-03
            1642            2242     49.6393E-03     50.4332E-03
            1623            2242     49.6393E-03     50.4332E-03
            1641            2242     49.6393E-03     50.4332E-03
            1625            2243     54.0129E-03     54.8889E-03
            1624            2243     54.0129E-03     54.8889E-03
            1642            2243     54.0129E-03     54.8889E-03
            1643            2243     54.0129E-03     54.8889E-03
            1644            2244     58.3323E-03     59.3147E-03
            1643            2244     58.3323E-03     59.3147E-03
            1625            2244     58.3323E-03     59.3147E-03
            1626            2244     58.3323E-03     59.3147E-03
            1627            2245     62.4986E-03     63.6236E-03
            1645            2245     62.4986E-03     63.6236E-03
            1644            2245     62.4986E-03     63.6236E-03
            1626            2245     62.4986E-03     63.6236E-03
            1627            2246     66.4811E-03     67.7105E-03
            1628            2246     66.4811E-03     67.7105E-03
            1645            2246     66.4811E-03     67.7105E-03
            1646            2246     66.4811E-03     67.7105E-03
            1629            2247     70.0824E-03     71.2894E-03
            1647            2247     70.0824E-03     71.2894E-03
            1628            2247     70.0824E-03     71.2894E-03
            1646            2247     70.0824E-03     71.2894E-03
            1648            2248     73.1736E-03     74.2428E-03
            1647            2248     73.1736E-03     74.2428E-03
            1630            2248     73.1736E-03     74.2428E-03
            1629            2248     73.1736E-03     74.2428E-03
            1649            2249     8.07383E-03     8.88304E-03
            1631            2249     8.07383E-03     8.88304E-03
            1650            2249     8.07383E-03     8.88304E-03
            1632            2249     8.07383E-03     8.88304E-03
            1633            2250     10.8311E-03     12.0744E-03
            1632            2250     10.8311E-03     12.0744E-03
            1650            2250     10.8311E-03     12.0744E-03
            1651            2250     10.8311E-03     12.0744E-03
            1634            2251     14.5829E-03     15.9206E-03
            1652            2251     14.5829E-03     15.9206E-03
            1651            2251     14.5829E-03     15.9206E-03
            1633            2251     14.5829E-03     15.9206E-03
            1652            2252     18.7513E-03     19.9447E-03
            1634            2252     18.7513E-03     19.9447E-03
            1635            2252     18.7513E-03     19.9447E-03
            1653            2252     18.7513E-03     19.9447E-03
            1653            2253     23.0975E-03     24.1424E-03
            1635            2253     23.0975E-03     24.1424E-03
            1636            2253     23.0975E-03     24.1424E-03
            1654            2253     23.0975E-03     24.1424E-03
            1636            2254     27.5103E-03     28.4788E-03
            1637            2254     27.5103E-03     28.4788E-03
            1655            2254     27.5103E-03     28.4788E-03
            1654            2254     27.5103E-03     28.4788E-03
            1638            2255     31.9668E-03     32.9052E-03
            1655            2255     31.9668E-03     32.9052E-03
            1656            2255     31.9668E-03     32.9052E-03
            1637            2255     31.9668E-03     32.9052E-03
            1657            2256     36.4640E-03     37.4088E-03
            1638            2256     36.4640E-03     37.4088E-03
            1656            2256     36.4640E-03     37.4088E-03
            1639            2256     36.4640E-03     37.4088E-03
            1640            2257     40.9921E-03     41.9727E-03
            1658            2257     40.9921E-03     41.9727E-03
            1657            2257     40.9921E-03     41.9727E-03
            1639            2257     40.9921E-03     41.9727E-03
            1641            2258     45.5655E-03     46.6025E-03
            1659            2258     45.5655E-03     46.6025E-03
            1640            2258     45.5655E-03     46.6025E-03
            1658            2258     45.5655E-03     46.6025E-03
            1641            2259     50.1544E-03     51.2853E-03
            1659            2259     50.1544E-03     51.2853E-03
            1660            2259     50.1544E-03     51.2853E-03
            1642            2259     50.1544E-03     51.2853E-03
            1660            2260     54.7881E-03     56.0185E-03
            1661            2260     54.7881E-03     56.0185E-03
            1643            2260     54.7881E-03     56.0185E-03
            1642            2260     54.7881E-03     56.0185E-03
            1662            2261     59.3716E-03     60.7558E-03
            1643            2261     59.3716E-03     60.7558E-03
            1661            2261     59.3716E-03     60.7558E-03
            1644            2261     59.3716E-03     60.7558E-03
            1645            2262     63.9023E-03     65.3909E-03
            1644            2262     63.9023E-03     65.3909E-03
            1663            2262     63.9023E-03     65.3909E-03
            1662            2262     63.9023E-03     65.3909E-03
            1645            2263     68.1968E-03     69.7355E-03
            1664            2263     68.1968E-03     69.7355E-03
            1646            2263     68.1968E-03     69.7355E-03
            1663            2263     68.1968E-03     69.7355E-03
            1665            2264     72.0734E-03     73.5637E-03
            1646            2264     72.0734E-03     73.5637E-03
            1664            2264     72.0734E-03     73.5637E-03
            1647            2264     72.0734E-03     73.5637E-03
            1665            2265     75.7045E-03     76.6014E-03
            1666            2265     75.7045E-03     76.6014E-03
            1647            2265     75.7045E-03     76.6014E-03
            1648            2265     75.7045E-03     76.6014E-03
            1667            2266     6.27212E-03     7.22165E-03
            1668            2266     6.27212E-03     7.22165E-03
            1649            2266     6.27212E-03     7.22165E-03
            1650            2266     6.27212E-03     7.22165E-03
            1668            2267     9.57246E-03     11.0173E-03
            1650            2267     9.57246E-03     11.0173E-03
            1669            2267     9.57246E-03     11.0173E-03
            1651            2267     9.57246E-03     11.0173E-03
            1651            2268     13.7197E-03     15.1428E-03
            1669            2268     13.7197E-03     15.1428E-03
            1652            2268     13.7197E-03     15.1428E-03
            1670            2268     13.7197E-03     15.1428E-03
            1671            2269     18.0941E-03     19.4653E-03
            1670            2269     18.0941E-03     19.4653E-03
            1652            2269     18.0941E-03     19.4653E-03
            1653            2269     18.0941E-03     19.4653E-03
            1654            2270     22.5758E-03     23.8365E-03
            1671            2270     22.5758E-03     23.8365E-03
            1672            2270     22.5758E-03     23.8365E-03
            1653            2270     22.5758E-03     23.8365E-03
            1672            2271     27.1061E-03     28.2936E-03
            1655            2271     27.1061E-03     28.2936E-03
            1654            2271     27.1061E-03     28.2936E-03
            1673            2271     27.1061E-03     28.2936E-03
            1674            2272     31.6585E-03     32.8247E-03
            1655            2272     31.6585E-03     32.8247E-03
            1673            2272     31.6585E-03     32.8247E-03
            1656            2272     31.6585E-03     32.8247E-03
            1656            2273     36.2378E-03     37.4139E-03
            1674            2273     36.2378E-03     37.4139E-03
            1675            2273     36.2378E-03     37.4139E-03
            1657            2273     36.2378E-03     37.4139E-03
            1657            2274     40.8544E-03     42.0713E-03
            1675            2274     40.8544E-03     42.0713E-03
            1658            2274     40.8544E-03     42.0713E-03
            1676            2274     40.8544E-03     42.0713E-03
            1676            2275     45.5032E-03     46.7919E-03
            1658            2275     45.5032E-03     46.7919E-03
            1659            2275     45.5032E-03     46.7919E-03
            1677            2275     45.5032E-03     46.7919E-03
            1659            2276     50.2203E-03     51.5973E-03
            1660            2276     50.2203E-03     51.5973E-03
            1677            2276     50.2203E-03     51.5973E-03
            1678            2276     50.2203E-03     51.5973E-03
            1679            2277     54.9668E-03     56.4749E-03
            1661            2277     54.9668E-03     56.4749E-03
            1660            2277     54.9668E-03     56.4749E-03
            1678            2277     54.9668E-03     56.4749E-03
            1680            2278     59.8261E-03     61.4192E-03
            1679            2278     59.8261E-03     61.4192E-03
            1661            2278     59.8261E-03     61.4192E-03
            1662            2278     59.8261E-03     61.4192E-03
            1662            2279     64.6473E-03     66.3533E-03
            1680            2279     64.6473E-03     66.3533E-03
            1663            2279     64.6473E-03     66.3533E-03
            1681            2279     64.6473E-03     66.3533E-03
            1664            2280     69.3442E-03     71.0516E-03
            1682            2280     69.3442E-03     71.0516E-03
            1663            2280     69.3442E-03     71.0516E-03
            1681            2280     69.3442E-03     71.0516E-03
            1683            2281     73.8046E-03     75.2053E-03
            1664            2281     73.8046E-03     75.2053E-03
            1665            2281     73.8046E-03     75.2053E-03
            1682            2281     73.8046E-03     75.2053E-03
            1683            2282     77.6928E-03     78.8583E-03
            1666            2282     77.6928E-03     78.8583E-03
            1684            2282     77.6928E-03     78.8583E-03
            1665            2282     77.6928E-03     78.8583E-03
            1686            2283     4.68839E-03     6.05708E-03
            1668            2283     4.68839E-03     6.05708E-03
            1667            2283     4.68839E-03     6.05708E-03
            1685            2283     4.68839E-03     6.05708E-03
            1668            2284     8.67215E-03     10.2438E-03
            1687            2284     8.67215E-03     10.2438E-03
            1686            2284     8.67215E-03     10.2438E-03
            1669            2284     8.67215E-03     10.2438E-03
            1688            2285     13.0523E-03     14.6569E-03
            1669            2285     13.0523E-03     14.6569E-03
            1670            2285     13.0523E-03     14.6569E-03
            1687            2285     13.0523E-03     14.6569E-03
            1689            2286     17.5694E-03     19.0533E-03
            1688            2286     17.5694E-03     19.0533E-03
            1671            2286     17.5694E-03     19.0533E-03
            1670            2286     17.5694E-03     19.0533E-03
            1671            2287     22.1096E-03     23.5266E-03
            1689            2287     22.1096E-03     23.5266E-03
            1690            2287     22.1096E-03     23.5266E-03
            1672            2287     22.1096E-03     23.5266E-03
            1672            2288     26.6588E-03     28.0372E-03
            1691            2288     26.6588E-03     28.0372E-03
            1673            2288     26.6588E-03     28.0372E-03
            1690            2288     26.6588E-03     28.0372E-03
            1674            2289     31.2249E-03     32.5886E-03
            1691            2289     31.2249E-03     32.5886E-03
            1692            2289     31.2249E-03     32.5886E-03
            1673            2289     31.2249E-03     32.5886E-03
            1674            2290     35.8079E-03     37.1873E-03
            1692            2290     35.8079E-03     37.1873E-03
            1675            2290     35.8079E-03     37.1873E-03
            1693            2290     35.8079E-03     37.1873E-03
            1694            2291     40.4172E-03     41.8336E-03
            1675            2291     40.4172E-03     41.8336E-03
            1693            2291     40.4172E-03     41.8336E-03
            1676            2291     40.4172E-03     41.8336E-03
            1695            2292     45.0736E-03     46.5500E-03
            1676            2292     45.0736E-03     46.5500E-03
            1677            2292     45.0736E-03     46.5500E-03
            1694            2292     45.0736E-03     46.5500E-03
            1696            2293     49.7828E-03     51.3438E-03
            1677            2293     49.7828E-03     51.3438E-03
            1678            2293     49.7828E-03     51.3438E-03
            1695            2293     49.7828E-03     51.3438E-03
            1697            2294     54.6094E-03     56.2571E-03
            1696            2294     54.6094E-03     56.2571E-03
            1679            2294     54.6094E-03     56.2571E-03
            1678            2294     54.6094E-03     56.2571E-03
            1680            2295     59.5323E-03     61.2865E-03
            1679            2295     59.5323E-03     61.2865E-03
            1697            2295     59.5323E-03     61.2865E-03
            1698            2295     59.5323E-03     61.2865E-03
            1680            2296     64.7254E-03     66.4660E-03
            1681            2296     64.7254E-03     66.4660E-03
            1698            2296     64.7254E-03     66.4660E-03
            1699            2296     64.7254E-03     66.4660E-03
            1681            2297     69.9808E-03     71.6763E-03
            1682            2297     69.9808E-03     71.6763E-03
            1700            2297     69.9808E-03     71.6763E-03
            1699            2297     69.9808E-03     71.6763E-03
            1701            2298     74.9950E-03     76.5958E-03
            1683            2298     74.9950E-03     76.5958E-03
            1682            2298     74.9950E-03     76.5958E-03
            1700            2298     74.9950E-03     76.5958E-03
            1684            2299     79.7450E-03     80.7128E-03
            1701            2299     79.7450E-03     80.7128E-03
            1702            2299     79.7450E-03     80.7128E-03
            1683            2299     79.7450E-03     80.7128E-03
            1686            2300     3.91351E-03     5.58894E-03
            1685            2300     3.91351E-03     5.58894E-03
            1703            2300     3.91351E-03     5.58894E-03
            1704            2300     3.91351E-03     5.58894E-03
            1704            2301     8.16275E-03     10.0214E-03
            1687            2301     8.16275E-03     10.0214E-03
            1686            2301     8.16275E-03     10.0214E-03
            1705            2301     8.16275E-03     10.0214E-03
            1705            2302     12.6930E-03     14.3528E-03
            1688            2302     12.6930E-03     14.3528E-03
            1706            2302     12.6930E-03     14.3528E-03
            1687            2302     12.6930E-03     14.3528E-03
            1706            2303     17.2030E-03     18.7781E-03
            1689            2303     17.2030E-03     18.7781E-03
            1688            2303     17.2030E-03     18.7781E-03
            1707            2303     17.2030E-03     18.7781E-03
            1708            2304     21.6955E-03     23.2461E-03
            1690            2304     21.6955E-03     23.2461E-03
            1689            2304     21.6955E-03     23.2461E-03
            1707            2304     21.6955E-03     23.2461E-03
            1708            2305     26.1892E-03     27.7338E-03
            1691            2305     26.1892E-03     27.7338E-03
            1709            2305     26.1892E-03     27.7338E-03
            1690            2305     26.1892E-03     27.7338E-03
            1692            2306     30.6885E-03     32.2362E-03
            1709            2306     30.6885E-03     32.2362E-03
            1710            2306     30.6885E-03     32.2362E-03
            1691            2306     30.6885E-03     32.2362E-03
            1693            2307     35.2010E-03     36.7603E-03
            1711            2307     35.2010E-03     36.7603E-03
            1710            2307     35.2010E-03     36.7603E-03
            1692            2307     35.2010E-03     36.7603E-03
            1711            2308     39.7337E-03     41.3167E-03
            1693            2308     39.7337E-03     41.3167E-03
            1694            2308     39.7337E-03     41.3167E-03
            1712            2308     39.7337E-03     41.3167E-03
            1712            2309     44.3051E-03     45.9204E-03
            1713            2309     44.3051E-03     45.9204E-03
            1694            2309     44.3051E-03     45.9204E-03
            1695            2309     44.3051E-03     45.9204E-03
            1713            2310     48.9408E-03     50.6055E-03
            1714            2310     48.9408E-03     50.6055E-03
            1696            2310     48.9408E-03     50.6055E-03
            1695            2310     48.9408E-03     50.6055E-03
            1696            2311     53.6862E-03     55.4035E-03
            1697            2311     53.6862E-03     55.4035E-03
            1715            2311     53.6862E-03     55.4035E-03
            1714            2311     53.6862E-03     55.4035E-03
            1715            2312     58.6347E-03     60.4052E-03
            1697            2312     58.6347E-03     60.4052E-03
            1698            2312     58.6347E-03     60.4052E-03
            1716            2312     58.6347E-03     60.4052E-03
            1717            2313     63.8592E-03     65.6494E-03
            1698            2313     63.8592E-03     65.6494E-03
            1699            2313     63.8592E-03     65.6494E-03
            1716            2313     63.8592E-03     65.6494E-03
            1718            2314     69.7733E-03     71.3653E-03
            1717            2314     69.7733E-03     71.3653E-03
            1700            2314     69.7733E-03     71.3653E-03
            1699            2314     69.7733E-03     71.3653E-03
            1718            2315     75.9071E-03     77.2651E-03
            1719            2315     75.9071E-03     77.2651E-03
            1701            2315     75.9071E-03     77.2651E-03
            1700            2315     75.9071E-03     77.2651E-03
            1701            2316     81.2694E-03     82.6942E-03
            1720            2316     81.2694E-03     82.6942E-03
            1702            2316     81.2694E-03     82.6942E-03
            1719            2316     81.2694E-03     82.6942E-03
            1722            2317     4.43944E-03     6.38926E-03
            1703            2317     4.43944E-03     6.38926E-03
            1721            2317     4.43944E-03     6.38926E-03
            1704            2317     4.43944E-03     6.38926E-03
            1723            2318     8.37225E-03     10.1944E-03
            1704            2318     8.37225E-03     10.1944E-03
            1705            2318     8.37225E-03     10.1944E-03
            1722            2318     8.37225E-03     10.1944E-03
            1723            2319     12.7178E-03     14.3404E-03
            1724            2319     12.7178E-03     14.3404E-03
            1706            2319     12.7178E-03     14.3404E-03
            1705            2319     12.7178E-03     14.3404E-03
            1724            2320     17.0445E-03     18.6954E-03
            1707            2320     17.0445E-03     18.6954E-03
            1706            2320     17.0445E-03     18.6954E-03
            1725            2320     17.0445E-03     18.6954E-03
            1708            2321     21.3850E-03     23.0772E-03
            1725            2321     21.3850E-03     23.0772E-03
            1726            2321     21.3850E-03     23.0772E-03
            1707            2321     21.3850E-03     23.0772E-03
            1726            2322     25.7425E-03     27.4606E-03
            1709            2322     25.7425E-03     27.4606E-03
            1727            2322     25.7425E-03     27.4606E-03
            1708            2322     25.7425E-03     27.4606E-03
            1727            2323     30.1099E-03     31.8454E-03
            1728            2323     30.1099E-03     31.8454E-03
            1709            2323     30.1099E-03     31.8454E-03
            1710            2323     30.1099E-03     31.8454E-03
            1728            2324     34.4871E-03     36.2261E-03
            1711            2324     34.4871E-03     36.2261E-03
            1729            2324     34.4871E-03     36.2261E-03
            1710            2324     34.4871E-03     36.2261E-03
            1711            2325     38.8838E-03     40.6182E-03
            1729            2325     38.8838E-03     40.6182E-03
            1730            2325     38.8838E-03     40.6182E-03
            1712            2325     38.8838E-03     40.6182E-03
            1730            2326     43.3039E-03     45.0314E-03
            1712            2326     43.3039E-03     45.0314E-03
            1731            2326     43.3039E-03     45.0314E-03
            1713            2326     43.3039E-03     45.0314E-03
            1732            2327     47.7909E-03     49.5023E-03
            1713            2327     47.7909E-03     49.5023E-03
            1731            2327     47.7909E-03     49.5023E-03
            1714            2327     47.7909E-03     49.5023E-03
            1715            2328     52.3673E-03     54.0782E-03
            1732            2328     52.3673E-03     54.0782E-03
            1714            2328     52.3673E-03     54.0782E-03
            1733            2328     52.3673E-03     54.0782E-03
            1716            2329     57.1672E-03     58.8520E-03
            1715            2329     57.1672E-03     58.8520E-03
            1733            2329     57.1672E-03     58.8520E-03
            1734            2329     57.1672E-03     58.8520E-03
            1735            2330     62.2995E-03     63.9961E-03
            1717            2330     62.2995E-03     63.9961E-03
            1716            2330     62.2995E-03     63.9961E-03
            1734            2330     62.2995E-03     63.9961E-03
            1735            2331     68.0990E-03     69.7217E-03
            1736            2331     68.0990E-03     69.7217E-03
            1717            2331     68.0990E-03     69.7217E-03
            1718            2331     68.0990E-03     69.7217E-03
            1719            2332     75.5190E-03     76.6722E-03
            1718            2332     75.5190E-03     76.6722E-03
            1736            2332     75.5190E-03     76.6722E-03
            1737            2332     75.5190E-03     76.6722E-03
            1737            2333     82.9914E-03     83.3767E-03
            1720            2333     82.9914E-03     83.3767E-03
            1738            2333     82.9914E-03     83.3767E-03
            1719            2333     82.9914E-03     83.3767E-03
            1721            2334     6.10115E-03     7.73016E-03
            1740            2334     6.10115E-03     7.73016E-03
            1739            2334     6.10115E-03     7.73016E-03
            1722            2334     6.10115E-03     7.73016E-03
            1740            2335     9.41093E-03     10.7836E-03
            1722            2335     9.41093E-03     10.7836E-03
            1741            2335     9.41093E-03     10.7836E-03
            1723            2335     9.41093E-03     10.7836E-03
            1741            2336     13.1843E-03     14.7533E-03
            1742            2336     13.1843E-03     14.7533E-03
            1724            2336     13.1843E-03     14.7533E-03
            1723            2336     13.1843E-03     14.7533E-03
            1724            2337     17.1694E-03     18.9141E-03
            1725            2337     17.1694E-03     18.9141E-03
            1743            2337     17.1694E-03     18.9141E-03
            1742            2337     17.1694E-03     18.9141E-03
            1726            2338     21.2578E-03     23.1197E-03
            1744            2338     21.2578E-03     23.1197E-03
            1725            2338     21.2578E-03     23.1197E-03
            1743            2338     21.2578E-03     23.1197E-03
            1726            2339     25.4031E-03     27.3319E-03
            1727            2339     25.4031E-03     27.3319E-03
            1745            2339     25.4031E-03     27.3319E-03
            1744            2339     25.4031E-03     27.3319E-03
            1746            2340     29.5778E-03     31.5282E-03
            1745            2340     29.5778E-03     31.5282E-03
            1728            2340     29.5778E-03     31.5282E-03
            1727            2340     29.5778E-03     31.5282E-03
            1728            2341     33.7723E-03     35.7149E-03
            1747            2341     33.7723E-03     35.7149E-03
            1746            2341     33.7723E-03     35.7149E-03
            1729            2341     33.7723E-03     35.7149E-03
            1730            2342     37.9766E-03     39.8815E-03
            1748            2342     37.9766E-03     39.8815E-03
            1729            2342     37.9766E-03     39.8815E-03
            1747            2342     37.9766E-03     39.8815E-03
            1730            2343     42.2121E-03     44.0543E-03
            1749            2343     42.2121E-03     44.0543E-03
            1731            2343     42.2121E-03     44.0543E-03
            1748            2343     42.2121E-03     44.0543E-03
            1732            2344     46.4800E-03     48.2347E-03
            1750            2344     46.4800E-03     48.2347E-03
            1749            2344     46.4800E-03     48.2347E-03
            1731            2344     46.4800E-03     48.2347E-03
            1733            2345     50.8631E-03     52.5022E-03
            1751            2345     50.8631E-03     52.5022E-03
            1732            2345     50.8631E-03     52.5022E-03
            1750            2345     50.8631E-03     52.5022E-03
            1752            2346     55.3776E-03     56.8994E-03
            1751            2346     55.3776E-03     56.8994E-03
            1734            2346     55.3776E-03     56.8994E-03
            1733            2346     55.3776E-03     56.8994E-03
            1752            2347     60.2891E-03     61.6794E-03
            1734            2347     60.2891E-03     61.6794E-03
            1753            2347     60.2891E-03     61.6794E-03
            1735            2347     60.2891E-03     61.6794E-03
            1753            2348     65.6615E-03     67.0156E-03
            1736            2348     65.6615E-03     67.0156E-03
            1754            2348     65.6615E-03     67.0156E-03
            1735            2348     65.6615E-03     67.0156E-03
            1737            2349     72.5555E-03     73.9562E-03
            1754            2349     72.5555E-03     73.9562E-03
            1755            2349     72.5555E-03     73.9562E-03
            1736            2349     72.5555E-03     73.9562E-03
            1756            2350     82.3124E-03     83.2189E-03
            1737            2350     82.3124E-03     83.2189E-03
            1738            2350     82.3124E-03     83.2189E-03
            1755            2350     82.3124E-03     83.2189E-03
            2271            2785     29.2366E-15     28.7914E-15
            2290            2785     29.2366E-15     28.7914E-15
            2289            2785     29.2366E-15     28.7914E-15
            2272            2785     29.2366E-15     28.7914E-15
            2291            2786     20.5570E-15     20.8731E-15
            2290            2786     20.5570E-15     20.8731E-15
            2272            2786     20.5570E-15     20.8731E-15
            2273            2786     20.5570E-15     20.8731E-15
            2273            2787     17.4681E-15     17.6142E-15
            2291            2787     17.4681E-15     17.6142E-15
            2292            2787     17.4681E-15     17.6142E-15
            2274            2787     17.4681E-15     17.6142E-15
            2275            2788     15.8361E-15     16.6988E-15
            2292            2788     15.8361E-15     16.6988E-15
            2274            2788     15.8361E-15     16.6988E-15
            2293            2788     15.8361E-15     16.6988E-15
            2275            2789     23.6102E-15     24.0426E-15
            2294            2789     23.6102E-15     24.0426E-15
            2293            2789     23.6102E-15     24.0426E-15
            2276            2789     23.6102E-15     24.0426E-15
            2294            2790     33.7364E-15     32.0766E-15
            2295            2790     33.7364E-15     32.0766E-15
            2276            2790     33.7364E-15     32.0766E-15
            2277            2790     33.7364E-15     32.0766E-15
            2295            2791     24.0928E-15     22.8302E-15
            2278            2791     24.0928E-15     22.8302E-15
            2296            2791     24.0928E-15     22.8302E-15
            2277            2791     24.0928E-15     22.8302E-15
            2297            2792     24.1494E-15     26.2333E-15
            2296            2792     24.1494E-15     26.2333E-15
            2278            2792     24.1494E-15     26.2333E-15
            2279            2792     24.1494E-15     26.2333E-15
            2279            2793     26.3199E-15     29.8640E-15
            2298            2793     26.3199E-15     29.8640E-15
            2280            2793     26.3199E-15     29.8640E-15
            2297            2793     26.3199E-15     29.8640E-15
            2280            2794     15.3130E-15     16.9083E-15
            2281            2794     15.3130E-15     16.9083E-15
            2298            2794     15.3130E-15     16.9083E-15
            2299            2794     15.3130E-15     16.9083E-15
            2299            2795     20.7824E-15     19.2621E-15
            2282            2795     20.7824E-15     19.2621E-15
            2281            2795     20.7824E-15     19.2621E-15
            2300            2795     20.7824E-15     19.2621E-15
            2282            2796     24.2657E-15     25.8742E-15
            2283            2796     24.2657E-15     25.8742E-15
            2300            2796     24.2657E-15     25.8742E-15
            2301            2796     24.2657E-15     25.8742E-15
            2283            2797     17.0284E-15     21.2503E-15
            2301            2797     17.0284E-15     21.2503E-15
            2302            2797     17.0284E-15     21.2503E-15
            2284            2797     17.0284E-15     21.2503E-15
            2284            2798     17.3487E-15     18.3489E-15
            2285            2798     17.3487E-15     18.3489E-15
            2303            2798     17.3487E-15     18.3489E-15
            2302            2798     17.3487E-15     18.3489E-15
            2285            2799     20.2362E-15     17.3006E-15
            2303            2799     20.2362E-15     17.3006E-15
            2304            2799     20.2362E-15     17.3006E-15
            2286            2799     20.2362E-15     17.3006E-15
            2287            2800     26.0271E-15     22.6989E-15
            2305            2800     26.0271E-15     22.6989E-15
            2286            2800     26.0271E-15     22.6989E-15
            2304            2800     26.0271E-15     22.6989E-15
            2288            2801     31.3007E-15     27.8937E-15
            2305            2801     31.3007E-15     27.8937E-15
            2287            2801     31.3007E-15     27.8937E-15
            2306            2801     31.3007E-15     27.8937E-15
            2290            2802     29.0745E-15     28.5344E-15
            2308            2802     29.0745E-15     28.5344E-15
            2289            2802     29.0745E-15     28.5344E-15
            2307            2802     29.0745E-15     28.5344E-15
            2309            2803     22.3065E-15     21.2546E-15
            2291            2803     22.3065E-15     21.2546E-15
            2308            2803     22.3065E-15     21.2546E-15
            2290            2803     22.3065E-15     21.2546E-15
            2309            2804     21.0027E-15     20.5353E-15
            2292            2804     21.0027E-15     20.5353E-15
            2291            2804     21.0027E-15     20.5353E-15
            2310            2804     21.0027E-15     20.5353E-15
            2310            2805     17.0997E-15     16.5457E-15
            2293            2805     17.0997E-15     16.5457E-15
            2311            2805     17.0997E-15     16.5457E-15
            2292            2805     17.0997E-15     16.5457E-15
            2311            2806     14.7543E-15     13.6570E-15
            2312            2806     14.7543E-15     13.6570E-15
            2294            2806     14.7543E-15     13.6570E-15
            2293            2806     14.7543E-15     13.6570E-15
            2313            2807     19.5033E-15     17.9117E-15
            2294            2807     19.5033E-15     17.9117E-15
            2312            2807     19.5033E-15     17.9117E-15
            2295            2807     19.5033E-15     17.9117E-15
            2296            2808     16.5392E-15     14.9896E-15
            2313            2808     16.5392E-15     14.9896E-15
            2295            2808     16.5392E-15     14.9896E-15
            2314            2808     16.5392E-15     14.9896E-15
            2296            2809     13.9735E-15     14.3180E-15
            2315            2809     13.9735E-15     14.3180E-15
            2314            2809     13.9735E-15     14.3180E-15
            2297            2809     13.9735E-15     14.3180E-15
            2298            2810     20.5634E-15     21.8607E-15
            2315            2810     20.5634E-15     21.8607E-15
            2297            2810     20.5634E-15     21.8607E-15
            2316            2810     20.5634E-15     21.8607E-15
            2298            2811     18.3718E-15     20.4770E-15
            2299            2811     18.3718E-15     20.4770E-15
            2317            2811     18.3718E-15     20.4770E-15
            2316            2811     18.3718E-15     20.4770E-15
            2318            2812     18.0233E-15     20.0968E-15
            2317            2812     18.0233E-15     20.0968E-15
            2300            2812     18.0233E-15     20.0968E-15
            2299            2812     18.0233E-15     20.0968E-15
            2319            2813     21.3881E-15     23.8841E-15
            2301            2813     21.3881E-15     23.8841E-15
            2318            2813     21.3881E-15     23.8841E-15
            2300            2813     21.3881E-15     23.8841E-15
            2319            2814     13.9273E-15     16.9497E-15
            2320            2814     13.9273E-15     16.9497E-15
            2301            2814     13.9273E-15     16.9497E-15
            2302            2814     13.9273E-15     16.9497E-15
            2302            2815     21.8219E-15     22.6986E-15
            2321            2815     21.8219E-15     22.6986E-15
            2320            2815     21.8219E-15     22.6986E-15
            2303            2815     21.8219E-15     22.6986E-15
            2303            2816     25.4480E-15     25.8981E-15
            2322            2816     25.4480E-15     25.8981E-15
            2321            2816     25.4480E-15     25.8981E-15
            2304            2816     25.4480E-15     25.8981E-15
            2322            2817     18.9639E-15     21.5691E-15
            2305            2817     18.9639E-15     21.5691E-15
            2323            2817     18.9639E-15     21.5691E-15
            2304            2817     18.9639E-15     21.5691E-15
            2323            2818     20.6731E-15     22.4862E-15
            2305            2818     20.6731E-15     22.4862E-15
            2324            2818     20.6731E-15     22.4862E-15
            2306            2818     20.6731E-15     22.4862E-15
            2326            2819     22.8292E-15     24.7368E-15
            2307            2819     22.8292E-15     24.7368E-15
            2325            2819     22.8292E-15     24.7368E-15
            2308            2819     22.8292E-15     24.7368E-15
            2327            2820     21.6761E-15     23.1064E-15
            2309            2820     21.6761E-15     23.1064E-15
            2326            2820     21.6761E-15     23.1064E-15
            2308            2820     21.6761E-15     23.1064E-15
            2328            2821     20.9446E-15     21.6207E-15
            2309            2821     20.9446E-15     21.6207E-15
            2327            2821     20.9446E-15     21.6207E-15
            2310            2821     20.9446E-15     21.6207E-15
            2328            2822     15.4141E-15     14.8082E-15
            2311            2822     15.4141E-15     14.8082E-15
            2310            2822     15.4141E-15     14.8082E-15
            2329            2822     15.4141E-15     14.8082E-15
            2311            2823     10.5859E-15     9.89393E-15
            2330            2823     10.5859E-15     9.89393E-15
            2312            2823     10.5859E-15     9.89393E-15
            2329            2823     10.5859E-15     9.89393E-15
            2330            2824     17.0700E-15     15.9161E-15
            2312            2824     17.0700E-15     15.9161E-15
            2331            2824     17.0700E-15     15.9161E-15
            2313            2824     17.0700E-15     15.9161E-15
            2313            2825     29.2663E-15     29.0194E-15
            2314            2825     29.2663E-15     29.0194E-15
            2332            2825     29.2663E-15     29.0194E-15
            2331            2825     29.2663E-15     29.0194E-15
            2314            2826     27.1021E-15     29.1210E-15
            2315            2826     27.1021E-15     29.1210E-15
            2332            2826     27.1021E-15     29.1210E-15
            2333            2826     27.1021E-15     29.1210E-15
            2334            2827     19.6808E-15     23.1845E-15
            2316            2827     19.6808E-15     23.1845E-15
            2315            2827     19.6808E-15     23.1845E-15
            2333            2827     19.6808E-15     23.1845E-15
            2316            2828     14.7611E-15     19.5446E-15
            2335            2828     14.7611E-15     19.5446E-15
            2317            2828     14.7611E-15     19.5446E-15
            2334            2828     14.7611E-15     19.5446E-15
            2335            2829     12.9750E-15     16.7832E-15
            2317            2829     12.9750E-15     16.7832E-15
            2318            2829     12.9750E-15     16.7832E-15
            2336            2829     12.9750E-15     16.7832E-15
            2319            2830     15.6376E-15     18.8476E-15
            2336            2830     15.6376E-15     18.8476E-15
            2318            2830     15.6376E-15     18.8476E-15
            2337            2830     15.6376E-15     18.8476E-15
            2338            2831     18.7955E-15     17.5984E-15
            2320            2831     18.7955E-15     17.5984E-15
            2319            2831     18.7955E-15     17.5984E-15
            2337            2831     18.7955E-15     17.5984E-15
            2339            2832     28.0620E-15     25.8715E-15
            2320            2832     28.0620E-15     25.8715E-15
            2321            2832     28.0620E-15     25.8715E-15
            2338            2832     28.0620E-15     25.8715E-15
            2322            2833     26.3885E-15     28.5017E-15
            2339            2833     26.3885E-15     28.5017E-15
            2321            2833     26.3885E-15     28.5017E-15
            2340            2833     26.3885E-15     28.5017E-15
            2340            2834     23.4927E-15     28.5399E-15
            2323            2834     23.4927E-15     28.5399E-15
            2322            2834     23.4927E-15     28.5399E-15
            2341            2834     23.4927E-15     28.5399E-15
            2341            2835     25.5132E-15     28.2664E-15
            2342            2835     25.5132E-15     28.2664E-15
            2323            2835     25.5132E-15     28.2664E-15
            2324            2835     25.5132E-15     28.2664E-15
            3393            3784     4.48865E-03     6.62205E-03
            3394            3784     4.48865E-03     6.62205E-03
            3411            3784     4.48865E-03     6.62205E-03
            3412            3784     4.48865E-03     6.62205E-03
            3412            3785     9.22593E-03     11.5523E-03
            3395            3785     9.22593E-03     11.5523E-03
            3394            3785     9.22593E-03     11.5523E-03
            3413            3785     9.22593E-03     11.5523E-03
            3395            3786     14.1239E-03     16.7006E-03
            3396            3786     14.1239E-03     16.7006E-03
            3413            3786     14.1239E-03     16.7006E-03
            3414            3786     14.1239E-03     16.7006E-03
            3397            3787     19.1190E-03     21.8129E-03
            3396            3787     19.1190E-03     21.8129E-03
            3415            3787     19.1190E-03     21.8129E-03
            3414            3787     19.1190E-03     21.8129E-03
            3397            3788     24.1686E-03     26.8712E-03
            3398            3788     24.1686E-03     26.8712E-03
            3416            3788     24.1686E-03     26.8712E-03
            3415            3788     24.1686E-03     26.8712E-03
            3417            3789     29.2307E-03     31.9337E-03
            3416            3789     29.2307E-03     31.9337E-03
            3398            3789     29.2307E-03     31.9337E-03
            3399            3789     29.2307E-03     31.9337E-03
            3399            3790     34.2861E-03     36.9825E-03
            3417            3790     34.2861E-03     36.9825E-03
            3418            3790     34.2861E-03     36.9825E-03
            3400            3790     34.2861E-03     36.9825E-03
            3401            3791     39.3328E-03     42.0263E-03
            3400            3791     39.3328E-03     42.0263E-03
            3419            3791     39.3328E-03     42.0263E-03
            3418            3791     39.3328E-03     42.0263E-03
            3401            3792     44.3589E-03     47.0469E-03
            3419            3792     44.3589E-03     47.0469E-03
            3420            3792     44.3589E-03     47.0469E-03
            3402            3792     44.3589E-03     47.0469E-03
            3421            3793     49.3625E-03     52.0511E-03
            3403            3793     49.3625E-03     52.0511E-03
            3420            3793     49.3625E-03     52.0511E-03
            3402            3793     49.3625E-03     52.0511E-03
            3403            3794     54.3299E-03     57.0072E-03
            3404            3794     54.3299E-03     57.0072E-03
            3422            3794     54.3299E-03     57.0072E-03
            3421            3794     54.3299E-03     57.0072E-03
            3404            3795     59.2802E-03     61.9412E-03
            3422            3795     59.2802E-03     61.9412E-03
            3405            3795     59.2802E-03     61.9412E-03
            3423            3795     59.2802E-03     61.9412E-03
            3424            3796     64.1846E-03     66.8111E-03
            3423            3796     64.1846E-03     66.8111E-03
            3406            3796     64.1846E-03     66.8111E-03
            3405            3796     64.1846E-03     66.8111E-03
            3425            3797     69.2264E-03     71.7696E-03
            3407            3797     69.2264E-03     71.7696E-03
            3424            3797     69.2264E-03     71.7696E-03
            3406            3797     69.2264E-03     71.7696E-03
            3408            3798     74.3495E-03     76.8750E-03
            3426            3798     74.3495E-03     76.8750E-03
            3407            3798     74.3495E-03     76.8750E-03
            3425            3798     74.3495E-03     76.8750E-03
            3408            3799     80.7018E-03     83.1611E-03
            3426            3799     80.7018E-03     83.1611E-03
            3409            3799     80.7018E-03     83.1611E-03
            3427            3799     80.7018E-03     83.1611E-03
            3409            3800     90.1265E-03     91.8291E-03
            3427            3800     90.1265E-03     91.8291E-03
            3410            3800     90.1265E-03     91.8291E-03
            3428            3800     90.1265E-03     91.8291E-03
            3411            3801     4.93447E-03     6.85046E-03
            3430            3801     4.93447E-03     6.85046E-03
            3429            3801     4.93447E-03     6.85046E-03
            3412            3801     4.93447E-03     6.85046E-03
            3430            3802     9.60298E-03     11.4672E-03
            3412            3802     9.60298E-03     11.4672E-03
            3413            3802     9.60298E-03     11.4672E-03
            3431            3802     9.60298E-03     11.4672E-03
            3413            3803     14.5444E-03     16.5130E-03
            3431            3803     14.5444E-03     16.5130E-03
            3414            3803     14.5444E-03     16.5130E-03
            3432            3803     14.5444E-03     16.5130E-03
            3414            3804     19.5855E-03     21.5432E-03
            3415            3804     19.5855E-03     21.5432E-03
            3432            3804     19.5855E-03     21.5432E-03
            3433            3804     19.5855E-03     21.5432E-03
            3434            3805     24.6551E-03     26.6147E-03
            3415            3805     24.6551E-03     26.6147E-03
            3433            3805     24.6551E-03     26.6147E-03
            3416            3805     24.6551E-03     26.6147E-03
            3417            3806     29.7344E-03     31.7097E-03
            3435            3806     29.7344E-03     31.7097E-03
            3416            3806     29.7344E-03     31.7097E-03
            3434            3806     29.7344E-03     31.7097E-03
            3418            3807     34.8231E-03     36.8088E-03
            3435            3807     34.8231E-03     36.8088E-03
            3436            3807     34.8231E-03     36.8088E-03
            3417            3807     34.8231E-03     36.8088E-03
            3418            3808     39.9232E-03     41.9118E-03
            3436            3808     39.9232E-03     41.9118E-03
            3437            3808     39.9232E-03     41.9118E-03
            3419            3808     39.9232E-03     41.9118E-03
            3420            3809     45.0320E-03     47.0231E-03
            3419            3809     45.0320E-03     47.0231E-03
            3437            3809     45.0320E-03     47.0231E-03
            3438            3809     45.0320E-03     47.0231E-03
            3421            3810     50.1503E-03     52.1388E-03
            3438            3810     50.1503E-03     52.1388E-03
            3439            3810     50.1503E-03     52.1388E-03
            3420            3810     50.1503E-03     52.1388E-03
            3439            3811     55.2818E-03     57.2738E-03
            3421            3811     55.2818E-03     57.2738E-03
            3440            3811     55.2818E-03     57.2738E-03
            3422            3811     55.2818E-03     57.2738E-03
            3422            3812     60.4304E-03     62.4384E-03
            3441            3812     60.4304E-03     62.4384E-03
            3440            3812     60.4304E-03     62.4384E-03
            3423            3812     60.4304E-03     62.4384E-03
            3424            3813     65.6168E-03     67.6659E-03
            3423            3813     65.6168E-03     67.6659E-03
            3442            3813     65.6168E-03     67.6659E-03
            3441            3813     65.6168E-03     67.6659E-03
            3442            3814     70.9405E-03     73.0771E-03
            3443            3814     70.9405E-03     73.0771E-03
            3424            3814     70.9405E-03     73.0771E-03
            3425            3814     70.9405E-03     73.0771E-03
            3426            3815     76.5082E-03     78.7627E-03
            3444            3815     76.5082E-03     78.7627E-03
            3443            3815     76.5082E-03     78.7627E-03
            3425            3815     76.5082E-03     78.7627E-03
            3445            3816     83.4993E-03     85.4165E-03
            3426            3816     83.4993E-03     85.4165E-03
            3444            3816     83.4993E-03     85.4165E-03
            3427            3816     83.4993E-03     85.4165E-03
            3446            3817     90.5397E-03     91.1656E-03
            3428            3817     90.5397E-03     91.1656E-03
            3445            3817     90.5397E-03     91.1656E-03
            3427            3817     90.5397E-03     91.1656E-03
            3448            3818     7.01698E-03     7.96322E-03
            3429            3818     7.01698E-03     7.96322E-03
            3430            3818     7.01698E-03     7.96322E-03
            3447            3818     7.01698E-03     7.96322E-03
            3431            3819     10.7819E-03     12.3444E-03
            3430            3819     10.7819E-03     12.3444E-03
            3448            3819     10.7819E-03     12.3444E-03
            3449            3819     10.7819E-03     12.3444E-03
            3431            3820     15.5007E-03     16.8552E-03
            3449            3820     15.5007E-03     16.8552E-03
            3450            3820     15.5007E-03     16.8552E-03
            3432            3820     15.5007E-03     16.8552E-03
            3451            3821     20.4455E-03     21.6735E-03
            3450            3821     20.4455E-03     21.6735E-03
            3433            3821     20.4455E-03     21.6735E-03
            3432            3821     20.4455E-03     21.6735E-03
            3434            3822     25.4257E-03     26.6642E-03
            3452            3822     25.4257E-03     26.6642E-03
            3451            3822     25.4257E-03     26.6642E-03
            3433            3822     25.4257E-03     26.6642E-03
            3434            3823     30.4404E-03     31.6997E-03
            3435            3823     30.4404E-03     31.6997E-03
            3452            3823     30.4404E-03     31.6997E-03
            3453            3823     30.4404E-03     31.6997E-03
            3436            3824     35.4923E-03     36.7677E-03
            3435            3824     35.4923E-03     36.7677E-03
            3453            3824     35.4923E-03     36.7677E-03
            3454            3824     35.4923E-03     36.7677E-03
            3455            3825     40.5663E-03     41.8551E-03
            3437            3825     40.5663E-03     41.8551E-03
            3454            3825     40.5663E-03     41.8551E-03
            3436            3825     40.5663E-03     41.8551E-03
            3437            3826     45.6706E-03     46.9609E-03
            3456            3826     45.6706E-03     46.9609E-03
            3438            3826     45.6706E-03     46.9609E-03
            3455            3826     45.6706E-03     46.9609E-03
            3456            3827     50.7988E-03     52.0952E-03
            3438            3827     50.7988E-03     52.0952E-03
            3457            3827     50.7988E-03     52.0952E-03
            3439            3827     50.7988E-03     52.0952E-03
            3458            3828     55.9676E-03     57.2707E-03
            3439            3828     55.9676E-03     57.2707E-03
            3457            3828     55.9676E-03     57.2707E-03
            3440            3828     55.9676E-03     57.2707E-03
            3458            3829     61.1661E-03     62.5025E-03
            3459            3829     61.1661E-03     62.5025E-03
            3441            3829     61.1661E-03     62.5025E-03
            3440            3829     61.1661E-03     62.5025E-03
            3441            3830     66.4709E-03     67.8690E-03
            3459            3830     66.4709E-03     67.8690E-03
            3442            3830     66.4709E-03     67.8690E-03
            3460            3830     66.4709E-03     67.8690E-03
            3443            3831     71.7846E-03     73.3631E-03
            3442            3831     71.7846E-03     73.3631E-03
            3461            3831     71.7846E-03     73.3631E-03
            3460            3831     71.7846E-03     73.3631E-03
            3444            3832     77.6714E-03     79.2370E-03
            3443            3832     77.6714E-03     79.2370E-03
            3461            3832     77.6714E-03     79.2370E-03
            3462            3832     77.6714E-03     79.2370E-03
            3462            3833     83.4691E-03     85.0159E-03
            3445            3833     83.4691E-03     85.0159E-03
            3444            3833     83.4691E-03     85.0159E-03
            3463            3833     83.4691E-03     85.0159E-03
            3464            3834     87.7658E-03     89.7752E-03
            3463            3834     87.7658E-03     89.7752E-03
            3446            3834     87.7658E-03     89.7752E-03
            3445            3834     87.7658E-03     89.7752E-03
            3465            3835     9.42336E-03     10.4478E-03
            3466            3835     9.42336E-03     10.4478E-03
            3448            3835     9.42336E-03     10.4478E-03
            3447            3835     9.42336E-03     10.4478E-03
            3467            3836     12.5651E-03     13.6751E-03
            3466            3836     12.5651E-03     13.6751E-03
            3448            3836     12.5651E-03     13.6751E-03
            3449            3836     12.5651E-03     13.6751E-03
            3450            3837     16.9701E-03     17.6329E-03
            3467            3837     16.9701E-03     17.6329E-03
            3468            3837     16.9701E-03     17.6329E-03
            3449            3837     16.9701E-03     17.6329E-03
            3468            3838     21.6501E-03     22.2028E-03
            3469            3838     21.6501E-03     22.2028E-03
            3450            3838     21.6501E-03     22.2028E-03
            3451            3838     21.6501E-03     22.2028E-03
            3452            3839     26.4458E-03     27.0018E-03
            3469            3839     26.4458E-03     27.0018E-03
            3451            3839     26.4458E-03     27.0018E-03
            3470            3839     26.4458E-03     27.0018E-03
            3470            3840     31.3306E-03     31.9020E-03
            3453            3840     31.3306E-03     31.9020E-03
            3471            3840     31.3306E-03     31.9020E-03
            3452            3840     31.3306E-03     31.9020E-03
            3471            3841     36.2648E-03     36.8556E-03
            3453            3841     36.2648E-03     36.8556E-03
            3472            3841     36.2648E-03     36.8556E-03
            3454            3841     36.2648E-03     36.8556E-03
            3455            3842     41.2426E-03     41.8388E-03
            3472            3842     41.2426E-03     41.8388E-03
            3454            3842     41.2426E-03     41.8388E-03
            3473            3842     41.2426E-03     41.8388E-03
            3473            3843     46.2425E-03     46.8470E-03
            3455            3843     46.2425E-03     46.8470E-03
            3456            3843     46.2425E-03     46.8470E-03
            3474            3843     46.2425E-03     46.8470E-03
            3474            3844     51.2735E-03     51.8745E-03
            3456            3844     51.2735E-03     51.8745E-03
            3457            3844     51.2735E-03     51.8745E-03
            3475            3844     51.2735E-03     51.8745E-03
            3475            3845     56.3176E-03     56.9298E-03
            3476            3845     56.3176E-03     56.9298E-03
            3458            3845     56.3176E-03     56.9298E-03
            3457            3845     56.3176E-03     56.9298E-03
            3458            3846     61.4131E-03     62.0284E-03
            3476            3846     61.4131E-03     62.0284E-03
            3477            3846     61.4131E-03     62.0284E-03
            3459            3846     61.4131E-03     62.0284E-03
            3477            3847     66.5032E-03     67.1708E-03
            3459            3847     66.5032E-03     67.1708E-03
            3460            3847     66.5032E-03     67.1708E-03
            3478            3847     66.5032E-03     67.1708E-03
            3460            3848     71.7094E-03     72.4146E-03
            3478            3848     71.7094E-03     72.4146E-03
            3461            3848     71.7094E-03     72.4146E-03
            3479            3848     71.7094E-03     72.4146E-03
            3461            3849     76.7748E-03     77.6500E-03
            3480            3849     76.7748E-03     77.6500E-03
            3479            3849     76.7748E-03     77.6500E-03
            3462            3849     76.7748E-03     77.6500E-03
            3480            3850     81.4241E-03     82.5514E-03
            3462            3850     81.4241E-03     82.5514E-03
            3463            3850     81.4241E-03     82.5514E-03
            3481            3850     81.4241E-03     82.5514E-03
            3463            3851     85.0437E-03     85.5765E-03
            3481            3851     85.0437E-03     85.5765E-03
            3464            3851     85.0437E-03     85.5765E-03
            3482            3851     85.0437E-03     85.5765E-03
            3465            3852     11.7746E-03     13.0841E-03
            3466            3852     11.7746E-03     13.0841E-03
            3483            3852     11.7746E-03     13.0841E-03
            3484            3852     11.7746E-03     13.0841E-03
            3485            3853     14.9126E-03     15.1940E-03
            3466            3853     14.9126E-03     15.1940E-03
            3484            3853     14.9126E-03     15.1940E-03
            3467            3853     14.9126E-03     15.1940E-03
            3486            3854     18.8337E-03     18.8338E-03
            3468            3854     18.8337E-03     18.8338E-03
            3467            3854     18.8337E-03     18.8338E-03
            3485            3854     18.8337E-03     18.8338E-03
            3486            3855     23.1537E-03     23.1103E-03
            3469            3855     23.1537E-03     23.1103E-03
            3468            3855     23.1537E-03     23.1103E-03
            3487            3855     23.1537E-03     23.1103E-03
            3488            3856     27.7057E-03     27.6464E-03
            3469            3856     27.7057E-03     27.6464E-03
            3470            3856     27.7057E-03     27.6464E-03
            3487            3856     27.7057E-03     27.6464E-03
            3488            3857     32.4000E-03     32.3354E-03
            3471            3857     32.4000E-03     32.3354E-03
            3470            3857     32.4000E-03     32.3354E-03
            3489            3857     32.4000E-03     32.3354E-03
            3489            3858     37.1700E-03     37.0987E-03
            3472            3858     37.1700E-03     37.0987E-03
            3490            3858     37.1700E-03     37.0987E-03
            3471            3858     37.1700E-03     37.0987E-03
            3490            3859     41.9777E-03     41.9064E-03
            3491            3859     41.9777E-03     41.9064E-03
            3473            3859     41.9777E-03     41.9064E-03
            3472            3859     41.9777E-03     41.9064E-03
            3473            3860     46.8045E-03     46.7273E-03
            3491            3860     46.8045E-03     46.7273E-03
            3474            3860     46.8045E-03     46.7273E-03
            3492            3860     46.8045E-03     46.7273E-03
            3474            3861     51.6176E-03     51.5454E-03
            3492            3861     51.6176E-03     51.5454E-03
            3475            3861     51.6176E-03     51.5454E-03
            3493            3861     51.6176E-03     51.5454E-03
            3476            3862     56.4227E-03     56.3316E-03
            3494            3862     56.4227E-03     56.3316E-03
            3475            3862     56.4227E-03     56.3316E-03
            3493            3862     56.4227E-03     56.3316E-03
            3477            3863     61.1745E-03     61.0797E-03
            3476            3863     61.1745E-03     61.0797E-03
            3494            3863     61.1745E-03     61.0797E-03
            3495            3863     61.1745E-03     61.0797E-03
            3496            3864     65.8734E-03     65.7214E-03
            3478            3864     65.8734E-03     65.7214E-03
            3477            3864     65.8734E-03     65.7214E-03
            3495            3864     65.8734E-03     65.7214E-03
            3497            3865     70.4478E-03     70.2284E-03
            3496            3865     70.4478E-03     70.2284E-03
            3479            3865     70.4478E-03     70.2284E-03
            3478            3865     70.4478E-03     70.2284E-03
            3479            3866     74.5751E-03     74.3565E-03
            3498            3866     74.5751E-03     74.3565E-03
            3497            3866     74.5751E-03     74.3565E-03
            3480            3866     74.5751E-03     74.3565E-03
            3499            3867     78.1970E-03     77.9412E-03
            3480            3867     78.1970E-03     77.9412E-03
            3498            3867     78.1970E-03     77.9412E-03
            3481            3867     78.1970E-03     77.9412E-03
            3482            3868     80.8295E-03     80.3682E-03
            3499            3868     80.8295E-03     80.3682E-03
            3481            3868     80.8295E-03     80.3682E-03
            3500            3868     80.8295E-03     80.3682E-03
            3977            4243     7.51040E-03     8.51811E-03
            3959            4243     7.51040E-03     8.51811E-03
            3960            4243     7.51040E-03     8.51811E-03
            3978            4243     7.51040E-03     8.51811E-03
            3979            4244     11.6383E-03     12.1703E-03
            3978            4244     11.6383E-03     12.1703E-03
            3960            4244     11.6383E-03     12.1703E-03
            3961            4244     11.6383E-03     12.1703E-03
            3961            4245     15.9882E-03     16.4954E-03
            3980            4245     15.9882E-03     16.4954E-03
            3962            4245     15.9882E-03     16.4954E-03
            3979            4245     15.9882E-03     16.4954E-03
            3981            4246     20.5648E-03     21.0671E-03
            3980            4246     20.5648E-03     21.0671E-03
            3963            4246     20.5648E-03     21.0671E-03
            3962            4246     20.5648E-03     21.0671E-03
            3982            4247     25.2637E-03     25.7487E-03
            3963            4247     25.2637E-03     25.7487E-03
            3964            4247     25.2637E-03     25.7487E-03
            3981            4247     25.2637E-03     25.7487E-03
            3982            4248     30.0181E-03     30.4905E-03
            3983            4248     30.0181E-03     30.4905E-03
            3965            4248     30.0181E-03     30.4905E-03
            3964            4248     30.0181E-03     30.4905E-03
            3984            4249     34.8068E-03     35.2759E-03
            3966            4249     34.8068E-03     35.2759E-03
            3965            4249     34.8068E-03     35.2759E-03
            3983            4249     34.8068E-03     35.2759E-03
            3985            4250     39.6048E-03     40.0699E-03
            3966            4250     39.6048E-03     40.0699E-03
            3967            4250     39.6048E-03     40.0699E-03
            3984            4250     39.6048E-03     40.0699E-03
            3967            4251     44.4127E-03     44.8798E-03
            3985            4251     44.4127E-03     44.8798E-03
            3986            4251     44.4127E-03     44.8798E-03
            3968            4251     44.4127E-03     44.8798E-03
            3968            4252     49.1994E-03     49.6659E-03
            3986            4252     49.1994E-03     49.6659E-03
            3969            4252     49.1994E-03     49.6659E-03
            3987            4252     49.1994E-03     49.6659E-03
            3970            4253     53.9846E-03     54.4492E-03
            3987            4253     53.9846E-03     54.4492E-03
            3969            4253     53.9846E-03     54.4492E-03
            3988            4253     53.9846E-03     54.4492E-03
            3971            4254     58.7038E-03     59.1738E-03
            3970            4254     58.7038E-03     59.1738E-03
            3989            4254     58.7038E-03     59.1738E-03
            3988            4254     58.7038E-03     59.1738E-03
            3990            4255     63.4245E-03     63.8466E-03
            3971            4255     63.4245E-03     63.8466E-03
            3989            4255     63.4245E-03     63.8466E-03
            3972            4255     63.4245E-03     63.8466E-03
            3972            4256     67.9991E-03     68.4245E-03
            3990            4256     67.9991E-03     68.4245E-03
            3973            4256     67.9991E-03     68.4245E-03
            3991            4256     67.9991E-03     68.4245E-03
            3991            4257     72.4374E-03     72.7712E-03
            3973            4257     72.4374E-03     72.7712E-03
            3992            4257     72.4374E-03     72.7712E-03
            3974            4257     72.4374E-03     72.7712E-03
            3974            4258     76.4628E-03     76.7167E-03
            3993            4258     76.4628E-03     76.7167E-03
            3975            4258     76.4628E-03     76.7167E-03
            3992            4258     76.4628E-03     76.7167E-03
            3994            4259     80.0113E-03     80.8295E-03
            3976            4259     80.0113E-03     80.8295E-03
            3975            4259     80.0113E-03     80.8295E-03
            3993            4259     80.0113E-03     80.8295E-03
            3995            4260     9.80825E-03     10.8784E-03
            3996            4260     9.80825E-03     10.8784E-03
            3978            4260     9.80825E-03     10.8784E-03
            3977            4260     9.80825E-03     10.8784E-03
            3996            4261     13.3819E-03     13.6889E-03
            3997            4261     13.3819E-03     13.6889E-03
            3978            4261     13.3819E-03     13.6889E-03
            3979            4261     13.3819E-03     13.6889E-03
            3998            4262     17.7076E-03     17.8766E-03
            3979            4262     17.7076E-03     17.8766E-03
            3980            4262     17.7076E-03     17.8766E-03
            3997            4262     17.7076E-03     17.8766E-03
            3980            4263     22.3902E-03     22.5247E-03
            3998            4263     22.3902E-03     22.5247E-03
            3999            4263     22.3902E-03     22.5247E-03
            3981            4263     22.3902E-03     22.5247E-03
            4000            4264     27.2312E-03     27.3662E-03
            3982            4264     27.2312E-03     27.3662E-03
            3981            4264     27.2312E-03     27.3662E-03
            3999            4264     27.2312E-03     27.3662E-03
            3982            4265     32.1728E-03     32.3091E-03
            4000            4265     32.1728E-03     32.3091E-03
            3983            4265     32.1728E-03     32.3091E-03
            4001            4265     32.1728E-03     32.3091E-03
            4002            4266     37.1658E-03     37.2997E-03
            4001            4266     37.1658E-03     37.2997E-03
            3983            4266     37.1658E-03     37.2997E-03
            3984            4266     37.1658E-03     37.2997E-03
            4003            4267     42.1903E-03     42.3245E-03
            4002            4267     42.1903E-03     42.3245E-03
            3985            4267     42.1903E-03     42.3245E-03
            3984            4267     42.1903E-03     42.3245E-03
            4004            4268     47.2172E-03     47.3542E-03
            3985            4268     47.2172E-03     47.3542E-03
            3986            4268     47.2172E-03     47.3542E-03
            4003            4268     47.2172E-03     47.3542E-03
            3986            4269     52.2544E-03     52.3868E-03
            4005            4269     52.2544E-03     52.3868E-03
            4004            4269     52.2544E-03     52.3868E-03
            3987            4269     52.2544E-03     52.3868E-03
            4006            4270     57.2507E-03     57.3949E-03
            3988            4270     57.2507E-03     57.3949E-03
            3987            4270     57.2507E-03     57.3949E-03
            4005            4270     57.2507E-03     57.3949E-03
            4006            4271     62.2629E-03     62.3772E-03
            3988            4271     62.2629E-03     62.3772E-03
            3989            4271     62.2629E-03     62.3772E-03
            4007            4271     62.2629E-03     62.3772E-03
            3990            4272     67.1659E-03     67.3122E-03
            4008            4272     67.1659E-03     67.3122E-03
            3989            4272     67.1659E-03     67.3122E-03
            4007            4272     67.1659E-03     67.3122E-03
            4009            4273     72.1194E-03     72.1764E-03
            3991            4273     72.1194E-03     72.1764E-03
            4008            4273     72.1194E-03     72.1764E-03
            3990            4273     72.1194E-03     72.1764E-03
            4010            4274     76.7985E-03     76.8359E-03
            3991            4274     76.7985E-03     76.8359E-03
            3992            4274     76.7985E-03     76.8359E-03
            4009            4274     76.7985E-03     76.8359E-03
            4011            4275     80.8671E-03     81.1888E-03
            3992            4275     80.8671E-03     81.1888E-03
            4010            4275     80.8671E-03     81.1888E-03
            3993            4275     80.8671E-03     81.1888E-03
            4012            4276     84.3818E-03     84.1436E-03
            3993            4276     84.3818E-03     84.1436E-03
            3994            4276     84.3818E-03     84.1436E-03
            4011            4276     84.3818E-03     84.1436E-03
            4013            4277     7.42777E-03     8.62900E-03
            3996            4277     7.42777E-03     8.62900E-03
            3995            4277     7.42777E-03     8.62900E-03
            4014            4277     7.42777E-03     8.62900E-03
            4015            4278     11.2516E-03     12.4958E-03
            3997            4278     11.2516E-03     12.4958E-03
            4014            4278     11.2516E-03     12.4958E-03
            3996            4278     11.2516E-03     12.4958E-03
            4015            4279     16.1180E-03     16.9668E-03
            3997            4279     16.1180E-03     16.9668E-03
            3998            4279     16.1180E-03     16.9668E-03
            4016            4279     16.1180E-03     16.9668E-03
            4017            4280     21.0671E-03     21.9153E-03
            3998            4280     21.0671E-03     21.9153E-03
            3999            4280     21.0671E-03     21.9153E-03
            4016            4280     21.0671E-03     21.9153E-03
            4017            4281     26.0845E-03     26.9702E-03
            3999            4281     26.0845E-03     26.9702E-03
            4000            4281     26.0845E-03     26.9702E-03
            4018            4281     26.0845E-03     26.9702E-03
            4000            4282     31.1629E-03     32.0673E-03
            4019            4282     31.1629E-03     32.0673E-03
            4001            4282     31.1629E-03     32.0673E-03
            4018            4282     31.1629E-03     32.0673E-03
            4020            4283     36.2705E-03     37.1893E-03
            4002            4283     36.2705E-03     37.1893E-03
            4001            4283     36.2705E-03     37.1893E-03
            4019            4283     36.2705E-03     37.1893E-03
            4003            4284     41.4022E-03     42.3250E-03
            4020            4284     41.4022E-03     42.3250E-03
            4002            4284     41.4022E-03     42.3250E-03
            4021            4284     41.4022E-03     42.3250E-03
            4022            4285     46.5520E-03     47.4744E-03
            4021            4285     46.5520E-03     47.4744E-03
            4003            4285     46.5520E-03     47.4744E-03
            4004            4285     46.5520E-03     47.4744E-03
            4023            4286     51.7119E-03     52.6367E-03
            4005            4286     51.7119E-03     52.6367E-03
            4004            4286     51.7119E-03     52.6367E-03
            4022            4286     51.7119E-03     52.6367E-03
            4024            4287     56.8983E-03     57.8167E-03
            4023            4287     56.8983E-03     57.8167E-03
            4006            4287     56.8983E-03     57.8167E-03
            4005            4287     56.8983E-03     57.8167E-03
            4025            4288     62.0934E-03     63.0288E-03
            4006            4288     62.0934E-03     63.0288E-03
            4007            4288     62.0934E-03     63.0288E-03
            4024            4288     62.0934E-03     63.0288E-03
            4026            4289     67.3627E-03     68.3020E-03
            4025            4289     67.3627E-03     68.3020E-03
            4008            4289     67.3627E-03     68.3020E-03
            4007            4289     67.3627E-03     68.3020E-03
            4008            4290     72.6226E-03     73.6595E-03
            4009            4290     72.6226E-03     73.6595E-03
            4026            4290     72.6226E-03     73.6595E-03
            4027            4290     72.6226E-03     73.6595E-03
            4028            4291     78.1807E-03     79.2551E-03
            4027            4291     78.1807E-03     79.2551E-03
            4010            4291     78.1807E-03     79.2551E-03
            4009            4291     78.1807E-03     79.2551E-03
            4029            4292     83.8904E-03     84.8764E-03
            4011            4292     83.8904E-03     84.8764E-03
            4028            4292     83.8904E-03     84.8764E-03
            4010            4292     83.8904E-03     84.8764E-03
            4011            4293     87.8916E-03     88.9503E-03
            4030            4293     87.8916E-03     88.9503E-03
            4012            4293     87.8916E-03     88.9503E-03
            4029            4293     87.8916E-03     88.9503E-03
            4032            4294     5.26199E-03     6.87380E-03
            4013            4294     5.26199E-03     6.87380E-03
            4014            4294     5.26199E-03     6.87380E-03
            4031            4294     5.26199E-03     6.87380E-03
            4033            4295     9.91402E-03     11.7201E-03
            4032            4295     9.91402E-03     11.7201E-03
            4015            4295     9.91402E-03     11.7201E-03
            4014            4295     9.91402E-03     11.7201E-03
            4033            4296     14.9791E-03     16.6503E-03
            4034            4296     14.9791E-03     16.6503E-03
            4016            4296     14.9791E-03     16.6503E-03
            4015            4296     14.9791E-03     16.6503E-03
            4017            4297     20.0997E-03     21.7595E-03
            4034            4297     20.0997E-03     21.7595E-03
            4035            4297     20.0997E-03     21.7595E-03
            4016            4297     20.0997E-03     21.7595E-03
            4035            4298     25.2378E-03     26.9265E-03
            4018            4298     25.2378E-03     26.9265E-03
            4036            4298     25.2378E-03     26.9265E-03
            4017            4298     25.2378E-03     26.9265E-03
            4019            4299     30.3900E-03     32.0974E-03
            4037            4299     30.3900E-03     32.0974E-03
            4036            4299     30.3900E-03     32.0974E-03
            4018            4299     30.3900E-03     32.0974E-03
            4038            4300     35.5596E-03     37.2779E-03
            4019            4300     35.5596E-03     37.2779E-03
            4020            4300     35.5596E-03     37.2779E-03
            4037            4300     35.5596E-03     37.2779E-03
            4021            4301     40.7388E-03     42.4576E-03
            4039            4301     40.7388E-03     42.4576E-03
            4020            4301     40.7388E-03     42.4576E-03
            4038            4301     40.7388E-03     42.4576E-03
            4022            4302     45.9299E-03     47.6493E-03
            4021            4302     45.9299E-03     47.6493E-03
            4039            4302     45.9299E-03     47.6493E-03
            4040            4302     45.9299E-03     47.6493E-03
            4022            4303     51.1268E-03     52.8449E-03
            4040            4303     51.1268E-03     52.8449E-03
            4041            4303     51.1268E-03     52.8449E-03
            4023            4303     51.1268E-03     52.8449E-03
            4042            4304     56.3487E-03     58.0622E-03
            4024            4304     56.3487E-03     58.0622E-03
            4023            4304     56.3487E-03     58.0622E-03
            4041            4304     56.3487E-03     58.0622E-03
            4042            4305     61.5733E-03     63.3028E-03
            4025            4305     61.5733E-03     63.3028E-03
            4043            4305     61.5733E-03     63.3028E-03
            4024            4305     61.5733E-03     63.3028E-03
            4025            4306     66.8636E-03     68.5908E-03
            4026            4306     66.8636E-03     68.5908E-03
            4043            4306     66.8636E-03     68.5908E-03
            4044            4306     66.8636E-03     68.5908E-03
            4026            4307     72.1660E-03     74.0058E-03
            4044            4307     72.1660E-03     74.0058E-03
            4027            4307     72.1660E-03     74.0058E-03
            4045            4307     72.1660E-03     74.0058E-03
            4028            4308     77.7068E-03     79.6323E-03
            4027            4308     77.7068E-03     79.6323E-03
            4046            4308     77.7068E-03     79.6323E-03
            4045            4308     77.7068E-03     79.6323E-03
            4046            4309     84.3219E-03     85.9434E-03
            4029            4309     84.3219E-03     85.9434E-03
            4028            4309     84.3219E-03     85.9434E-03
            4047            4309     84.3219E-03     85.9434E-03
            4029            4310     90.2947E-03     91.2302E-03
            4030            4310     90.2947E-03     91.2302E-03
            4048            4310     90.2947E-03     91.2302E-03
            4047            4310     90.2947E-03     91.2302E-03
            4031            4311     4.56001E-03     6.65937E-03
            4049            4311     4.56001E-03     6.65937E-03
            4032            4311     4.56001E-03     6.65937E-03
            4050            4311     4.56001E-03     6.65937E-03
            4032            4312     9.43105E-03     11.6737E-03
            4051            4312     9.43105E-03     11.6737E-03
            4050            4312     9.43105E-03     11.6737E-03
            4033            4312     9.43105E-03     11.6737E-03
            4033            4313     14.4118E-03     16.9292E-03
            4051            4313     14.4118E-03     16.9292E-03
            4052            4313     14.4118E-03     16.9292E-03
            4034            4313     14.4118E-03     16.9292E-03
            4035            4314     19.5538E-03     22.0703E-03
            4052            4314     19.5538E-03     22.0703E-03
            4053            4314     19.5538E-03     22.0703E-03
            4034            4314     19.5538E-03     22.0703E-03
            4053            4315     24.7132E-03     27.2315E-03
            4035            4315     24.7132E-03     27.2315E-03
            4054            4315     24.7132E-03     27.2315E-03
            4036            4315     24.7132E-03     27.2315E-03
            4037            4316     29.8763E-03     32.3966E-03
            4055            4316     29.8763E-03     32.3966E-03
            4036            4316     29.8763E-03     32.3966E-03
            4054            4316     29.8763E-03     32.3966E-03
            4056            4317     35.0412E-03     37.5545E-03
            4055            4317     35.0412E-03     37.5545E-03
            4038            4317     35.0412E-03     37.5545E-03
            4037            4317     35.0412E-03     37.5545E-03
            4038            4318     40.2015E-03     42.7165E-03
            4056            4318     40.2015E-03     42.7165E-03
            4057            4318     40.2015E-03     42.7165E-03
            4039            4318     40.2015E-03     42.7165E-03
            4058            4319     45.3464E-03     47.8609E-03
            4040            4319     45.3464E-03     47.8609E-03
            4057            4319     45.3464E-03     47.8609E-03
            4039            4319     45.3464E-03     47.8609E-03
            4041            4320     50.4891E-03     53.0020E-03
            4059            4320     50.4891E-03     53.0020E-03
            4040            4320     50.4891E-03     53.0020E-03
            4058            4320     50.4891E-03     53.0020E-03
            4042            4321     55.5874E-03     58.1072E-03
            4059            4321     55.5874E-03     58.1072E-03
            4041            4321     55.5874E-03     58.1072E-03
            4060            4321     55.5874E-03     58.1072E-03
            4060            4322     60.6968E-03     63.1930E-03
            4061            4322     60.6968E-03     63.1930E-03
            4043            4322     60.6968E-03     63.1930E-03
            4042            4322     60.6968E-03     63.1930E-03
            4044            4323     65.6991E-03     68.2188E-03
            4061            4323     65.6991E-03     68.2188E-03
            4062            4323     65.6991E-03     68.2188E-03
            4043            4323     65.6991E-03     68.2188E-03
            4062            4324     70.8097E-03     73.2526E-03
            4045            4324     70.8097E-03     73.2526E-03
            4044            4324     70.8097E-03     73.2526E-03
            4063            4324     70.8097E-03     73.2526E-03
            4045            4325     75.8472E-03     78.2841E-03
            4046            4325     75.8472E-03     78.2841E-03
            4064            4325     75.8472E-03     78.2841E-03
            4063            4325     75.8472E-03     78.2841E-03
            4064            4326     81.5827E-03     84.1656E-03
            4047            4326     81.5827E-03     84.1656E-03
            4046            4326     81.5827E-03     84.1656E-03
            4065            4326     81.5827E-03     84.1656E-03
            4048            4327     89.9230E-03     91.5600E-03
            4047            4327     89.9230E-03     91.5600E-03
            4066            4327     89.9230E-03     91.5600E-03
            4065            4327     89.9230E-03     91.5600E-03
            5085            5225     39.2874E-15     39.4353E-15
            5086            5225     39.2874E-15     39.4353E-15
            5067            5225     39.2874E-15     39.4353E-15
            5068            5225     39.2874E-15     39.4353E-15
            5069            5226     34.0542E-15     31.5169E-15
            5086            5226     34.0542E-15     31.5169E-15
            5087            5226     34.0542E-15     31.5169E-15
            5068            5226     34.0542E-15     31.5169E-15
            5069            5227     26.5565E-15     24.1888E-15
            5070            5227     26.5565E-15     24.1888E-15
            5087            5227     26.5565E-15     24.1888E-15
            5088            5227     26.5565E-15     24.1888E-15
            5070            5228     25.2651E-15     24.8272E-15
            5089            5228     25.2651E-15     24.8272E-15
            5071            5228     25.2651E-15     24.8272E-15
            5088            5228     25.2651E-15     24.8272E-15
            5090            5229     18.7461E-15     22.6779E-15
            5089            5229     18.7461E-15     22.6779E-15
            5071            5229     18.7461E-15     22.6779E-15
            5072            5229     18.7461E-15     22.6779E-15
            5072            5230     31.1373E-15     32.7634E-15
            5090            5230     31.1373E-15     32.7634E-15
            5091            5230     31.1373E-15     32.7634E-15
            5073            5230     31.1373E-15     32.7634E-15
            5091            5231     35.8247E-15     33.1529E-15
            5092            5231     35.8247E-15     33.1529E-15
            5073            5231     35.8247E-15     33.1529E-15
            5074            5231     35.8247E-15     33.1529E-15
            5075            5232     28.0487E-15     25.4530E-15
            5093            5232     28.0487E-15     25.4530E-15
            5074            5232     28.0487E-15     25.4530E-15
            5092            5232     28.0487E-15     25.4530E-15
            5093            5233     19.0660E-15     18.8202E-15
            5076            5233     19.0660E-15     18.8202E-15
            5075            5233     19.0660E-15     18.8202E-15
            5094            5233     19.0660E-15     18.8202E-15
            5077            5234     11.4427E-15     11.7802E-15
            5095            5234     11.4427E-15     11.7802E-15
            5094            5234     11.4427E-15     11.7802E-15
            5076            5234     11.4427E-15     11.7802E-15
            5077            5235     13.4118E-15     12.7160E-15
            5096            5235     13.4118E-15     12.7160E-15
            5095            5235     13.4118E-15     12.7160E-15
            5078            5235     13.4118E-15     12.7160E-15
            5097            5236     14.0300E-15     14.0930E-15
            5079            5236     14.0300E-15     14.0930E-15
            5078            5236     14.0300E-15     14.0930E-15
            5096            5236     14.0300E-15     14.0930E-15
            5080            5237     15.6923E-15     18.3874E-15
            5079            5237     15.6923E-15     18.3874E-15
            5097            5237     15.6923E-15     18.3874E-15
            5098            5237     15.6923E-15     18.3874E-15
            5080            5238     18.4910E-15     20.4363E-15
            5099            5238     18.4910E-15     20.4363E-15
            5081            5238     18.4910E-15     20.4363E-15
            5098            5238     18.4910E-15     20.4363E-15
            5081            5239     21.9534E-15     22.5889E-15
            5100            5239     21.9534E-15     22.5889E-15
            5082            5239     21.9534E-15     22.5889E-15
            5099            5239     21.9534E-15     22.5889E-15
            5101            5240     24.4931E-15     25.9162E-15
            5083            5240     24.4931E-15     25.9162E-15
            5100            5240     24.4931E-15     25.9162E-15
            5082            5240     24.4931E-15     25.9162E-15
            5101            5241     23.7301E-15     24.0781E-15
            5102            5241     23.7301E-15     24.0781E-15
            5083            5241     23.7301E-15     24.0781E-15
            5084            5241     23.7301E-15     24.0781E-15
            5086            5242     29.7206E-15     31.5550E-15
            5103            5242     29.7206E-15     31.5550E-15
            5085            5242     29.7206E-15     31.5550E-15
            5104            5242     29.7206E-15     31.5550E-15
            5104            5243     31.1360E-15     32.1590E-15
            5105            5243     31.1360E-15     32.1590E-15
            5086            5243     31.1360E-15     32.1590E-15
            5087            5243     31.1360E-15     32.1590E-15
            5106            5244     31.0673E-15     30.5480E-15
            5087            5244     31.0673E-15     30.5480E-15
            5088            5244     31.0673E-15     30.5480E-15
            5105            5244     31.0673E-15     30.5480E-15
            5088            5245     26.3508E-15     25.6072E-15
            5089            5245     26.3508E-15     25.6072E-15
            5106            5245     26.3508E-15     25.6072E-15
            5107            5245     26.3508E-15     25.6072E-15
            5107            5246     20.0852E-15     18.6772E-15
            5089            5246     20.0852E-15     18.6772E-15
            5108            5246     20.0852E-15     18.6772E-15
            5090            5246     20.0852E-15     18.6772E-15
            5091            5247     19.3978E-15     20.2589E-15
            5108            5247     19.3978E-15     20.2589E-15
            5090            5247     19.3978E-15     20.2589E-15
            5109            5247     19.3978E-15     20.2589E-15
            5091            5248     20.8909E-15     23.5011E-15
            5092            5248     20.8909E-15     23.5011E-15
            5110            5248     20.8909E-15     23.5011E-15
            5109            5248     20.8909E-15     23.5011E-15
            5111            5249     27.8301E-15     27.4189E-15
            5110            5249     27.8301E-15     27.4189E-15
            5093            5249     27.8301E-15     27.4189E-15
            5092            5249     27.8301E-15     27.4189E-15
            5094            5250     25.6469E-15     24.9467E-15
            5093            5250     25.6469E-15     24.9467E-15
            5112            5250     25.6469E-15     24.9467E-15
            5111            5250     25.6469E-15     24.9467E-15
            5112            5251     18.5884E-15     16.6918E-15
            5113            5251     18.5884E-15     16.6918E-15
            5095            5251     18.5884E-15     16.6918E-15
            5094            5251     18.5884E-15     16.6918E-15
            5113            5252     23.9016E-15     21.1155E-15
            5096            5252     23.9016E-15     21.1155E-15
            5114            5252     23.9016E-15     21.1155E-15
            5095            5252     23.9016E-15     21.1155E-15
            5114            5253     25.6710E-15     23.8856E-15
            5096            5253     25.6710E-15     23.8856E-15
            5115            5253     25.6710E-15     23.8856E-15
            5097            5253     25.6710E-15     23.8856E-15
            5115            5254     13.7891E-15     13.5724E-15
            5116            5254     13.7891E-15     13.5724E-15
            5098            5254     13.7891E-15     13.5724E-15
            5097            5254     13.7891E-15     13.5724E-15
            5117            5255     15.0908E-15     15.8608E-15
            5116            5255     15.0908E-15     15.8608E-15
            5099            5255     15.0908E-15     15.8608E-15
            5098            5255     15.0908E-15     15.8608E-15
            5099            5256     20.9350E-15     22.0000E-15
            5100            5256     20.9350E-15     22.0000E-15
            5118            5256     20.9350E-15     22.0000E-15
            5117            5256     20.9350E-15     22.0000E-15
            5100            5257     15.2262E-15     16.2718E-15
            5118            5257     15.2262E-15     16.2718E-15
            5101            5257     15.2262E-15     16.2718E-15
            5119            5257     15.2262E-15     16.2718E-15
            5102            5258     16.8555E-15     17.2213E-15
            5119            5258     16.8555E-15     17.2213E-15
            5101            5258     16.8555E-15     17.2213E-15
            5120            5258     16.8555E-15     17.2213E-15
            5103            5259     27.5461E-15     28.5144E-15
            5121            5259     27.5461E-15     28.5144E-15
            5104            5259     27.5461E-15     28.5144E-15
            5122            5259     27.5461E-15     28.5144E-15
            5104            5260     21.4594E-15     22.9300E-15
            5123            5260     21.4594E-15     22.9300E-15
            5105            5260     21.4594E-15     22.9300E-15
            5122            5260     21.4594E-15     22.9300E-15
            5123            5261     22.7915E-15     22.6443E-15
            5105            5261     22.7915E-15     22.6443E-15
            5106            5261     22.7915E-15     22.6443E-15
            5124            5261     22.7915E-15     22.6443E-15
            5125            5262     19.9755E-15     21.1858E-15
            5107            5262     19.9755E-15     21.1858E-15
            5106            5262     19.9755E-15     21.1858E-15
            5124            5262     19.9755E-15     21.1858E-15
            5108            5263     16.6068E-15     17.1413E-15
            5126            5263     16.6068E-15     17.1413E-15
            5107            5263     16.6068E-15     17.1413E-15
            5125            5263     16.6068E-15     17.1413E-15
            5108            5264     16.4186E-15     15.2308E-15
            5109            5264     16.4186E-15     15.2308E-15
            5127            5264     16.4186E-15     15.2308E-15
            5126            5264     16.4186E-15     15.2308E-15
            5128            5265     15.3945E-15     15.8270E-15
            5127            5265     15.3945E-15     15.8270E-15
            5110            5265     15.3945E-15     15.8270E-15
            5109            5265     15.3945E-15     15.8270E-15
            5110            5266     18.0435E-15     16.6692E-15
            5129            5266     18.0435E-15     16.6692E-15
            5111            5266     18.0435E-15     16.6692E-15
            5128            5266     18.0435E-15     16.6692E-15
            5111            5267     20.6758E-15     17.9924E-15
            5112            5267     20.6758E-15     17.9924E-15
            5130            5267     20.6758E-15     17.9924E-15
            5129            5267     20.6758E-15     17.9924E-15
            5112            5268     17.3716E-15     16.4613E-15
            5113            5268     17.3716E-15     16.4613E-15
            5131            5268     17.3716E-15     16.4613E-15
            5130            5268     17.3716E-15     16.4613E-15
            5113            5269     23.5858E-15     21.2670E-15
            5131            5269     23.5858E-15     21.2670E-15
            5114            5269     23.5858E-15     21.2670E-15
            5132            5269     23.5858E-15     21.2670E-15
            5133            5270     27.8696E-15     25.9568E-15
            5115            5270     27.8696E-15     25.9568E-15
            5132            5270     27.8696E-15     25.9568E-15
            5114            5270     27.8696E-15     25.9568E-15
            5115            5271     17.1705E-15     18.0301E-15
            5134            5271     17.1705E-15     18.0301E-15
            5116            5271     17.1705E-15     18.0301E-15
            5133            5271     17.1705E-15     18.0301E-15
            5135            5272     21.5187E-15     21.5486E-15
            5117            5272     21.5187E-15     21.5486E-15
            5134            5272     21.5187E-15     21.5486E-15
            5116            5272     21.5187E-15     21.5486E-15
            5118            5273     27.0588E-15     26.4893E-15
            5136            5273     27.0588E-15     26.4893E-15
            5135            5273     27.0588E-15     26.4893E-15
            5117            5273     27.0588E-15     26.4893E-15
            5136            5274     19.0640E-15     18.8268E-15
            5118            5274     19.0640E-15     18.8268E-15
            5137            5274     19.0640E-15     18.8268E-15
            5119            5274     19.0640E-15     18.8268E-15
            5119            5275     14.8747E-15     15.1117E-15
            5120            5275     14.8747E-15     15.1117E-15
            5137            5275     14.8747E-15     15.1117E-15
            5138            5275     14.8747E-15     15.1117E-15
            5139            5276     24.1058E-15     22.0781E-15
            5121            5276     24.1058E-15     22.0781E-15
            5122            5276     24.1058E-15     22.0781E-15
            5140            5276     24.1058E-15     22.0781E-15
            5122            5277     18.2546E-15     16.5404E-15
            5123            5277     18.2546E-15     16.5404E-15
            5140            5277     18.2546E-15     16.5404E-15
            5141            5277     18.2546E-15     16.5404E-15
            5142            5278     11.7562E-15     11.8816E-15
            5141            5278     11.7562E-15     11.8816E-15
            5124            5278     11.7562E-15     11.8816E-15
            5123            5278     11.7562E-15     11.8816E-15
            5125            5279     10.2734E-15     12.6131E-15
            5124            5279     10.2734E-15     12.6131E-15
            5143            5279     10.2734E-15     12.6131E-15
            5142            5279     10.2734E-15     12.6131E-15
            5144            5280     18.2667E-15     18.0963E-15
            5143            5280     18.2667E-15     18.0963E-15
            5126            5280     18.2667E-15     18.0963E-15
            5125            5280     18.2667E-15     18.0963E-15
            5127            5281     19.0951E-15     15.6217E-15
            5126            5281     19.0951E-15     15.6217E-15
            5145            5281     19.0951E-15     15.6217E-15
            5144            5281     19.0951E-15     15.6217E-15
            5146            5282     11.3247E-15     10.3835E-15
            5128            5282     11.3247E-15     10.3835E-15
            5145            5282     11.3247E-15     10.3835E-15
            5127            5282     11.3247E-15     10.3835E-15
            5147            5283     10.2907E-15     8.66232E-15
            5128            5283     10.2907E-15     8.66232E-15
            5146            5283     10.2907E-15     8.66232E-15
            5129            5283     10.2907E-15     8.66232E-15
            5129            5284     17.6305E-15     15.3699E-15
            5130            5284     17.6305E-15     15.3699E-15
            5147            5284     17.6305E-15     15.3699E-15
            5148            5284     17.6305E-15     15.3699E-15
            5130            5285     13.2946E-15     14.9464E-15
            5149            5285     13.2946E-15     14.9464E-15
            5131            5285     13.2946E-15     14.9464E-15
            5148            5285     13.2946E-15     14.9464E-15
            5150            5286     14.7620E-15     16.1812E-15
            5149            5286     14.7620E-15     16.1812E-15
            5131            5286     14.7620E-15     16.1812E-15
            5132            5286     14.7620E-15     16.1812E-15
            5151            5287     21.9278E-15     22.9375E-15
            5132            5287     21.9278E-15     22.9375E-15
            5133            5287     21.9278E-15     22.9375E-15
            5150            5287     21.9278E-15     22.9375E-15
            5151            5288     21.5414E-15     23.8152E-15
            5152            5288     21.5414E-15     23.8152E-15
            5134            5288     21.5414E-15     23.8152E-15
            5133            5288     21.5414E-15     23.8152E-15
            5135            5289     25.5182E-15     25.8841E-15
            5152            5289     25.5182E-15     25.8841E-15
            5134            5289     25.5182E-15     25.8841E-15
            5153            5289     25.5182E-15     25.8841E-15
            5135            5290     23.8272E-15     22.2208E-15
            5136            5290     23.8272E-15     22.2208E-15
            5154            5290     23.8272E-15     22.2208E-15
            5153            5290     23.8272E-15     22.2208E-15
            5137            5291     20.4446E-15     19.7992E-15
            5155            5291     20.4446E-15     19.7992E-15
            5154            5291     20.4446E-15     19.7992E-15
            5136            5291     20.4446E-15     19.7992E-15
            5155            5292     18.7414E-15     18.7826E-15
            5156            5292     18.7414E-15     18.7826E-15
            5138            5292     18.7414E-15     18.7826E-15
            5137            5292     18.7414E-15     18.7826E-15
            5157            5293     19.4996E-15     16.0373E-15
            5140            5293     19.4996E-15     16.0373E-15
            5158            5293     19.4996E-15     16.0373E-15
            5139            5293     19.4996E-15     16.0373E-15
            5141            5294     26.8998E-15     22.6323E-15
            5159            5294     26.8998E-15     22.6323E-15
            5140            5294     26.8998E-15     22.6323E-15
            5158            5294     26.8998E-15     22.6323E-15
            5159            5295     21.8238E-15     21.1458E-15
            5142            5295     21.8238E-15     21.1458E-15
            5141            5295     21.8238E-15     21.1458E-15
            5160            5295     21.8238E-15     21.1458E-15
            5142            5296     15.7751E-15     17.0333E-15
            5161            5296     15.7751E-15     17.0333E-15
            5160            5296     15.7751E-15     17.0333E-15
            5143            5296     15.7751E-15     17.0333E-15
            5143            5297     15.8112E-15     12.8152E-15
            5162            5297     15.8112E-15     12.8152E-15
            5161            5297     15.8112E-15     12.8152E-15
            5144            5297     15.8112E-15     12.8152E-15
            5144            5298     17.2102E-15     12.4521E-15
            5145            5298     17.2102E-15     12.4521E-15
            5162            5298     17.2102E-15     12.4521E-15
            5163            5298     17.2102E-15     12.4521E-15
            5145            5299     16.8617E-15     15.0905E-15
            5164            5299     16.8617E-15     15.0905E-15
            5146            5299     16.8617E-15     15.0905E-15
            5163            5299     16.8617E-15     15.0905E-15
            5164            5300     14.9427E-15     12.3840E-15
            5146            5300     14.9427E-15     12.3840E-15
            5165            5300     14.9427E-15     12.3840E-15
            5147            5300     14.9427E-15     12.3840E-15
            5166            5301     16.4148E-15     16.9326E-15
            5147            5301     16.4148E-15     16.9326E-15
            5148            5301     16.4148E-15     16.9326E-15
            5165            5301     16.4148E-15     16.9326E-15
            5149            5302     12.6108E-15     17.6729E-15
            5148            5302     12.6108E-15     17.6729E-15
            5167            5302     12.6108E-15     17.6729E-15
            5166            5302     12.6108E-15     17.6729E-15
            5168            5303     13.3197E-15     16.9244E-15
            5149            5303     13.3197E-15     16.9244E-15
            5150            5303     13.3197E-15     16.9244E-15
            5167            5303     13.3197E-15     16.9244E-15
            5151            5304     15.8240E-15     16.6250E-15
            5168            5304     15.8240E-15     16.6250E-15
            5150            5304     15.8240E-15     16.6250E-15
            5169            5304     15.8240E-15     16.6250E-15
            5170            5305     19.7983E-15     20.9482E-15
            5152            5305     19.7983E-15     20.9482E-15
            5151            5305     19.7983E-15     20.9482E-15
            5169            5305     19.7983E-15     20.9482E-15
            5152            5306     23.8228E-15     24.6117E-15
            5171            5306     23.8228E-15     24.6117E-15
            5170            5306     23.8228E-15     24.6117E-15
            5153            5306     23.8228E-15     24.6117E-15
            5172            5307     16.1293E-15     15.0494E-15
            5171            5307     16.1293E-15     15.0494E-15
            5153            5307     16.1293E-15     15.0494E-15
            5154            5307     16.1293E-15     15.0494E-15
            5154            5308     13.8047E-15     14.8510E-15
            5173            5308     13.8047E-15     14.8510E-15
            5172            5308     13.8047E-15     14.8510E-15
            5155            5308     13.8047E-15     14.8510E-15
            5156            5309     19.6262E-15     21.1270E-15
            5174            5309     19.6262E-15     21.1270E-15
            5173            5309     19.6262E-15     21.1270E-15
            5155            5309     19.6262E-15     21.1270E-15
            5865            5862     4.64620E-03     5.75963E-03
            5866            5862     4.64620E-03     5.75963E-03
            5848            5862     4.64620E-03     5.75963E-03
            5847            5862     4.64620E-03     5.75963E-03
            5848            5863     8.29699E-03     9.50336E-03
            5867            5863     8.29699E-03     9.50336E-03
            5866            5863     8.29699E-03     9.50336E-03
            5849            5863     8.29699E-03     9.50336E-03
            5849            5864     12.1500E-03     13.5417E-03
            5868            5864     12.1500E-03     13.5417E-03
            5850            5864     12.1500E-03     13.5417E-03
            5867            5864     12.1500E-03     13.5417E-03
            5868            5865     16.1215E-03     17.6326E-03
            5851            5865     16.1215E-03     17.6326E-03
            5850            5865     16.1215E-03     17.6326E-03
            5869            5865     16.1215E-03     17.6326E-03
            5870            5866     20.1515E-03     21.7331E-03
            5852            5866     20.1515E-03     21.7331E-03
            5851            5866     20.1515E-03     21.7331E-03
            5869            5866     20.1515E-03     21.7331E-03
            5870            5867     24.2084E-03     25.8260E-03
            5852            5867     24.2084E-03     25.8260E-03
            5853            5867     24.2084E-03     25.8260E-03
            5871            5867     24.2084E-03     25.8260E-03
            5853            5868     28.2858E-03     29.9122E-03
            5872            5868     28.2858E-03     29.9122E-03
            5871            5868     28.2858E-03     29.9122E-03
            5854            5868     28.2858E-03     29.9122E-03
            5854            5869     32.3713E-03     33.9900E-03
            5872            5869     32.3713E-03     33.9900E-03
            5855            5869     32.3713E-03     33.9900E-03
            5873            5869     32.3713E-03     33.9900E-03
            5874            5870     36.4763E-03     38.0621E-03
            5855            5870     36.4763E-03     38.0621E-03
            5873            5870     36.4763E-03     38.0621E-03
            5856            5870     36.4763E-03     38.0621E-03
            5874            5871     40.5941E-03     42.1407E-03
            5875            5871     40.5941E-03     42.1407E-03
            5857            5871     40.5941E-03     42.1407E-03
            5856            5871     40.5941E-03     42.1407E-03
            5876            5872     44.7609E-03     46.2343E-03
            5875            5872     44.7609E-03     46.2343E-03
            5857            5872     44.7609E-03     46.2343E-03
            5858            5872     44.7609E-03     46.2343E-03
            5858            5873     48.9726E-03     50.3830E-03
            5877            5873     48.9726E-03     50.3830E-03
            5876            5873     48.9726E-03     50.3830E-03
            5859            5873     48.9726E-03     50.3830E-03
            5878            5874     53.3220E-03     54.6256E-03
            5860            5874     53.3220E-03     54.6256E-03
            5877            5874     53.3220E-03     54.6256E-03
            5859            5874     53.3220E-03     54.6256E-03
            5861            5875     57.8075E-03     59.0669E-03
            5878            5875     57.8075E-03     59.0669E-03
            5879            5875     57.8075E-03     59.0669E-03
            5860            5875     57.8075E-03     59.0669E-03
            5879            5876     62.6983E-03     63.9059E-03
            5880            5876     62.6983E-03     63.9059E-03
            5861            5876     62.6983E-03     63.9059E-03
            5862            5876     62.6983E-03     63.9059E-03
            5880            5877     68.0145E-03     69.4079E-03
            5862            5877     68.0145E-03     69.4079E-03
            5863            5877     68.0145E-03     69.4079E-03
            5881            5877     68.0145E-03     69.4079E-03
            5863            5878     75.4807E-03     77.8920E-03
            5881            5878     75.4807E-03     77.8920E-03
            5864            5878     75.4807E-03     77.8920E-03
            5882            5878     75.4807E-03     77.8920E-03
            5865            5879     4.62429E-03     6.14238E-03
            5883            5879     4.62429E-03     6.14238E-03
            5866            5879     4.62429E-03     6.14238E-03
            5884            5879     4.62429E-03     6.14238E-03
            5884            5880     7.87588E-03     9.27977E-03
            5866            5880     7.87588E-03     9.27977E-03
            5867            5880     7.87588E-03     9.27977E-03
            5885            5880     7.87588E-03     9.27977E-03
            5868            5881     11.4111E-03     13.0461E-03
            5867            5881     11.4111E-03     13.0461E-03
            5885            5881     11.4111E-03     13.0461E-03
            5886            5881     11.4111E-03     13.0461E-03
            5868            5882     15.0949E-03     16.9008E-03
            5886            5882     15.0949E-03     16.9008E-03
            5869            5882     15.0949E-03     16.9008E-03
            5887            5882     15.0949E-03     16.9008E-03
            5888            5883     18.8394E-03     20.7586E-03
            5869            5883     18.8394E-03     20.7586E-03
            5887            5883     18.8394E-03     20.7586E-03
            5870            5883     18.8394E-03     20.7586E-03
            5888            5884     22.6283E-03     24.6065E-03
            5870            5884     22.6283E-03     24.6065E-03
            5871            5884     22.6283E-03     24.6065E-03
            5889            5884     22.6283E-03     24.6065E-03
            5872            5885     26.4360E-03     28.4363E-03
            5889            5885     26.4360E-03     28.4363E-03
            5890            5885     26.4360E-03     28.4363E-03
            5871            5885     26.4360E-03     28.4363E-03
            5891            5886     30.2690E-03     32.2565E-03
            5873            5886     30.2690E-03     32.2565E-03
            5872            5886     30.2690E-03     32.2565E-03
            5890            5886     30.2690E-03     32.2565E-03
            5873            5887     34.1209E-03     36.0703E-03
            5874            5887     34.1209E-03     36.0703E-03
            5891            5887     34.1209E-03     36.0703E-03
            5892            5887     34.1209E-03     36.0703E-03
            5893            5888     38.0245E-03     39.9079E-03
            5874            5888     38.0245E-03     39.9079E-03
            5875            5888     38.0245E-03     39.9079E-03
            5892            5888     38.0245E-03     39.9079E-03
            5876            5889     41.9905E-03     43.7885E-03
            5875            5889     41.9905E-03     43.7885E-03
            5894            5889     41.9905E-03     43.7885E-03
            5893            5889     41.9905E-03     43.7885E-03
            5895            5890     46.1133E-03     47.8038E-03
            5876            5890     46.1133E-03     47.8038E-03
            5894            5890     46.1133E-03     47.8038E-03
            5877            5890     46.1133E-03     47.8038E-03
            5878            5891     50.4328E-03     52.0176E-03
            5877            5891     50.4328E-03     52.0176E-03
            5896            5891     50.4328E-03     52.0176E-03
            5895            5891     50.4328E-03     52.0176E-03
            5879            5892     55.2292E-03     56.7154E-03
            5897            5892     55.2292E-03     56.7154E-03
            5878            5892     55.2292E-03     56.7154E-03
            5896            5892     55.2292E-03     56.7154E-03
            5879            5893     60.6136E-03     62.0903E-03
            5898            5893     60.6136E-03     62.0903E-03
            5897            5893     60.6136E-03     62.0903E-03
            5880            5893     60.6136E-03     62.0903E-03
            5881            5894     67.7112E-03     69.2894E-03
            5899            5894     67.7112E-03     69.2894E-03
            5880            5894     67.7112E-03     69.2894E-03
            5898            5894     67.7112E-03     69.2894E-03
            5900            5895     78.0975E-03     79.2113E-03
            5899            5895     78.0975E-03     79.2113E-03
            5882            5895     78.0975E-03     79.2113E-03
            5881            5895     78.0975E-03     79.2113E-03
            5902            5896     3.53463E-03     5.35244E-03
            5883            5896     3.53463E-03     5.35244E-03
            5901            5896     3.53463E-03     5.35244E-03
            5884            5896     3.53463E-03     5.35244E-03
            5903            5897     7.32154E-03     8.98012E-03
            5884            5897     7.32154E-03     8.98012E-03
            5902            5897     7.32154E-03     8.98012E-03
            5885            5897     7.32154E-03     8.98012E-03
            5903            5898     11.2868E-03     12.8675E-03
            5885            5898     11.2868E-03     12.8675E-03
            5904            5898     11.2868E-03     12.8675E-03
            5886            5898     11.2868E-03     12.8675E-03
            5886            5899     15.2098E-03     16.8681E-03
            5904            5899     15.2098E-03     16.8681E-03
            5905            5899     15.2098E-03     16.8681E-03
            5887            5899     15.2098E-03     16.8681E-03
            5905            5900     19.1502E-03     20.8615E-03
            5888            5900     19.1502E-03     20.8615E-03
            5887            5900     19.1502E-03     20.8615E-03
            5906            5900     19.1502E-03     20.8615E-03
            5888            5901     23.0970E-03     24.8503E-03
            5906            5901     23.0970E-03     24.8503E-03
            5889            5901     23.0970E-03     24.8503E-03
            5907            5901     23.0970E-03     24.8503E-03
            5907            5902     27.0589E-03     28.8299E-03
            5890            5902     27.0589E-03     28.8299E-03
            5908            5902     27.0589E-03     28.8299E-03
            5889            5902     27.0589E-03     28.8299E-03
            5908            5903     31.0313E-03     32.8099E-03
            5890            5903     31.0313E-03     32.8099E-03
            5891            5903     31.0313E-03     32.8099E-03
            5909            5903     31.0313E-03     32.8099E-03
            5909            5904     35.0352E-03     36.8045E-03
            5892            5904     35.0352E-03     36.8045E-03
            5910            5904     35.0352E-03     36.8045E-03
            5891            5904     35.0352E-03     36.8045E-03
            5893            5905     39.0755E-03     40.8357E-03
            5910            5905     39.0755E-03     40.8357E-03
            5911            5905     39.0755E-03     40.8357E-03
            5892            5905     39.0755E-03     40.8357E-03
            5911            5906     43.2122E-03     44.9463E-03
            5893            5906     43.2122E-03     44.9463E-03
            5912            5906     43.2122E-03     44.9463E-03
            5894            5906     43.2122E-03     44.9463E-03
            5912            5907     47.4782E-03     49.2018E-03
            5913            5907     47.4782E-03     49.2018E-03
            5894            5907     47.4782E-03     49.2018E-03
            5895            5907     47.4782E-03     49.2018E-03
            5913            5908     52.0293E-03     53.7151E-03
            5896            5908     52.0293E-03     53.7151E-03
            5895            5908     52.0293E-03     53.7151E-03
            5914            5908     52.0293E-03     53.7151E-03
            5914            5909     57.0128E-03     58.6856E-03
            5915            5909     57.0128E-03     58.6856E-03
            5897            5909     57.0128E-03     58.6856E-03
            5896            5909     57.0128E-03     58.6856E-03
            5898            5910     62.7810E-03     64.3773E-03
            5897            5910     62.7810E-03     64.3773E-03
            5915            5910     62.7810E-03     64.3773E-03
            5916            5910     62.7810E-03     64.3773E-03
            5917            5911     70.4342E-03     71.5184E-03
            5916            5911     70.4342E-03     71.5184E-03
            5898            5911     70.4342E-03     71.5184E-03
            5899            5911     70.4342E-03     71.5184E-03
            5918            5912     78.3728E-03     78.6891E-03
            5917            5912     78.3728E-03     78.6891E-03
            5900            5912     78.3728E-03     78.6891E-03
            5899            5912     78.3728E-03     78.6891E-03
            5901            5913     3.73902E-03     5.10139E-03
            5919            5913     3.73902E-03     5.10139E-03
            5920            5913     3.73902E-03     5.10139E-03
            5902            5913     3.73902E-03     5.10139E-03
            5902            5914     7.48879E-03     9.10459E-03
            5903            5914     7.48879E-03     9.10459E-03
            5920            5914     7.48879E-03     9.10459E-03
            5921            5914     7.48879E-03     9.10459E-03
            5904            5915     11.5187E-03     13.0608E-03
            5903            5915     11.5187E-03     13.0608E-03
            5921            5915     11.5187E-03     13.0608E-03
            5922            5915     11.5187E-03     13.0608E-03
            5923            5916     15.5679E-03     17.0887E-03
            5922            5916     15.5679E-03     17.0887E-03
            5904            5916     15.5679E-03     17.0887E-03
            5905            5916     15.5679E-03     17.0887E-03
            5906            5917     19.6078E-03     21.1553E-03
            5905            5917     19.6078E-03     21.1553E-03
            5923            5917     19.6078E-03     21.1553E-03
            5924            5917     19.6078E-03     21.1553E-03
            5907            5918     23.6639E-03     25.2220E-03
            5906            5918     23.6639E-03     25.2220E-03
            5924            5918     23.6639E-03     25.2220E-03
            5925            5918     23.6639E-03     25.2220E-03
            5926            5919     27.7287E-03     29.3055E-03
            5925            5919     27.7287E-03     29.3055E-03
            5907            5919     27.7287E-03     29.3055E-03
            5908            5919     27.7287E-03     29.3055E-03
            5927            5920     31.8150E-03     33.4049E-03
            5908            5920     31.8150E-03     33.4049E-03
            5926            5920     31.8150E-03     33.4049E-03
            5909            5920     31.8150E-03     33.4049E-03
            5909            5921     35.9262E-03     37.5398E-03
            5927            5921     35.9262E-03     37.5398E-03
            5928            5921     35.9262E-03     37.5398E-03
            5910            5921     35.9262E-03     37.5398E-03
            5911            5922     40.0936E-03     41.7271E-03
            5910            5922     40.0936E-03     41.7271E-03
            5928            5922     40.0936E-03     41.7271E-03
            5929            5922     40.0936E-03     41.7271E-03
            5912            5923     44.3405E-03     46.0115E-03
            5930            5923     44.3405E-03     46.0115E-03
            5929            5923     44.3405E-03     46.0115E-03
            5911            5923     44.3405E-03     46.0115E-03
            5912            5924     48.7389E-03     50.4332E-03
            5930            5924     48.7389E-03     50.4332E-03
            5931            5924     48.7389E-03     50.4332E-03
            5913            5924     48.7389E-03     50.4332E-03
            5914            5925     53.3957E-03     55.1085E-03
            5932            5925     53.3957E-03     55.1085E-03
            5913            5925     53.3957E-03     55.1085E-03
            5931            5925     53.3957E-03     55.1085E-03
            5914            5926     58.4118E-03     60.1108E-03
            5932            5926     58.4118E-03     60.1108E-03
            5933            5926     58.4118E-03     60.1108E-03
            5915            5926     58.4118E-03     60.1108E-03
            5934            5927     64.2800E-03     65.7227E-03
            5916            5927     64.2800E-03     65.7227E-03
            5933            5927     64.2800E-03     65.7227E-03
            5915            5927     64.2800E-03     65.7227E-03
            5917            5928     70.5279E-03     71.7443E-03
            5934            5928     70.5279E-03     71.7443E-03
            5935            5928     70.5279E-03     71.7443E-03
            5916            5928     70.5279E-03     71.7443E-03
            5936            5929     76.1664E-03     77.4897E-03
            5918            5929     76.1664E-03     77.4897E-03
            5917            5929     76.1664E-03     77.4897E-03
            5935            5929     76.1664E-03     77.4897E-03
            5938            5930     4.91239E-03     5.82427E-03
            5920            5930     4.91239E-03     5.82427E-03
            5937            5930     4.91239E-03     5.82427E-03
            5919            5930     4.91239E-03     5.82427E-03
            5939            5931     8.19135E-03     9.53300E-03
            5921            5931     8.19135E-03     9.53300E-03
            5938            5931     8.19135E-03     9.53300E-03
            5920            5931     8.19135E-03     9.53300E-03
            5921            5932     12.0511E-03     13.4797E-03
            5940            5932     12.0511E-03     13.4797E-03
            5922            5932     12.0511E-03     13.4797E-03
            5939            5932     12.0511E-03     13.4797E-03
            5940            5933     16.0689E-03     17.4822E-03
            5922            5933     16.0689E-03     17.4822E-03
            5923            5933     16.0689E-03     17.4822E-03
            5941            5933     16.0689E-03     17.4822E-03
            5923            5934     20.1447E-03     21.5332E-03
            5941            5934     20.1447E-03     21.5332E-03
            5924            5934     20.1447E-03     21.5332E-03
            5942            5934     20.1447E-03     21.5332E-03
            5942            5935     24.2444E-03     25.6312E-03
            5925            5935     24.2444E-03     25.6312E-03
            5943            5935     24.2444E-03     25.6312E-03
            5924            5935     24.2444E-03     25.6312E-03
            5944            5936     28.3705E-03     29.7583E-03
            5926            5936     28.3705E-03     29.7583E-03
            5943            5936     28.3705E-03     29.7583E-03
            5925            5936     28.3705E-03     29.7583E-03
            5927            5937     32.5205E-03     33.9296E-03
            5944            5937     32.5205E-03     33.9296E-03
            5945            5937     32.5205E-03     33.9296E-03
            5926            5937     32.5205E-03     33.9296E-03
            5927            5938     36.7062E-03     38.1475E-03
            5945            5938     36.7062E-03     38.1475E-03
            5928            5938     36.7062E-03     38.1475E-03
            5946            5938     36.7062E-03     38.1475E-03
            5947            5939     40.9411E-03     42.4363E-03
            5929            5939     40.9411E-03     42.4363E-03
            5946            5939     40.9411E-03     42.4363E-03
            5928            5939     40.9411E-03     42.4363E-03
            5947            5940     45.2518E-03     46.8063E-03
            5929            5940     45.2518E-03     46.8063E-03
            5930            5940     45.2518E-03     46.8063E-03
            5948            5940     45.2518E-03     46.8063E-03
            5948            5941     49.6931E-03     51.3099E-03
            5931            5941     49.6931E-03     51.3099E-03
            5949            5941     49.6931E-03     51.3099E-03
            5930            5941     49.6931E-03     51.3099E-03
            5950            5942     54.2839E-03     55.9556E-03
            5932            5942     54.2839E-03     55.9556E-03
            5949            5942     54.2839E-03     55.9556E-03
            5931            5942     54.2839E-03     55.9556E-03
            5951            5943     59.2185E-03     60.8191E-03
            5933            5943     59.2185E-03     60.8191E-03
            5950            5943     59.2185E-03     60.8191E-03
            5932            5943     59.2185E-03     60.8191E-03
            5951            5944     64.3246E-03     65.8524E-03
            5933            5944     64.3246E-03     65.8524E-03
            5952            5944     64.3246E-03     65.8524E-03
            5934            5944     64.3246E-03     65.8524E-03
            5935            5945     69.3549E-03     70.7576E-03
            5952            5945     69.3549E-03     70.7576E-03
            5934            5945     69.3549E-03     70.7576E-03
            5953            5945     69.3549E-03     70.7576E-03
            5936            5946     74.1967E-03     75.0943E-03
            5935            5946     74.1967E-03     75.0943E-03
            5953            5946     74.1967E-03     75.0943E-03
            5954            5946     74.1967E-03     75.0943E-03
            5956            5947     6.35969E-03     7.01944E-03
            5938            5947     6.35969E-03     7.01944E-03
            5937            5947     6.35969E-03     7.01944E-03
            5955            5947     6.35969E-03     7.01944E-03
            5939            5948     9.16288E-03     10.3031E-03
            5957            5948     9.16288E-03     10.3031E-03
            5938            5948     9.16288E-03     10.3031E-03
            5956            5948     9.16288E-03     10.3031E-03
            5957            5949     12.7726E-03     14.0553E-03
            5958            5949     12.7726E-03     14.0553E-03
            5939            5949     12.7726E-03     14.0553E-03
            5940            5949     12.7726E-03     14.0553E-03
            5958            5950     16.6726E-03     17.9499E-03
            5959            5950     16.6726E-03     17.9499E-03
            5940            5950     16.6726E-03     17.9499E-03
            5941            5950     16.6726E-03     17.9499E-03
            5960            5951     20.6996E-03     21.9389E-03
            5959            5951     20.6996E-03     21.9389E-03
            5941            5951     20.6996E-03     21.9389E-03
            5942            5951     20.6996E-03     21.9389E-03
            5960            5952     24.7892E-03     25.9922E-03
            5961            5952     24.7892E-03     25.9922E-03
            5943            5952     24.7892E-03     25.9922E-03
            5942            5952     24.7892E-03     25.9922E-03
            5962            5953     28.9197E-03     30.1114E-03
            5943            5953     28.9197E-03     30.1114E-03
            5961            5953     28.9197E-03     30.1114E-03
            5944            5953     28.9197E-03     30.1114E-03
            5962            5954     33.0832E-03     34.2894E-03
            5945            5954     33.0832E-03     34.2894E-03
            5963            5954     33.0832E-03     34.2894E-03
            5944            5954     33.0832E-03     34.2894E-03
            5963            5955     37.2847E-03     38.5319E-03
            5946            5955     37.2847E-03     38.5319E-03
            5964            5955     37.2847E-03     38.5319E-03
            5945            5955     37.2847E-03     38.5319E-03
            5964            5956     41.5279E-03     42.8376E-03
            5946            5956     41.5279E-03     42.8376E-03
            5947            5956     41.5279E-03     42.8376E-03
            5965            5956     41.5279E-03     42.8376E-03
            5947            5957     45.8343E-03     47.2237E-03
            5948            5957     45.8343E-03     47.2237E-03
            5966            5957     45.8343E-03     47.2237E-03
            5965            5957     45.8343E-03     47.2237E-03
            5949            5958     50.1949E-03     51.6784E-03
            5966            5958     50.1949E-03     51.6784E-03
            5967            5958     50.1949E-03     51.6784E-03
            5948            5958     50.1949E-03     51.6784E-03
            5968            5959     54.6657E-03     56.2038E-03
            5949            5959     54.6657E-03     56.2038E-03
            5950            5959     54.6657E-03     56.2038E-03
            5967            5959     54.6657E-03     56.2038E-03
            5969            5960     59.1609E-03     60.7403E-03
            5951            5960     59.1609E-03     60.7403E-03
            5968            5960     59.1609E-03     60.7403E-03
            5950            5960     59.1609E-03     60.7403E-03
            5969            5961     63.6055E-03     65.1183E-03
            5970            5961     63.6055E-03     65.1183E-03
            5952            5961     63.6055E-03     65.1183E-03
            5951            5961     63.6055E-03     65.1183E-03
            5971            5962     67.9038E-03     69.1527E-03
            5952            5962     67.9038E-03     69.1527E-03
            5953            5962     67.9038E-03     69.1527E-03
            5970            5962     67.9038E-03     69.1527E-03
            5953            5963     71.8549E-03     72.8494E-03
            5972            5963     71.8549E-03     72.8494E-03
            5971            5963     71.8549E-03     72.8494E-03
            5954            5963     71.8549E-03     72.8494E-03
            5973            5964     7.94521E-03     8.40749E-03
            5955            5964     7.94521E-03     8.40749E-03
            5974            5964     7.94521E-03     8.40749E-03
            5956            5964     7.94521E-03     8.40749E-03
            5974            5965     10.3028E-03     11.3308E-03
            5956            5965     10.3028E-03     11.3308E-03
            5975            5965     10.3028E-03     11.3308E-03
            5957            5965     10.3028E-03     11.3308E-03
            5957            5966     13.6130E-03     14.7607E-03
            5975            5966     13.6130E-03     14.7607E-03
            5958            5966     13.6130E-03     14.7607E-03
            5976            5966     13.6130E-03     14.7607E-03
            5977            5967     17.3383E-03     18.4745E-03
            5959            5967     17.3383E-03     18.4745E-03
            5958            5967     17.3383E-03     18.4745E-03
            5976            5967     17.3383E-03     18.4745E-03
            5959            5968     21.2522E-03     22.3143E-03
            5960            5968     21.2522E-03     22.3143E-03
            5977            5968     21.2522E-03     22.3143E-03
            5978            5968     21.2522E-03     22.3143E-03
            5979            5969     25.2715E-03     26.2641E-03
            5960            5969     25.2715E-03     26.2641E-03
            5978            5969     25.2715E-03     26.2641E-03
            5961            5969     25.2715E-03     26.2641E-03
            5961            5970     29.3420E-03     30.3109E-03
            5980            5970     29.3420E-03     30.3109E-03
            5979            5970     29.3420E-03     30.3109E-03
            5962            5970     29.3420E-03     30.3109E-03
            5962            5971     33.4571E-03     34.4324E-03
            5980            5971     33.4571E-03     34.4324E-03
            5981            5971     33.4571E-03     34.4324E-03
            5963            5971     33.4571E-03     34.4324E-03
            5981            5972     37.6069E-03     38.6206E-03
            5982            5972     37.6069E-03     38.6206E-03
            5964            5972     37.6069E-03     38.6206E-03
            5963            5972     37.6069E-03     38.6206E-03
            5964            5973     41.7963E-03     42.8715E-03
            5982            5973     41.7963E-03     42.8715E-03
            5983            5973     41.7963E-03     42.8715E-03
            5965            5973     41.7963E-03     42.8715E-03
            5965            5974     46.0059E-03     47.1721E-03
            5966            5974     46.0059E-03     47.1721E-03
            5984            5974     46.0059E-03     47.1721E-03
            5983            5974     46.0059E-03     47.1721E-03
            5967            5975     50.2403E-03     51.5045E-03
            5985            5975     50.2403E-03     51.5045E-03
            5966            5975     50.2403E-03     51.5045E-03
            5984            5975     50.2403E-03     51.5045E-03
            5967            5976     54.4412E-03     55.8167E-03
            5986            5976     54.4412E-03     55.8167E-03
            5985            5976     54.4412E-03     55.8167E-03
            5968            5976     54.4412E-03     55.8167E-03
            5986            5977     58.5356E-03     59.9927E-03
            5968            5977     58.5356E-03     59.9927E-03
            5969            5977     58.5356E-03     59.9927E-03
            5987            5977     58.5356E-03     59.9927E-03
            5987            5978     62.4513E-03     63.8705E-03
            5988            5978     62.4513E-03     63.8705E-03
            5969            5978     62.4513E-03     63.8705E-03
            5970            5978     62.4513E-03     63.8705E-03
            5989            5979     66.0660E-03     67.3197E-03
            5988            5979     66.0660E-03     67.3197E-03
            5971            5979     66.0660E-03     67.3197E-03
            5970            5979     66.0660E-03     67.3197E-03
            5972            5980     69.4951E-03     70.3656E-03
            5990            5980     69.4951E-03     70.3656E-03
            5989            5980     69.4951E-03     70.3656E-03
            5971            5980     69.4951E-03     70.3656E-03
            5974            5981     9.54152E-03     10.0674E-03
            5973            5981     9.54152E-03     10.0674E-03
            5992            5981     9.54152E-03     10.0674E-03
            5991            5981     9.54152E-03     10.0674E-03
            5993            5982     11.5736E-03     12.4938E-03
            5975            5982     11.5736E-03     12.4938E-03
            5974            5982     11.5736E-03     12.4938E-03
            5992            5982     11.5736E-03     12.4938E-03
            5993            5983     14.5630E-03     15.6391E-03
            5994            5983     14.5630E-03     15.6391E-03
            5976            5983     14.5630E-03     15.6391E-03
            5975            5983     14.5630E-03     15.6391E-03
            5977            5984     18.0564E-03     19.0361E-03
            5994            5984     18.0564E-03     19.0361E-03
            5995            5984     18.0564E-03     19.0361E-03
            5976            5984     18.0564E-03     19.0361E-03
            5977            5985     21.8195E-03     22.6466E-03
            5978            5985     21.8195E-03     22.6466E-03
            5995            5985     21.8195E-03     22.6466E-03
            5996            5985     21.8195E-03     22.6466E-03
            5978            5986     25.6899E-03     26.4417E-03
            5996            5986     25.6899E-03     26.4417E-03
            5997            5986     25.6899E-03     26.4417E-03
            5979            5986     25.6899E-03     26.4417E-03
            5979            5987     29.6335E-03     30.3478E-03
            5980            5987     29.6335E-03     30.3478E-03
            5998            5987     29.6335E-03     30.3478E-03
            5997            5987     29.6335E-03     30.3478E-03
            5998            5988     33.6255E-03     34.3419E-03
            5981            5988     33.6255E-03     34.3419E-03
            5999            5988     33.6255E-03     34.3419E-03
            5980            5988     33.6255E-03     34.3419E-03
            6000            5989     37.6584E-03     38.3993E-03
            5999            5989     37.6584E-03     38.3993E-03
            5981            5989     37.6584E-03     38.3993E-03
            5982            5989     37.6584E-03     38.3993E-03
            5983            5990     41.7096E-03     42.5052E-03
            5982            5990     41.7096E-03     42.5052E-03
            6001            5990     41.7096E-03     42.5052E-03
            6000            5990     41.7096E-03     42.5052E-03
            6001            5991     45.7706E-03     46.6369E-03
            5983            5991     45.7706E-03     46.6369E-03
            6002            5991     45.7706E-03     46.6369E-03
            5984            5991     45.7706E-03     46.6369E-03
            5985            5992     49.7913E-03     50.7638E-03
            5984            5992     49.7913E-03     50.7638E-03
            6002            5992     49.7913E-03     50.7638E-03
            6003            5992     49.7913E-03     50.7638E-03
            6003            5993     53.7109E-03     54.8118E-03
            5985            5993     53.7109E-03     54.8118E-03
            5986            5993     53.7109E-03     54.8118E-03
            6004            5993     53.7109E-03     54.8118E-03
            5987            5994     57.4625E-03     58.6715E-03
            6004            5994     57.4625E-03     58.6715E-03
            5986            5994     57.4625E-03     58.6715E-03
            6005            5994     57.4625E-03     58.6715E-03
            6005            5995     60.8788E-03     62.1871E-03
            5988            5995     60.8788E-03     62.1871E-03
            6006            5995     60.8788E-03     62.1871E-03
            5987            5995     60.8788E-03     62.1871E-03
            6006            5996     64.0010E-03     65.1918E-03
            5988            5996     64.0010E-03     65.1918E-03
            5989            5996     64.0010E-03     65.1918E-03
            6007            5996     64.0010E-03     65.1918E-03
            6008            5997     66.9083E-03     67.6819E-03
            6007            5997     66.9083E-03     67.6819E-03
            5989            5997     66.9083E-03     67.6819E-03
            5990            5997     66.9083E-03     67.6819E-03
            6010            5998     11.2617E-03     11.7574E-03
            5991            5998     11.2617E-03     11.7574E-03
            5992            5998     11.2617E-03     11.7574E-03
            6009            5998     11.2617E-03     11.7574E-03
            6011            5999     12.9560E-03     14.0099E-03
            6010            5999     12.9560E-03     14.0099E-03
            5992            5999     12.9560E-03     14.0099E-03
            5993            5999     12.9560E-03     14.0099E-03
            6012            6000     15.6158E-03     16.6359E-03
            6011            6000     15.6158E-03     16.6359E-03
            5993            6000     15.6158E-03     16.6359E-03
            5994            6000     15.6158E-03     16.6359E-03
            6013            6001     18.9061E-03     19.6205E-03
            6012            6001     18.9061E-03     19.6205E-03
            5994            6001     18.9061E-03     19.6205E-03
            5995            6001     18.9061E-03     19.6205E-03
            5995            6002     22.4279E-03     22.9852E-03
            6014            6002     22.4279E-03     22.9852E-03
            5996            6002     22.4279E-03     22.9852E-03
            6013            6002     22.4279E-03     22.9852E-03
            5996            6003     26.0788E-03     26.5566E-03
            6014            6003     26.0788E-03     26.5566E-03
            6015            6003     26.0788E-03     26.5566E-03
            5997            6003     26.0788E-03     26.5566E-03
            5998            6004     29.8171E-03     30.2637E-03
            6016            6004     29.8171E-03     30.2637E-03
            5997            6004     29.8171E-03     30.2637E-03
            6015            6004     29.8171E-03     30.2637E-03
            6017            6005     33.6156E-03     34.0538E-03
            6016            6005     33.6156E-03     34.0538E-03
            5998            6005     33.6156E-03     34.0538E-03
            5999            6005     33.6156E-03     34.0538E-03
            6017            6006     37.4482E-03     37.8982E-03
            5999            6006     37.4482E-03     37.8982E-03
            6000            6006     37.4482E-03     37.8982E-03
            6018            6006     37.4482E-03     37.8982E-03
            6019            6007     41.3000E-03     41.7686E-03
            6000            6007     41.3000E-03     41.7686E-03
            6018            6007     41.3000E-03     41.7686E-03
            6001            6007     41.3000E-03     41.7686E-03
            6020            6008     45.1275E-03     45.6428E-03
            6019            6008     45.1275E-03     45.6428E-03
            6002            6008     45.1275E-03     45.6428E-03
            6001            6008     45.1275E-03     45.6428E-03
            6020            6009     48.8946E-03     49.4721E-03
            6002            6009     48.8946E-03     49.4721E-03
            6021            6009     48.8946E-03     49.4721E-03
            6003            6009     48.8946E-03     49.4721E-03
            6021            6010     52.5292E-03     53.2076E-03
            6022            6010     52.5292E-03     53.2076E-03
            6003            6010     52.5292E-03     53.2076E-03
            6004            6010     52.5292E-03     53.2076E-03
            6004            6011     55.9132E-03     56.7472E-03
            6022            6011     55.9132E-03     56.7472E-03
            6023            6011     55.9132E-03     56.7472E-03
            6005            6011     55.9132E-03     56.7472E-03
            6024            6012     59.0034E-03     59.9465E-03
            6023            6012     59.0034E-03     59.9465E-03
            6006            6012     59.0034E-03     59.9465E-03
            6005            6012     59.0034E-03     59.9465E-03
            6024            6013     61.6100E-03     62.6272E-03
            6025            6013     61.6100E-03     62.6272E-03
            6006            6013     61.6100E-03     62.6272E-03
            6007            6013     61.6100E-03     62.6272E-03
            6025            6014     63.9940E-03     64.8038E-03
            6008            6014     63.9940E-03     64.8038E-03
            6026            6014     63.9940E-03     64.8038E-03
            6007            6014     63.9940E-03     64.8038E-03
            6009            6015     13.0305E-03     14.1523E-03
            6027            6015     13.0305E-03     14.1523E-03
            6028            6015     13.0305E-03     14.1523E-03
            6010            6015     13.0305E-03     14.1523E-03
            6010            6016     14.3849E-03     15.6957E-03
            6029            6016     14.3849E-03     15.6957E-03
            6028            6016     14.3849E-03     15.6957E-03
            6011            6016     14.3849E-03     15.6957E-03
            6029            6017     16.9498E-03     17.6440E-03
            6030            6017     16.9498E-03     17.6440E-03
            6012            6017     16.9498E-03     17.6440E-03
            6011            6017     16.9498E-03     17.6440E-03
            6012            6018     19.9413E-03     20.3125E-03
            6030            6018     19.9413E-03     20.3125E-03
            6031            6018     19.9413E-03     20.3125E-03
            6013            6018     19.9413E-03     20.3125E-03
            6032            6019     23.1388E-03     23.3967E-03
            6031            6019     23.1388E-03     23.3967E-03
            6014            6019     23.1388E-03     23.3967E-03
            6013            6019     23.1388E-03     23.3967E-03
            6014            6020     26.4961E-03     26.7051E-03
            6032            6020     26.4961E-03     26.7051E-03
            6033            6020     26.4961E-03     26.7051E-03
            6015            6020     26.4961E-03     26.7051E-03
            6015            6021     29.9583E-03     30.1470E-03
            6033            6021     29.9583E-03     30.1470E-03
            6034            6021     29.9583E-03     30.1470E-03
            6016            6021     29.9583E-03     30.1470E-03
            6017            6022     33.4859E-03     33.6613E-03
            6016            6022     33.4859E-03     33.6613E-03
            6035            6022     33.4859E-03     33.6613E-03
            6034            6022     33.4859E-03     33.6613E-03
            6035            6023     37.0530E-03     37.2081E-03
            6036            6023     37.0530E-03     37.2081E-03
            6017            6023     37.0530E-03     37.2081E-03
            6018            6023     37.0530E-03     37.2081E-03
            6019            6024     40.6177E-03     40.7572E-03
            6018            6024     40.6177E-03     40.7572E-03
            6037            6024     40.6177E-03     40.7572E-03
            6036            6024     40.6177E-03     40.7572E-03
            6020            6025     44.1546E-03     44.2695E-03
            6019            6025     44.1546E-03     44.2695E-03
            6037            6025     44.1546E-03     44.2695E-03
            6038            6025     44.1546E-03     44.2695E-03
            6021            6026     47.6027E-03     47.7127E-03
            6020            6026     47.6027E-03     47.7127E-03
            6039            6026     47.6027E-03     47.7127E-03
            6038            6026     47.6027E-03     47.7127E-03
            6040            6027     50.9069E-03     51.0266E-03
            6021            6027     50.9069E-03     51.0266E-03
            6022            6027     50.9069E-03     51.0266E-03
            6039            6027     50.9069E-03     51.0266E-03
            6041            6028     53.9735E-03     54.1538E-03
            6040            6028     53.9735E-03     54.1538E-03
            6023            6028     53.9735E-03     54.1538E-03
            6022            6028     53.9735E-03     54.1538E-03
            6041            6029     56.6716E-03     56.9952E-03
            6024            6029     56.6716E-03     56.9952E-03
            6023            6029     56.6716E-03     56.9952E-03
            6042            6029     56.6716E-03     56.9952E-03
            6043            6030     58.9491E-03     59.3690E-03
            6042            6030     58.9491E-03     59.3690E-03
            6024            6030     58.9491E-03     59.3690E-03
            6025            6030     58.9491E-03     59.3690E-03
            6026            6031     60.7807E-03     61.0301E-03
            6025            6031     60.7807E-03     61.0301E-03
            6044            6031     60.7807E-03     61.0301E-03
            6043            6031     60.7807E-03     61.0301E-03
            6046            6032     14.6302E-03     16.4759E-03
            6045            6032     14.6302E-03     16.4759E-03
            6028            6032     14.6302E-03     16.4759E-03
            6027            6032     14.6302E-03     16.4759E-03
            6047            6033     16.3689E-03     17.0542E-03
            6028            6033     16.3689E-03     17.0542E-03
            6029            6033     16.3689E-03     17.0542E-03
            6046            6033     16.3689E-03     17.0542E-03
            6047            6034     18.6456E-03     18.7617E-03
            6048            6034     18.6456E-03     18.7617E-03
            6030            6034     18.6456E-03     18.7617E-03
            6029            6034     18.6456E-03     18.7617E-03
            6048            6035     21.2089E-03     21.2095E-03
            6049            6035     21.2089E-03     21.2095E-03
            6031            6035     21.2089E-03     21.2095E-03
            6030            6035     21.2089E-03     21.2095E-03
            6050            6036     24.0186E-03     24.0064E-03
            6049            6036     24.0186E-03     24.0064E-03
            6032            6036     24.0186E-03     24.0064E-03
            6031            6036     24.0186E-03     24.0064E-03
            6033            6037     27.0285E-03     27.0152E-03
            6051            6037     27.0285E-03     27.0152E-03
            6050            6037     27.0285E-03     27.0152E-03
            6032            6037     27.0285E-03     27.0152E-03
            6051            6038     30.1543E-03     30.1374E-03
            6033            6038     30.1543E-03     30.1374E-03
            6034            6038     30.1543E-03     30.1374E-03
            6052            6038     30.1543E-03     30.1374E-03
            6053            6039     33.3591E-03     33.3117E-03
            6052            6039     33.3591E-03     33.3117E-03
            6034            6039     33.3591E-03     33.3117E-03
            6035            6039     33.3591E-03     33.3117E-03
            6053            6040     36.5852E-03     36.4933E-03
            6036            6040     36.5852E-03     36.4933E-03
            6054            6040     36.5852E-03     36.4933E-03
            6035            6040     36.5852E-03     36.4933E-03
            6054            6041     39.8046E-03     39.6363E-03
            6036            6041     39.8046E-03     39.6363E-03
            6055            6041     39.8046E-03     39.6363E-03
            6037            6041     39.8046E-03     39.6363E-03
            6055            6042     42.9657E-03     42.7034E-03
            6056            6042     42.9657E-03     42.7034E-03
            6037            6042     42.9657E-03     42.7034E-03
            6038            6042     42.9657E-03     42.7034E-03
            6039            6043     46.0338E-03     45.6474E-03
            6057            6043     46.0338E-03     45.6474E-03
            6056            6043     46.0338E-03     45.6474E-03
            6038            6043     46.0338E-03     45.6474E-03
            6057            6044     48.9439E-03     48.4160E-03
            6058            6044     48.9439E-03     48.4160E-03
            6039            6044     48.9439E-03     48.4160E-03
            6040            6044     48.9439E-03     48.4160E-03
            6059            6045     51.6414E-03     50.9694E-03
            6040            6045     51.6414E-03     50.9694E-03
            6058            6045     51.6414E-03     50.9694E-03
            6041            6045     51.6414E-03     50.9694E-03
            6059            6046     54.0012E-03     53.2091E-03
            6042            6046     54.0012E-03     53.2091E-03
            6060            6046     54.0012E-03     53.2091E-03
            6041            6046     54.0012E-03     53.2091E-03
            6060            6047     55.9156E-03     55.1281E-03
            6061            6047     55.9156E-03     55.1281E-03
            6043            6047     55.9156E-03     55.1281E-03
            6042            6047     55.9156E-03     55.1281E-03
            6061            6048     57.1623E-03     56.1918E-03
            6062            6048     57.1623E-03     56.1918E-03
            6044            6048     57.1623E-03     56.1918E-03
            6043            6048     57.1623E-03     56.1918E-03
            6063            6049     8.84612E-03     10.2184E-03
            6045            6049     8.84612E-03     10.2184E-03
            6046            6049     8.84612E-03     10.2184E-03
            6064            6049     8.84612E-03     10.2184E-03
            6065            6050     11.0722E-03     11.7349E-03
            6046            6050     11.0722E-03     11.7349E-03
            6064            6050     11.0722E-03     11.7349E-03
            6047            6050     11.0722E-03     11.7349E-03
            6065            6051     13.2564E-03     13.8855E-03
            6066            6051     13.2564E-03     13.8855E-03
            6047            6051     13.2564E-03     13.8855E-03
            6048            6051     13.2564E-03     13.8855E-03
            6049            6052     15.6423E-03     16.3538E-03
            6067            6052     15.6423E-03     16.3538E-03
            6066            6052     15.6423E-03     16.3538E-03
            6048            6052     15.6423E-03     16.3538E-03
            6068            6053     18.1876E-03     18.9526E-03
            6067            6053     18.1876E-03     18.9526E-03
            6049            6053     18.1876E-03     18.9526E-03
            6050            6053     18.1876E-03     18.9526E-03
            6068            6054     20.8427E-03     21.6425E-03
            6051            6054     20.8427E-03     21.6425E-03
            6050            6054     20.8427E-03     21.6425E-03
            6069            6054     20.8427E-03     21.6425E-03
            6051            6055     23.5781E-03     24.3772E-03
            6069            6055     23.5781E-03     24.3772E-03
            6070            6055     23.5781E-03     24.3772E-03
            6052            6055     23.5781E-03     24.3772E-03
            6070            6056     26.3551E-03     27.1316E-03
            6071            6056     26.3551E-03     27.1316E-03
            6052            6056     26.3551E-03     27.1316E-03
            6053            6056     26.3551E-03     27.1316E-03
            6071            6057     29.1681E-03     29.8854E-03
            6054            6057     29.1681E-03     29.8854E-03
            6072            6057     29.1681E-03     29.8854E-03
            6053            6057     29.1681E-03     29.8854E-03
            6055            6058     31.9885E-03     32.6332E-03
            6073            6058     31.9885E-03     32.6332E-03
            6054            6058     31.9885E-03     32.6332E-03
            6072            6058     31.9885E-03     32.6332E-03
            6056            6059     34.8365E-03     35.3586E-03
            6055            6059     34.8365E-03     35.3586E-03
            6073            6059     34.8365E-03     35.3586E-03
            6074            6059     34.8365E-03     35.3586E-03
            6074            6060     37.6855E-03     38.0870E-03
            6056            6060     37.6855E-03     38.0870E-03
            6075            6060     37.6855E-03     38.0870E-03
            6057            6060     37.6855E-03     38.0870E-03
            6075            6061     40.6037E-03     40.8194E-03
            6076            6061     40.6037E-03     40.8194E-03
            6057            6061     40.6037E-03     40.8194E-03
            6058            6061     40.6037E-03     40.8194E-03
            6058            6062     43.5578E-03     43.6383E-03
            6077            6062     43.5578E-03     43.6383E-03
            6059            6062     43.5578E-03     43.6383E-03
            6076            6062     43.5578E-03     43.6383E-03
            6060            6063     46.7605E-03     46.6786E-03
            6077            6063     46.7605E-03     46.6786E-03
            6059            6063     46.7605E-03     46.6786E-03
            6078            6063     46.7605E-03     46.6786E-03
            6079            6064     50.1487E-03     50.1354E-03
            6061            6064     50.1487E-03     50.1354E-03
            6078            6064     50.1487E-03     50.1354E-03
            6060            6064     50.1487E-03     50.1354E-03
            6061            6065     54.9803E-03     55.9824E-03
            6079            6065     54.9803E-03     55.9824E-03
            6080            6065     54.9803E-03     55.9824E-03
            6062            6065     54.9803E-03     55.9824E-03
            6081            6066     2.22714E-03     3.25099E-03
            6082            6066     2.22714E-03     3.25099E-03
            6064            6066     2.22714E-03     3.25099E-03
            6063            6066     2.22714E-03     3.25099E-03
            6082            6067     4.60489E-03     5.79687E-03
            6064            6067     4.60489E-03     5.79687E-03
            6083            6067     4.60489E-03     5.79687E-03
            6065            6067     4.60489E-03     5.79687E-03
            6083            6068     7.05036E-03     8.42872E-03
            6065            6068     7.05036E-03     8.42872E-03
            6084            6068     7.05036E-03     8.42872E-03
            6066            6068     7.05036E-03     8.42872E-03
            6084            6069     9.54534E-03     11.0296E-03
            6066            6069     9.54534E-03     11.0296E-03
            6067            6069     9.54534E-03     11.0296E-03
            6085            6069     9.54534E-03     11.0296E-03
            6086            6070     12.0600E-03     13.6119E-03
            6067            6070     12.0600E-03     13.6119E-03
            6068            6070     12.0600E-03     13.6119E-03
            6085            6070     12.0600E-03     13.6119E-03
            6086            6071     14.5907E-03     16.1796E-03
            6087            6071     14.5907E-03     16.1796E-03
            6068            6071     14.5907E-03     16.1796E-03
            6069            6071     14.5907E-03     16.1796E-03
            6088            6072     17.1363E-03     18.7361E-03
            6069            6072     17.1363E-03     18.7361E-03
            6070            6072     17.1363E-03     18.7361E-03
            6087            6072     17.1363E-03     18.7361E-03
            6089            6073     19.7060E-03     21.2966E-03
            6088            6073     19.7060E-03     21.2966E-03
            6071            6073     19.7060E-03     21.2966E-03
            6070            6073     19.7060E-03     21.2966E-03
            6071            6074     22.3061E-03     23.8686E-03
            6072            6074     22.3061E-03     23.8686E-03
            6089            6074     22.3061E-03     23.8686E-03
            6090            6074     22.3061E-03     23.8686E-03
            6091            6075     24.9702E-03     26.4887E-03
            6072            6075     24.9702E-03     26.4887E-03
            6073            6075     24.9702E-03     26.4887E-03
            6090            6075     24.9702E-03     26.4887E-03
            6092            6076     27.7179E-03     29.1807E-03
            6073            6076     27.7179E-03     29.1807E-03
            6074            6076     27.7179E-03     29.1807E-03
            6091            6076     27.7179E-03     29.1807E-03
            6093            6077     30.6384E-03     32.0356E-03
            6075            6077     30.6384E-03     32.0356E-03
            6092            6077     30.6384E-03     32.0356E-03
            6074            6077     30.6384E-03     32.0356E-03
            6076            6078     33.7784E-03     35.1207E-03
            6075            6078     33.7784E-03     35.1207E-03
            6093            6078     33.7784E-03     35.1207E-03
            6094            6078     33.7784E-03     35.1207E-03
            6095            6079     37.3879E-03     38.6862E-03
            6077            6079     37.3879E-03     38.6862E-03
            6076            6079     37.3879E-03     38.6862E-03
            6094            6079     37.3879E-03     38.6862E-03
            6077            6080     41.5842E-03     42.9188E-03
            6096            6080     41.5842E-03     42.9188E-03
            6078            6080     41.5842E-03     42.9188E-03
            6095            6080     41.5842E-03     42.9188E-03
            6096            6081     47.3338E-03     48.7816E-03
            6097            6081     47.3338E-03     48.7816E-03
            6078            6081     47.3338E-03     48.7816E-03
            6079            6081     47.3338E-03     48.7816E-03
            6079            6082     56.0910E-03     57.2010E-03
            6097            6082     56.0910E-03     57.2010E-03
            6080            6082     56.0910E-03     57.2010E-03
            6098            6082     56.0910E-03     57.2010E-03
            6081            6083     2.63152E-03     3.48543E-03
            6082            6083     2.63152E-03     3.48543E-03
            6100            6083     2.63152E-03     3.48543E-03
            6099            6083     2.63152E-03     3.48543E-03
            6083            6084     4.92410E-03     5.96591E-03
            6100            6084     4.92410E-03     5.96591E-03
            6101            6084     4.92410E-03     5.96591E-03
            6082            6084     4.92410E-03     5.96591E-03
            6102            6085     7.41138E-03     8.58202E-03
            6083            6085     7.41138E-03     8.58202E-03
            6084            6085     7.41138E-03     8.58202E-03
            6101            6085     7.41138E-03     8.58202E-03
            6085            6086     9.94843E-03     11.2234E-03
            6102            6086     9.94843E-03     11.2234E-03
            6103            6086     9.94843E-03     11.2234E-03
            6084            6086     9.94843E-03     11.2234E-03
            6104            6087     12.5166E-03     13.8555E-03
            6086            6087     12.5166E-03     13.8555E-03
            6103            6087     12.5166E-03     13.8555E-03
            6085            6087     12.5166E-03     13.8555E-03
            6105            6088     15.1032E-03     16.4819E-03
            6087            6088     15.1032E-03     16.4819E-03
            6086            6088     15.1032E-03     16.4819E-03
            6104            6088     15.1032E-03     16.4819E-03
            6105            6089     17.7093E-03     19.1097E-03
            6087            6089     17.7093E-03     19.1097E-03
            6088            6089     17.7093E-03     19.1097E-03
            6106            6089     17.7093E-03     19.1097E-03
            6088            6090     20.3358E-03     21.7443E-03
            6089            6090     20.3358E-03     21.7443E-03
            6107            6090     20.3358E-03     21.7443E-03
            6106            6090     20.3358E-03     21.7443E-03
            6089            6091     23.0025E-03     24.4072E-03
            6108            6091     23.0025E-03     24.4072E-03
            6090            6091     23.0025E-03     24.4072E-03
            6107            6091     23.0025E-03     24.4072E-03
            6091            6092     25.7215E-03     27.1189E-03
            6108            6092     25.7215E-03     27.1189E-03
            6109            6092     25.7215E-03     27.1189E-03
            6090            6092     25.7215E-03     27.1189E-03
            6092            6093     28.5504E-03     29.9274E-03
            6091            6093     28.5504E-03     29.9274E-03
            6110            6093     28.5504E-03     29.9274E-03
            6109            6093     28.5504E-03     29.9274E-03
            6110            6094     31.5292E-03     32.8952E-03
            6093            6094     31.5292E-03     32.8952E-03
            6111            6094     31.5292E-03     32.8952E-03
            6092            6094     31.5292E-03     32.8952E-03
            6111            6095     34.8037E-03     36.1335E-03
            6094            6095     34.8037E-03     36.1335E-03
            6093            6095     34.8037E-03     36.1335E-03
            6112            6095     34.8037E-03     36.1335E-03
            6094            6096     38.5112E-03     39.8250E-03
            6112            6096     38.5112E-03     39.8250E-03
            6113            6096     38.5112E-03     39.8250E-03
            6095            6096     38.5112E-03     39.8250E-03
            6113            6097     42.9788E-03     44.2123E-03
            6096            6097     42.9788E-03     44.2123E-03
            6095            6097     42.9788E-03     44.2123E-03
            6114            6097     42.9788E-03     44.2123E-03
            6096            6098     49.1514E-03     49.9607E-03
            6115            6098     49.1514E-03     49.9607E-03
            6097            6098     49.1514E-03     49.9607E-03
            6114            6098     49.1514E-03     49.9607E-03
            6115            6099     55.8007E-03     56.0003E-03
            6098            6099     55.8007E-03     56.0003E-03
            6116            6099     55.8007E-03     56.0003E-03
            6097            6099     55.8007E-03     56.0003E-03
            6099            6100     3.64435E-03     4.08705E-03
            6117            6100     3.64435E-03     4.08705E-03
            6118            6100     3.64435E-03     4.08705E-03
            6100            6100     3.64435E-03     4.08705E-03
            6119            6101     5.55841E-03     6.42170E-03
            6118            6101     5.55841E-03     6.42170E-03
            6100            6101     5.55841E-03     6.42170E-03
            6101            6101     5.55841E-03     6.42170E-03
            6102            6102     7.95355E-03     8.95188E-03
            6119            6102     7.95355E-03     8.95188E-03
            6120            6102     7.95355E-03     8.95188E-03
            6101            6102     7.95355E-03     8.95188E-03
            6102            6103     10.4754E-03     11.5680E-03
            6120            6103     10.4754E-03     11.5680E-03
            6121            6103     10.4754E-03     11.5680E-03
            6103            6103     10.4754E-03     11.5680E-03
            6103            6104     13.0564E-03     14.2121E-03
            6122            6104     13.0564E-03     14.2121E-03
            6121            6104     13.0564E-03     14.2121E-03
            6104            6104     13.0564E-03     14.2121E-03
            6123            6105     15.6753E-03     16.8717E-03
            6104            6105     15.6753E-03     16.8717E-03
            6105            6105     15.6753E-03     16.8717E-03
            6122            6105     15.6753E-03     16.8717E-03
            6106            6106     18.3206E-03     19.5448E-03
            6123            6106     18.3206E-03     19.5448E-03
            6105            6106     18.3206E-03     19.5448E-03
            6124            6106     18.3206E-03     19.5448E-03
            6106            6107     20.9977E-03     22.2407E-03
            6124            6107     20.9977E-03     22.2407E-03
            6107            6107     20.9977E-03     22.2407E-03
            6125            6107     20.9977E-03     22.2407E-03
            6108            6108     23.7107E-03     24.9720E-03
            6125            6108     23.7107E-03     24.9720E-03
            6107            6108     23.7107E-03     24.9720E-03
            6126            6108     23.7107E-03     24.9720E-03
            6108            6109     26.4887E-03     27.7611E-03
            6126            6109     26.4887E-03     27.7611E-03
            6109            6109     26.4887E-03     27.7611E-03
            6127            6109     26.4887E-03     27.7611E-03
            6109            6110     29.3597E-03     30.6486E-03
            6127            6110     29.3597E-03     30.6486E-03
            6110            6110     29.3597E-03     30.6486E-03
            6128            6110     29.3597E-03     30.6486E-03
            6110            6111     32.3941E-03     33.6815E-03
            6128            6111     32.3941E-03     33.6815E-03
            6111            6111     32.3941E-03     33.6815E-03
            6129            6111     32.3941E-03     33.6815E-03
            6111            6112     35.6945E-03     36.9712E-03
            6112            6112     35.6945E-03     36.9712E-03
            6129            6112     35.6945E-03     36.9712E-03
            6130            6112     35.6945E-03     36.9712E-03
            6130            6113     39.3730E-03     40.6022E-03
            6131            6113     39.3730E-03     40.6022E-03
            6112            6113     39.3730E-03     40.6022E-03
            6113            6113     39.3730E-03     40.6022E-03
            6113            6114     43.8532E-03     44.8554E-03
            6132            6114     43.8532E-03     44.8554E-03
            6131            6114     43.8532E-03     44.8554E-03
            6114            6114     43.8532E-03     44.8554E-03
            6114            6115     48.8092E-03     49.6214E-03
            6133            6115     48.8092E-03     49.6214E-03
            6115            6115     48.8092E-03     49.6214E-03
            6132            6115     48.8092E-03     49.6214E-03
            6134            6116     53.4682E-03     54.4265E-03
            6133            6116     53.4682E-03     54.4265E-03
            6115            6116     53.4682E-03     54.4265E-03
            6116            6116     53.4682E-03     54.4265E-03
            6118            6117     4.70334E-03     4.92754E-03
            6117            6117     4.70334E-03     4.92754E-03
            6136            6117     4.70334E-03     4.92754E-03
            6135            6117     4.70334E-03     4.92754E-03
            6136            6118     6.36891E-03     7.01647E-03
            6118            6118     6.36891E-03     7.01647E-03
            6119            6118     6.36891E-03     7.01647E-03
            6137            6118     6.36891E-03     7.01647E-03
            6120            6119     8.59378E-03     9.44888E-03
            6119            6119     8.59378E-03     9.44888E-03
            6138            6119     8.59378E-03     9.44888E-03
            6137            6119     8.59378E-03     9.44888E-03
            6139            6120     11.0578E-03     11.9996E-03
            6138            6120     11.0578E-03     11.9996E-03
            6120            6120     11.0578E-03     11.9996E-03
            6121            6120     11.0578E-03     11.9996E-03
            6140            6121     13.6238E-03     14.6235E-03
            6121            6121     13.6238E-03     14.6235E-03
            6122            6121     13.6238E-03     14.6235E-03
            6139            6121     13.6238E-03     14.6235E-03
            6122            6122     16.2495E-03     17.2835E-03
            6141            6122     16.2495E-03     17.2835E-03
            6140            6122     16.2495E-03     17.2835E-03
            6123            6122     16.2495E-03     17.2835E-03
            6141            6123     18.9187E-03     19.9782E-03
            6123            6123     18.9187E-03     19.9782E-03
            6142            6123     18.9187E-03     19.9782E-03
            6124            6123     18.9187E-03     19.9782E-03
            6125            6124     21.6229E-03     22.7080E-03
            6142            6124     21.6229E-03     22.7080E-03
            6124            6124     21.6229E-03     22.7080E-03
            6143            6124     21.6229E-03     22.7080E-03
            6144            6125     24.3697E-03     25.4802E-03
            6126            6125     24.3697E-03     25.4802E-03
            6143            6125     24.3697E-03     25.4802E-03
            6125            6125     24.3697E-03     25.4802E-03
            6145            6126     27.1720E-03     28.3143E-03
            6127            6126     27.1720E-03     28.3143E-03
            6126            6126     27.1720E-03     28.3143E-03
            6144            6126     27.1720E-03     28.3143E-03
            6127            6127     30.0538E-03     31.2251E-03
            6145            6127     30.0538E-03     31.2251E-03
            6128            6127     30.0538E-03     31.2251E-03
            6146            6127     30.0538E-03     31.2251E-03
            6128            6128     33.0738E-03     34.2632E-03
            6146            6128     33.0738E-03     34.2632E-03
            6129            6128     33.0738E-03     34.2632E-03
            6147            6128     33.0738E-03     34.2632E-03
            6148            6129     36.2603E-03     37.4543E-03
            6130            6129     36.2603E-03     37.4543E-03
            6129            6129     36.2603E-03     37.4543E-03
            6147            6129     36.2603E-03     37.4543E-03
            6148            6130     39.7974E-03     40.8970E-03
            6130            6130     39.7974E-03     40.8970E-03
            6131            6130     39.7974E-03     40.8970E-03
            6149            6130     39.7974E-03     40.8970E-03
            6149            6131     43.5855E-03     44.5960E-03
            6150            6131     43.5855E-03     44.5960E-03
            6131            6131     43.5855E-03     44.5960E-03
            6132            6131     43.5855E-03     44.5960E-03
            6133            6132     47.4528E-03     48.3922E-03
            6132            6132     47.4528E-03     48.3922E-03
            6150            6132     47.4528E-03     48.3922E-03
            6151            6132     47.4528E-03     48.3922E-03
            6151            6133     51.3911E-03     51.9921E-03
            6152            6133     51.3911E-03     51.9921E-03
            6134            6133     51.3911E-03     51.9921E-03
            6133            6133     51.3911E-03     51.9921E-03
            6136            6134     5.75418E-03     5.86369E-03
            6153            6134     5.75418E-03     5.86369E-03
            6135            6134     5.75418E-03     5.86369E-03
            6154            6134     5.75418E-03     5.86369E-03
            6136            6135     7.20656E-03     7.72419E-03
            6154            6135     7.20656E-03     7.72419E-03
            6137            6135     7.20656E-03     7.72419E-03
            6155            6135     7.20656E-03     7.72419E-03
            6138            6136     9.28381E-03     9.99908E-03
            6156            6136     9.28381E-03     9.99908E-03
            6155            6136     9.28381E-03     9.99908E-03
            6137            6136     9.28381E-03     9.99908E-03
            6139            6137     11.6511E-03     12.4730E-03
            6157            6137     11.6511E-03     12.4730E-03
            6138            6137     11.6511E-03     12.4730E-03
            6156            6137     11.6511E-03     12.4730E-03
            6140            6138     14.1752E-03     15.0340E-03
            6158            6138     14.1752E-03     15.0340E-03
            6157            6138     14.1752E-03     15.0340E-03
            6139            6138     14.1752E-03     15.0340E-03
            6140            6139     16.7860E-03     17.6664E-03
            6158            6139     16.7860E-03     17.6664E-03
            6159            6139     16.7860E-03     17.6664E-03
            6141            6139     16.7860E-03     17.6664E-03
            6159            6140     19.4518E-03     20.3490E-03
            6160            6140     19.4518E-03     20.3490E-03
            6141            6140     19.4518E-03     20.3490E-03
            6142            6140     19.4518E-03     20.3490E-03
            6160            6141     22.1612E-03     23.0789E-03
            6142            6141     22.1612E-03     23.0789E-03
            6161            6141     22.1612E-03     23.0789E-03
            6143            6141     22.1612E-03     23.0789E-03
            6143            6142     24.9110E-03     25.8599E-03
            6144            6142     24.9110E-03     25.8599E-03
            6162            6142     24.9110E-03     25.8599E-03
            6161            6142     24.9110E-03     25.8599E-03
            6145            6143     27.7003E-03     28.6892E-03
            6144            6143     27.7003E-03     28.6892E-03
            6162            6143     27.7003E-03     28.6892E-03
            6163            6143     27.7003E-03     28.6892E-03
            6145            6144     30.5525E-03     31.5819E-03
            6146            6144     30.5525E-03     31.5819E-03
            6163            6144     30.5525E-03     31.5819E-03
            6164            6144     30.5525E-03     31.5819E-03
            6165            6145     33.4575E-03     34.5330E-03
            6164            6145     33.4575E-03     34.5330E-03
            6147            6145     33.4575E-03     34.5330E-03
            6146            6145     33.4575E-03     34.5330E-03
            6147            6146     36.4868E-03     37.5594E-03
            6165            6146     36.4868E-03     37.5594E-03
            6148            6146     36.4868E-03     37.5594E-03
            6166            6146     36.4868E-03     37.5594E-03
            6148            6147     39.5866E-03     40.6475E-03
            6167            6147     39.5866E-03     40.6475E-03
            6149            6147     39.5866E-03     40.6475E-03
            6166            6147     39.5866E-03     40.6475E-03
            6149            6148     42.7428E-03     43.7303E-03
            6167            6148     42.7428E-03     43.7303E-03
            6150            6148     42.7428E-03     43.7303E-03
            6168            6148     42.7428E-03     43.7303E-03
            6151            6149     45.9511E-03     46.7293E-03
            6150            6149     45.9511E-03     46.7293E-03
            6168            6149     45.9511E-03     46.7293E-03
            6169            6149     45.9511E-03     46.7293E-03
            6169            6150     49.0603E-03     49.7353E-03
            6170            6150     49.0603E-03     49.7353E-03
            6151            6150     49.0603E-03     49.7353E-03
            6152            6150     49.0603E-03     49.7353E-03
            6171            6151     6.77368E-03     6.83261E-03
            6153            6151     6.77368E-03     6.83261E-03
            6154            6151     6.77368E-03     6.83261E-03
            6172            6151     6.77368E-03     6.83261E-03
            6154            6152     8.06621E-03     8.48358E-03
            6172            6152     8.06621E-03     8.48358E-03
            6155            6152     8.06621E-03     8.48358E-03
            6173            6152     8.06621E-03     8.48358E-03
            6174            6153     9.97135E-03     10.6066E-03
            6155            6153     9.97135E-03     10.6066E-03
            6156            6153     9.97135E-03     10.6066E-03
            6173            6153     9.97135E-03     10.6066E-03
            6175            6154     12.2343E-03     12.9397E-03
            6174            6154     12.2343E-03     12.9397E-03
            6157            6154     12.2343E-03     12.9397E-03
            6156            6154     12.2343E-03     12.9397E-03
            6158            6155     14.6887E-03     15.4168E-03
            6175            6155     14.6887E-03     15.4168E-03
            6157            6155     14.6887E-03     15.4168E-03
            6176            6155     14.6887E-03     15.4168E-03
            6159            6156     17.2542E-03     17.9778E-03
            6158            6156     17.2542E-03     17.9778E-03
            6177            6156     17.2542E-03     17.9778E-03
            6176            6156     17.2542E-03     17.9778E-03
            6159            6157     19.8893E-03     20.6111E-03
            6160            6157     19.8893E-03     20.6111E-03
            6177            6157     19.8893E-03     20.6111E-03
            6178            6157     19.8893E-03     20.6111E-03
            6178            6158     22.5712E-03     23.3066E-03
            6161            6158     22.5712E-03     23.3066E-03
            6179            6158     22.5712E-03     23.3066E-03
            6160            6158     22.5712E-03     23.3066E-03
            6161            6159     25.2849E-03     26.0497E-03
            6179            6159     25.2849E-03     26.0497E-03
            6180            6159     25.2849E-03     26.0497E-03
            6162            6159     25.2849E-03     26.0497E-03
            6162            6160     28.0319E-03     28.8373E-03
            6180            6160     28.0319E-03     28.8373E-03
            6181            6160     28.0319E-03     28.8373E-03
            6163            6160     28.0319E-03     28.8373E-03
            6163            6161     30.7861E-03     31.6516E-03
            6182            6161     30.7861E-03     31.6516E-03
            6181            6161     30.7861E-03     31.6516E-03
            6164            6161     30.7861E-03     31.6516E-03
            6164            6162     33.5626E-03     34.4758E-03
            6182            6162     33.5626E-03     34.4758E-03
            6183            6162     33.5626E-03     34.4758E-03
            6165            6162     33.5626E-03     34.4758E-03
            6166            6163     36.3024E-03     37.2744E-03
            6183            6163     36.3024E-03     37.2744E-03
            6184            6163     36.3024E-03     37.2744E-03
            6165            6163     36.3024E-03     37.2744E-03
            6185            6164     38.9999E-03     39.9796E-03
            6166            6164     38.9999E-03     39.9796E-03
            6184            6164     38.9999E-03     39.9796E-03
            6167            6164     38.9999E-03     39.9796E-03
            6185            6165     41.6321E-03     42.5341E-03
            6186            6165     41.6321E-03     42.5341E-03
            6167            6165     41.6321E-03     42.5341E-03
            6168            6165     41.6321E-03     42.5341E-03
            6169            6166     44.1681E-03     44.9625E-03
            6187            6166     44.1681E-03     44.9625E-03
            6168            6166     44.1681E-03     44.9625E-03
            6186            6166     44.1681E-03     44.9625E-03
            6169            6167     46.8105E-03     47.3342E-03
            6188            6167     46.8105E-03     47.3342E-03
            6187            6167     46.8105E-03     47.3342E-03
            6170            6167     46.8105E-03     47.3342E-03
            6189            6168     7.79846E-03     7.83077E-03
            6172            6168     7.79846E-03     7.83077E-03
            6171            6168     7.79846E-03     7.83077E-03
            6190            6168     7.79846E-03     7.83077E-03
            6173            6169     8.91560E-03     9.32392E-03
            6190            6169     8.91560E-03     9.32392E-03
            6191            6169     8.91560E-03     9.32392E-03
            6172            6169     8.91560E-03     9.32392E-03
            6174            6170     10.6647E-03     11.2292E-03
            6173            6170     10.6647E-03     11.2292E-03
            6191            6170     10.6647E-03     11.2292E-03
            6192            6170     10.6647E-03     11.2292E-03
            6193            6171     12.7988E-03     13.4148E-03
            6174            6171     12.7988E-03     13.4148E-03
            6192            6171     12.7988E-03     13.4148E-03
            6175            6171     12.7988E-03     13.4148E-03
            6194            6172     15.1571E-03     15.7456E-03
            6176            6172     15.1571E-03     15.7456E-03
            6193            6172     15.1571E-03     15.7456E-03
            6175            6172     15.1571E-03     15.7456E-03
            6194            6173     17.6487E-03     18.1959E-03
            6177            6173     17.6487E-03     18.1959E-03
            6195            6173     17.6487E-03     18.1959E-03
            6176            6173     17.6487E-03     18.1959E-03
            6178            6174     20.2150E-03     20.7433E-03
            6195            6174     20.2150E-03     20.7433E-03
            6196            6174     20.2150E-03     20.7433E-03
            6177            6174     20.2150E-03     20.7433E-03
            6196            6175     22.8269E-03     23.3577E-03
            6179            6175     22.8269E-03     23.3577E-03
            6178            6175     22.8269E-03     23.3577E-03
            6197            6175     22.8269E-03     23.3577E-03
            6179            6176     25.4726E-03     26.0242E-03
            6180            6176     25.4726E-03     26.0242E-03
            6198            6176     25.4726E-03     26.0242E-03
            6197            6176     25.4726E-03     26.0242E-03
            6180            6177     28.1221E-03     28.7183E-03
            6181            6177     28.1221E-03     28.7183E-03
            6198            6177     28.1221E-03     28.7183E-03
            6199            6177     28.1221E-03     28.7183E-03
            6181            6178     30.7669E-03     31.4162E-03
            6200            6178     30.7669E-03     31.4162E-03
            6199            6178     30.7669E-03     31.4162E-03
            6182            6178     30.7669E-03     31.4162E-03
            6183            6179     33.3485E-03     34.0784E-03
            6200            6179     33.3485E-03     34.0784E-03
            6201            6179     33.3485E-03     34.0784E-03
            6182            6179     33.3485E-03     34.0784E-03
            6202            6180     35.8315E-03     36.6350E-03
            6183            6180     35.8315E-03     36.6350E-03
            6201            6180     35.8315E-03     36.6350E-03
            6184            6180     35.8315E-03     36.6350E-03
            6185            6181     38.1453E-03     39.0092E-03
            6203            6181     38.1453E-03     39.0092E-03
            6202            6181     38.1453E-03     39.0092E-03
            6184            6181     38.1453E-03     39.0092E-03
            6203            6182     40.2666E-03     41.1340E-03
            6204            6182     40.2666E-03     41.1340E-03
            6186            6182     40.2666E-03     41.1340E-03
            6185            6182     40.2666E-03     41.1340E-03
            6186            6183     42.3032E-03     43.0075E-03
            6205            6183     42.3032E-03     43.0075E-03
            6204            6183     42.3032E-03     43.0075E-03
            6187            6183     42.3032E-03     43.0075E-03
            6187            6184     44.3621E-03     44.8691E-03
            6206            6184     44.3621E-03     44.8691E-03
            6205            6184     44.3621E-03     44.8691E-03
            6188            6184     44.3621E-03     44.8691E-03
            6190            6185     8.80170E-03     8.94501E-03
            6208            6185     8.80170E-03     8.94501E-03
            6189            6185     8.80170E-03     8.94501E-03
            6207            6185     8.80170E-03     8.94501E-03
            6209            6186     9.78765E-03     10.1951E-03
            6191            6186     9.78765E-03     10.1951E-03
            6190            6186     9.78765E-03     10.1951E-03
            6208            6186     9.78765E-03     10.1951E-03
            6192            6187     11.3710E-03     11.9323E-03
            6191            6187     11.3710E-03     11.9323E-03
            6209            6187     11.3710E-03     11.9323E-03
            6210            6187     11.3710E-03     11.9323E-03
            6193            6188     13.3582E-03     13.8835E-03
            6192            6188     13.3582E-03     13.8835E-03
            6210            6188     13.3582E-03     13.8835E-03
            6211            6188     13.3582E-03     13.8835E-03
            6212            6189     15.6051E-03     16.0205E-03
            6211            6189     15.6051E-03     16.0205E-03
            6193            6189     15.6051E-03     16.0205E-03
            6194            6189     15.6051E-03     16.0205E-03
            6194            6190     17.9798E-03     18.3278E-03
            6195            6190     17.9798E-03     18.3278E-03
            6212            6190     17.9798E-03     18.3278E-03
            6213            6190     17.9798E-03     18.3278E-03
            6196            6191     20.4296E-03     20.7432E-03
            6213            6191     20.4296E-03     20.7432E-03
            6214            6191     20.4296E-03     20.7432E-03
            6195            6191     20.4296E-03     20.7432E-03
            6197            6192     22.9323E-03     23.2360E-03
            6214            6192     22.9323E-03     23.2360E-03
            6196            6192     22.9323E-03     23.2360E-03
            6215            6192     22.9323E-03     23.2360E-03
            6215            6193     25.4552E-03     25.7734E-03
            6216            6193     25.4552E-03     25.7734E-03
            6197            6193     25.4552E-03     25.7734E-03
            6198            6193     25.4552E-03     25.7734E-03
            6217            6194     27.9828E-03     28.3288E-03
            6199            6194     27.9828E-03     28.3288E-03
            6198            6194     27.9828E-03     28.3288E-03
            6216            6194     27.9828E-03     28.3288E-03
            6200            6195     30.4666E-03     30.8672E-03
            6217            6195     30.4666E-03     30.8672E-03
            6218            6195     30.4666E-03     30.8672E-03
            6199            6195     30.4666E-03     30.8672E-03
            6201            6196     32.8657E-03     33.3358E-03
            6218            6196     32.8657E-03     33.3358E-03
            6200            6196     32.8657E-03     33.3358E-03
            6219            6196     32.8657E-03     33.3358E-03
            6202            6197     35.0988E-03     35.6682E-03
            6220            6197     35.0988E-03     35.6682E-03
            6201            6197     35.0988E-03     35.6682E-03
            6219            6197     35.0988E-03     35.6682E-03
            6221            6198     37.0766E-03     37.7566E-03
            6220            6198     37.0766E-03     37.7566E-03
            6203            6198     37.0766E-03     37.7566E-03
            6202            6198     37.0766E-03     37.7566E-03
            6222            6199     38.7564E-03     39.5034E-03
            6221            6199     38.7564E-03     39.5034E-03
            6203            6199     38.7564E-03     39.5034E-03
            6204            6199     38.7564E-03     39.5034E-03
            6222            6200     40.2323E-03     40.9330E-03
            6204            6200     40.2323E-03     40.9330E-03
            6205            6200     40.2323E-03     40.9330E-03
            6223            6200     40.2323E-03     40.9330E-03
            6224            6201     41.8337E-03     42.2336E-03
            6206            6201     41.8337E-03     42.2336E-03
            6223            6201     41.8337E-03     42.2336E-03
            6205            6201     41.8337E-03     42.2336E-03
            6207            6202     9.87109E-03     10.0475E-03
            6208            6202     9.87109E-03     10.0475E-03
            6226            6202     9.87109E-03     10.0475E-03
            6225            6202     9.87109E-03     10.0475E-03
            6226            6203     10.6970E-03     11.2781E-03
            6208            6203     10.6970E-03     11.2781E-03
            6227            6203     10.6970E-03     11.2781E-03
            6209            6203     10.6970E-03     11.2781E-03
            6209            6204     12.0989E-03     12.6978E-03
            6227            6204     12.0989E-03     12.6978E-03
            6228            6204     12.0989E-03     12.6978E-03
            6210            6204     12.0989E-03     12.6978E-03
            6228            6205     13.9804E-03     14.3381E-03
            6210            6205     13.9804E-03     14.3381E-03
            6211            6205     13.9804E-03     14.3381E-03
            6229            6205     13.9804E-03     14.3381E-03
            6211            6206     16.0704E-03     16.2779E-03
            6212            6206     16.0704E-03     16.2779E-03
            6230            6206     16.0704E-03     16.2779E-03
            6229            6206     16.0704E-03     16.2779E-03
            6212            6207     18.2742E-03     18.4029E-03
            6231            6207     18.2742E-03     18.4029E-03
            6213            6207     18.2742E-03     18.4029E-03
            6230            6207     18.2742E-03     18.4029E-03
            6213            6208     20.5642E-03     20.6494E-03
            6231            6208     20.5642E-03     20.6494E-03
            6214            6208     20.5642E-03     20.6494E-03
            6232            6208     20.5642E-03     20.6494E-03
            6215            6209     22.8993E-03     22.9698E-03
            6232            6209     22.8993E-03     22.9698E-03
            6233            6209     22.8993E-03     22.9698E-03
            6214            6209     22.8993E-03     22.9698E-03
            6234            6210     25.2616E-03     25.3273E-03
            6233            6210     25.2616E-03     25.3273E-03
            6215            6210     25.2616E-03     25.3273E-03
            6216            6210     25.2616E-03     25.3273E-03
            6216            6211     27.6115E-03     27.6893E-03
            6235            6211     27.6115E-03     27.6893E-03
            6217            6211     27.6115E-03     27.6893E-03
            6234            6211     27.6115E-03     27.6893E-03
            6218            6212     29.9145E-03     30.0158E-03
            6217            6212     29.9145E-03     30.0158E-03
            6235            6212     29.9145E-03     30.0158E-03
            6236            6212     29.9145E-03     30.0158E-03
            6219            6213     32.1098E-03     32.2585E-03
            6236            6213     32.1098E-03     32.2585E-03
            6218            6213     32.1098E-03     32.2585E-03
            6237            6213     32.1098E-03     32.2585E-03
            6219            6214     34.1152E-03     34.3443E-03
            6237            6214     34.1152E-03     34.3443E-03
            6220            6214     34.1152E-03     34.3443E-03
            6238            6214     34.1152E-03     34.3443E-03
            6238            6215     35.8340E-03     36.1807E-03
            6220            6215     35.8340E-03     36.1807E-03
            6221            6215     35.8340E-03     36.1807E-03
            6239            6215     35.8340E-03     36.1807E-03
            6221            6216     37.1217E-03     37.6228E-03
            6239            6216     37.1217E-03     37.6228E-03
            6240            6216     37.1217E-03     37.6228E-03
            6222            6216     37.1217E-03     37.6228E-03
            6241            6217     38.0263E-03     38.5990E-03
            6222            6217     38.0263E-03     38.5990E-03
            6240            6217     38.0263E-03     38.5990E-03
            6223            6217     38.0263E-03     38.5990E-03
            6242            6218     39.0728E-03     39.4631E-03
            6223            6218     39.0728E-03     39.4631E-03
            6224            6218     39.0728E-03     39.4631E-03
            6241            6218     39.0728E-03     39.4631E-03
            6244            6219     10.9568E-03     11.6868E-03
            6226            6219     10.9568E-03     11.6868E-03
            6243            6219     10.9568E-03     11.6868E-03
            6225            6219     10.9568E-03     11.6868E-03
            6227            6220     11.5763E-03     12.4883E-03
            6226            6220     11.5763E-03     12.4883E-03
            6244            6220     11.5763E-03     12.4883E-03
            6245            6220     11.5763E-03     12.4883E-03
            6245            6221     13.0056E-03     13.4226E-03
            6228            6221     13.0056E-03     13.4226E-03
            6227            6221     13.0056E-03     13.4226E-03
            6246            6221     13.0056E-03     13.4226E-03
            6229            6222     14.7314E-03     14.8372E-03
            6247            6222     14.7314E-03     14.8372E-03
            6228            6222     14.7314E-03     14.8372E-03
            6246            6222     14.7314E-03     14.8372E-03
            6248            6223     16.5968E-03     16.5737E-03
            6229            6223     16.5968E-03     16.5737E-03
            6247            6223     16.5968E-03     16.5737E-03
            6230            6223     16.5968E-03     16.5737E-03
            6249            6224     18.5894E-03     18.4945E-03
            6230            6224     18.5894E-03     18.4945E-03
            6231            6224     18.5894E-03     18.4945E-03
            6248            6224     18.5894E-03     18.4945E-03
            6231            6225     20.6609E-03     20.5328E-03
            6232            6225     20.6609E-03     20.5328E-03
            6250            6225     20.6609E-03     20.5328E-03
            6249            6225     20.6609E-03     20.5328E-03
            6250            6226     22.7868E-03     22.6314E-03
            6251            6226     22.7868E-03     22.6314E-03
            6232            6226     22.7868E-03     22.6314E-03
            6233            6226     22.7868E-03     22.6314E-03
            6251            6227     24.9305E-03     24.7544E-03
            6252            6227     24.9305E-03     24.7544E-03
            6233            6227     24.9305E-03     24.7544E-03
            6234            6227     24.9305E-03     24.7544E-03
            6234            6228     27.0610E-03     26.8618E-03
            6235            6228     27.0610E-03     26.8618E-03
            6253            6228     27.0610E-03     26.8618E-03
            6252            6228     27.0610E-03     26.8618E-03
            6253            6229     29.1354E-03     28.9171E-03
            6236            6229     29.1354E-03     28.9171E-03
            6235            6229     29.1354E-03     28.9171E-03
            6254            6229     29.1354E-03     28.9171E-03
            6237            6230     31.0976E-03     30.8700E-03
            6254            6230     31.0976E-03     30.8700E-03
            6255            6230     31.0976E-03     30.8700E-03
            6236            6230     31.0976E-03     30.8700E-03
            6255            6231     32.8804E-03     32.6589E-03
            6237            6231     32.8804E-03     32.6589E-03
            6238            6231     32.8804E-03     32.6589E-03
            6256            6231     32.8804E-03     32.6589E-03
            6238            6232     34.3644E-03     34.2009E-03
            6256            6232     34.3644E-03     34.2009E-03
            6239            6232     34.3644E-03     34.2009E-03
            6257            6232     34.3644E-03     34.2009E-03
            6257            6233     35.4209E-03     35.3718E-03
            6258            6233     35.4209E-03     35.3718E-03
            6240            6233     35.4209E-03     35.3718E-03
            6239            6233     35.4209E-03     35.3718E-03
            6258            6234     35.8096E-03     35.9475E-03
            6241            6234     35.8096E-03     35.9475E-03
            6259            6234     35.8096E-03     35.9475E-03
            6240            6234     35.8096E-03     35.9475E-03
            6242            6235     36.0445E-03     36.1435E-03
            6260            6235     36.0445E-03     36.1435E-03
            6241            6235     36.0445E-03     36.1435E-03
            6259            6235     36.0445E-03     36.1435E-03
            6261            6236     11.8592E-03     13.3032E-03
            6262            6236     11.8592E-03     13.3032E-03
            6244            6236     11.8592E-03     13.3032E-03
            6243            6236     11.8592E-03     13.3032E-03
            6244            6237     12.8748E-03     13.3893E-03
            6245            6237     12.8748E-03     13.3893E-03
            6262            6237     12.8748E-03     13.3893E-03
            6263            6237     12.8748E-03     13.3893E-03
            6245            6238     14.1906E-03     14.1682E-03
            6246            6238     14.1906E-03     14.1682E-03
            6263            6238     14.1906E-03     14.1682E-03
            6264            6238     14.1906E-03     14.1682E-03
            6247            6239     15.6429E-03     15.4591E-03
            6246            6239     15.6429E-03     15.4591E-03
            6264            6239     15.6429E-03     15.4591E-03
            6265            6239     15.6429E-03     15.4591E-03
            6265            6240     17.2463E-03     17.0008E-03
            6266            6240     17.2463E-03     17.0008E-03
            6247            6240     17.2463E-03     17.0008E-03
            6248            6240     17.2463E-03     17.0008E-03
            6266            6241     18.9837E-03     18.7050E-03
            6249            6241     18.9837E-03     18.7050E-03
            6267            6241     18.9837E-03     18.7050E-03
            6248            6241     18.9837E-03     18.7050E-03
            6250            6242     20.8045E-03     20.4997E-03
            6267            6242     20.8045E-03     20.4997E-03
            6249            6242     20.8045E-03     20.4997E-03
            6268            6242     20.8045E-03     20.4997E-03
            6251            6243     22.6768E-03     22.3372E-03
            6268            6243     22.6768E-03     22.3372E-03
            6250            6243     22.6768E-03     22.3372E-03
            6269            6243     22.6768E-03     22.3372E-03
            6252            6244     24.5595E-03     24.1733E-03
            6251            6244     24.5595E-03     24.1733E-03
            6270            6244     24.5595E-03     24.1733E-03
            6269            6244     24.5595E-03     24.1733E-03
            6271            6245     26.4187E-03     25.9721E-03
            6253            6245     26.4187E-03     25.9721E-03
            6270            6245     26.4187E-03     25.9721E-03
            6252            6245     26.4187E-03     25.9721E-03
            6272            6246     28.2108E-03     27.6877E-03
            6254            6246     28.2108E-03     27.6877E-03
            6271            6246     28.2108E-03     27.6877E-03
            6253            6246     28.2108E-03     27.6877E-03
            6273            6247     29.8943E-03     29.2775E-03
            6255            6247     29.8943E-03     29.2775E-03
            6254            6247     29.8943E-03     29.2775E-03
            6272            6247     29.8943E-03     29.2775E-03
            6256            6248     31.4018E-03     30.6815E-03
            6274            6248     31.4018E-03     30.6815E-03
            6273            6248     31.4018E-03     30.6815E-03
            6255            6248     31.4018E-03     30.6815E-03
            6256            6249     32.6610E-03     31.8264E-03
            6275            6249     32.6610E-03     31.8264E-03
            6257            6249     32.6610E-03     31.8264E-03
            6274            6249     32.6610E-03     31.8264E-03
            6276            6250     33.5389E-03     32.6156E-03
            6275            6250     33.5389E-03     32.6156E-03
            6258            6250     33.5389E-03     32.6156E-03
            6257            6250     33.5389E-03     32.6156E-03
            6277            6251     33.7791E-03     32.8408E-03
            6258            6251     33.7791E-03     32.8408E-03
            6259            6251     33.7791E-03     32.8408E-03
            6276            6251     33.7791E-03     32.8408E-03
            6259            6252     33.1126E-03     32.1237E-03
            6260            6252     33.1126E-03     32.1237E-03
            6278            6252     33.1126E-03     32.1237E-03
            6277            6252     33.1126E-03     32.1237E-03
            6279            6253     7.40257E-03     8.56844E-03
            6261            6253     7.40257E-03     8.56844E-03
            6262            6253     7.40257E-03     8.56844E-03
            6280            6253     7.40257E-03     8.56844E-03
            6281            6254     8.43685E-03     8.93818E-03
            6262            6254     8.43685E-03     8.93818E-03
            6280            6254     8.43685E-03     8.93818E-03
            6263            6254     8.43685E-03     8.93818E-03
            6264            6255     9.41976E-03     9.83462E-03
            6282            6255     9.41976E-03     9.83462E-03
            6263            6255     9.41976E-03     9.83462E-03
            6281            6255     9.41976E-03     9.83462E-03
            6264            6256     10.5716E-03     11.0220E-03
            6283            6256     10.5716E-03     11.0220E-03
            6265            6256     10.5716E-03     11.0220E-03
            6282            6256     10.5716E-03     11.0220E-03
            6283            6257     11.8463E-03     12.3142E-03
            6284            6257     11.8463E-03     12.3142E-03
            6265            6257     11.8463E-03     12.3142E-03
            6266            6257     11.8463E-03     12.3142E-03
            6285            6258     13.2117E-03     13.7002E-03
            6284            6258     13.2117E-03     13.7002E-03
            6266            6258     13.2117E-03     13.7002E-03
            6267            6258     13.2117E-03     13.7002E-03
            6286            6259     14.6372E-03     15.1231E-03
            6285            6259     14.6372E-03     15.1231E-03
            6267            6259     14.6372E-03     15.1231E-03
            6268            6259     14.6372E-03     15.1231E-03
            6286            6260     16.0990E-03     16.5706E-03
            6268            6260     16.0990E-03     16.5706E-03
            6269            6260     16.0990E-03     16.5706E-03
            6287            6260     16.0990E-03     16.5706E-03
            6269            6261     17.5820E-03     18.0185E-03
            6287            6261     17.5820E-03     18.0185E-03
            6270            6261     17.5820E-03     18.0185E-03
            6288            6261     17.5820E-03     18.0185E-03
            6270            6262     19.0679E-03     19.4581E-03
            6289            6262     19.0679E-03     19.4581E-03
            6271            6262     19.0679E-03     19.4581E-03
            6288            6262     19.0679E-03     19.4581E-03
            6272            6263     20.5640E-03     20.8811E-03
            6271            6263     20.5640E-03     20.8811E-03
            6290            6263     20.5640E-03     20.8811E-03
            6289            6263     20.5640E-03     20.8811E-03
            6272            6264     22.0522E-03     22.2927E-03
            6290            6264     22.0522E-03     22.2927E-03
            6273            6264     22.0522E-03     22.2927E-03
            6291            6264     22.0522E-03     22.2927E-03
            6273            6265     23.5809E-03     23.7073E-03
            6291            6265     23.5809E-03     23.7073E-03
            6292            6265     23.5809E-03     23.7073E-03
            6274            6265     23.5809E-03     23.7073E-03
            6274            6266     25.1291E-03     25.1717E-03
            6292            6266     25.1291E-03     25.1717E-03
            6275            6266     25.1291E-03     25.1717E-03
            6293            6266     25.1291E-03     25.1717E-03
            6276            6267     26.8463E-03     26.7856E-03
            6275            6267     26.8463E-03     26.7856E-03
            6293            6267     26.8463E-03     26.7856E-03
            6294            6267     26.8463E-03     26.7856E-03
            6295            6268     28.6899E-03     28.6853E-03
            6277            6268     28.6899E-03     28.6853E-03
            6276            6268     28.6899E-03     28.6853E-03
            6294            6268     28.6899E-03     28.6853E-03
            6277            6269     31.5311E-03     32.1504E-03
            6278            6269     31.5311E-03     32.1504E-03
            6296            6269     31.5311E-03     32.1504E-03
            6295            6269     31.5311E-03     32.1504E-03
            6298            6270     3.02078E-03     3.55393E-03
            6279            6270     3.02078E-03     3.55393E-03
            6297            6270     3.02078E-03     3.55393E-03
            6280            6270     3.02078E-03     3.55393E-03
            6280            6271     3.50905E-03     4.33758E-03
            6281            6271     3.50905E-03     4.33758E-03
            6298            6271     3.50905E-03     4.33758E-03
            6299            6271     3.50905E-03     4.33758E-03
            6281            6272     4.32726E-03     5.29524E-03
            6299            6272     4.32726E-03     5.29524E-03
            6300            6272     4.32726E-03     5.29524E-03
            6282            6272     4.32726E-03     5.29524E-03
            6300            6273     5.30116E-03     6.37822E-03
            6283            6273     5.30116E-03     6.37822E-03
            6282            6273     5.30116E-03     6.37822E-03
            6301            6273     5.30116E-03     6.37822E-03
            6301            6274     6.36197E-03     7.51402E-03
            6283            6274     6.36197E-03     7.51402E-03
            6284            6274     6.36197E-03     7.51402E-03
            6302            6274     6.36197E-03     7.51402E-03
            6284            6275     7.47949E-03     8.67913E-03
            6285            6275     7.47949E-03     8.67913E-03
            6303            6275     7.47949E-03     8.67913E-03
            6302            6275     7.47949E-03     8.67913E-03
            6303            6276     8.63125E-03     9.86019E-03
            6304            6276     8.63125E-03     9.86019E-03
            6286            6276     8.63125E-03     9.86019E-03
            6285            6276     8.63125E-03     9.86019E-03
            6305            6277     9.81544E-03     11.0583E-03
            6304            6277     9.81544E-03     11.0583E-03
            6287            6277     9.81544E-03     11.0583E-03
            6286            6277     9.81544E-03     11.0583E-03
            6287            6278     11.0299E-03     12.2737E-03
            6288            6278     11.0299E-03     12.2737E-03
            6305            6278     11.0299E-03     12.2737E-03
            6306            6278     11.0299E-03     12.2737E-03
            6307            6279     12.2954E-03     13.5313E-03
            6289            6279     12.2954E-03     13.5313E-03
            6288            6279     12.2954E-03     13.5313E-03
            6306            6279     12.2954E-03     13.5313E-03
            6290            6280     13.6289E-03     14.8480E-03
            6289            6280     13.6289E-03     14.8480E-03
            6308            6280     13.6289E-03     14.8480E-03
            6307            6280     13.6289E-03     14.8480E-03
            6290            6281     15.1007E-03     16.2981E-03
            6291            6281     15.1007E-03     16.2981E-03
            6308            6281     15.1007E-03     16.2981E-03
            6309            6281     15.1007E-03     16.2981E-03
            6309            6282     16.7615E-03     17.9419E-03
            6310            6282     16.7615E-03     17.9419E-03
            6291            6282     16.7615E-03     17.9419E-03
            6292            6282     16.7615E-03     17.9419E-03
            6311            6283     18.8191E-03     19.9898E-03
            6292            6283     18.8191E-03     19.9898E-03
            6293            6283     18.8191E-03     19.9898E-03
            6310            6283     18.8191E-03     19.9898E-03
            6294            6284     21.4039E-03     22.6187E-03
            6293            6284     21.4039E-03     22.6187E-03
            6312            6284     21.4039E-03     22.6187E-03
            6311            6284     21.4039E-03     22.6187E-03
            6313            6285     25.3111E-03     26.6156E-03
            6294            6285     25.3111E-03     26.6156E-03
            6295            6285     25.3111E-03     26.6156E-03
            6312            6285     25.3111E-03     26.6156E-03
            6314            6286     31.8916E-03     32.9711E-03
            6295            6286     31.8916E-03     32.9711E-03
            6313            6286     31.8916E-03     32.9711E-03
            6296            6286     31.8916E-03     32.9711E-03
            6297            6287     3.93322E-03     3.93752E-03
            6316            6287     3.93322E-03     3.93752E-03
            6315            6287     3.93322E-03     3.93752E-03
            6298            6287     3.93322E-03     3.93752E-03
            6298            6288     4.29132E-03     4.72350E-03
            6316            6288     4.29132E-03     4.72350E-03
            6299            6288     4.29132E-03     4.72350E-03
            6317            6288     4.29132E-03     4.72350E-03
            6317            6289     4.99386E-03     5.66147E-03
            6299            6289     4.99386E-03     5.66147E-03
            6318            6289     4.99386E-03     5.66147E-03
            6300            6289     4.99386E-03     5.66147E-03
            6318            6290     5.90198E-03     6.70097E-03
            6319            6290     5.90198E-03     6.70097E-03
            6301            6290     5.90198E-03     6.70097E-03
            6300            6290     5.90198E-03     6.70097E-03
            6301            6291     6.92148E-03     7.81421E-03
            6319            6291     6.92148E-03     7.81421E-03
            6320            6291     6.92148E-03     7.81421E-03
            6302            6291     6.92148E-03     7.81421E-03
            6303            6292     8.01255E-03     8.96563E-03
            6302            6292     8.01255E-03     8.96563E-03
            6320            6292     8.01255E-03     8.96563E-03
            6321            6292     8.01255E-03     8.96563E-03
            6322            6293     9.15321E-03     10.1449E-03
            6321            6293     9.15321E-03     10.1449E-03
            6303            6293     9.15321E-03     10.1449E-03
            6304            6293     9.15321E-03     10.1449E-03
            6322            6294     10.3286E-03     11.3454E-03
            6304            6294     10.3286E-03     11.3454E-03
            6323            6294     10.3286E-03     11.3454E-03
            6305            6294     10.3286E-03     11.3454E-03
            6323            6295     11.5435E-03     12.5746E-03
            6324            6295     11.5435E-03     12.5746E-03
            6306            6295     11.5435E-03     12.5746E-03
            6305            6295     11.5435E-03     12.5746E-03
            6325            6296     12.8000E-03     13.8409E-03
            6307            6296     12.8000E-03     13.8409E-03
            6306            6296     12.8000E-03     13.8409E-03
            6324            6296     12.8000E-03     13.8409E-03
            6308            6297     14.1376E-03     15.1784E-03
            6326            6297     14.1376E-03     15.1784E-03
            6325            6297     14.1376E-03     15.1784E-03
            6307            6297     14.1376E-03     15.1784E-03
            6327            6298     15.5868E-03     16.6294E-03
            6308            6298     15.5868E-03     16.6294E-03
            6326            6298     15.5868E-03     16.6294E-03
            6309            6298     15.5868E-03     16.6294E-03
            6327            6299     17.2673E-03     18.2876E-03
            6310            6299     17.2673E-03     18.2876E-03
            6328            6299     17.2673E-03     18.2876E-03
            6309            6299     17.2673E-03     18.2876E-03
            6310            6300     19.2973E-03     20.2979E-03
            6328            6300     19.2973E-03     20.2979E-03
            6311            6300     19.2973E-03     20.2979E-03
            6329            6300     19.2973E-03     20.2979E-03
            6312            6301     21.9739E-03     22.8856E-03
            6311            6301     21.9739E-03     22.8856E-03
            6330            6301     21.9739E-03     22.8856E-03
            6329            6301     21.9739E-03     22.8856E-03
            6331            6302     26.0898E-03     26.6436E-03
            6330            6302     26.0898E-03     26.6436E-03
            6312            6302     26.0898E-03     26.6436E-03
            6313            6302     26.0898E-03     26.6436E-03
            6331            6303     30.9266E-03     31.0049E-03
            6313            6303     30.9266E-03     31.0049E-03
            6314            6303     30.9266E-03     31.0049E-03
            6332            6303     30.9266E-03     31.0049E-03
            6316            6304     4.64436E-03     4.44308E-03
            6334            6304     4.64436E-03     4.44308E-03
            6315            6304     4.64436E-03     4.44308E-03
            6333            6304     4.64436E-03     4.44308E-03
            6316            6305     5.02697E-03     5.12711E-03
            6334            6305     5.02697E-03     5.12711E-03
            6317            6305     5.02697E-03     5.12711E-03
            6335            6305     5.02697E-03     5.12711E-03
            6317            6306     5.64805E-03     6.03771E-03
            6318            6306     5.64805E-03     6.03771E-03
            6335            6306     5.64805E-03     6.03771E-03
            6336            6306     5.64805E-03     6.03771E-03
            6337            6307     6.48968E-03     7.04930E-03
            6318            6307     6.48968E-03     7.04930E-03
            6319            6307     6.48968E-03     7.04930E-03
            6336            6307     6.48968E-03     7.04930E-03
            6319            6308     7.47167E-03     8.13560E-03
            6338            6308     7.47167E-03     8.13560E-03
            6320            6308     7.47167E-03     8.13560E-03
            6337            6308     7.47167E-03     8.13560E-03
            6321            6309     8.54139E-03     9.27299E-03
            6339            6309     8.54139E-03     9.27299E-03
            6338            6309     8.54139E-03     9.27299E-03
            6320            6309     8.54139E-03     9.27299E-03
            6322            6310     9.67186E-03     10.4469E-03
            6340            6310     9.67186E-03     10.4469E-03
            6339            6310     9.67186E-03     10.4469E-03
            6321            6310     9.67186E-03     10.4469E-03
            6341            6311     10.8485E-03     11.6532E-03
            6340            6311     10.8485E-03     11.6532E-03
            6323            6311     10.8485E-03     11.6532E-03
            6322            6311     10.8485E-03     11.6532E-03
            6342            6312     12.0624E-03     12.8917E-03
            6341            6312     12.0624E-03     12.8917E-03
            6323            6312     12.0624E-03     12.8917E-03
            6324            6312     12.0624E-03     12.8917E-03
            6324            6313     13.3253E-03     14.1718E-03
            6325            6313     13.3253E-03     14.1718E-03
            6343            6313     13.3253E-03     14.1718E-03
            6342            6313     13.3253E-03     14.1718E-03
            6325            6314     14.6474E-03     15.5134E-03
            6326            6314     14.6474E-03     15.5134E-03
            6343            6314     14.6474E-03     15.5134E-03
            6344            6314     14.6474E-03     15.5134E-03
            6345            6315     16.0805E-03     16.9484E-03
            6326            6315     16.0805E-03     16.9484E-03
            6327            6315     16.0805E-03     16.9484E-03
            6344            6315     16.0805E-03     16.9484E-03
            6345            6316     17.6946E-03     18.5552E-03
            6346            6316     17.6946E-03     18.5552E-03
            6328            6316     17.6946E-03     18.5552E-03
            6327            6316     17.6946E-03     18.5552E-03
            6329            6317     19.6014E-03     20.4106E-03
            6328            6317     19.6014E-03     20.4106E-03
            6347            6317     19.6014E-03     20.4106E-03
            6346            6317     19.6014E-03     20.4106E-03
            6348            6318     22.1561E-03     22.7740E-03
            6347            6318     22.1561E-03     22.7740E-03
            6329            6318     22.1561E-03     22.7740E-03
            6330            6318     22.1561E-03     22.7740E-03
            6331            6319     25.2296E-03     25.6765E-03
            6348            6319     25.2296E-03     25.6765E-03
            6349            6319     25.2296E-03     25.6765E-03
            6330            6319     25.2296E-03     25.6765E-03
            6350            6320     28.4340E-03     28.9843E-03
            6349            6320     28.4340E-03     28.9843E-03
            6332            6320     28.4340E-03     28.9843E-03
            6331            6320     28.4340E-03     28.9843E-03
            6351            6321     5.28473E-03     5.01709E-03
            6333            6321     5.28473E-03     5.01709E-03
            6334            6321     5.28473E-03     5.01709E-03
            6352            6321     5.28473E-03     5.01709E-03
            6352            6322     5.64016E-03     5.61217E-03
            6353            6322     5.64016E-03     5.61217E-03
            6334            6322     5.64016E-03     5.61217E-03
            6335            6322     5.64016E-03     5.61217E-03
            6335            6323     6.24853E-03     6.43559E-03
            6353            6323     6.24853E-03     6.43559E-03
            6336            6323     6.24853E-03     6.43559E-03
            6354            6323     6.24853E-03     6.43559E-03
            6336            6324     7.04299E-03     7.41012E-03
            6355            6324     7.04299E-03     7.41012E-03
            6354            6324     7.04299E-03     7.41012E-03
            6337            6324     7.04299E-03     7.41012E-03
            6356            6325     7.98895E-03     8.46021E-03
            6355            6325     7.98895E-03     8.46021E-03
            6338            6325     7.98895E-03     8.46021E-03
            6337            6325     7.98895E-03     8.46021E-03
            6356            6326     9.03984E-03     9.57353E-03
            6338            6326     9.03984E-03     9.57353E-03
            6339            6326     9.03984E-03     9.57353E-03
            6357            6326     9.03984E-03     9.57353E-03
            6339            6327     10.1606E-03     10.7344E-03
            6340            6327     10.1606E-03     10.7344E-03
            6358            6327     10.1606E-03     10.7344E-03
            6357            6327     10.1606E-03     10.7344E-03
            6358            6328     11.3334E-03     11.9363E-03
            6340            6328     11.3334E-03     11.9363E-03
            6359            6328     11.3334E-03     11.9363E-03
            6341            6328     11.3334E-03     11.9363E-03
            6341            6329     12.5477E-03     13.1755E-03
            6342            6329     12.5477E-03     13.1755E-03
            6360            6329     12.5477E-03     13.1755E-03
            6359            6329     12.5477E-03     13.1755E-03
            6361            6330     13.8000E-03     14.4551E-03
            6342            6330     13.8000E-03     14.4551E-03
            6343            6330     13.8000E-03     14.4551E-03
            6360            6330     13.8000E-03     14.4551E-03
            6362            6331     15.0967E-03     15.7756E-03
            6344            6331     15.0967E-03     15.7756E-03
            6361            6331     15.0967E-03     15.7756E-03
            6343            6331     15.0967E-03     15.7756E-03
            6345            6332     16.4623E-03     17.1611E-03
            6363            6332     16.4623E-03     17.1611E-03
            6362            6332     16.4623E-03     17.1611E-03
            6344            6332     16.4623E-03     17.1611E-03
            6363            6333     17.9174E-03     18.6225E-03
            6364            6333     17.9174E-03     18.6225E-03
            6346            6333     17.9174E-03     18.6225E-03
            6345            6333     17.9174E-03     18.6225E-03
            6346            6334     19.6027E-03     20.2438E-03
            6365            6334     19.6027E-03     20.2438E-03
            6364            6334     19.6027E-03     20.2438E-03
            6347            6334     19.6027E-03     20.2438E-03
            6347            6335     21.5037E-03     22.0761E-03
            6365            6335     21.5037E-03     22.0761E-03
            6348            6335     21.5037E-03     22.0761E-03
            6366            6335     21.5037E-03     22.0761E-03
            6348            6336     23.6390E-03     24.1459E-03
            6349            6336     23.6390E-03     24.1459E-03
            6367            6336     23.6390E-03     24.1459E-03
            6366            6336     23.6390E-03     24.1459E-03
            6367            6337     26.2042E-03     26.4887E-03
            6349            6337     26.2042E-03     26.4887E-03
            6350            6337     26.2042E-03     26.4887E-03
            6368            6337     26.2042E-03     26.4887E-03
            6370            6338     5.87579E-03     5.57300E-03
            6351            6338     5.87579E-03     5.57300E-03
            6369            6338     5.87579E-03     5.57300E-03
            6352            6338     5.87579E-03     5.57300E-03
            6353            6339     6.21474E-03     6.11260E-03
            6370            6339     6.21474E-03     6.11260E-03
            6352            6339     6.21474E-03     6.11260E-03
            6371            6339     6.21474E-03     6.11260E-03
            6371            6340     6.77848E-03     6.87607E-03
            6353            6340     6.77848E-03     6.87607E-03
            6354            6340     6.77848E-03     6.87607E-03
            6372            6340     6.77848E-03     6.87607E-03
            6355            6341     7.54450E-03     7.77187E-03
            6372            6341     7.54450E-03     7.77187E-03
            6373            6341     7.54450E-03     7.77187E-03
            6354            6341     7.54450E-03     7.77187E-03
            6355            6342     8.46082E-03     8.77399E-03
            6374            6342     8.46082E-03     8.77399E-03
            6373            6342     8.46082E-03     8.77399E-03
            6356            6342     8.46082E-03     8.77399E-03
            6374            6343     9.48662E-03     9.84420E-03
            6375            6343     9.48662E-03     9.84420E-03
            6356            6343     9.48662E-03     9.84420E-03
            6357            6343     9.48662E-03     9.84420E-03
            6375            6344     10.5924E-03     10.9744E-03
            6357            6344     10.5924E-03     10.9744E-03
            6376            6344     10.5924E-03     10.9744E-03
            6358            6344     10.5924E-03     10.9744E-03
            6377            6345     11.7515E-03     12.1547E-03
            6358            6345     11.7515E-03     12.1547E-03
            6359            6345     11.7515E-03     12.1547E-03
            6376            6345     11.7515E-03     12.1547E-03
            6377            6346     12.9513E-03     13.3773E-03
            6378            6346     12.9513E-03     13.3773E-03
            6360            6346     12.9513E-03     13.3773E-03
            6359            6346     12.9513E-03     13.3773E-03
            6379            6347     14.1762E-03     14.6296E-03
            6360            6347     14.1762E-03     14.6296E-03
            6378            6347     14.1762E-03     14.6296E-03
            6361            6347     14.1762E-03     14.6296E-03
            6362            6348     15.4244E-03     15.9089E-03
            6380            6348     15.4244E-03     15.9089E-03
            6379            6348     15.4244E-03     15.9089E-03
            6361            6348     15.4244E-03     15.9089E-03
            6363            6349     16.6677E-03     17.1919E-03
            6380            6349     16.6677E-03     17.1919E-03
            6362            6349     16.6677E-03     17.1919E-03
            6381            6349     16.6677E-03     17.1919E-03
            6381            6350     17.9335E-03     18.4755E-03
            6364            6350     17.9335E-03     18.4755E-03
            6382            6350     17.9335E-03     18.4755E-03
            6363            6350     17.9335E-03     18.4755E-03
            6382            6351     19.1869E-03     19.7465E-03
            6383            6351     19.1869E-03     19.7465E-03
            6364            6351     19.1869E-03     19.7465E-03
            6365            6351     19.1869E-03     19.7465E-03
            6366            6352     20.4804E-03     21.0073E-03
            6384            6352     20.4804E-03     21.0073E-03
            6365            6352     20.4804E-03     21.0073E-03
            6383            6352     20.4804E-03     21.0073E-03
            6367            6353     21.9847E-03     22.3682E-03
            6384            6353     21.9847E-03     22.3682E-03
            6366            6353     21.9847E-03     22.3682E-03
            6385            6353     21.9847E-03     22.3682E-03
            6367            6354     23.8377E-03     24.1500E-03
            6386            6354     23.8377E-03     24.1500E-03
            6368            6354     23.8377E-03     24.1500E-03
            6385            6354     23.8377E-03     24.1500E-03
            6369            6355     6.44159E-03     6.13895E-03
            6387            6355     6.44159E-03     6.13895E-03
            6388            6355     6.44159E-03     6.13895E-03
            6370            6355     6.44159E-03     6.13895E-03
            6371            6356     6.73886E-03     6.64458E-03
            6389            6356     6.73886E-03     6.64458E-03
            6370            6356     6.73886E-03     6.64458E-03
            6388            6356     6.73886E-03     6.64458E-03
            6372            6357     7.26810E-03     7.31930E-03
            6390            6357     7.26810E-03     7.31930E-03
            6389            6357     7.26810E-03     7.31930E-03
            6371            6357     7.26810E-03     7.31930E-03
            6390            6358     7.99689E-03     8.14458E-03
            6372            6358     7.99689E-03     8.14458E-03
            6391            6358     7.99689E-03     8.14458E-03
            6373            6358     7.99689E-03     8.14458E-03
            6391            6359     8.87864E-03     9.06368E-03
            6373            6359     8.87864E-03     9.06368E-03
            6392            6359     8.87864E-03     9.06368E-03
            6374            6359     8.87864E-03     9.06368E-03
            6393            6360     9.87643E-03     10.0669E-03
            6392            6360     9.87643E-03     10.0669E-03
            6374            6360     9.87643E-03     10.0669E-03
            6375            6360     9.87643E-03     10.0669E-03
            6393            6361     10.9499E-03     11.1446E-03
            6375            6361     10.9499E-03     11.1446E-03
            6376            6361     10.9499E-03     11.1446E-03
            6394            6361     10.9499E-03     11.1446E-03
            6377            6362     12.0785E-03     12.2805E-03
            6394            6362     12.0785E-03     12.2805E-03
            6395            6362     12.0785E-03     12.2805E-03
            6376            6362     12.0785E-03     12.2805E-03
            6395            6363     13.2398E-03     13.4570E-03
            6377            6363     13.2398E-03     13.4570E-03
            6396            6363     13.2398E-03     13.4570E-03
            6378            6363     13.2398E-03     13.4570E-03
            6396            6364     14.4212E-03     14.6605E-03
            6397            6364     14.4212E-03     14.6605E-03
            6378            6364     14.4212E-03     14.6605E-03
            6379            6364     14.4212E-03     14.6605E-03
            6379            6365     15.5832E-03     15.8604E-03
            6380            6365     15.5832E-03     15.8604E-03
            6398            6365     15.5832E-03     15.8604E-03
            6397            6365     15.5832E-03     15.8604E-03
            6399            6366     16.7101E-03     17.0271E-03
            6380            6366     16.7101E-03     17.0271E-03
            6398            6366     16.7101E-03     17.0271E-03
            6381            6366     16.7101E-03     17.0271E-03
            6382            6367     17.7168E-03     18.1029E-03
            6381            6367     17.7168E-03     18.1029E-03
            6400            6367     17.7168E-03     18.1029E-03
            6399            6367     17.7168E-03     18.1029E-03
            6383            6368     18.5745E-03     19.0152E-03
            6401            6368     18.5745E-03     19.0152E-03
            6400            6368     18.5745E-03     19.0152E-03
            6382            6368     18.5745E-03     19.0152E-03
            6383            6369     19.3329E-03     19.7685E-03
            6401            6369     19.3329E-03     19.7685E-03
            6384            6369     19.3329E-03     19.7685E-03
            6402            6369     19.3329E-03     19.7685E-03
            6384            6370     20.1549E-03     20.5410E-03
            6403            6370     20.1549E-03     20.5410E-03
            6385            6370     20.1549E-03     20.5410E-03
            6402            6370     20.1549E-03     20.5410E-03
            6385            6371     21.5361E-03     21.7234E-03
            6403            6371     21.5361E-03     21.7234E-03
            6404            6371     21.5361E-03     21.7234E-03
            6386            6371     21.5361E-03     21.7234E-03
            6405            6372     6.96569E-03     6.76570E-03
            6406            6372     6.96569E-03     6.76570E-03
            6388            6372     6.96569E-03     6.76570E-03
            6387            6372     6.96569E-03     6.76570E-03
            6388            6373     7.23666E-03     7.18109E-03
            6389            6373     7.23666E-03     7.18109E-03
            6407            6373     7.23666E-03     7.18109E-03
            6406            6373     7.23666E-03     7.18109E-03
            6389            6374     7.72759E-03     7.80240E-03
            6407            6374     7.72759E-03     7.80240E-03
            6408            6374     7.72759E-03     7.80240E-03
            6390            6374     7.72759E-03     7.80240E-03
            6409            6375     8.41033E-03     8.51540E-03
            6391            6375     8.41033E-03     8.51540E-03
            6390            6375     8.41033E-03     8.51540E-03
            6408            6375     8.41033E-03     8.51540E-03
            6409            6376     9.26107E-03     9.32141E-03
            6392            6376     9.26107E-03     9.32141E-03
            6410            6376     9.26107E-03     9.32141E-03
            6391            6376     9.26107E-03     9.32141E-03
            6410            6377     10.2122E-03     10.2382E-03
            6393            6377     10.2122E-03     10.2382E-03
            6392            6377     10.2122E-03     10.2382E-03
            6411            6377     10.2122E-03     10.2382E-03
            6411            6378     11.2324E-03     11.2382E-03
            6394            6378     11.2324E-03     11.2382E-03
            6412            6378     11.2324E-03     11.2382E-03
            6393            6378     11.2324E-03     11.2382E-03
            6412            6379     12.3016E-03     12.2993E-03
            6394            6379     12.3016E-03     12.2993E-03
            6395            6379     12.3016E-03     12.2993E-03
            6413            6379     12.3016E-03     12.2993E-03
            6396            6380     13.4023E-03     13.4021E-03
            6413            6380     13.4023E-03     13.4021E-03
            6395            6380     13.4023E-03     13.4021E-03
            6414            6380     13.4023E-03     13.4021E-03
            6397            6381     14.5027E-03     14.5176E-03
            6415            6381     14.5027E-03     14.5176E-03
            6414            6381     14.5027E-03     14.5176E-03
            6396            6381     14.5027E-03     14.5176E-03
            6416            6382     15.5784E-03     15.6166E-03
            6415            6382     15.5784E-03     15.6166E-03
            6398            6382     15.5784E-03     15.6166E-03
            6397            6382     15.5784E-03     15.6166E-03
            6399            6383     16.5531E-03     16.6427E-03
            6398            6383     16.5531E-03     16.6427E-03
            6417            6383     16.5531E-03     16.6427E-03
            6416            6383     16.5531E-03     16.6427E-03
            6417            6384     17.3648E-03     17.5212E-03
            6418            6384     17.3648E-03     17.5212E-03
            6400            6384     17.3648E-03     17.5212E-03
            6399            6384     17.3648E-03     17.5212E-03
            6419            6385     17.8842E-03     18.1443E-03
            6401            6385     17.8842E-03     18.1443E-03
            6418            6385     17.8842E-03     18.1443E-03
            6400            6385     17.8842E-03     18.1443E-03
            6420            6386     18.0834E-03     18.4412E-03
            6402            6386     18.0834E-03     18.4412E-03
            6401            6386     18.0834E-03     18.4412E-03
            6419            6386     18.0834E-03     18.4412E-03
            6402            6387     18.3037E-03     18.5977E-03
            6421            6387     18.3037E-03     18.5977E-03
            6420            6387     18.3037E-03     18.5977E-03
            6403            6387     18.3037E-03     18.5977E-03
            6403            6388     19.0989E-03     19.2453E-03
            6421            6388     19.0989E-03     19.2453E-03
            6404            6388     19.0989E-03     19.2453E-03
            6422            6388     19.0989E-03     19.2453E-03
            6406            6389     7.50313E-03     7.35932E-03
            6424            6389     7.50313E-03     7.35932E-03
            6423            6389     7.50313E-03     7.35932E-03
            6405            6389     7.50313E-03     7.35932E-03
            6425            6390     7.72315E-03     7.83548E-03
            6407            6390     7.72315E-03     7.83548E-03
            6424            6390     7.72315E-03     7.83548E-03
            6406            6390     7.72315E-03     7.83548E-03
            6408            6391     8.15002E-03     8.32433E-03
            6426            6391     8.15002E-03     8.32433E-03
            6407            6391     8.15002E-03     8.32433E-03
            6425            6391     8.15002E-03     8.32433E-03
            6408            6392     8.83177E-03     8.86286E-03
            6409            6392     8.83177E-03     8.86286E-03
            6427            6392     8.83177E-03     8.86286E-03
            6426            6392     8.83177E-03     8.86286E-03
            6427            6393     9.63584E-03     9.55773E-03
            6428            6393     9.63584E-03     9.55773E-03
            6409            6393     9.63584E-03     9.55773E-03
            6410            6393     9.63584E-03     9.55773E-03
            6428            6394     10.5128E-03     10.3706E-03
            6429            6394     10.5128E-03     10.3706E-03
            6411            6394     10.5128E-03     10.3706E-03
            6410            6394     10.5128E-03     10.3706E-03
            6411            6395     11.4522E-03     11.2681E-03
            6430            6395     11.4522E-03     11.2681E-03
            6429            6395     11.4522E-03     11.2681E-03
            6412            6395     11.4522E-03     11.2681E-03
            6430            6396     12.4328E-03     12.2259E-03
            6412            6396     12.4328E-03     12.2259E-03
            6413            6396     12.4328E-03     12.2259E-03
            6431            6396     12.4328E-03     12.2259E-03
            6414            6397     13.4339E-03     13.2150E-03
            6432            6397     13.4339E-03     13.2150E-03
            6431            6397     13.4339E-03     13.2150E-03
            6413            6397     13.4339E-03     13.2150E-03
            6415            6398     14.4329E-03     14.2087E-03
            6414            6398     14.4329E-03     14.2087E-03
            6432            6398     14.4329E-03     14.2087E-03
            6433            6398     14.4329E-03     14.2087E-03
            6416            6399     15.3806E-03     15.1664E-03
            6433            6399     15.3806E-03     15.1664E-03
            6415            6399     15.3806E-03     15.1664E-03
            6434            6399     15.3806E-03     15.1664E-03
            6417            6400     16.2256E-03     16.0335E-03
            6434            6400     16.2256E-03     16.0335E-03
            6435            6400     16.2256E-03     16.0335E-03
            6416            6400     16.2256E-03     16.0335E-03
            6435            6401     16.8573E-03     16.7220E-03
            6418            6401     16.8573E-03     16.7220E-03
            6436            6401     16.8573E-03     16.7220E-03
            6417            6401     16.8573E-03     16.7220E-03
            6436            6402     17.1596E-03     17.1227E-03
            6419            6402     17.1596E-03     17.1227E-03
            6437            6402     17.1596E-03     17.1227E-03
            6418            6402     17.1596E-03     17.1227E-03
            6438            6403     16.9293E-03     17.0538E-03
            6420            6403     16.9293E-03     17.0538E-03
            6437            6403     16.9293E-03     17.0538E-03
            6419            6403     16.9293E-03     17.0538E-03
            6439            6404     16.3465E-03     16.5901E-03
            6420            6404     16.3465E-03     16.5901E-03
            6438            6404     16.3465E-03     16.5901E-03
            6421            6404     16.3465E-03     16.5901E-03
            6440            6405     16.5680E-03     16.5907E-03
            6439            6405     16.5680E-03     16.5907E-03
            6421            6405     16.5680E-03     16.5907E-03
            6422            6405     16.5680E-03     16.5907E-03
            6442            6406     8.00699E-03     8.30238E-03
            6423            6406     8.00699E-03     8.30238E-03
            6424            6406     8.00699E-03     8.30238E-03
            6441            6406     8.00699E-03     8.30238E-03
            6442            6407     8.11953E-03     8.57986E-03
            6443            6407     8.11953E-03     8.57986E-03
            6425            6407     8.11953E-03     8.57986E-03
            6424            6407     8.11953E-03     8.57986E-03
            6425            6408     8.64812E-03     8.78712E-03
            6426            6408     8.64812E-03     8.78712E-03
            6444            6408     8.64812E-03     8.78712E-03
            6443            6408     8.64812E-03     8.78712E-03
            6445            6409     9.31381E-03     9.20575E-03
            6426            6409     9.31381E-03     9.20575E-03
            6444            6409     9.31381E-03     9.20575E-03
            6427            6409     9.31381E-03     9.20575E-03
            6445            6410     10.0309E-03     9.79943E-03
            6428            6410     10.0309E-03     9.79943E-03
            6427            6410     10.0309E-03     9.79943E-03
            6446            6410     10.0309E-03     9.79943E-03
            6429            6411     10.8130E-03     10.4991E-03
            6428            6411     10.8130E-03     10.4991E-03
            6446            6411     10.8130E-03     10.4991E-03
            6447            6411     10.8130E-03     10.4991E-03
            6430            6412     11.6409E-03     11.2772E-03
            6429            6412     11.6409E-03     11.2772E-03
            6447            6412     11.6409E-03     11.2772E-03
            6448            6412     11.6409E-03     11.2772E-03
            6448            6413     12.5000E-03     12.0993E-03
            6431            6413     12.5000E-03     12.0993E-03
            6449            6413     12.5000E-03     12.0993E-03
            6430            6413     12.5000E-03     12.0993E-03
            6431            6414     13.3712E-03     12.9393E-03
            6449            6414     13.3712E-03     12.9393E-03
            6450            6414     13.3712E-03     12.9393E-03
            6432            6414     13.3712E-03     12.9393E-03
            6433            6415     14.2233E-03     13.7660E-03
            6450            6415     14.2233E-03     13.7660E-03
            6451            6415     14.2233E-03     13.7660E-03
            6432            6415     14.2233E-03     13.7660E-03
            6433            6416     15.0202E-03     14.5388E-03
            6451            6416     15.0202E-03     14.5388E-03
            6452            6416     15.0202E-03     14.5388E-03
            6434            6416     15.0202E-03     14.5388E-03
            6434            6417     15.7019E-03     15.2048E-03
            6435            6417     15.7019E-03     15.2048E-03
            6453            6417     15.7019E-03     15.2048E-03
            6452            6417     15.7019E-03     15.2048E-03
            6453            6418     16.1800E-03     15.6847E-03
            6436            6418     16.1800E-03     15.6847E-03
            6454            6418     16.1800E-03     15.6847E-03
            6435            6418     16.1800E-03     15.6847E-03
            6454            6419     16.3216E-03     15.8575E-03
            6436            6419     16.3216E-03     15.8575E-03
            6455            6419     16.3216E-03     15.8575E-03
            6437            6419     16.3216E-03     15.8575E-03
            6437            6420     15.9301E-03     15.5763E-03
            6438            6420     15.9301E-03     15.5763E-03
            6456            6420     15.9301E-03     15.5763E-03
            6455            6420     15.9301E-03     15.5763E-03
            6457            6421     14.6457E-03     14.5313E-03
            6439            6421     14.6457E-03     14.5313E-03
            6456            6421     14.6457E-03     14.5313E-03
            6438            6421     14.6457E-03     14.5313E-03
            6457            6422     13.8258E-03     13.7674E-03
            6458            6422     13.8258E-03     13.7674E-03
            6439            6422     13.8258E-03     13.7674E-03
            6440            6422     13.8258E-03     13.7674E-03
            6460            6423     8.31277E-03     9.24933E-03
            6459            6423     8.31277E-03     9.24933E-03
            6442            6423     8.31277E-03     9.24933E-03
            6441            6423     8.31277E-03     9.24933E-03
            6460            6424     8.75700E-03     9.07275E-03
            6442            6424     8.75700E-03     9.07275E-03
            6461            6424     8.75700E-03     9.07275E-03
            6443            6424     8.75700E-03     9.07275E-03
            6461            6425     9.31044E-03     9.19744E-03
            6443            6425     9.31044E-03     9.19744E-03
            6444            6425     9.31044E-03     9.19744E-03
            6462            6425     9.31044E-03     9.19744E-03
            6445            6426     9.87336E-03     9.58433E-03
            6463            6426     9.87336E-03     9.58433E-03
            6462            6426     9.87336E-03     9.58433E-03
            6444            6426     9.87336E-03     9.58433E-03
            6445            6427     10.4833E-03     10.0912E-03
            6446            6427     10.4833E-03     10.0912E-03
            6463            6427     10.4833E-03     10.0912E-03
            6464            6427     10.4833E-03     10.0912E-03
            6465            6428     11.1489E-03     10.6843E-03
            6464            6428     11.1489E-03     10.6843E-03
            6446            6428     11.1489E-03     10.6843E-03
            6447            6428     11.1489E-03     10.6843E-03
            6466            6429     11.8469E-03     11.3289E-03
            6465            6429     11.8469E-03     11.3289E-03
            6448            6429     11.8469E-03     11.3289E-03
            6447            6429     11.8469E-03     11.3289E-03
            6448            6430     12.5649E-03     11.9950E-03
            6466            6430     12.5649E-03     11.9950E-03
            6467            6430     12.5649E-03     11.9950E-03
            6449            6430     12.5649E-03     11.9950E-03
            6468            6431     13.2736E-03     12.6563E-03
            6449            6431     13.2736E-03     12.6563E-03
            6450            6431     13.2736E-03     12.6563E-03
            6467            6431     13.2736E-03     12.6563E-03
            6451            6432     13.9468E-03     13.2755E-03
            6468            6432     13.9468E-03     13.2755E-03
            6450            6432     13.9468E-03     13.2755E-03
            6469            6432     13.9468E-03     13.2755E-03
            6470            6433     14.5469E-03     13.8183E-03
            6452            6433     14.5469E-03     13.8183E-03
            6469            6433     14.5469E-03     13.8183E-03
            6451            6433     14.5469E-03     13.8183E-03
            6453            6434     15.0199E-03     14.2240E-03
            6452            6434     15.0199E-03     14.2240E-03
            6470            6434     15.0199E-03     14.2240E-03
            6471            6434     15.0199E-03     14.2240E-03
            6453            6435     15.3098E-03     14.4335E-03
            6471            6435     15.3098E-03     14.4335E-03
            6454            6435     15.3098E-03     14.4335E-03
            6472            6435     15.3098E-03     14.4335E-03
            6473            6436     15.2879E-03     14.3308E-03
            6455            6436     15.2879E-03     14.3308E-03
            6472            6436     15.2879E-03     14.3308E-03
            6454            6436     15.2879E-03     14.3308E-03
            6455            6437     14.8428E-03     13.7952E-03
            6474            6437     14.8428E-03     13.7952E-03
            6473            6437     14.8428E-03     13.7952E-03
            6456            6437     14.8428E-03     13.7952E-03
            6474            6438     13.5366E-03     12.4908E-03
            6475            6438     13.5366E-03     12.4908E-03
            6456            6438     13.5366E-03     12.4908E-03
            6457            6438     13.5366E-03     12.4908E-03
            6458            6439     11.5451E-03     10.7535E-03
            6457            6439     11.5451E-03     10.7535E-03
            6475            6439     11.5451E-03     10.7535E-03
            6476            6439     11.5451E-03     10.7535E-03
            6460            6440     6.32899E-03     7.11719E-03
            6459            6440     6.32899E-03     7.11719E-03
            6478            6440     6.32899E-03     7.11719E-03
            6477            6440     6.32899E-03     7.11719E-03
            6478            6441     6.81556E-03     6.98001E-03
            6479            6441     6.81556E-03     6.98001E-03
            6460            6441     6.81556E-03     6.98001E-03
            6461            6441     6.81556E-03     6.98001E-03
            6461            6442     7.05387E-03     7.08717E-03
            6462            6442     7.05387E-03     7.08717E-03
            6479            6442     7.05387E-03     7.08717E-03
            6480            6442     7.05387E-03     7.08717E-03
            6480            6443     7.31367E-03     7.36816E-03
            6463            6443     7.31367E-03     7.36816E-03
            6481            6443     7.31367E-03     7.36816E-03
            6462            6443     7.31367E-03     7.36816E-03
            6464            6444     7.59715E-03     7.66687E-03
            6463            6444     7.59715E-03     7.66687E-03
            6481            6444     7.59715E-03     7.66687E-03
            6482            6444     7.59715E-03     7.66687E-03
            6465            6445     7.92392E-03     8.01598E-03
            6464            6445     7.92392E-03     8.01598E-03
            6483            6445     7.92392E-03     8.01598E-03
            6482            6445     7.92392E-03     8.01598E-03
            6465            6446     8.27399E-03     8.38504E-03
            6466            6446     8.27399E-03     8.38504E-03
            6483            6446     8.27399E-03     8.38504E-03
            6484            6446     8.27399E-03     8.38504E-03
            6466            6447     8.64046E-03     8.76863E-03
            6467            6447     8.64046E-03     8.76863E-03
            6484            6447     8.64046E-03     8.76863E-03
            6485            6447     8.64046E-03     8.76863E-03
            6485            6448     9.00663E-03     9.14551E-03
            6486            6448     9.00663E-03     9.14551E-03
            6468            6448     9.00663E-03     9.14551E-03
            6467            6448     9.00663E-03     9.14551E-03
            6468            6449     9.36185E-03     9.50439E-03
            6487            6449     9.36185E-03     9.50439E-03
            6469            6449     9.36185E-03     9.50439E-03
            6486            6449     9.36185E-03     9.50439E-03
            6469            6450     9.67843E-03     9.81359E-03
            6487            6450     9.67843E-03     9.81359E-03
            6470            6450     9.67843E-03     9.81359E-03
            6488            6450     9.67843E-03     9.81359E-03
            6471            6451     9.94092E-03     10.0560E-03
            6489            6451     9.94092E-03     10.0560E-03
            6470            6451     9.94092E-03     10.0560E-03
            6488            6451     9.94092E-03     10.0560E-03
            6489            6452     10.0923E-03     10.1737E-03
            6490            6452     10.0923E-03     10.1737E-03
            6471            6452     10.0923E-03     10.1737E-03
            6472            6452     10.0923E-03     10.1737E-03
            6473            6453     10.1010E-03     10.1395E-03
            6491            6453     10.1010E-03     10.1395E-03
            6490            6453     10.1010E-03     10.1395E-03
            6472            6453     10.1010E-03     10.1395E-03
            6473            6454     9.89335E-03     9.88876E-03
            6492            6454     9.89335E-03     9.88876E-03
            6474            6454     9.89335E-03     9.88876E-03
            6491            6454     9.89335E-03     9.88876E-03
            6493            6455     9.61972E-03     9.62453E-03
            6475            6455     9.61972E-03     9.62453E-03
            6492            6455     9.61972E-03     9.62453E-03
            6474            6455     9.61972E-03     9.62453E-03
            6494            6456     10.0914E-03     10.5134E-03
            6493            6456     10.0914E-03     10.5134E-03
            6476            6456     10.0914E-03     10.5134E-03
            6475            6456     10.0914E-03     10.5134E-03
            6477            6457     4.51458E-03     4.75331E-03
            6496            6457     4.51458E-03     4.75331E-03
            6478            6457     4.51458E-03     4.75331E-03
            6495            6457     4.51458E-03     4.75331E-03
            6479            6458     4.52752E-03     4.74025E-03
            6497            6458     4.52752E-03     4.74025E-03
            6478            6458     4.52752E-03     4.74025E-03
            6496            6458     4.52752E-03     4.74025E-03
            6480            6459     4.55277E-03     4.82019E-03
            6479            6459     4.55277E-03     4.82019E-03
            6498            6459     4.55277E-03     4.82019E-03
            6497            6459     4.55277E-03     4.82019E-03
            6480            6460     4.56662E-03     4.94256E-03
            6499            6460     4.56662E-03     4.94256E-03
            6498            6460     4.56662E-03     4.94256E-03
            6481            6460     4.56662E-03     4.94256E-03
            6500            6461     4.60047E-03     5.06013E-03
            6481            6461     4.60047E-03     5.06013E-03
            6482            6461     4.60047E-03     5.06013E-03
            6499            6461     4.60047E-03     5.06013E-03
            6500            6462     4.66071E-03     5.20126E-03
            6482            6462     4.66071E-03     5.20126E-03
            6501            6462     4.66071E-03     5.20126E-03
            6483            6462     4.66071E-03     5.20126E-03
            6502            6463     4.74053E-03     5.35212E-03
            6501            6463     4.74053E-03     5.35212E-03
            6484            6463     4.74053E-03     5.35212E-03
            6483            6463     4.74053E-03     5.35212E-03
            6485            6464     4.83930E-03     5.52139E-03
            6484            6464     4.83930E-03     5.52139E-03
            6502            6464     4.83930E-03     5.52139E-03
            6503            6464     4.83930E-03     5.52139E-03
            6503            6465     4.96002E-03     5.70054E-03
            6485            6465     4.96002E-03     5.70054E-03
            6486            6465     4.96002E-03     5.70054E-03
            6504            6465     4.96002E-03     5.70054E-03
            6504            6466     5.09784E-03     5.89710E-03
            6487            6466     5.09784E-03     5.89710E-03
            6505            6466     5.09784E-03     5.89710E-03
            6486            6466     5.09784E-03     5.89710E-03
            6488            6467     5.25767E-03     6.10096E-03
            6487            6467     5.25767E-03     6.10096E-03
            6505            6467     5.25767E-03     6.10096E-03
            6506            6467     5.25767E-03     6.10096E-03
            6506            6468     5.43239E-03     6.31916E-03
            6488            6468     5.43239E-03     6.31916E-03
            6489            6468     5.43239E-03     6.31916E-03
            6507            6468     5.43239E-03     6.31916E-03
            6490            6469     5.60326E-03     6.52762E-03
            6489            6469     5.60326E-03     6.52762E-03
            6508            6469     5.60326E-03     6.52762E-03
            6507            6469     5.60326E-03     6.52762E-03
            6508            6470     5.79204E-03     6.76063E-03
            6491            6470     5.79204E-03     6.76063E-03
            6509            6470     5.79204E-03     6.76063E-03
            6490            6470     5.79204E-03     6.76063E-03
            6509            6471     5.86455E-03     6.95412E-03
            6510            6471     5.86455E-03     6.95412E-03
            6492            6471     5.86455E-03     6.95412E-03
            6491            6471     5.86455E-03     6.95412E-03
            6493            6472     6.49613E-03     7.63315E-03
            6511            6472     6.49613E-03     7.63315E-03
            6510            6472     6.49613E-03     7.63315E-03
            6492            6472     6.49613E-03     7.63315E-03
            6494            6473     9.19416E-03     10.2052E-03
            6512            6473     9.19416E-03     10.2052E-03
            6511            6473     9.19416E-03     10.2052E-03
            6493            6473     9.19416E-03     10.2052E-03
            6514            6474     5.02343E-03     4.55929E-03
            6513            6474     5.02343E-03     4.55929E-03
            6495            6474     5.02343E-03     4.55929E-03
            6496            6474     5.02343E-03     4.55929E-03
            6496            6475     4.84590E-03     4.81766E-03
            6515            6475     4.84590E-03     4.81766E-03
            6497            6475     4.84590E-03     4.81766E-03
            6514            6475     4.84590E-03     4.81766E-03
            6515            6476     4.77835E-03     4.91092E-03
            6498            6476     4.77835E-03     4.91092E-03
            6516            6476     4.77835E-03     4.91092E-03
            6497            6476     4.77835E-03     4.91092E-03
            6516            6477     4.81792E-03     4.95794E-03
            6498            6477     4.81792E-03     4.95794E-03
            6499            6477     4.81792E-03     4.95794E-03
            6517            6477     4.81792E-03     4.95794E-03
            6518            6478     4.88236E-03     5.04894E-03
            6517            6478     4.88236E-03     5.04894E-03
            6499            6478     4.88236E-03     5.04894E-03
            6500            6478     4.88236E-03     5.04894E-03
            6519            6479     4.96113E-03     5.15732E-03
            6518            6479     4.96113E-03     5.15732E-03
            6500            6479     4.96113E-03     5.15732E-03
            6501            6479     4.96113E-03     5.15732E-03
            6520            6480     5.06086E-03     5.28520E-03
            6501            6480     5.06086E-03     5.28520E-03
            6502            6480     5.06086E-03     5.28520E-03
            6519            6480     5.06086E-03     5.28520E-03
            6503            6481     5.17722E-03     5.42514E-03
            6520            6481     5.17722E-03     5.42514E-03
            6502            6481     5.17722E-03     5.42514E-03
            6521            6481     5.17722E-03     5.42514E-03
            6521            6482     5.30998E-03     5.58223E-03
            6522            6482     5.30998E-03     5.58223E-03
            6503            6482     5.30998E-03     5.58223E-03
            6504            6482     5.30998E-03     5.58223E-03
            6522            6483     5.46097E-03     5.75181E-03
            6523            6483     5.46097E-03     5.75181E-03
            6504            6483     5.46097E-03     5.75181E-03
            6505            6483     5.46097E-03     5.75181E-03
            6523            6484     5.63317E-03     5.94387E-03
            6505            6484     5.63317E-03     5.94387E-03
            6506            6484     5.63317E-03     5.94387E-03
            6524            6484     5.63317E-03     5.94387E-03
            6524            6485     5.83181E-03     6.15704E-03
            6525            6485     5.83181E-03     6.15704E-03
            6506            6485     5.83181E-03     6.15704E-03
            6507            6485     5.83181E-03     6.15704E-03
            6507            6486     6.07118E-03     6.40906E-03
            6525            6486     6.07118E-03     6.40906E-03
            6508            6486     6.07118E-03     6.40906E-03
            6526            6486     6.07118E-03     6.40906E-03
            6526            6487     6.33224E-03     6.68420E-03
            6508            6487     6.33224E-03     6.68420E-03
            6527            6487     6.33224E-03     6.68420E-03
            6509            6487     6.33224E-03     6.68420E-03
            6528            6488     6.55548E-03     6.93057E-03
            6527            6488     6.55548E-03     6.93057E-03
            6510            6488     6.55548E-03     6.93057E-03
            6509            6488     6.55548E-03     6.93057E-03
            6528            6489     6.59420E-03     7.00825E-03
            6529            6489     6.59420E-03     7.00825E-03
            6510            6489     6.59420E-03     7.00825E-03
            6511            6489     6.59420E-03     7.00825E-03
            6529            6490     7.31183E-03     7.26397E-03
            6512            6490     7.31183E-03     7.26397E-03
            6511            6490     7.31183E-03     7.26397E-03
            6530            6490     7.31183E-03     7.26397E-03
            6514            6491     5.21251E-03     4.76602E-03
            6532            6491     5.21251E-03     4.76602E-03
            6531            6491     5.21251E-03     4.76602E-03
            6513            6491     5.21251E-03     4.76602E-03
            6514            6492     5.06005E-03     4.96027E-03
            6532            6492     5.06005E-03     4.96027E-03
            6533            6492     5.06005E-03     4.96027E-03
            6515            6492     5.06005E-03     4.96027E-03
            6516            6493     5.03712E-03     5.00122E-03
            6533            6493     5.03712E-03     5.00122E-03
            6515            6493     5.03712E-03     5.00122E-03
            6534            6493     5.03712E-03     5.00122E-03
            6534            6494     5.10608E-03     5.02008E-03
            6517            6494     5.10608E-03     5.02008E-03
            6535            6494     5.10608E-03     5.02008E-03
            6516            6494     5.10608E-03     5.02008E-03
            6535            6495     5.19088E-03     5.08100E-03
            6518            6495     5.19088E-03     5.08100E-03
            6517            6495     5.19088E-03     5.08100E-03
            6536            6495     5.19088E-03     5.08100E-03
            6537            6496     5.29056E-03     5.16036E-03
            6519            6496     5.29056E-03     5.16036E-03
            6536            6496     5.29056E-03     5.16036E-03
            6518            6496     5.29056E-03     5.16036E-03
            6520            6497     5.40525E-03     5.25753E-03
            6537            6497     5.40525E-03     5.25753E-03
            6538            6497     5.40525E-03     5.25753E-03
            6519            6497     5.40525E-03     5.25753E-03
            6520            6498     5.53403E-03     5.36835E-03
            6521            6498     5.53403E-03     5.36835E-03
            6539            6498     5.53403E-03     5.36835E-03
            6538            6498     5.53403E-03     5.36835E-03
            6521            6499     5.67466E-03     5.49232E-03
            6522            6499     5.67466E-03     5.49232E-03
            6539            6499     5.67466E-03     5.49232E-03
            6540            6499     5.67466E-03     5.49232E-03
            6522            6500     5.83007E-03     5.63188E-03
            6540            6500     5.83007E-03     5.63188E-03
            6523            6500     5.83007E-03     5.63188E-03
            6541            6500     5.83007E-03     5.63188E-03
            6541            6501     6.00160E-03     5.78800E-03
            6523            6501     6.00160E-03     5.78800E-03
            6542            6501     6.00160E-03     5.78800E-03
            6524            6501     6.00160E-03     5.78800E-03
            6525            6502     6.19990E-03     5.97284E-03
            6542            6502     6.19990E-03     5.97284E-03
            6524            6502     6.19990E-03     5.97284E-03
            6543            6502     6.19990E-03     5.97284E-03
            6526            6503     6.43832E-03     6.20011E-03
            6543            6503     6.43832E-03     6.20011E-03
            6544            6503     6.43832E-03     6.20011E-03
            6525            6503     6.43832E-03     6.20011E-03
            6545            6504     6.67642E-03     6.41423E-03
            6526            6504     6.67642E-03     6.41423E-03
            6544            6504     6.67642E-03     6.41423E-03
            6527            6504     6.67642E-03     6.41423E-03
            6545            6505     6.89584E-03     6.58770E-03
            6546            6505     6.89584E-03     6.58770E-03
            6528            6505     6.89584E-03     6.58770E-03
            6527            6505     6.89584E-03     6.58770E-03
            6546            6506     5.98105E-03     5.86358E-03
            6547            6506     5.98105E-03     5.86358E-03
            6528            6506     5.98105E-03     5.86358E-03
            6529            6506     5.98105E-03     5.86358E-03
            6530            6507     4.81203E-03     4.81303E-03
            6529            6507     4.81203E-03     4.81303E-03
            6548            6507     4.81203E-03     4.81303E-03
            6547            6507     4.81203E-03     4.81303E-03
            6531            6508     5.08834E-03     5.29073E-03
            6549            6508     5.08834E-03     5.29073E-03
            6532            6508     5.08834E-03     5.29073E-03
            6550            6508     5.08834E-03     5.29073E-03
            6551            6509     5.20461E-03     5.13269E-03
            6550            6509     5.20461E-03     5.13269E-03
            6532            6509     5.20461E-03     5.13269E-03
            6533            6509     5.20461E-03     5.13269E-03
            6534            6510     5.32859E-03     5.09619E-03
            6533            6510     5.32859E-03     5.09619E-03
            6552            6510     5.32859E-03     5.09619E-03
            6551            6510     5.32859E-03     5.09619E-03
            6535            6511     5.42268E-03     5.12814E-03
            6534            6511     5.42268E-03     5.12814E-03
            6552            6511     5.42268E-03     5.12814E-03
            6553            6511     5.42268E-03     5.12814E-03
            6536            6512     5.52451E-03     5.15807E-03
            6535            6512     5.52451E-03     5.15807E-03
            6554            6512     5.52451E-03     5.15807E-03
            6553            6512     5.52451E-03     5.15807E-03
            6537            6513     5.64361E-03     5.21220E-03
            6536            6513     5.64361E-03     5.21220E-03
            6554            6513     5.64361E-03     5.21220E-03
            6555            6513     5.64361E-03     5.21220E-03
            6538            6514     5.77181E-03     5.27620E-03
            6537            6514     5.77181E-03     5.27620E-03
            6556            6514     5.77181E-03     5.27620E-03
            6555            6514     5.77181E-03     5.27620E-03
            6556            6515     5.90954E-03     5.35604E-03
            6557            6515     5.90954E-03     5.35604E-03
            6538            6515     5.90954E-03     5.35604E-03
            6539            6515     5.90954E-03     5.35604E-03
            6557            6516     6.05663E-03     5.44554E-03
            6539            6516     6.05663E-03     5.44554E-03
            6558            6516     6.05663E-03     5.44554E-03
            6540            6516     6.05663E-03     5.44554E-03
            6541            6517     6.20940E-03     5.54630E-03
            6540            6517     6.20940E-03     5.54630E-03
            6558            6517     6.20940E-03     5.54630E-03
            6559            6517     6.20940E-03     5.54630E-03
            6560            6518     6.36929E-03     5.65475E-03
            6559            6518     6.36929E-03     5.65475E-03
            6541            6518     6.36929E-03     5.65475E-03
            6542            6518     6.36929E-03     5.65475E-03
            6543            6519     6.53349E-03     5.76553E-03
            6542            6519     6.53349E-03     5.76553E-03
            6561            6519     6.53349E-03     5.76553E-03
            6560            6519     6.53349E-03     5.76553E-03
            6544            6520     6.67630E-03     5.86268E-03
            6543            6520     6.67630E-03     5.86268E-03
            6561            6520     6.67630E-03     5.86268E-03
            6562            6520     6.67630E-03     5.86268E-03
            6545            6521     6.76790E-03     5.88577E-03
            6544            6521     6.76790E-03     5.88577E-03
            6563            6521     6.76790E-03     5.88577E-03
            6562            6521     6.76790E-03     5.88577E-03
            6546            6522     6.50243E-03     5.57492E-03
            6545            6522     6.50243E-03     5.57492E-03
            6563            6522     6.50243E-03     5.57492E-03
            6564            6522     6.50243E-03     5.57492E-03
            6547            6523     5.37605E-03     4.42784E-03
            6546            6523     5.37605E-03     4.42784E-03
            6565            6523     5.37605E-03     4.42784E-03
            6564            6523     5.37605E-03     4.42784E-03
            6547            6524     3.76837E-03     3.83314E-03
            6565            6524     3.76837E-03     3.83314E-03
            6548            6524     3.76837E-03     3.83314E-03
            6566            6524     3.76837E-03     3.83314E-03


  Minimum                            6.42199E-15     8.66232E-15
      At Element                            5167            5147
            Node                             777            5283

  Maximum                            95.7088E-03     100.497E-03
      At Element                            3428            4066
            Node                             182               8

           Total                         189.669         194.643


Field Output reported at element nodes for region: A320-1.Region_2
   Computation algorithm: EXTRAPOLATE_COMPUTE_AVERAGE
   Averaged at nodes
   Averaging regions: ODB_REGIONS

   Element Label      Node Label         S.Mises         S.Mises
                                          @Loc 1          @Loc 2
-----------------------------------------------------------------
            2235               3     5.39064E-03     5.44493E-03
            1793               3     5.39064E-03     5.44493E-03
            2262               4     5.40063E-15     3.31876E-15
            3913               6     82.0506E-03     78.5317E-03
            2234               6     82.0506E-03     78.5317E-03
            3958               8     96.1126E-03     89.6512E-03
            3859               8     96.1126E-03     89.6512E-03
            3904              10     72.0952E-03     68.7575E-03
            5387              10     72.0952E-03     68.7575E-03
            5325              13     6.50006E-03     6.51447E-03
            5730              13     6.50006E-03     6.51447E-03
            5370              14     2.54643E-15     2.85666E-15
            5738              15     6.50006E-03     6.51447E-03
            5333              15     6.50006E-03     6.51447E-03
            1785              17     5.39064E-03     5.44493E-03
            2243              17     5.39064E-03     5.44493E-03
            2270              18     3.57878E-15     4.19772E-15
            2226              21     82.0506E-03     78.5317E-03
            3905              21     82.0506E-03     78.5317E-03
            3851              22     96.1126E-03     89.6512E-03
            3950              22     96.1126E-03     89.6512E-03
            3896              25     72.0952E-03     68.7575E-03
            5379              25     72.0952E-03     68.7575E-03
            5378              27     1.97939E-15     2.92480E-15
            2235              38     2.40050E-15     3.78752E-15
            2244              38     2.40050E-15     3.78752E-15
            2244              39     3.13951E-15     3.07279E-15
            2253              39     3.13951E-15     3.07279E-15
            2262              40     4.96514E-15     2.90554E-15
            2253              40     4.96514E-15     2.90554E-15
            2225             102     86.6397E-03     83.5470E-03
            2234             102     86.6397E-03     83.5470E-03
            2225             103     81.8840E-03     81.8105E-03
            2216             103     81.8840E-03     81.8105E-03
            2207             104     78.9108E-03     78.0644E-03
            2216             104     78.9108E-03     78.0644E-03
            2207             105     76.7275E-03     75.8837E-03
            2198             105     76.7275E-03     75.8837E-03
            2198             106     74.2466E-03     73.3199E-03
            2189             106     74.2466E-03     73.3199E-03
            2189             107     71.6875E-03     71.0983E-03
            2180             107     71.6875E-03     71.0983E-03
            2180             108     68.8219E-03     68.3511E-03
            2171             108     68.8219E-03     68.3511E-03
            2162             109     65.6209E-03     66.3181E-03
            2171             109     65.6209E-03     66.3181E-03
            2162             110     62.0204E-03     59.5769E-03
            2153             110     62.0204E-03     59.5769E-03
            2153             111     66.7189E-03     60.5276E-03
            2144             111     66.7189E-03     60.5276E-03
            2144             112     70.7298E-03     68.2719E-03
            2135             112     70.7298E-03     68.2719E-03
            2126             113     66.1089E-03     65.9637E-03
            2135             113     66.1089E-03     65.9637E-03
            2117             114     63.1359E-03     62.4454E-03
            2126             114     63.1359E-03     62.4454E-03
            2117             115     60.9431E-03     60.1579E-03
            2108             115     60.9431E-03     60.1579E-03
            2108             116     58.4971E-03     57.7284E-03
            2099             116     58.4971E-03     57.7284E-03
            2090             117     56.1398E-03     55.4256E-03
            2099             117     56.1398E-03     55.4256E-03
            2081             118     53.6385E-03     53.1380E-03
            2090             118     53.6385E-03     53.1380E-03
            2081             119     50.9124E-03     50.6161E-03
            2072             119     50.9124E-03     50.6161E-03
            2072             120     47.7885E-03     48.4065E-03
            2063             120     47.7885E-03     48.4065E-03
            2063             121     44.1658E-03     42.3895E-03
            2054             121     44.1658E-03     42.3895E-03
            2054             122     48.8090E-03     44.2820E-03
            2045             122     48.8090E-03     44.2820E-03
            2045             123     52.8561E-03     51.1060E-03
            2036             123     52.8561E-03     51.1060E-03
            2036             124     48.3940E-03     48.2238E-03
            2027             124     48.3940E-03     48.2238E-03
            2027             125     45.4117E-03     44.9069E-03
            2018             125     45.4117E-03     44.9069E-03
            2018             126     43.1590E-03     42.5938E-03
            2009             126     43.1590E-03     42.5938E-03
            2009             127     40.7296E-03     40.2071E-03
            2000             127     40.7296E-03     40.2071E-03
            1991             128     38.4031E-03     37.9360E-03
            2000             128     38.4031E-03     37.9360E-03
            1982             129     35.9535E-03     35.6725E-03
            1991             129     35.9535E-03     35.6725E-03
            1982             130     33.3561E-03     33.2523E-03
            1973             130     33.3561E-03     33.2523E-03
            1973             131     30.3471E-03     30.9508E-03
            1964             131     30.3471E-03     30.9508E-03
            1955             132     26.7424E-03     25.7276E-03
            1964             132     26.7424E-03     25.7276E-03
            1955             133     31.1821E-03     28.4292E-03
            1946             133     31.1821E-03     28.4292E-03
            1946             134     35.1891E-03     34.1607E-03
            1937             134     35.1891E-03     34.1607E-03
            1928             135     30.9333E-03     30.7709E-03
            1937             135     30.9333E-03     30.7709E-03
            1919             136     27.9976E-03     27.6981E-03
            1928             136     27.9976E-03     27.6981E-03
            1919             137     25.7496E-03     25.4174E-03
            1910             137     25.7496E-03     25.4174E-03
            1910             138     23.4181E-03     23.1490E-03
            1901             138     23.4181E-03     23.1490E-03
            1892             139     21.2236E-03     21.0131E-03
            1901             139     21.2236E-03     21.0131E-03
            1883             140     18.9763E-03     18.9226E-03
            1892             140     18.9763E-03     18.9226E-03
            1883             141     16.6996E-03     16.8235E-03
            1874             141     16.6996E-03     16.8235E-03
            1865             142     14.2249E-03     14.8416E-03
            1874             142     14.2249E-03     14.8416E-03
            1856             143     11.6249E-03     11.6643E-03
            1865             143     11.6249E-03     11.6643E-03
            1847             144     14.8979E-03     14.0966E-03
            1856             144     14.8979E-03     14.0966E-03
            1838             145     17.3651E-03     17.0166E-03
            1847             145     17.3651E-03     17.0166E-03
            1829             146     13.6215E-03     13.5744E-03
            1838             146     13.6215E-03     13.5744E-03
            1820             147     11.2358E-03     11.2442E-03
            1829             147     11.2358E-03     11.2442E-03
            1811             148     9.73713E-03     9.83103E-03
            1820             148     9.73713E-03     9.83103E-03
            1811             149     9.04985E-03     9.30245E-03
            1802             149     9.04985E-03     9.30245E-03
            1802             150     9.96951E-03     10.1688E-03
            1793             150     9.96951E-03     10.1688E-03
            3958             162     92.4029E-03     90.2206E-03
            3949             162     92.4029E-03     90.2206E-03
            3940             163     87.2174E-03     88.2813E-03
            3949             163     87.2174E-03     88.2813E-03
            3940             164     83.3647E-03     84.7772E-03
            3931             164     83.3647E-03     84.7772E-03
            3922             165     79.7507E-03     77.9419E-03
            3931             165     79.7507E-03     77.9419E-03
            3922             166     76.0450E-03     73.0122E-03
            3913             166     76.0450E-03     73.0122E-03
            3904             178     75.6055E-03     73.3490E-03
            3895             178     75.6055E-03     73.3490E-03
            3886             179     80.4534E-03     81.6688E-03
            3895             179     80.4534E-03     81.6688E-03
            3886             180     84.0238E-03     84.3038E-03
            3877             180     84.0238E-03     84.3038E-03
            3868             181     88.4805E-03     89.1370E-03
            3877             181     88.4805E-03     89.1370E-03
            3859             182     94.3158E-03     91.4247E-03
            3868             182     94.3158E-03     91.4247E-03
            5325             194     1.72379E-15     3.61945E-15
            5334             194     1.72379E-15     3.61945E-15
            5334             195     3.09032E-15     4.55768E-15
            5343             195     3.09032E-15     4.55768E-15
            5343             196     3.52826E-15     2.86106E-15
            5352             196     3.52826E-15     2.86106E-15
            5352             197     2.88101E-15     3.37672E-15
            5361             197     2.88101E-15     3.37672E-15
            5370             198     2.68367E-15     3.95286E-15
            5361             198     2.68367E-15     3.95286E-15
            5738             250     12.3825E-03     12.4772E-03
            5729             250     12.3825E-03     12.4772E-03
            5720             251     11.7602E-03     11.9635E-03
            5729             251     11.7602E-03     11.9635E-03
            5720             252     13.5169E-03     13.5964E-03
            5711             252     13.5169E-03     13.5964E-03
            5711             253     17.4898E-03     17.2416E-03
            5702             253     17.4898E-03     17.2416E-03
            5702             254     15.5807E-03     15.1164E-03
            5693             254     15.5807E-03     15.1164E-03
            5693             255     12.3503E-03     12.7084E-03
            5684             255     12.3503E-03     12.7084E-03
            5684             256     14.5555E-03     15.3075E-03
            5675             256     14.5555E-03     15.3075E-03
            5666             257     17.1407E-03     17.3752E-03
            5675             257     17.1407E-03     17.3752E-03
            5666             258     19.7156E-03     19.7180E-03
            5657             258     19.7156E-03     19.7180E-03
            5657             259     22.3204E-03     22.1363E-03
            5648             259     22.3204E-03     22.1363E-03
            5648             260     24.9160E-03     24.6508E-03
            5639             260     24.9160E-03     24.6508E-03
            5639             261     27.7012E-03     27.3545E-03
            5630             261     27.7012E-03     27.3545E-03
            5630             262     30.4230E-03     30.1145E-03
            5621             262     30.4230E-03     30.1145E-03
            5621             263     34.0044E-03     33.8112E-03
            5612             263     34.0044E-03     33.8112E-03
            5603             264     39.1662E-03     38.0601E-03
            5612             264     39.1662E-03     38.0601E-03
            5594             265     34.1556E-03     31.1286E-03
            5603             265     34.1556E-03     31.1286E-03
            5585             266     28.6046E-03     27.4864E-03
            5594             266     28.6046E-03     27.4864E-03
            5576             267     32.9103E-03     33.6793E-03
            5585             267     32.9103E-03     33.6793E-03
            5567             268     36.5198E-03     36.4404E-03
            5576             268     36.5198E-03     36.4404E-03
            5567             269     39.6254E-03     39.3655E-03
            5558             269     39.6254E-03     39.3655E-03
            5549             270     42.5558E-03     41.9952E-03
            5558             270     42.5558E-03     41.9952E-03
            5549             271     45.3507E-03     44.7751E-03
            5540             271     45.3507E-03     44.7751E-03
            5531             272     48.1345E-03     47.4594E-03
            5540             272     48.1345E-03     47.4594E-03
            5522             273     51.0304E-03     50.3765E-03
            5531             273     51.0304E-03     50.3765E-03
            5522             274     53.7594E-03     53.1705E-03
            5513             274     53.7594E-03     53.1705E-03
            5504             275     57.4154E-03     57.2022E-03
            5513             275     57.4154E-03     57.2022E-03
            5504             276     62.8572E-03     60.7912E-03
            5495             276     62.8572E-03     60.7912E-03
            5486             277     57.6082E-03     52.2602E-03
            5495             277     57.6082E-03     52.2602E-03
            5486             278     51.6518E-03     49.5329E-03
            5477             278     51.6518E-03     49.5329E-03
            5468             279     56.0931E-03     56.8674E-03
            5477             279     56.0931E-03     56.8674E-03
            5468             280     59.9185E-03     59.6216E-03
            5459             280     59.9185E-03     59.6216E-03
            5459             281     63.2498E-03     62.6990E-03
            5450             281     63.2498E-03     62.6990E-03
            5450             282     66.3138E-03     65.5001E-03
            5441             282     66.3138E-03     65.5001E-03
            5441             283     69.1991E-03     68.3093E-03
            5432             283     69.1991E-03     68.3093E-03
            5423             284     72.1849E-03     71.2695E-03
            5432             284     72.1849E-03     71.2695E-03
            5414             285     74.8797E-03     74.0800E-03
            5423             285     74.8797E-03     74.0800E-03
            5414             286     78.5499E-03     78.3602E-03
            5405             286     78.5499E-03     78.3602E-03
            5396             287     84.2220E-03     81.2569E-03
            5405             287     84.2220E-03     81.2569E-03
            5387             288     79.4397E-03     76.1719E-03
            5396             288     79.4397E-03     76.1719E-03
            2243             306     2.35747E-15     1.85804E-15
            2252             306     2.35747E-15     1.85804E-15
            2252             307     2.64334E-15     2.62572E-15
            2261             307     2.64334E-15     2.62572E-15
            2261             308     3.74873E-15     3.48598E-15
            2270             308     3.74873E-15     3.48598E-15
            1786             424     6.04377E-03     6.04988E-03
            2242             424     6.04377E-03     6.04988E-03
            2243             424     6.04377E-03     6.04988E-03
            1785             424     6.04377E-03     6.04988E-03
            1787             425     6.89984E-03     6.85459E-03
            2242             425     6.89984E-03     6.85459E-03
            2241             425     6.89984E-03     6.85459E-03
            1786             425     6.89984E-03     6.85459E-03
            2241             426     7.34178E-03     7.29342E-03
            2240             426     7.34178E-03     7.29342E-03
            1787             426     7.34178E-03     7.29342E-03
            1788             426     7.34178E-03     7.29342E-03
            2239             427     7.62019E-03     7.57754E-03
            2240             427     7.62019E-03     7.57754E-03
            1789             427     7.62019E-03     7.57754E-03
            1788             427     7.62019E-03     7.57754E-03
            2238             428     7.62019E-03     7.57754E-03
            1790             428     7.62019E-03     7.57754E-03
            2239             428     7.62019E-03     7.57754E-03
            1789             428     7.62019E-03     7.57754E-03
            1790             429     7.34178E-03     7.29342E-03
            2238             429     7.34178E-03     7.29342E-03
            2237             429     7.34178E-03     7.29342E-03
            1791             429     7.34178E-03     7.29342E-03
            1791             430     6.89984E-03     6.85459E-03
            1792             430     6.89984E-03     6.85459E-03
            2237             430     6.89984E-03     6.85459E-03
            2236             430     6.89984E-03     6.85459E-03
            1793             431     6.04377E-03     6.04988E-03
            2235             431     6.04377E-03     6.04988E-03
            2236             431     6.04377E-03     6.04988E-03
            1792             431     6.04377E-03     6.04988E-03
            2233             432     69.9591E-03     66.8497E-03
            3913             432     69.9591E-03     66.8497E-03
            3912             432     69.9591E-03     66.8497E-03
            2234             432     69.9591E-03     66.8497E-03
            2233             433     48.0916E-03     45.8704E-03
            2232             433     48.0916E-03     45.8704E-03
            3912             433     48.0916E-03     45.8704E-03
            3911             433     48.0916E-03     45.8704E-03
            3910             434     29.2524E-03     28.1218E-03
            3911             434     29.2524E-03     28.1218E-03
            2232             434     29.2524E-03     28.1218E-03
            2231             434     29.2524E-03     28.1218E-03
            3910             435     13.8100E-03     13.8477E-03
            2231             435     13.8100E-03     13.8477E-03
            3909             435     13.8100E-03     13.8477E-03
            2230             435     13.8100E-03     13.8477E-03
            2229             436     13.8100E-03     13.8477E-03
            2230             436     13.8100E-03     13.8477E-03
            3908             436     13.8100E-03     13.8477E-03
            3909             436     13.8100E-03     13.8477E-03
            2229             437     29.2524E-03     28.1218E-03
            3908             437     29.2524E-03     28.1218E-03
            2228             437     29.2524E-03     28.1218E-03
            3907             437     29.2524E-03     28.1218E-03
            2228             438     48.0916E-03     45.8704E-03
            2227             438     48.0916E-03     45.8704E-03
            3906             438     48.0916E-03     45.8704E-03
            3907             438     48.0916E-03     45.8704E-03
            2226             439     69.9591E-03     66.8497E-03
            2227             439     69.9591E-03     66.8497E-03
            3906             439     69.9591E-03     66.8497E-03
            3905             439     69.9591E-03     66.8497E-03
            2217             440     86.6397E-03     83.5470E-03
            2226             440     86.6397E-03     83.5470E-03
            2208             441     81.8840E-03     81.8105E-03
            2217             441     81.8840E-03     81.8105E-03
            2199             442     78.9108E-03     78.0644E-03
            2208             442     78.9108E-03     78.0644E-03
            2190             443     76.7275E-03     75.8837E-03
            2199             443     76.7275E-03     75.8837E-03
            2190             444     74.2466E-03     73.3199E-03
            2181             444     74.2466E-03     73.3199E-03
            2172             445     71.6875E-03     71.0983E-03
            2181             445     71.6875E-03     71.0983E-03
            2163             446     68.8219E-03     68.3511E-03
            2172             446     68.8219E-03     68.3511E-03
            2154             447     65.6209E-03     66.3181E-03
            2163             447     65.6209E-03     66.3181E-03
            2145             448     62.0204E-03     59.5769E-03
            2154             448     62.0204E-03     59.5769E-03
            2145             449     66.7189E-03     60.5276E-03
            2136             449     66.7189E-03     60.5276E-03
            2127             450     70.7298E-03     68.2719E-03
            2136             450     70.7298E-03     68.2719E-03
            2118             451     66.1089E-03     65.9637E-03
            2127             451     66.1089E-03     65.9637E-03
            2118             452     63.1359E-03     62.4454E-03
            2109             452     63.1359E-03     62.4454E-03
            2100             453     60.9431E-03     60.1579E-03
            2109             453     60.9431E-03     60.1579E-03
            2091             454     58.4971E-03     57.7284E-03
            2100             454     58.4971E-03     57.7284E-03
            2082             455     56.1398E-03     55.4256E-03
            2091             455     56.1398E-03     55.4256E-03
            2073             456     53.6385E-03     53.1380E-03
            2082             456     53.6385E-03     53.1380E-03
            2064             457     50.9124E-03     50.6161E-03
            2073             457     50.9124E-03     50.6161E-03
            2064             458     47.7885E-03     48.4065E-03
            2055             458     47.7885E-03     48.4065E-03
            2055             459     44.1658E-03     42.3895E-03
            2046             459     44.1658E-03     42.3895E-03
            2046             460     48.8090E-03     44.2820E-03
            2037             460     48.8090E-03     44.2820E-03
            2037             461     52.8561E-03     51.1060E-03
            2028             461     52.8561E-03     51.1060E-03
            2028             462     48.3940E-03     48.2238E-03
            2019             462     48.3940E-03     48.2238E-03
            2019             463     45.4117E-03     44.9069E-03
            2010             463     45.4117E-03     44.9069E-03
            2010             464     43.1590E-03     42.5938E-03
            2001             464     43.1590E-03     42.5938E-03
            2001             465     40.7296E-03     40.2071E-03
            1992             465     40.7296E-03     40.2071E-03
            1983             466     38.4031E-03     37.9360E-03
            1992             466     38.4031E-03     37.9360E-03
            1983             467     35.9535E-03     35.6725E-03
            1974             467     35.9535E-03     35.6725E-03
            1974             468     33.3561E-03     33.2523E-03
            1965             468     33.3561E-03     33.2523E-03
            1956             469     30.3471E-03     30.9508E-03
            1965             469     30.3471E-03     30.9508E-03
            1956             470     26.7424E-03     25.7276E-03
            1947             470     26.7424E-03     25.7276E-03
            1947             471     31.1821E-03     28.4292E-03
            1938             471     31.1821E-03     28.4292E-03
            1929             472     35.1891E-03     34.1607E-03
            1938             472     35.1891E-03     34.1607E-03
            1929             473     30.9333E-03     30.7709E-03
            1920             473     30.9333E-03     30.7709E-03
            1911             474     27.9976E-03     27.6981E-03
            1920             474     27.9976E-03     27.6981E-03
            1902             475     25.7496E-03     25.4174E-03
            1911             475     25.7496E-03     25.4174E-03
            1902             476     23.4181E-03     23.1490E-03
            1893             476     23.4181E-03     23.1490E-03
            1884             477     21.2236E-03     21.0131E-03
            1893             477     21.2236E-03     21.0131E-03
            1875             478     18.9763E-03     18.9226E-03
            1884             478     18.9763E-03     18.9226E-03
            1866             479     16.6996E-03     16.8235E-03
            1875             479     16.6996E-03     16.8235E-03
            1866             480     14.2249E-03     14.8416E-03
            1857             480     14.2249E-03     14.8416E-03
            1848             481     11.6249E-03     11.6643E-03
            1857             481     11.6249E-03     11.6643E-03
            1839             482     14.8979E-03     14.0966E-03
            1848             482     14.8979E-03     14.0966E-03
            1839             483     17.3651E-03     17.0166E-03
            1830             483     17.3651E-03     17.0166E-03
            1830             484     13.6215E-03     13.5744E-03
            1821             484     13.6215E-03     13.5744E-03
            1812             485     11.2358E-03     11.2442E-03
            1821             485     11.2358E-03     11.2442E-03
            1812             486     9.73713E-03     9.83103E-03
            1803             486     9.73713E-03     9.83103E-03
            1794             487     9.04985E-03     9.30245E-03
            1803             487     9.04985E-03     9.30245E-03
            1794             488     9.96951E-03     10.1688E-03
            1785             488     9.96951E-03     10.1688E-03
            2269             489     2.52595E-15     2.71752E-15
            2270             489     2.52595E-15     2.71752E-15
            2269             490     1.64415E-15     1.64500E-15
            2268             490     1.64415E-15     1.64500E-15
            2267             491     1.43290E-15     1.76862E-15
            2268             491     1.43290E-15     1.76862E-15
            2267             492     1.30382E-15     984.826E-18
            2266             492     1.30382E-15     984.826E-18
            2266             493     1.24797E-15     1.08038E-15
            2265             493     1.24797E-15     1.08038E-15
            2265             494     1.57648E-15     1.97341E-15
            2264             494     1.57648E-15     1.97341E-15
            2264             495     1.84006E-15     1.75598E-15
            2263             495     1.84006E-15     1.75598E-15
            2262             496     3.43336E-15     2.27978E-15
            2263             496     3.43336E-15     2.27978E-15
            3905             520     76.0450E-03     73.0122E-03
            3914             520     76.0450E-03     73.0122E-03
            3914             521     79.7507E-03     77.9419E-03
            3923             521     79.7507E-03     77.9419E-03
            3932             522     83.3647E-03     84.7772E-03
            3923             522     83.3647E-03     84.7772E-03
            3932             523     87.2174E-03     88.2813E-03
            3941             523     87.2174E-03     88.2813E-03
            3941             524     92.4029E-03     90.2206E-03
            3950             524     92.4029E-03     90.2206E-03
            3951             609     79.7469E-03     74.3854E-03
            3851             609     79.7469E-03     74.3854E-03
            3852             609     79.7469E-03     74.3854E-03
            3950             609     79.7469E-03     74.3854E-03
            3951             610     52.3088E-03     49.1070E-03
            3952             610     52.3088E-03     49.1070E-03
            3853             610     52.3088E-03     49.1070E-03
            3852             610     52.3088E-03     49.1070E-03
            3952             611     31.4150E-03     30.1042E-03
            3854             611     31.4150E-03     30.1042E-03
            3953             611     31.4150E-03     30.1042E-03
            3853             611     31.4150E-03     30.1042E-03
            3953             612     14.3670E-03     14.3205E-03
            3855             612     14.3670E-03     14.3205E-03
            3954             612     14.3670E-03     14.3205E-03
            3854             612     14.3670E-03     14.3205E-03
            3955             613     14.3670E-03     14.3205E-03
            3855             613     14.3670E-03     14.3205E-03
            3856             613     14.3670E-03     14.3205E-03
            3954             613     14.3670E-03     14.3205E-03
            3856             614     31.4150E-03     30.1042E-03
            3955             614     31.4150E-03     30.1042E-03
            3857             614     31.4150E-03     30.1042E-03
            3956             614     31.4150E-03     30.1042E-03
            3956             615     52.3088E-03     49.1070E-03
            3858             615     52.3088E-03     49.1070E-03
            3857             615     52.3088E-03     49.1070E-03
            3957             615     52.3088E-03     49.1070E-03
            3957             616     79.7469E-03     74.3854E-03
            3859             616     79.7469E-03     74.3854E-03
            3958             616     79.7469E-03     74.3854E-03
            3858             616     79.7469E-03     74.3854E-03
            5386             617     63.5989E-03     60.3878E-03
            3904             617     63.5989E-03     60.3878E-03
            3903             617     63.5989E-03     60.3878E-03
            5387             617     63.5989E-03     60.3878E-03
            3903             618     47.5138E-03     45.1685E-03
            5385             618     47.5138E-03     45.1685E-03
            5386             618     47.5138E-03     45.1685E-03
            3902             618     47.5138E-03     45.1685E-03
            5384             619     32.9888E-03     31.7675E-03
            3901             619     32.9888E-03     31.7675E-03
            3902             619     32.9888E-03     31.7675E-03
            5385             619     32.9888E-03     31.7675E-03
            5383             620     22.2126E-03     21.6070E-03
            5384             620     22.2126E-03     21.6070E-03
            3901             620     22.2126E-03     21.6070E-03
            3900             620     22.2126E-03     21.6070E-03
            5383             621     22.2126E-03     21.6070E-03
            3900             621     22.2126E-03     21.6070E-03
            5382             621     22.2126E-03     21.6070E-03
            3899             621     22.2126E-03     21.6070E-03
            5381             622     32.9888E-03     31.7675E-03
            5382             622     32.9888E-03     31.7675E-03
            3898             622     32.9888E-03     31.7675E-03
            3899             622     32.9888E-03     31.7675E-03
            3898             623     47.5138E-03     45.1685E-03
            5380             623     47.5138E-03     45.1685E-03
            3897             623     47.5138E-03     45.1685E-03
            5381             623     47.5138E-03     45.1685E-03
            3896             624     63.5989E-03     60.3878E-03
            5379             624     63.5989E-03     60.3878E-03
            5380             624     63.5989E-03     60.3878E-03
            3897             624     63.5989E-03     60.3878E-03
            3887             625     75.6055E-03     73.3490E-03
            3896             625     75.6055E-03     73.3490E-03
            3887             626     80.4534E-03     81.6688E-03
            3878             626     80.4534E-03     81.6688E-03
            3869             627     84.0238E-03     84.3038E-03
            3878             627     84.0238E-03     84.3038E-03
            3860             628     88.4805E-03     89.1370E-03
            3869             628     88.4805E-03     89.1370E-03
            3860             629     94.3158E-03     91.4247E-03
            3851             629     94.3158E-03     91.4247E-03
            5388             636     79.4397E-03     76.1719E-03
            5379             636     79.4397E-03     76.1719E-03
            5397             637     84.2220E-03     81.2569E-03
            5388             637     84.2220E-03     81.2569E-03
            5406             638     78.5499E-03     78.3602E-03
            5397             638     78.5499E-03     78.3602E-03
            5415             639     74.8797E-03     74.0800E-03
            5406             639     74.8797E-03     74.0800E-03
            5424             640     72.1849E-03     71.2695E-03
            5415             640     72.1849E-03     71.2695E-03
            5433             641     69.1991E-03     68.3093E-03
            5424             641     69.1991E-03     68.3093E-03
            5442             642     66.3138E-03     65.5001E-03
            5433             642     66.3138E-03     65.5001E-03
            5451             643     63.2498E-03     62.6990E-03
            5442             643     63.2498E-03     62.6990E-03
            5460             644     59.9185E-03     59.6216E-03
            5451             644     59.9185E-03     59.6216E-03
            5460             645     56.0931E-03     56.8674E-03
            5469             645     56.0931E-03     56.8674E-03
            5478             646     51.6518E-03     49.5329E-03
            5469             646     51.6518E-03     49.5329E-03
            5487             647     57.6082E-03     52.2602E-03
            5478             647     57.6082E-03     52.2602E-03
            5496             648     62.8572E-03     60.7912E-03
            5487             648     62.8572E-03     60.7912E-03
            5496             649     57.4154E-03     57.2022E-03
            5505             649     57.4154E-03     57.2022E-03
            5514             650     53.7594E-03     53.1705E-03
            5505             650     53.7594E-03     53.1705E-03
            5514             651     51.0304E-03     50.3765E-03
            5523             651     51.0304E-03     50.3765E-03
            5523             652     48.1345E-03     47.4594E-03
            5532             652     48.1345E-03     47.4594E-03
            5541             653     45.3507E-03     44.7751E-03
            5532             653     45.3507E-03     44.7751E-03
            5550             654     42.5558E-03     41.9952E-03
            5541             654     42.5558E-03     41.9952E-03
            5550             655     39.6254E-03     39.3655E-03
            5559             655     39.6254E-03     39.3655E-03
            5559             656     36.5198E-03     36.4404E-03
            5568             656     36.5198E-03     36.4404E-03
            5577             657     32.9103E-03     33.6793E-03
            5568             657     32.9103E-03     33.6793E-03
            5586             658     28.6046E-03     27.4864E-03
            5577             658     28.6046E-03     27.4864E-03
            5595             659     34.1556E-03     31.1286E-03
            5586             659     34.1556E-03     31.1286E-03
            5604             660     39.1662E-03     38.0601E-03
            5595             660     39.1662E-03     38.0601E-03
            5604             661     34.0044E-03     33.8112E-03
            5613             661     34.0044E-03     33.8112E-03
            5613             662     30.4230E-03     30.1145E-03
            5622             662     30.4230E-03     30.1145E-03
            5622             663     27.7012E-03     27.3545E-03
            5631             663     27.7012E-03     27.3545E-03
            5631             664     24.9160E-03     24.6508E-03
            5640             664     24.9160E-03     24.6508E-03
            5640             665     22.3204E-03     22.1363E-03
            5649             665     22.3204E-03     22.1363E-03
            5658             666     19.7156E-03     19.7180E-03
            5649             666     19.7156E-03     19.7180E-03
            5658             667     17.1407E-03     17.3752E-03
            5667             667     17.1407E-03     17.3752E-03
            5676             668     14.5555E-03     15.3075E-03
            5667             668     14.5555E-03     15.3075E-03
            5685             669     12.3503E-03     12.7084E-03
            5676             669     12.3503E-03     12.7084E-03
            5694             670     15.5807E-03     15.1164E-03
            5685             670     15.5807E-03     15.1164E-03
            5703             671     17.4898E-03     17.2416E-03
            5694             671     17.4898E-03     17.2416E-03
            5703             672     13.5169E-03     13.5964E-03
            5712             672     13.5169E-03     13.5964E-03
            5721             673     11.7602E-03     11.9635E-03
            5712             673     11.7602E-03     11.9635E-03
            5730             674     12.3825E-03     12.4772E-03
            5721             674     12.3825E-03     12.4772E-03
            5333             765     4.19000E-15     4.62989E-15
            5342             765     4.19000E-15     4.62989E-15
            5342             766     3.51290E-15     4.16363E-15
            5351             766     3.51290E-15     4.16363E-15
            5351             767     2.92612E-15     3.50636E-15
            5360             767     2.92612E-15     3.50636E-15
            5369             768     1.55344E-15     2.51365E-15
            5360             768     1.55344E-15     2.51365E-15
            5378             769     1.77090E-15     2.25694E-15
            5369             769     1.77090E-15     2.25694E-15
            5326             792     7.44828E-03     7.43844E-03
            5325             792     7.44828E-03     7.43844E-03
            5731             792     7.44828E-03     7.43844E-03
            5730             792     7.44828E-03     7.43844E-03
            5327             793     8.67848E-03     8.64408E-03
            5731             793     8.67848E-03     8.64408E-03
            5732             793     8.67848E-03     8.64408E-03
            5326             793     8.67848E-03     8.64408E-03
            5327             794     9.19724E-03     9.16732E-03
            5328             794     9.19724E-03     9.16732E-03
            5732             794     9.19724E-03     9.16732E-03
            5733             794     9.19724E-03     9.16732E-03
            5734             795     9.51954E-03     9.50185E-03
            5328             795     9.51954E-03     9.50185E-03
            5733             795     9.51954E-03     9.50185E-03
            5329             795     9.51954E-03     9.50185E-03
            5735             796     9.51954E-03     9.50185E-03
            5330             796     9.51954E-03     9.50185E-03
            5329             796     9.51954E-03     9.50185E-03
            5734             796     9.51954E-03     9.50185E-03
            5735             797     9.19724E-03     9.16732E-03
            5331             797     9.19724E-03     9.16732E-03
            5736             797     9.19724E-03     9.16732E-03
            5330             797     9.19724E-03     9.16732E-03
            5332             798     8.67848E-03     8.64408E-03
            5331             798     8.67848E-03     8.64408E-03
            5737             798     8.67848E-03     8.64408E-03
            5736             798     8.67848E-03     8.64408E-03
            5737             799     7.44828E-03     7.43844E-03
            5738             799     7.44828E-03     7.43844E-03
            5333             799     7.44828E-03     7.43844E-03
            5332             799     7.44828E-03     7.43844E-03
            5378             800     2.34136E-15     1.88954E-15
            5377             800     2.34136E-15     1.88954E-15
            5376             801     1.93168E-15     1.77612E-15
            5377             801     1.93168E-15     1.77612E-15
            5376             802     1.67190E-15     1.54482E-15
            5375             802     1.67190E-15     1.54482E-15
            5375             803     1.46766E-15     793.034E-18
            5374             803     1.46766E-15     793.034E-18
            5374             804     872.010E-18     838.350E-18
            5373             804     872.010E-18     838.350E-18
            5372             805     1.59119E-15     1.57101E-15
            5373             805     1.59119E-15     1.57101E-15
            5371             806     3.40468E-15     2.52983E-15
            5372             806     3.40468E-15     2.52983E-15
            5370             807     3.58295E-15     2.62832E-15
            5371             807     3.58295E-15     2.62832E-15
            1795            2369     11.7780E-03     11.8254E-03
            1794            2369     11.7780E-03     11.8254E-03
            1785            2369     11.7780E-03     11.8254E-03
            1786            2369     11.7780E-03     11.8254E-03
            1795            2370     14.1105E-03     13.9899E-03
            1786            2370     14.1105E-03     13.9899E-03
            1796            2370     14.1105E-03     13.9899E-03
            1787            2370     14.1105E-03     13.9899E-03
            1797            2371     15.0345E-03     14.9023E-03
            1788            2371     15.0345E-03     14.9023E-03
            1787            2371     15.0345E-03     14.9023E-03
            1796            2371     15.0345E-03     14.9023E-03
            1797            2372     15.4968E-03     15.3668E-03
            1789            2372     15.4968E-03     15.3668E-03
            1798            2372     15.4968E-03     15.3668E-03
            1788            2372     15.4968E-03     15.3668E-03
            1789            2373     15.4968E-03     15.3668E-03
            1790            2373     15.4968E-03     15.3668E-03
            1798            2373     15.4968E-03     15.3668E-03
            1799            2373     15.4968E-03     15.3668E-03
            1791            2374     15.0345E-03     14.9023E-03
            1800            2374     15.0345E-03     14.9023E-03
            1790            2374     15.0345E-03     14.9023E-03
            1799            2374     15.0345E-03     14.9023E-03
            1792            2375     14.1105E-03     13.9899E-03
            1801            2375     14.1105E-03     13.9899E-03
            1800            2375     14.1105E-03     13.9899E-03
            1791            2375     14.1105E-03     13.9899E-03
            1802            2376     11.7780E-03     11.8254E-03
            1801            2376     11.7780E-03     11.8254E-03
            1792            2376     11.7780E-03     11.8254E-03
            1793            2376     11.7780E-03     11.8254E-03
            1795            2377     11.2420E-03     11.3532E-03
            1794            2377     11.2420E-03     11.3532E-03
            1803            2377     11.2420E-03     11.3532E-03
            1804            2377     11.2420E-03     11.3532E-03
            1796            2378     14.4002E-03     14.3162E-03
            1804            2378     14.4002E-03     14.3162E-03
            1795            2378     14.4002E-03     14.3162E-03
            1805            2378     14.4002E-03     14.3162E-03
            1805            2379     15.6394E-03     15.4953E-03
            1797            2379     15.6394E-03     15.4953E-03
            1806            2379     15.6394E-03     15.4953E-03
            1796            2379     15.6394E-03     15.4953E-03
            1797            2380     16.0671E-03     15.9131E-03
            1806            2380     16.0671E-03     15.9131E-03
            1798            2380     16.0671E-03     15.9131E-03
            1807            2380     16.0671E-03     15.9131E-03
            1807            2381     16.0671E-03     15.9131E-03
            1799            2381     16.0671E-03     15.9131E-03
            1798            2381     16.0671E-03     15.9131E-03
            1808            2381     16.0671E-03     15.9131E-03
            1808            2382     15.6394E-03     15.4953E-03
            1799            2382     15.6394E-03     15.4953E-03
            1809            2382     15.6394E-03     15.4953E-03
            1800            2382     15.6394E-03     15.4953E-03
            1810            2383     14.4002E-03     14.3162E-03
            1801            2383     14.4002E-03     14.3162E-03
            1809            2383     14.4002E-03     14.3162E-03
            1800            2383     14.4002E-03     14.3162E-03
            1811            2384     11.2420E-03     11.3532E-03
            1802            2384     11.2420E-03     11.3532E-03
            1801            2384     11.2420E-03     11.3532E-03
            1810            2384     11.2420E-03     11.3532E-03
            1803            2385     11.4953E-03     11.5813E-03
            1812            2385     11.4953E-03     11.5813E-03
            1813            2385     11.4953E-03     11.5813E-03
            1804            2385     11.4953E-03     11.5813E-03
            1804            2386     14.3871E-03     14.3979E-03
            1805            2386     14.3871E-03     14.3979E-03
            1814            2386     14.3871E-03     14.3979E-03
            1813            2386     14.3871E-03     14.3979E-03
            1805            2387     15.9861E-03     15.9217E-03
            1815            2387     15.9861E-03     15.9217E-03
            1806            2387     15.9861E-03     15.9217E-03
            1814            2387     15.9861E-03     15.9217E-03
            1806            2388     16.5236E-03     16.4582E-03
            1816            2388     16.5236E-03     16.4582E-03
            1807            2388     16.5236E-03     16.4582E-03
            1815            2388     16.5236E-03     16.4582E-03
            1807            2389     16.5236E-03     16.4582E-03
            1817            2389     16.5236E-03     16.4582E-03
            1816            2389     16.5236E-03     16.4582E-03
            1808            2389     16.5236E-03     16.4582E-03
            1808            2390     15.9861E-03     15.9217E-03
            1809            2390     15.9861E-03     15.9217E-03
            1818            2390     15.9861E-03     15.9217E-03
            1817            2390     15.9861E-03     15.9217E-03
            1819            2391     14.3871E-03     14.3979E-03
            1810            2391     14.3871E-03     14.3979E-03
            1818            2391     14.3871E-03     14.3979E-03
            1809            2391     14.3871E-03     14.3979E-03
            1820            2392     11.4953E-03     11.5813E-03
            1819            2392     11.4953E-03     11.5813E-03
            1810            2392     11.4953E-03     11.5813E-03
            1811            2392     11.4953E-03     11.5813E-03
            1813            2393     12.5391E-03     12.5526E-03
            1812            2393     12.5391E-03     12.5526E-03
            1822            2393     12.5391E-03     12.5526E-03
            1821            2393     12.5391E-03     12.5526E-03
            1822            2394     14.7721E-03     14.8143E-03
            1813            2394     14.7721E-03     14.8143E-03
            1823            2394     14.7721E-03     14.8143E-03
            1814            2394     14.7721E-03     14.8143E-03
            1823            2395     16.0766E-03     16.1504E-03
            1824            2395     16.0766E-03     16.1504E-03
            1815            2395     16.0766E-03     16.1504E-03
            1814            2395     16.0766E-03     16.1504E-03
            1816            2396     16.4930E-03     16.5637E-03
            1815            2396     16.4930E-03     16.5637E-03
            1824            2396     16.4930E-03     16.5637E-03
            1825            2396     16.4930E-03     16.5637E-03
            1817            2397     16.4930E-03     16.5637E-03
            1825            2397     16.4930E-03     16.5637E-03
            1826            2397     16.4930E-03     16.5637E-03
            1816            2397     16.4930E-03     16.5637E-03
            1817            2398     16.0766E-03     16.1504E-03
            1827            2398     16.0766E-03     16.1504E-03
            1826            2398     16.0766E-03     16.1504E-03
            1818            2398     16.0766E-03     16.1504E-03
            1827            2399     14.7721E-03     14.8143E-03
            1828            2399     14.7721E-03     14.8143E-03
            1819            2399     14.7721E-03     14.8143E-03
            1818            2399     14.7721E-03     14.8143E-03
            1820            2400     12.5391E-03     12.5526E-03
            1828            2400     12.5391E-03     12.5526E-03
            1829            2400     12.5391E-03     12.5526E-03
            1819            2400     12.5391E-03     12.5526E-03
            1821            2401     14.4186E-03     14.4202E-03
            1822            2401     14.4186E-03     14.4202E-03
            1830            2401     14.4186E-03     14.4202E-03
            1831            2401     14.4186E-03     14.4202E-03
            1822            2402     15.4718E-03     15.5930E-03
            1832            2402     15.4718E-03     15.5930E-03
            1823            2402     15.4718E-03     15.5930E-03
            1831            2402     15.4718E-03     15.5930E-03
            1833            2403     15.7525E-03     15.9322E-03
            1824            2403     15.7525E-03     15.9322E-03
            1832            2403     15.7525E-03     15.9322E-03
            1823            2403     15.7525E-03     15.9322E-03
            1833            2404     15.8924E-03     16.0556E-03
            1825            2404     15.8924E-03     16.0556E-03
            1834            2404     15.8924E-03     16.0556E-03
            1824            2404     15.8924E-03     16.0556E-03
            1835            2405     15.8924E-03     16.0556E-03
            1826            2405     15.8924E-03     16.0556E-03
            1834            2405     15.8924E-03     16.0556E-03
            1825            2405     15.8924E-03     16.0556E-03
            1836            2406     15.7525E-03     15.9322E-03
            1827            2406     15.7525E-03     15.9322E-03
            1826            2406     15.7525E-03     15.9322E-03
            1835            2406     15.7525E-03     15.9322E-03
            1827            2407     15.4718E-03     15.5930E-03
            1837            2407     15.4718E-03     15.5930E-03
            1828            2407     15.4718E-03     15.5930E-03
            1836            2407     15.4718E-03     15.5930E-03
            1837            2408     14.4186E-03     14.4202E-03
            1828            2408     14.4186E-03     14.4202E-03
            1838            2408     14.4186E-03     14.4202E-03
            1829            2408     14.4186E-03     14.4202E-03
            1840            2409     16.6766E-03     16.5335E-03
            1831            2409     16.6766E-03     16.5335E-03
            1839            2409     16.6766E-03     16.5335E-03
            1830            2409     16.6766E-03     16.5335E-03
            1841            2410     15.4223E-03     15.5130E-03
            1831            2410     15.4223E-03     15.5130E-03
            1840            2410     15.4223E-03     15.5130E-03
            1832            2410     15.4223E-03     15.5130E-03
            1832            2411     14.8980E-03     15.0235E-03
            1841            2411     14.8980E-03     15.0235E-03
            1842            2411     14.8980E-03     15.0235E-03
            1833            2411     14.8980E-03     15.0235E-03
            1842            2412     14.8765E-03     15.0131E-03
            1833            2412     14.8765E-03     15.0131E-03
            1843            2412     14.8765E-03     15.0131E-03
            1834            2412     14.8765E-03     15.0131E-03
            1844            2413     14.8765E-03     15.0131E-03
            1834            2413     14.8765E-03     15.0131E-03
            1843            2413     14.8765E-03     15.0131E-03
            1835            2413     14.8765E-03     15.0131E-03
            1844            2414     14.8980E-03     15.0235E-03
            1835            2414     14.8980E-03     15.0235E-03
            1845            2414     14.8980E-03     15.0235E-03
            1836            2414     14.8980E-03     15.0235E-03
            1845            2415     15.4223E-03     15.5130E-03
            1836            2415     15.4223E-03     15.5130E-03
            1846            2415     15.4223E-03     15.5130E-03
            1837            2415     15.4223E-03     15.5130E-03
            1838            2416     16.6766E-03     16.5335E-03
            1837            2416     16.6766E-03     16.5335E-03
            1847            2416     16.6766E-03     16.5335E-03
            1846            2416     16.6766E-03     16.5335E-03
            1849            2417     15.1186E-03     14.4117E-03
            1840            2417     15.1186E-03     14.4117E-03
            1848            2417     15.1186E-03     14.4117E-03
            1839            2417     15.1186E-03     14.4117E-03
            1849            2418     15.1128E-03     14.6384E-03
            1840            2418     15.1128E-03     14.6384E-03
            1850            2418     15.1128E-03     14.6384E-03
            1841            2418     15.1128E-03     14.6384E-03
            1841            2419     15.0533E-03     14.7827E-03
            1851            2419     15.0533E-03     14.7827E-03
            1842            2419     15.0533E-03     14.7827E-03
            1850            2419     15.0533E-03     14.7827E-03
            1852            2420     15.1417E-03     14.9734E-03
            1843            2420     15.1417E-03     14.9734E-03
            1851            2420     15.1417E-03     14.9734E-03
            1842            2420     15.1417E-03     14.9734E-03
            1843            2421     15.1417E-03     14.9734E-03
            1853            2421     15.1417E-03     14.9734E-03
            1844            2421     15.1417E-03     14.9734E-03
            1852            2421     15.1417E-03     14.9734E-03
            1844            2422     15.0533E-03     14.7827E-03
            1854            2422     15.0533E-03     14.7827E-03
            1845            2422     15.0533E-03     14.7827E-03
            1853            2422     15.0533E-03     14.7827E-03
            1845            2423     15.1128E-03     14.6384E-03
            1854            2423     15.1128E-03     14.6384E-03
            1846            2423     15.1128E-03     14.6384E-03
            1855            2423     15.1128E-03     14.6384E-03
            1847            2424     15.1186E-03     14.4117E-03
            1846            2424     15.1186E-03     14.4117E-03
            1856            2424     15.1186E-03     14.4117E-03
            1855            2424     15.1186E-03     14.4117E-03
            1848            2425     13.4669E-03     13.1218E-03
            1849            2425     13.4669E-03     13.1218E-03
            1857            2425     13.4669E-03     13.1218E-03
            1858            2425     13.4669E-03     13.1218E-03
            1858            2426     15.5834E-03     14.8481E-03
            1859            2426     15.5834E-03     14.8481E-03
            1850            2426     15.5834E-03     14.8481E-03
            1849            2426     15.5834E-03     14.8481E-03
            1851            2427     15.9380E-03     15.2511E-03
            1860            2427     15.9380E-03     15.2511E-03
            1859            2427     15.9380E-03     15.2511E-03
            1850            2427     15.9380E-03     15.2511E-03
            1860            2428     16.0048E-03     15.3770E-03
            1852            2428     16.0048E-03     15.3770E-03
            1851            2428     16.0048E-03     15.3770E-03
            1861            2428     16.0048E-03     15.3770E-03
            1852            2429     16.0048E-03     15.3770E-03
            1861            2429     16.0048E-03     15.3770E-03
            1853            2429     16.0048E-03     15.3770E-03
            1862            2429     16.0048E-03     15.3770E-03
            1863            2430     15.9380E-03     15.2511E-03
            1854            2430     15.9380E-03     15.2511E-03
            1853            2430     15.9380E-03     15.2511E-03
            1862            2430     15.9380E-03     15.2511E-03
            1864            2431     15.5834E-03     14.8481E-03
            1855            2431     15.5834E-03     14.8481E-03
            1854            2431     15.5834E-03     14.8481E-03
            1863            2431     15.5834E-03     14.8481E-03
            1855            2432     13.4669E-03     13.1218E-03
            1864            2432     13.4669E-03     13.1218E-03
            1856            2432     13.4669E-03     13.1218E-03
            1865            2432     13.4669E-03     13.1218E-03
            1858            2433     15.0624E-03     15.4357E-03
            1867            2433     15.0624E-03     15.4357E-03
            1857            2433     15.0624E-03     15.4357E-03
            1866            2433     15.0624E-03     15.4357E-03
            1858            2434     16.2053E-03     15.9824E-03
            1868            2434     16.2053E-03     15.9824E-03
            1867            2434     16.2053E-03     15.9824E-03
            1859            2434     16.2053E-03     15.9824E-03
            1860            2435     16.3842E-03     15.7088E-03
            1868            2435     16.3842E-03     15.7088E-03
            1859            2435     16.3842E-03     15.7088E-03
            1869            2435     16.3842E-03     15.7088E-03
            1870            2436     16.2327E-03     15.4128E-03
            1861            2436     16.2327E-03     15.4128E-03
            1869            2436     16.2327E-03     15.4128E-03
            1860            2436     16.2327E-03     15.4128E-03
            1871            2437     16.2327E-03     15.4128E-03
            1861            2437     16.2327E-03     15.4128E-03
            1862            2437     16.2327E-03     15.4128E-03
            1870            2437     16.2327E-03     15.4128E-03
            1872            2438     16.3842E-03     15.7088E-03
            1863            2438     16.3842E-03     15.7088E-03
            1871            2438     16.3842E-03     15.7088E-03
            1862            2438     16.3842E-03     15.7088E-03
            1872            2439     16.2053E-03     15.9824E-03
            1873            2439     16.2053E-03     15.9824E-03
            1864            2439     16.2053E-03     15.9824E-03
            1863            2439     16.2053E-03     15.9824E-03
            1873            2440     15.0624E-03     15.4357E-03
            1874            2440     15.0624E-03     15.4357E-03
            1865            2440     15.0624E-03     15.4357E-03
            1864            2440     15.0624E-03     15.4357E-03
            1866            2441     16.6463E-03     16.8770E-03
            1876            2441     16.6463E-03     16.8770E-03
            1875            2441     16.6463E-03     16.8770E-03
            1867            2441     16.6463E-03     16.8770E-03
            1867            2442     16.7353E-03     16.8185E-03
            1876            2442     16.7353E-03     16.8185E-03
            1877            2442     16.7353E-03     16.8185E-03
            1868            2442     16.7353E-03     16.8185E-03
            1869            2443     16.8086E-03     16.4091E-03
            1878            2443     16.8086E-03     16.4091E-03
            1877            2443     16.8086E-03     16.4091E-03
            1868            2443     16.8086E-03     16.4091E-03
            1870            2444     16.6502E-03     15.9686E-03
            1878            2444     16.6502E-03     15.9686E-03
            1879            2444     16.6502E-03     15.9686E-03
            1869            2444     16.6502E-03     15.9686E-03
            1879            2445     16.6502E-03     15.9686E-03
            1870            2445     16.6502E-03     15.9686E-03
            1871            2445     16.6502E-03     15.9686E-03
            1880            2445     16.6502E-03     15.9686E-03
            1871            2446     16.8086E-03     16.4091E-03
            1880            2446     16.8086E-03     16.4091E-03
            1872            2446     16.8086E-03     16.4091E-03
            1881            2446     16.8086E-03     16.4091E-03
            1872            2447     16.7353E-03     16.8185E-03
            1873            2447     16.7353E-03     16.8185E-03
            1882            2447     16.7353E-03     16.8185E-03
            1881            2447     16.7353E-03     16.8185E-03
            1873            2448     16.6463E-03     16.8770E-03
            1874            2448     16.6463E-03     16.8770E-03
            1883            2448     16.6463E-03     16.8770E-03
            1882            2448     16.6463E-03     16.8770E-03
            1885            2449     18.3676E-03     18.4100E-03
            1876            2449     18.3676E-03     18.4100E-03
            1884            2449     18.3676E-03     18.4100E-03
            1875            2449     18.3676E-03     18.4100E-03
            1877            2450     17.5172E-03     17.5837E-03
            1885            2450     17.5172E-03     17.5837E-03
            1876            2450     17.5172E-03     17.5837E-03
            1886            2450     17.5172E-03     17.5837E-03
            1878            2451     17.1527E-03     16.9885E-03
            1877            2451     17.1527E-03     16.9885E-03
            1887            2451     17.1527E-03     16.9885E-03
            1886            2451     17.1527E-03     16.9885E-03
            1887            2452     16.9857E-03     16.5838E-03
            1888            2452     16.9857E-03     16.5838E-03
            1878            2452     16.9857E-03     16.5838E-03
            1879            2452     16.9857E-03     16.5838E-03
            1889            2453     16.9857E-03     16.5838E-03
            1880            2453     16.9857E-03     16.5838E-03
            1888            2453     16.9857E-03     16.5838E-03
            1879            2453     16.9857E-03     16.5838E-03
            1881            2454     17.1527E-03     16.9885E-03
            1880            2454     17.1527E-03     16.9885E-03
            1890            2454     17.1527E-03     16.9885E-03
            1889            2454     17.1527E-03     16.9885E-03
            1881            2455     17.5172E-03     17.5837E-03
            1882            2455     17.5172E-03     17.5837E-03
            1891            2455     17.5172E-03     17.5837E-03
            1890            2455     17.5172E-03     17.5837E-03
            1882            2456     18.3676E-03     18.4100E-03
            1891            2456     18.3676E-03     18.4100E-03
            1883            2456     18.3676E-03     18.4100E-03
            1892            2456     18.3676E-03     18.4100E-03
            1893            2457     20.1401E-03     20.0537E-03
            1894            2457     20.1401E-03     20.0537E-03
            1885            2457     20.1401E-03     20.0537E-03
            1884            2457     20.1401E-03     20.0537E-03
            1895            2458     18.4725E-03     18.5099E-03
            1886            2458     18.4725E-03     18.5099E-03
            1885            2458     18.4725E-03     18.5099E-03
            1894            2458     18.4725E-03     18.5099E-03
            1886            2459     17.5946E-03     17.5724E-03
            1896            2459     17.5946E-03     17.5724E-03
            1895            2459     17.5946E-03     17.5724E-03
            1887            2459     17.5946E-03     17.5724E-03
            1887            2460     17.1905E-03     17.0694E-03
            1896            2460     17.1905E-03     17.0694E-03
            1897            2460     17.1905E-03     17.0694E-03
            1888            2460     17.1905E-03     17.0694E-03
            1888            2461     17.1905E-03     17.0694E-03
            1897            2461     17.1905E-03     17.0694E-03
            1898            2461     17.1905E-03     17.0694E-03
            1889            2461     17.1905E-03     17.0694E-03
            1898            2462     17.5946E-03     17.5724E-03
            1899            2462     17.5946E-03     17.5724E-03
            1890            2462     17.5946E-03     17.5724E-03
            1889            2462     17.5946E-03     17.5724E-03
            1890            2463     18.4725E-03     18.5099E-03
            1899            2463     18.4725E-03     18.5099E-03
            1891            2463     18.4725E-03     18.5099E-03
            1900            2463     18.4725E-03     18.5099E-03
            1900            2464     20.1401E-03     20.0537E-03
            1891            2464     20.1401E-03     20.0537E-03
            1892            2464     20.1401E-03     20.0537E-03
            1901            2464     20.1401E-03     20.0537E-03
            1894            2465     21.9830E-03     21.8277E-03
            1902            2465     21.9830E-03     21.8277E-03
            1903            2465     21.9830E-03     21.8277E-03
            1893            2465     21.9830E-03     21.8277E-03
            1894            2466     19.5800E-03     19.6129E-03
            1903            2466     19.5800E-03     19.6129E-03
            1895            2466     19.5800E-03     19.6129E-03
            1904            2466     19.5800E-03     19.6129E-03
            1895            2467     18.0569E-03     18.1761E-03
            1904            2467     18.0569E-03     18.1761E-03
            1905            2467     18.0569E-03     18.1761E-03
            1896            2467     18.0569E-03     18.1761E-03
            1906            2468     17.3465E-03     17.4829E-03
            1897            2468     17.3465E-03     17.4829E-03
            1905            2468     17.3465E-03     17.4829E-03
            1896            2468     17.3465E-03     17.4829E-03
            1906            2469     17.3465E-03     17.4829E-03
            1907            2469     17.3465E-03     17.4829E-03
            1898            2469     17.3465E-03     17.4829E-03
            1897            2469     17.3465E-03     17.4829E-03
            1898            2470     18.0569E-03     18.1761E-03
            1899            2470     18.0569E-03     18.1761E-03
            1908            2470     18.0569E-03     18.1761E-03
            1907            2470     18.0569E-03     18.1761E-03
            1908            2471     19.5800E-03     19.6129E-03
            1899            2471     19.5800E-03     19.6129E-03
            1900            2471     19.5800E-03     19.6129E-03
            1909            2471     19.5800E-03     19.6129E-03
            1901            2472     21.9830E-03     21.8277E-03
            1900            2472     21.9830E-03     21.8277E-03
            1909            2472     21.9830E-03     21.8277E-03
            1910            2472     21.9830E-03     21.8277E-03
            1912            2473     23.9101E-03     23.7211E-03
            1902            2473     23.9101E-03     23.7211E-03
            1911            2473     23.9101E-03     23.7211E-03
            1903            2473     23.9101E-03     23.7211E-03
            1904            2474     20.7074E-03     20.7780E-03
            1912            2474     20.7074E-03     20.7780E-03
            1913            2474     20.7074E-03     20.7780E-03
            1903            2474     20.7074E-03     20.7780E-03
            1904            2475     18.5288E-03     18.8212E-03
            1913            2475     18.5288E-03     18.8212E-03
            1905            2475     18.5288E-03     18.8212E-03
            1914            2475     18.5288E-03     18.8212E-03
            1915            2476     17.4176E-03     17.8552E-03
            1914            2476     17.4176E-03     17.8552E-03
            1905            2476     17.4176E-03     17.8552E-03
            1906            2476     17.4176E-03     17.8552E-03
            1907            2477     17.4176E-03     17.8552E-03
            1906            2477     17.4176E-03     17.8552E-03
            1916            2477     17.4176E-03     17.8552E-03
            1915            2477     17.4176E-03     17.8552E-03
            1907            2478     18.5288E-03     18.8212E-03
            1917            2478     18.5288E-03     18.8212E-03
            1908            2478     18.5288E-03     18.8212E-03
            1916            2478     18.5288E-03     18.8212E-03
            1909            2479     20.7074E-03     20.7780E-03
            1918            2479     20.7074E-03     20.7780E-03
            1917            2479     20.7074E-03     20.7780E-03
            1908            2479     20.7074E-03     20.7780E-03
            1910            2480     23.9101E-03     23.7211E-03
            1919            2480     23.9101E-03     23.7211E-03
            1918            2480     23.9101E-03     23.7211E-03
            1909            2480     23.9101E-03     23.7211E-03
            1921            2481     25.8347E-03     25.6873E-03
            1911            2481     25.8347E-03     25.6873E-03
            1912            2481     25.8347E-03     25.6873E-03
            1920            2481     25.8347E-03     25.6873E-03
            1922            2482     21.9479E-03     22.1765E-03
            1912            2482     21.9479E-03     22.1765E-03
            1913            2482     21.9479E-03     22.1765E-03
            1921            2482     21.9479E-03     22.1765E-03
            1922            2483     18.9256E-03     19.5021E-03
            1913            2483     18.9256E-03     19.5021E-03
            1923            2483     18.9256E-03     19.5021E-03
            1914            2483     18.9256E-03     19.5021E-03
            1923            2484     17.1173E-03     17.8393E-03
            1914            2484     17.1173E-03     17.8393E-03
            1924            2484     17.1173E-03     17.8393E-03
            1915            2484     17.1173E-03     17.8393E-03
            1924            2485     17.1173E-03     17.8393E-03
            1916            2485     17.1173E-03     17.8393E-03
            1925            2485     17.1173E-03     17.8393E-03
            1915            2485     17.1173E-03     17.8393E-03
            1916            2486     18.9256E-03     19.5021E-03
            1925            2486     18.9256E-03     19.5021E-03
            1926            2486     18.9256E-03     19.5021E-03
            1917            2486     18.9256E-03     19.5021E-03
            1926            2487     21.9479E-03     22.1765E-03
            1917            2487     21.9479E-03     22.1765E-03
            1918            2487     21.9479E-03     22.1765E-03
            1927            2487     21.9479E-03     22.1765E-03
            1927            2488     25.8347E-03     25.6873E-03
            1928            2488     25.8347E-03     25.6873E-03
            1918            2488     25.8347E-03     25.6873E-03
            1919            2488     25.8347E-03     25.6873E-03
            1929            2489     28.3622E-03     28.4224E-03
            1921            2489     28.3622E-03     28.4224E-03
            1930            2489     28.3622E-03     28.4224E-03
            1920            2489     28.3622E-03     28.4224E-03
            1921            2490     23.0845E-03     23.5243E-03
            1930            2490     23.0845E-03     23.5243E-03
            1922            2490     23.0845E-03     23.5243E-03
            1931            2490     23.0845E-03     23.5243E-03
            1923            2491     18.5498E-03     19.2276E-03
            1922            2491     18.5498E-03     19.2276E-03
            1931            2491     18.5498E-03     19.2276E-03
            1932            2491     18.5498E-03     19.2276E-03
            1933            2492     16.2031E-03     17.0233E-03
            1923            2492     16.2031E-03     17.0233E-03
            1932            2492     16.2031E-03     17.0233E-03
            1924            2492     16.2031E-03     17.0233E-03
            1925            2493     16.2031E-03     17.0233E-03
            1933            2493     16.2031E-03     17.0233E-03
            1924            2493     16.2031E-03     17.0233E-03
            1934            2493     16.2031E-03     17.0233E-03
            1935            2494     18.5498E-03     19.2276E-03
            1934            2494     18.5498E-03     19.2276E-03
            1926            2494     18.5498E-03     19.2276E-03
            1925            2494     18.5498E-03     19.2276E-03
            1927            2495     23.0845E-03     23.5243E-03
            1926            2495     23.0845E-03     23.5243E-03
            1936            2495     23.0845E-03     23.5243E-03
            1935            2495     23.0845E-03     23.5243E-03
            1936            2496     28.3622E-03     28.4224E-03
            1928            2496     28.3622E-03     28.4224E-03
            1927            2496     28.3622E-03     28.4224E-03
            1937            2496     28.3622E-03     28.4224E-03
            1938            2497     30.7377E-03     30.0783E-03
            1939            2497     30.7377E-03     30.0783E-03
            1929            2497     30.7377E-03     30.0783E-03
            1930            2497     30.7377E-03     30.0783E-03
            1930            2498     22.7126E-03     22.5582E-03
            1931            2498     22.7126E-03     22.5582E-03
            1939            2498     22.7126E-03     22.5582E-03
            1940            2498     22.7126E-03     22.5582E-03
            1931            2499     17.1949E-03     17.3922E-03
            1941            2499     17.1949E-03     17.3922E-03
            1932            2499     17.1949E-03     17.3922E-03
            1940            2499     17.1949E-03     17.3922E-03
            1942            2500     14.4033E-03     14.9310E-03
            1933            2500     14.4033E-03     14.9310E-03
            1932            2500     14.4033E-03     14.9310E-03
            1941            2500     14.4033E-03     14.9310E-03
            1933            2501     14.4033E-03     14.9310E-03
            1942            2501     14.4033E-03     14.9310E-03
            1934            2501     14.4033E-03     14.9310E-03
            1943            2501     14.4033E-03     14.9310E-03
            1943            2502     17.1949E-03     17.3922E-03
            1934            2502     17.1949E-03     17.3922E-03
            1935            2502     17.1949E-03     17.3922E-03
            1944            2502     17.1949E-03     17.3922E-03
            1944            2503     22.7126E-03     22.5582E-03
            1936            2503     22.7126E-03     22.5582E-03
            1945            2503     22.7126E-03     22.5582E-03
            1935            2503     22.7126E-03     22.5582E-03
            1937            2504     30.7377E-03     30.0783E-03
            1936            2504     30.7377E-03     30.0783E-03
            1945            2504     30.7377E-03     30.0783E-03
            1946            2504     30.7377E-03     30.0783E-03
            1938            2505     27.8106E-03     25.3509E-03
            1948            2505     27.8106E-03     25.3509E-03
            1947            2505     27.8106E-03     25.3509E-03
            1939            2505     27.8106E-03     25.3509E-03
            1949            2506     21.9554E-03     20.2753E-03
            1948            2506     21.9554E-03     20.2753E-03
            1939            2506     21.9554E-03     20.2753E-03
            1940            2506     21.9554E-03     20.2753E-03
            1950            2507     17.9171E-03     17.0772E-03
            1941            2507     17.9171E-03     17.0772E-03
            1949            2507     17.9171E-03     17.0772E-03
            1940            2507     17.9171E-03     17.0772E-03
            1951            2508     15.6354E-03     15.3190E-03
            1941            2508     15.6354E-03     15.3190E-03
            1942            2508     15.6354E-03     15.3190E-03
            1950            2508     15.6354E-03     15.3190E-03
            1951            2509     15.6354E-03     15.3190E-03
            1943            2509     15.6354E-03     15.3190E-03
            1942            2509     15.6354E-03     15.3190E-03
            1952            2509     15.6354E-03     15.3190E-03
            1943            2510     17.9171E-03     17.0772E-03
            1953            2510     17.9171E-03     17.0772E-03
            1944            2510     17.9171E-03     17.0772E-03
            1952            2510     17.9171E-03     17.0772E-03
            1945            2511     21.9554E-03     20.2753E-03
            1954            2511     21.9554E-03     20.2753E-03
            1953            2511     21.9554E-03     20.2753E-03
            1944            2511     21.9554E-03     20.2753E-03
            1946            2512     27.8106E-03     25.3509E-03
            1945            2512     27.8106E-03     25.3509E-03
            1954            2512     27.8106E-03     25.3509E-03
            1955            2512     27.8106E-03     25.3509E-03
            1956            2513     25.5716E-03     24.2429E-03
            1947            2513     25.5716E-03     24.2429E-03
            1948            2513     25.5716E-03     24.2429E-03
            1957            2513     25.5716E-03     24.2429E-03
            1948            2514     22.6690E-03     21.0576E-03
            1957            2514     22.6690E-03     21.0576E-03
            1958            2514     22.6690E-03     21.0576E-03
            1949            2514     22.6690E-03     21.0576E-03
            1950            2515     19.5319E-03     18.1172E-03
            1949            2515     19.5319E-03     18.1172E-03
            1959            2515     19.5319E-03     18.1172E-03
            1958            2515     19.5319E-03     18.1172E-03
            1960            2516     17.5952E-03     16.3806E-03
            1959            2516     17.5952E-03     16.3806E-03
            1951            2516     17.5952E-03     16.3806E-03
            1950            2516     17.5952E-03     16.3806E-03
            1960            2517     17.5952E-03     16.3806E-03
            1951            2517     17.5952E-03     16.3806E-03
            1952            2517     17.5952E-03     16.3806E-03
            1961            2517     17.5952E-03     16.3806E-03
            1962            2518     19.5319E-03     18.1172E-03
            1953            2518     19.5319E-03     18.1172E-03
            1952            2518     19.5319E-03     18.1172E-03
            1961            2518     19.5319E-03     18.1172E-03
            1954            2519     22.6690E-03     21.0576E-03
            1962            2519     22.6690E-03     21.0576E-03
            1963            2519     22.6690E-03     21.0576E-03
            1953            2519     22.6690E-03     21.0576E-03
            1963            2520     25.5716E-03     24.2429E-03
            1955            2520     25.5716E-03     24.2429E-03
            1954            2520     25.5716E-03     24.2429E-03
            1964            2520     25.5716E-03     24.2429E-03
            1965            2521     28.1871E-03     28.7455E-03
            1966            2521     28.1871E-03     28.7455E-03
            1956            2521     28.1871E-03     28.7455E-03
            1957            2521     28.1871E-03     28.7455E-03
            1966            2522     23.8616E-03     23.7463E-03
            1958            2522     23.8616E-03     23.7463E-03
            1957            2522     23.8616E-03     23.7463E-03
            1967            2522     23.8616E-03     23.7463E-03
            1967            2523     19.8264E-03     18.7865E-03
            1968            2523     19.8264E-03     18.7865E-03
            1959            2523     19.8264E-03     18.7865E-03
            1958            2523     19.8264E-03     18.7865E-03
            1960            2524     17.1973E-03     15.7127E-03
            1959            2524     17.1973E-03     15.7127E-03
            1969            2524     17.1973E-03     15.7127E-03
            1968            2524     17.1973E-03     15.7127E-03
            1970            2525     17.1973E-03     15.7127E-03
            1969            2525     17.1973E-03     15.7127E-03
            1961            2525     17.1973E-03     15.7127E-03
            1960            2525     17.1973E-03     15.7127E-03
            1962            2526     19.8264E-03     18.7865E-03
            1970            2526     19.8264E-03     18.7865E-03
            1971            2526     19.8264E-03     18.7865E-03
            1961            2526     19.8264E-03     18.7865E-03
            1972            2527     23.8616E-03     23.7463E-03
            1962            2527     23.8616E-03     23.7463E-03
            1971            2527     23.8616E-03     23.7463E-03
            1963            2527     23.8616E-03     23.7463E-03
            1964            2528     28.1871E-03     28.7455E-03
            1973            2528     28.1871E-03     28.7455E-03
            1963            2528     28.1871E-03     28.7455E-03
            1972            2528     28.1871E-03     28.7455E-03
            1975            2529     30.3605E-03     30.6166E-03
            1966            2529     30.3605E-03     30.6166E-03
            1974            2529     30.3605E-03     30.6166E-03
            1965            2529     30.3605E-03     30.6166E-03
            1976            2530     24.9003E-03     25.2324E-03
            1967            2530     24.9003E-03     25.2324E-03
            1975            2530     24.9003E-03     25.2324E-03
            1966            2530     24.9003E-03     25.2324E-03
            1977            2531     20.3566E-03     19.8846E-03
            1968            2531     20.3566E-03     19.8846E-03
            1967            2531     20.3566E-03     19.8846E-03
            1976            2531     20.3566E-03     19.8846E-03
            1978            2532     17.4089E-03     16.2199E-03
            1977            2532     17.4089E-03     16.2199E-03
            1968            2532     17.4089E-03     16.2199E-03
            1969            2532     17.4089E-03     16.2199E-03
            1969            2533     17.4089E-03     16.2199E-03
            1978            2533     17.4089E-03     16.2199E-03
            1970            2533     17.4089E-03     16.2199E-03
            1979            2533     17.4089E-03     16.2199E-03
            1971            2534     20.3566E-03     19.8846E-03
            1970            2534     20.3566E-03     19.8846E-03
            1979            2534     20.3566E-03     19.8846E-03
            1980            2534     20.3566E-03     19.8846E-03
            1980            2535     24.9003E-03     25.2324E-03
            1981            2535     24.9003E-03     25.2324E-03
            1972            2535     24.9003E-03     25.2324E-03
            1971            2535     24.9003E-03     25.2324E-03
            1973            2536     30.3605E-03     30.6166E-03
            1982            2536     30.3605E-03     30.6166E-03
            1972            2536     30.3605E-03     30.6166E-03
            1981            2536     30.3605E-03     30.6166E-03
            1983            2537     32.4834E-03     32.4312E-03
            1974            2537     32.4834E-03     32.4312E-03
            1984            2537     32.4834E-03     32.4312E-03
            1975            2537     32.4834E-03     32.4312E-03
            1985            2538     26.0638E-03     26.2249E-03
            1976            2538     26.0638E-03     26.2249E-03
            1975            2538     26.0638E-03     26.2249E-03
            1984            2538     26.0638E-03     26.2249E-03
            1976            2539     20.8872E-03     20.7303E-03
            1986            2539     20.8872E-03     20.7303E-03
            1977            2539     20.8872E-03     20.7303E-03
            1985            2539     20.8872E-03     20.7303E-03
            1986            2540     17.7611E-03     17.0802E-03
            1977            2540     17.7611E-03     17.0802E-03
            1978            2540     17.7611E-03     17.0802E-03
            1987            2540     17.7611E-03     17.0802E-03
            1978            2541     17.7611E-03     17.0802E-03
            1987            2541     17.7611E-03     17.0802E-03
            1979            2541     17.7611E-03     17.0802E-03
            1988            2541     17.7611E-03     17.0802E-03
            1989            2542     20.8872E-03     20.7303E-03
            1979            2542     20.8872E-03     20.7303E-03
            1980            2542     20.8872E-03     20.7303E-03
            1988            2542     20.8872E-03     20.7303E-03
            1989            2543     26.0638E-03     26.2249E-03
            1980            2543     26.0638E-03     26.2249E-03
            1981            2543     26.0638E-03     26.2249E-03
            1990            2543     26.0638E-03     26.2249E-03
            1990            2544     32.4834E-03     32.4312E-03
            1981            2544     32.4834E-03     32.4312E-03
            1991            2544     32.4834E-03     32.4312E-03
            1982            2544     32.4834E-03     32.4312E-03
            1992            2545     34.5249E-03     34.2961E-03
            1984            2545     34.5249E-03     34.2961E-03
            1983            2545     34.5249E-03     34.2961E-03
            1993            2545     34.5249E-03     34.2961E-03
            1994            2546     27.3411E-03     27.4038E-03
            1985            2546     27.3411E-03     27.4038E-03
            1993            2546     27.3411E-03     27.4038E-03
            1984            2546     27.3411E-03     27.4038E-03
            1995            2547     21.5554E-03     21.5699E-03
            1985            2547     21.5554E-03     21.5699E-03
            1994            2547     21.5554E-03     21.5699E-03
            1986            2547     21.5554E-03     21.5699E-03
            1996            2548     18.0534E-03     17.8629E-03
            1986            2548     18.0534E-03     17.8629E-03
            1987            2548     18.0534E-03     17.8629E-03
            1995            2548     18.0534E-03     17.8629E-03
            1997            2549     18.0534E-03     17.8629E-03
            1988            2549     18.0534E-03     17.8629E-03
            1996            2549     18.0534E-03     17.8629E-03
            1987            2549     18.0534E-03     17.8629E-03
            1997            2550     21.5554E-03     21.5699E-03
            1989            2550     21.5554E-03     21.5699E-03
            1998            2550     21.5554E-03     21.5699E-03
            1988            2550     21.5554E-03     21.5699E-03
            1998            2551     27.3411E-03     27.4038E-03
            1989            2551     27.3411E-03     27.4038E-03
            1999            2551     27.3411E-03     27.4038E-03
            1990            2551     27.3411E-03     27.4038E-03
            1991            2552     34.5249E-03     34.2961E-03
            1999            2552     34.5249E-03     34.2961E-03
            1990            2552     34.5249E-03     34.2961E-03
            2000            2552     34.5249E-03     34.2961E-03
            2002            2553     36.5688E-03     36.2652E-03
            1992            2553     36.5688E-03     36.2652E-03
            1993            2553     36.5688E-03     36.2652E-03
            2001            2553     36.5688E-03     36.2652E-03
            1993            2554     28.7296E-03     28.7933E-03
            1994            2554     28.7296E-03     28.7933E-03
            2002            2554     28.7296E-03     28.7933E-03
            2003            2554     28.7296E-03     28.7933E-03
            2004            2555     22.2335E-03     22.4747E-03
            1994            2555     22.2335E-03     22.4747E-03
            2003            2555     22.2335E-03     22.4747E-03
            1995            2555     22.2335E-03     22.4747E-03
            1996            2556     18.3280E-03     18.6006E-03
            2004            2556     18.3280E-03     18.6006E-03
            2005            2556     18.3280E-03     18.6006E-03
            1995            2556     18.3280E-03     18.6006E-03
            2006            2557     18.3280E-03     18.6006E-03
            1996            2557     18.3280E-03     18.6006E-03
            2005            2557     18.3280E-03     18.6006E-03
            1997            2557     18.3280E-03     18.6006E-03
            2007            2558     22.2335E-03     22.4747E-03
            1997            2558     22.2335E-03     22.4747E-03
            1998            2558     22.2335E-03     22.4747E-03
            2006            2558     22.2335E-03     22.4747E-03
            2008            2559     28.7296E-03     28.7933E-03
            2007            2559     28.7296E-03     28.7933E-03
            1998            2559     28.7296E-03     28.7933E-03
            1999            2559     28.7296E-03     28.7933E-03
            2000            2560     36.5688E-03     36.2652E-03
            2009            2560     36.5688E-03     36.2652E-03
            1999            2560     36.5688E-03     36.2652E-03
            2008            2560     36.5688E-03     36.2652E-03
            2011            2561     38.6458E-03     38.3429E-03
            2002            2561     38.6458E-03     38.3429E-03
            2001            2561     38.6458E-03     38.3429E-03
            2010            2561     38.6458E-03     38.3429E-03
            2011            2562     30.0723E-03     30.2487E-03
            2012            2562     30.0723E-03     30.2487E-03
            2002            2562     30.0723E-03     30.2487E-03
            2003            2562     30.0723E-03     30.2487E-03
            2003            2563     22.9164E-03     23.4886E-03
            2012            2563     22.9164E-03     23.4886E-03
            2004            2563     22.9164E-03     23.4886E-03
            2013            2563     22.9164E-03     23.4886E-03
            2005            2564     18.5110E-03     19.3361E-03
            2013            2564     18.5110E-03     19.3361E-03
            2014            2564     18.5110E-03     19.3361E-03
            2004            2564     18.5110E-03     19.3361E-03
            2005            2565     18.5110E-03     19.3361E-03
            2006            2565     18.5110E-03     19.3361E-03
            2015            2565     18.5110E-03     19.3361E-03
            2014            2565     18.5110E-03     19.3361E-03
            2006            2566     22.9164E-03     23.4886E-03
            2015            2566     22.9164E-03     23.4886E-03
            2007            2566     22.9164E-03     23.4886E-03
            2016            2566     22.9164E-03     23.4886E-03
            2017            2567     30.0723E-03     30.2487E-03
            2016            2567     30.0723E-03     30.2487E-03
            2008            2567     30.0723E-03     30.2487E-03
            2007            2567     30.0723E-03     30.2487E-03
            2018            2568     38.6458E-03     38.3429E-03
            2008            2568     38.6458E-03     38.3429E-03
            2009            2568     38.6458E-03     38.3429E-03
            2017            2568     38.6458E-03     38.3429E-03
            2011            2569     40.6314E-03     40.4676E-03
            2010            2569     40.6314E-03     40.4676E-03
            2019            2569     40.6314E-03     40.4676E-03
            2020            2569     40.6314E-03     40.4676E-03
            2021            2570     31.4995E-03     32.0214E-03
            2012            2570     31.4995E-03     32.0214E-03
            2011            2570     31.4995E-03     32.0214E-03
            2020            2570     31.4995E-03     32.0214E-03
            2012            2571     23.4662E-03     24.5224E-03
            2021            2571     23.4662E-03     24.5224E-03
            2022            2571     23.4662E-03     24.5224E-03
            2013            2571     23.4662E-03     24.5224E-03
            2023            2572     18.2062E-03     19.5262E-03
            2014            2572     18.2062E-03     19.5262E-03
            2013            2572     18.2062E-03     19.5262E-03
            2022            2572     18.2062E-03     19.5262E-03
            2015            2573     18.2062E-03     19.5262E-03
            2024            2573     18.2062E-03     19.5262E-03
            2023            2573     18.2062E-03     19.5262E-03
            2014            2573     18.2062E-03     19.5262E-03
            2016            2574     23.4662E-03     24.5224E-03
            2015            2574     23.4662E-03     24.5224E-03
            2024            2574     23.4662E-03     24.5224E-03
            2025            2574     23.4662E-03     24.5224E-03
            2025            2575     31.4995E-03     32.0214E-03
            2017            2575     31.4995E-03     32.0214E-03
            2026            2575     31.4995E-03     32.0214E-03
            2016            2575     31.4995E-03     32.0214E-03
            2018            2576     40.6314E-03     40.4676E-03
            2026            2576     40.6314E-03     40.4676E-03
            2017            2576     40.6314E-03     40.4676E-03
            2027            2576     40.6314E-03     40.4676E-03
            2019            2577     43.2632E-03     43.4879E-03
            2028            2577     43.2632E-03     43.4879E-03
            2020            2577     43.2632E-03     43.4879E-03
            2029            2577     43.2632E-03     43.4879E-03
            2020            2578     32.6574E-03     33.4199E-03
            2030            2578     32.6574E-03     33.4199E-03
            2021            2578     32.6574E-03     33.4199E-03
            2029            2578     32.6574E-03     33.4199E-03
            2030            2579     22.9627E-03     24.0443E-03
            2031            2579     22.9627E-03     24.0443E-03
            2021            2579     22.9627E-03     24.0443E-03
            2022            2579     22.9627E-03     24.0443E-03
            2032            2580     17.0985E-03     18.5527E-03
            2022            2580     17.0985E-03     18.5527E-03
            2031            2580     17.0985E-03     18.5527E-03
            2023            2580     17.0985E-03     18.5527E-03
            2032            2581     17.0985E-03     18.5527E-03
            2023            2581     17.0985E-03     18.5527E-03
            2033            2581     17.0985E-03     18.5527E-03
            2024            2581     17.0985E-03     18.5527E-03
            2025            2582     22.9627E-03     24.0443E-03
            2024            2582     22.9627E-03     24.0443E-03
            2034            2582     22.9627E-03     24.0443E-03
            2033            2582     22.9627E-03     24.0443E-03
            2035            2583     32.6574E-03     33.4199E-03
            2025            2583     32.6574E-03     33.4199E-03
            2034            2583     32.6574E-03     33.4199E-03
            2026            2583     32.6574E-03     33.4199E-03
            2035            2584     43.2632E-03     43.4879E-03
            2027            2584     43.2632E-03     43.4879E-03
            2036            2584     43.2632E-03     43.4879E-03
            2026            2584     43.2632E-03     43.4879E-03
            2029            2585     45.4933E-03     44.1946E-03
            2037            2585     45.4933E-03     44.1946E-03
            2038            2585     45.4933E-03     44.1946E-03
            2028            2585     45.4933E-03     44.1946E-03
            2038            2586     31.8556E-03     31.2103E-03
            2030            2586     31.8556E-03     31.2103E-03
            2039            2586     31.8556E-03     31.2103E-03
            2029            2586     31.8556E-03     31.2103E-03
            2039            2587     21.2102E-03     21.2370E-03
            2031            2587     21.2102E-03     21.2370E-03
            2030            2587     21.2102E-03     21.2370E-03
            2040            2587     21.2102E-03     21.2370E-03
            2041            2588     14.6618E-03     15.5098E-03
            2040            2588     14.6618E-03     15.5098E-03
            2031            2588     14.6618E-03     15.5098E-03
            2032            2588     14.6618E-03     15.5098E-03
            2033            2589     14.6618E-03     15.5098E-03
            2032            2589     14.6618E-03     15.5098E-03
            2041            2589     14.6618E-03     15.5098E-03
            2042            2589     14.6618E-03     15.5098E-03
            2042            2590     21.2102E-03     21.2370E-03
            2033            2590     21.2102E-03     21.2370E-03
            2034            2590     21.2102E-03     21.2370E-03
            2043            2590     21.2102E-03     21.2370E-03
            2034            2591     31.8556E-03     31.2103E-03
            2035            2591     31.8556E-03     31.2103E-03
            2043            2591     31.8556E-03     31.2103E-03
            2044            2591     31.8556E-03     31.2103E-03
            2045            2592     45.4933E-03     44.1946E-03
            2036            2592     45.4933E-03     44.1946E-03
            2035            2592     45.4933E-03     44.1946E-03
            2044            2592     45.4933E-03     44.1946E-03
            2047            2593     42.2002E-03     38.0567E-03
            2037            2593     42.2002E-03     38.0567E-03
            2038            2593     42.2002E-03     38.0567E-03
            2046            2593     42.2002E-03     38.0567E-03
            2039            2594     30.7967E-03     27.7930E-03
            2038            2594     30.7967E-03     27.7930E-03
            2047            2594     30.7967E-03     27.7930E-03
            2048            2594     30.7967E-03     27.7930E-03
            2048            2595     22.2418E-03     20.6519E-03
            2049            2595     22.2418E-03     20.6519E-03
            2040            2595     22.2418E-03     20.6519E-03
            2039            2595     22.2418E-03     20.6519E-03
            2050            2596     16.6950E-03     16.1555E-03
            2040            2596     16.6950E-03     16.1555E-03
            2049            2596     16.6950E-03     16.1555E-03
            2041            2596     16.6950E-03     16.1555E-03
            2042            2597     16.6950E-03     16.1555E-03
            2041            2597     16.6950E-03     16.1555E-03
            2050            2597     16.6950E-03     16.1555E-03
            2051            2597     16.6950E-03     16.1555E-03
            2042            2598     22.2418E-03     20.6519E-03
            2051            2598     22.2418E-03     20.6519E-03
            2043            2598     22.2418E-03     20.6519E-03
            2052            2598     22.2418E-03     20.6519E-03
            2043            2599     30.7967E-03     27.7930E-03
            2044            2599     30.7967E-03     27.7930E-03
            2052            2599     30.7967E-03     27.7930E-03
            2053            2599     30.7967E-03     27.7930E-03
            2054            2600     42.2002E-03     38.0567E-03
            2053            2600     42.2002E-03     38.0567E-03
            2044            2600     42.2002E-03     38.0567E-03
            2045            2600     42.2002E-03     38.0567E-03
            2047            2601     40.1092E-03     38.0304E-03
            2055            2601     40.1092E-03     38.0304E-03
            2056            2601     40.1092E-03     38.0304E-03
            2046            2601     40.1092E-03     38.0304E-03
            2057            2602     31.9040E-03     29.5548E-03
            2056            2602     31.9040E-03     29.5548E-03
            2047            2602     31.9040E-03     29.5548E-03
            2048            2602     31.9040E-03     29.5548E-03
            2049            2603     24.3462E-03     22.2749E-03
            2058            2603     24.3462E-03     22.2749E-03
            2048            2603     24.3462E-03     22.2749E-03
            2057            2603     24.3462E-03     22.2749E-03
            2050            2604     19.5362E-03     17.7550E-03
            2059            2604     19.5362E-03     17.7550E-03
            2058            2604     19.5362E-03     17.7550E-03
            2049            2604     19.5362E-03     17.7550E-03
            2059            2605     19.5362E-03     17.7550E-03
            2060            2605     19.5362E-03     17.7550E-03
            2051            2605     19.5362E-03     17.7550E-03
            2050            2605     19.5362E-03     17.7550E-03
            2060            2606     24.3462E-03     22.2749E-03
            2051            2606     24.3462E-03     22.2749E-03
            2052            2606     24.3462E-03     22.2749E-03
            2061            2606     24.3462E-03     22.2749E-03
            2062            2607     31.9040E-03     29.5548E-03
            2052            2607     31.9040E-03     29.5548E-03
            2061            2607     31.9040E-03     29.5548E-03
            2053            2607     31.9040E-03     29.5548E-03
            2053            2608     40.1092E-03     38.0304E-03
            2054            2608     40.1092E-03     38.0304E-03
            2062            2608     40.1092E-03     38.0304E-03
            2063            2608     40.1092E-03     38.0304E-03
            2065            2609     43.0850E-03     43.8278E-03
            2055            2609     43.0850E-03     43.8278E-03
            2064            2609     43.0850E-03     43.8278E-03
            2056            2609     43.0850E-03     43.8278E-03
            2065            2610     33.5803E-03     33.6522E-03
            2066            2610     33.5803E-03     33.6522E-03
            2057            2610     33.5803E-03     33.6522E-03
            2056            2610     33.5803E-03     33.6522E-03
            2057            2611     24.6394E-03     23.4202E-03
            2066            2611     24.6394E-03     23.4202E-03
            2067            2611     24.6394E-03     23.4202E-03
            2058            2611     24.6394E-03     23.4202E-03
            2068            2612     18.5839E-03     16.5259E-03
            2067            2612     18.5839E-03     16.5259E-03
            2059            2612     18.5839E-03     16.5259E-03
            2058            2612     18.5839E-03     16.5259E-03
            2069            2613     18.5839E-03     16.5259E-03
            2068            2613     18.5839E-03     16.5259E-03
            2060            2613     18.5839E-03     16.5259E-03
            2059            2613     18.5839E-03     16.5259E-03
            2060            2614     24.6394E-03     23.4202E-03
            2070            2614     24.6394E-03     23.4202E-03
            2061            2614     24.6394E-03     23.4202E-03
            2069            2614     24.6394E-03     23.4202E-03
            2070            2615     33.5803E-03     33.6522E-03
            2061            2615     33.5803E-03     33.6522E-03
            2062            2615     33.5803E-03     33.6522E-03
            2071            2615     33.5803E-03     33.6522E-03
            2071            2616     43.0850E-03     43.8278E-03
            2072            2616     43.0850E-03     43.8278E-03
            2062            2616     43.0850E-03     43.8278E-03
            2063            2616     43.0850E-03     43.8278E-03
            2074            2617     45.3869E-03     45.6578E-03
            2073            2617     45.3869E-03     45.6578E-03
            2065            2617     45.3869E-03     45.6578E-03
            2064            2617     45.3869E-03     45.6578E-03
            2066            2618     34.8383E-03     35.4376E-03
            2074            2618     34.8383E-03     35.4376E-03
            2075            2618     34.8383E-03     35.4376E-03
            2065            2618     34.8383E-03     35.4376E-03
            2067            2619     25.2641E-03     24.8665E-03
            2066            2619     25.2641E-03     24.8665E-03
            2075            2619     25.2641E-03     24.8665E-03
            2076            2619     25.2641E-03     24.8665E-03
            2077            2620     18.6164E-03     17.0203E-03
            2076            2620     18.6164E-03     17.0203E-03
            2067            2620     18.6164E-03     17.0203E-03
            2068            2620     18.6164E-03     17.0203E-03
            2077            2621     18.6164E-03     17.0203E-03
            2069            2621     18.6164E-03     17.0203E-03
            2068            2621     18.6164E-03     17.0203E-03
            2078            2621     18.6164E-03     17.0203E-03
            2079            2622     25.2641E-03     24.8665E-03
            2078            2622     25.2641E-03     24.8665E-03
            2069            2622     25.2641E-03     24.8665E-03
            2070            2622     25.2641E-03     24.8665E-03
            2071            2623     34.8383E-03     35.4376E-03
            2079            2623     34.8383E-03     35.4376E-03
            2070            2623     34.8383E-03     35.4376E-03
            2080            2623     34.8383E-03     35.4376E-03
            2080            2624     45.3869E-03     45.6578E-03
            2072            2624     45.3869E-03     45.6578E-03
            2081            2624     45.3869E-03     45.6578E-03
            2071            2624     45.3869E-03     45.6578E-03
            2083            2625     47.6545E-03     47.5060E-03
            2082            2625     47.6545E-03     47.5060E-03
            2073            2625     47.6545E-03     47.5060E-03
            2074            2625     47.6545E-03     47.5060E-03
            2084            2626     36.1215E-03     36.3851E-03
            2075            2626     36.1215E-03     36.3851E-03
            2074            2626     36.1215E-03     36.3851E-03
            2083            2626     36.1215E-03     36.3851E-03
            2075            2627     25.8732E-03     25.7986E-03
            2076            2627     25.8732E-03     25.7986E-03
            2085            2627     25.8732E-03     25.7986E-03
            2084            2627     25.8732E-03     25.7986E-03
            2086            2628     18.9782E-03     18.0799E-03
            2076            2628     18.9782E-03     18.0799E-03
            2085            2628     18.9782E-03     18.0799E-03
            2077            2628     18.9782E-03     18.0799E-03
            2087            2629     18.9782E-03     18.0799E-03
            2086            2629     18.9782E-03     18.0799E-03
            2077            2629     18.9782E-03     18.0799E-03
            2078            2629     18.9782E-03     18.0799E-03
            2088            2630     25.8732E-03     25.7986E-03
            2087            2630     25.8732E-03     25.7986E-03
            2078            2630     25.8732E-03     25.7986E-03
            2079            2630     25.8732E-03     25.7986E-03
            2079            2631     36.1215E-03     36.3851E-03
            2088            2631     36.1215E-03     36.3851E-03
            2080            2631     36.1215E-03     36.3851E-03
            2089            2631     36.1215E-03     36.3851E-03
            2080            2632     47.6545E-03     47.5060E-03
            2081            2632     47.6545E-03     47.5060E-03
            2090            2632     47.6545E-03     47.5060E-03
            2089            2632     47.6545E-03     47.5060E-03
            2082            2633     49.7696E-03     49.4025E-03
            2092            2633     49.7696E-03     49.4025E-03
            2083            2633     49.7696E-03     49.4025E-03
            2091            2633     49.7696E-03     49.4025E-03
            2084            2634     37.5124E-03     37.6065E-03
            2092            2634     37.5124E-03     37.6065E-03
            2093            2634     37.5124E-03     37.6065E-03
            2083            2634     37.5124E-03     37.6065E-03
            2084            2635     26.6497E-03     26.7298E-03
            2093            2635     26.6497E-03     26.7298E-03
            2085            2635     26.6497E-03     26.7298E-03
            2094            2635     26.6497E-03     26.7298E-03
            2095            2636     19.3284E-03     19.0907E-03
            2086            2636     19.3284E-03     19.0907E-03
            2094            2636     19.3284E-03     19.0907E-03
            2085            2636     19.3284E-03     19.0907E-03
            2087            2637     19.3284E-03     19.0907E-03
            2095            2637     19.3284E-03     19.0907E-03
            2086            2637     19.3284E-03     19.0907E-03
            2096            2637     19.3284E-03     19.0907E-03
            2087            2638     26.6497E-03     26.7298E-03
            2096            2638     26.6497E-03     26.7298E-03
            2088            2638     26.6497E-03     26.7298E-03
            2097            2638     26.6497E-03     26.7298E-03
            2097            2639     37.5124E-03     37.6065E-03
            2088            2639     37.5124E-03     37.6065E-03
            2089            2639     37.5124E-03     37.6065E-03
            2098            2639     37.5124E-03     37.6065E-03
            2089            2640     49.7696E-03     49.4025E-03
            2090            2640     49.7696E-03     49.4025E-03
            2098            2640     49.7696E-03     49.4025E-03
            2099            2640     49.7696E-03     49.4025E-03
            2091            2641     51.8679E-03     51.4243E-03
            2092            2641     51.8679E-03     51.4243E-03
            2101            2641     51.8679E-03     51.4243E-03
            2100            2641     51.8679E-03     51.4243E-03
            2102            2642     39.0016E-03     39.0995E-03
            2092            2642     39.0016E-03     39.0995E-03
            2101            2642     39.0016E-03     39.0995E-03
            2093            2642     39.0016E-03     39.0995E-03
            2094            2643     27.4383E-03     27.7992E-03
            2102            2643     27.4383E-03     27.7992E-03
            2093            2643     27.4383E-03     27.7992E-03
            2103            2643     27.4383E-03     27.7992E-03
            2104            2644     19.7006E-03     20.1083E-03
            2094            2644     19.7006E-03     20.1083E-03
            2095            2644     19.7006E-03     20.1083E-03
            2103            2644     19.7006E-03     20.1083E-03
            2105            2645     19.7006E-03     20.1083E-03
            2096            2645     19.7006E-03     20.1083E-03
            2095            2645     19.7006E-03     20.1083E-03
            2104            2645     19.7006E-03     20.1083E-03
            2105            2646     27.4383E-03     27.7992E-03
            2097            2646     27.4383E-03     27.7992E-03
            2096            2646     27.4383E-03     27.7992E-03
            2106            2646     27.4383E-03     27.7992E-03
            2106            2647     39.0016E-03     39.0995E-03
            2107            2647     39.0016E-03     39.0995E-03
            2097            2647     39.0016E-03     39.0995E-03
            2098            2647     39.0016E-03     39.0995E-03
            2108            2648     51.8679E-03     51.4243E-03
            2098            2648     51.8679E-03     51.4243E-03
            2099            2648     51.8679E-03     51.4243E-03
            2107            2648     51.8679E-03     51.4243E-03
            2100            2649     53.9829E-03     53.5791E-03
            2110            2649     53.9829E-03     53.5791E-03
            2101            2649     53.9829E-03     53.5791E-03
            2109            2649     53.9829E-03     53.5791E-03
            2111            2650     40.4199E-03     40.7028E-03
            2101            2650     40.4199E-03     40.7028E-03
            2102            2650     40.4199E-03     40.7028E-03
            2110            2650     40.4199E-03     40.7028E-03
            2103            2651     28.2437E-03     29.0718E-03
            2112            2651     28.2437E-03     29.0718E-03
            2102            2651     28.2437E-03     29.0718E-03
            2111            2651     28.2437E-03     29.0718E-03
            2113            2652     19.9754E-03     21.1697E-03
            2112            2652     19.9754E-03     21.1697E-03
            2103            2652     19.9754E-03     21.1697E-03
            2104            2652     19.9754E-03     21.1697E-03
            2113            2653     19.9754E-03     21.1697E-03
            2104            2653     19.9754E-03     21.1697E-03
            2114            2653     19.9754E-03     21.1697E-03
            2105            2653     19.9754E-03     21.1697E-03
            2105            2654     28.2437E-03     29.0718E-03
            2115            2654     28.2437E-03     29.0718E-03
            2106            2654     28.2437E-03     29.0718E-03
            2114            2654     28.2437E-03     29.0718E-03
            2107            2655     40.4199E-03     40.7028E-03
            2116            2655     40.4199E-03     40.7028E-03
            2115            2655     40.4199E-03     40.7028E-03
            2106            2655     40.4199E-03     40.7028E-03
            2107            2656     53.9829E-03     53.5791E-03
            2116            2656     53.9829E-03     53.5791E-03
            2117            2656     53.9829E-03     53.5791E-03
            2108            2656     53.9829E-03     53.5791E-03
            2118            2657     55.9436E-03     55.7820E-03
            2110            2657     55.9436E-03     55.7820E-03
            2119            2657     55.9436E-03     55.7820E-03
            2109            2657     55.9436E-03     55.7820E-03
            2119            2658     41.9263E-03     42.7301E-03
            2111            2658     41.9263E-03     42.7301E-03
            2110            2658     41.9263E-03     42.7301E-03
            2120            2658     41.9263E-03     42.7301E-03
            2120            2659     28.8782E-03     30.3481E-03
            2111            2659     28.8782E-03     30.3481E-03
            2121            2659     28.8782E-03     30.3481E-03
            2112            2659     28.8782E-03     30.3481E-03
            2121            2660     19.6517E-03     21.5239E-03
            2113            2660     19.6517E-03     21.5239E-03
            2112            2660     19.6517E-03     21.5239E-03
            2122            2660     19.6517E-03     21.5239E-03
            2114            2661     19.6517E-03     21.5239E-03
            2122            2661     19.6517E-03     21.5239E-03
            2123            2661     19.6517E-03     21.5239E-03
            2113            2661     19.6517E-03     21.5239E-03
            2115            2662     28.8782E-03     30.3481E-03
            2124            2662     28.8782E-03     30.3481E-03
            2114            2662     28.8782E-03     30.3481E-03
            2123            2662     28.8782E-03     30.3481E-03
            2115            2663     41.9263E-03     42.7301E-03
            2124            2663     41.9263E-03     42.7301E-03
            2125            2663     41.9263E-03     42.7301E-03
            2116            2663     41.9263E-03     42.7301E-03
            2125            2664     55.9436E-03     55.7820E-03
            2116            2664     55.9436E-03     55.7820E-03
            2117            2664     55.9436E-03     55.7820E-03
            2126            2664     55.9436E-03     55.7820E-03
            2127            2665     58.6178E-03     59.0197E-03
            2119            2665     58.6178E-03     59.0197E-03
            2128            2665     58.6178E-03     59.0197E-03
            2118            2665     58.6178E-03     59.0197E-03
            2119            2666     43.0414E-03     44.0728E-03
            2128            2666     43.0414E-03     44.0728E-03
            2120            2666     43.0414E-03     44.0728E-03
            2129            2666     43.0414E-03     44.0728E-03
            2120            2667     28.2332E-03     29.5952E-03
            2130            2667     28.2332E-03     29.5952E-03
            2121            2667     28.2332E-03     29.5952E-03
            2129            2667     28.2332E-03     29.5952E-03
            2131            2668     18.3671E-03     20.3816E-03
            2130            2668     18.3671E-03     20.3816E-03
            2121            2668     18.3671E-03     20.3816E-03
            2122            2668     18.3671E-03     20.3816E-03
            2123            2669     18.3671E-03     20.3816E-03
            2132            2669     18.3671E-03     20.3816E-03
            2122            2669     18.3671E-03     20.3816E-03
            2131            2669     18.3671E-03     20.3816E-03
            2123            2670     28.2332E-03     29.5952E-03
            2124            2670     28.2332E-03     29.5952E-03
            2132            2670     28.2332E-03     29.5952E-03
            2133            2670     28.2332E-03     29.5952E-03
            2124            2671     43.0414E-03     44.0728E-03
            2125            2671     43.0414E-03     44.0728E-03
            2133            2671     43.0414E-03     44.0728E-03
            2134            2671     43.0414E-03     44.0728E-03
            2126            2672     58.6178E-03     59.0197E-03
            2125            2672     58.6178E-03     59.0197E-03
            2135            2672     58.6178E-03     59.0197E-03
            2134            2672     58.6178E-03     59.0197E-03
            2136            2673     60.6645E-03     58.7092E-03
            2128            2673     60.6645E-03     58.7092E-03
            2127            2673     60.6645E-03     58.7092E-03
            2137            2673     60.6645E-03     58.7092E-03
            2128            2674     41.7891E-03     40.5751E-03
            2137            2674     41.7891E-03     40.5751E-03
            2129            2674     41.7891E-03     40.5751E-03
            2138            2674     41.7891E-03     40.5751E-03
            2129            2675     26.1387E-03     25.8436E-03
            2139            2675     26.1387E-03     25.8436E-03
            2130            2675     26.1387E-03     25.8436E-03
            2138            2675     26.1387E-03     25.8436E-03
            2131            2676     15.3553E-03     16.4259E-03
            2140            2676     15.3553E-03     16.4259E-03
            2139            2676     15.3553E-03     16.4259E-03
            2130            2676     15.3553E-03     16.4259E-03
            2131            2677     15.3553E-03     16.4259E-03
            2141            2677     15.3553E-03     16.4259E-03
            2140            2677     15.3553E-03     16.4259E-03
            2132            2677     15.3553E-03     16.4259E-03
            2132            2678     26.1387E-03     25.8436E-03
            2133            2678     26.1387E-03     25.8436E-03
            2142            2678     26.1387E-03     25.8436E-03
            2141            2678     26.1387E-03     25.8436E-03
            2142            2679     41.7891E-03     40.5751E-03
            2133            2679     41.7891E-03     40.5751E-03
            2143            2679     41.7891E-03     40.5751E-03
            2134            2679     41.7891E-03     40.5751E-03
            2144            2680     60.6645E-03     58.7092E-03
            2143            2680     60.6645E-03     58.7092E-03
            2135            2680     60.6645E-03     58.7092E-03
            2134            2680     60.6645E-03     58.7092E-03
            2146            2681     57.0867E-03     51.3594E-03
            2137            2681     57.0867E-03     51.3594E-03
            2145            2681     57.0867E-03     51.3594E-03
            2136            2681     57.0867E-03     51.3594E-03
            2146            2682     40.4157E-03     36.1401E-03
            2138            2682     40.4157E-03     36.1401E-03
            2137            2682     40.4157E-03     36.1401E-03
            2147            2682     40.4157E-03     36.1401E-03
            2138            2683     27.3777E-03     25.0013E-03
            2139            2683     27.3777E-03     25.0013E-03
            2148            2683     27.3777E-03     25.0013E-03
            2147            2683     27.3777E-03     25.0013E-03
            2148            2684     18.1435E-03     17.3395E-03
            2140            2684     18.1435E-03     17.3395E-03
            2149            2684     18.1435E-03     17.3395E-03
            2139            2684     18.1435E-03     17.3395E-03
            2149            2685     18.1435E-03     17.3395E-03
            2150            2685     18.1435E-03     17.3395E-03
            2141            2685     18.1435E-03     17.3395E-03
            2140            2685     18.1435E-03     17.3395E-03
            2151            2686     27.3777E-03     25.0013E-03
            2142            2686     27.3777E-03     25.0013E-03
            2141            2686     27.3777E-03     25.0013E-03
            2150            2686     27.3777E-03     25.0013E-03
            2143            2687     40.4157E-03     36.1401E-03
            2151            2687     40.4157E-03     36.1401E-03
            2152            2687     40.4157E-03     36.1401E-03
            2142            2687     40.4157E-03     36.1401E-03
            2153            2688     57.0867E-03     51.3594E-03
            2143            2688     57.0867E-03     51.3594E-03
            2152            2688     57.0867E-03     51.3594E-03
            2144            2688     57.0867E-03     51.3594E-03
            2155            2689     55.2680E-03     52.5630E-03
            2146            2689     55.2680E-03     52.5630E-03
            2154            2689     55.2680E-03     52.5630E-03
            2145            2689     55.2680E-03     52.5630E-03
            2147            2690     41.9567E-03     39.0120E-03
            2156            2690     41.9567E-03     39.0120E-03
            2155            2690     41.9567E-03     39.0120E-03
            2146            2690     41.9567E-03     39.0120E-03
            2156            2691     29.8582E-03     27.2520E-03
            2157            2691     29.8582E-03     27.2520E-03
            2148            2691     29.8582E-03     27.2520E-03
            2147            2691     29.8582E-03     27.2520E-03
            2158            2692     21.8410E-03     19.5787E-03
            2157            2692     21.8410E-03     19.5787E-03
            2149            2692     21.8410E-03     19.5787E-03
            2148            2692     21.8410E-03     19.5787E-03
            2149            2693     21.8410E-03     19.5787E-03
            2150            2693     21.8410E-03     19.5787E-03
            2159            2693     21.8410E-03     19.5787E-03
            2158            2693     21.8410E-03     19.5787E-03
            2151            2694     29.8582E-03     27.2520E-03
            2159            2694     29.8582E-03     27.2520E-03
            2160            2694     29.8582E-03     27.2520E-03
            2150            2694     29.8582E-03     27.2520E-03
            2152            2695     41.9567E-03     39.0120E-03
            2151            2695     41.9567E-03     39.0120E-03
            2160            2695     41.9567E-03     39.0120E-03
            2161            2695     41.9567E-03     39.0120E-03
            2162            2696     55.2680E-03     52.5630E-03
            2161            2696     55.2680E-03     52.5630E-03
            2152            2696     55.2680E-03     52.5630E-03
            2153            2696     55.2680E-03     52.5630E-03
            2164            2697     58.5526E-03     59.5235E-03
            2155            2697     58.5526E-03     59.5235E-03
            2154            2697     58.5526E-03     59.5235E-03
            2163            2697     58.5526E-03     59.5235E-03
            2156            2698     44.1444E-03     44.4854E-03
            2165            2698     44.1444E-03     44.4854E-03
            2155            2698     44.1444E-03     44.4854E-03
            2164            2698     44.1444E-03     44.4854E-03
            2157            2699     30.2749E-03     29.0591E-03
            2156            2699     30.2749E-03     29.0591E-03
            2166            2699     30.2749E-03     29.0591E-03
            2165            2699     30.2749E-03     29.0591E-03
            2157            2700     20.3645E-03     17.8941E-03
            2158            2700     20.3645E-03     17.8941E-03
            2167            2700     20.3645E-03     17.8941E-03
            2166            2700     20.3645E-03     17.8941E-03
            2159            2701     20.3645E-03     17.8941E-03
            2167            2701     20.3645E-03     17.8941E-03
            2158            2701     20.3645E-03     17.8941E-03
            2168            2701     20.3645E-03     17.8941E-03
            2168            2702     30.2749E-03     29.0591E-03
            2160            2702     30.2749E-03     29.0591E-03
            2159            2702     30.2749E-03     29.0591E-03
            2169            2702     30.2749E-03     29.0591E-03
            2161            2703     44.1444E-03     44.4854E-03
            2160            2703     44.1444E-03     44.4854E-03
            2170            2703     44.1444E-03     44.4854E-03
            2169            2703     44.1444E-03     44.4854E-03
            2171            2704     58.5526E-03     59.5235E-03
            2170            2704     58.5526E-03     59.5235E-03
            2161            2704     58.5526E-03     59.5235E-03
            2162            2704     58.5526E-03     59.5235E-03
            2163            2705     60.9400E-03     61.2782E-03
            2172            2705     60.9400E-03     61.2782E-03
            2164            2705     60.9400E-03     61.2782E-03
            2173            2705     60.9400E-03     61.2782E-03
            2165            2706     45.5742E-03     46.5476E-03
            2173            2706     45.5742E-03     46.5476E-03
            2164            2706     45.5742E-03     46.5476E-03
            2174            2706     45.5742E-03     46.5476E-03
            2166            2707     30.9900E-03     30.8755E-03
            2165            2707     30.9900E-03     30.8755E-03
            2174            2707     30.9900E-03     30.8755E-03
            2175            2707     30.9900E-03     30.8755E-03
            2175            2708     20.3040E-03     18.5407E-03
            2167            2708     20.3040E-03     18.5407E-03
            2176            2708     20.3040E-03     18.5407E-03
            2166            2708     20.3040E-03     18.5407E-03
            2177            2709     20.3040E-03     18.5407E-03
            2167            2709     20.3040E-03     18.5407E-03
            2176            2709     20.3040E-03     18.5407E-03
            2168            2709     20.3040E-03     18.5407E-03
            2168            2710     30.9900E-03     30.8755E-03
            2177            2710     30.9900E-03     30.8755E-03
            2178            2710     30.9900E-03     30.8755E-03
            2169            2710     30.9900E-03     30.8755E-03
            2179            2711     45.5742E-03     46.5476E-03
            2178            2711     45.5742E-03     46.5476E-03
            2169            2711     45.5742E-03     46.5476E-03
            2170            2711     45.5742E-03     46.5476E-03
            2170            2712     60.9400E-03     61.2782E-03
            2171            2712     60.9400E-03     61.2782E-03
            2179            2712     60.9400E-03     61.2782E-03
            2180            2712     60.9400E-03     61.2782E-03
            2181            2713     63.2910E-03     63.1758E-03
            2172            2713     63.2910E-03     63.1758E-03
            2173            2713     63.2910E-03     63.1758E-03
            2182            2713     63.2910E-03     63.1758E-03
            2173            2714     46.9161E-03     47.4617E-03
            2183            2714     46.9161E-03     47.4617E-03
            2182            2714     46.9161E-03     47.4617E-03
            2174            2714     46.9161E-03     47.4617E-03
            2175            2715     31.7194E-03     32.0129E-03
            2184            2715     31.7194E-03     32.0129E-03
            2183            2715     31.7194E-03     32.0129E-03
            2174            2715     31.7194E-03     32.0129E-03
            2185            2716     20.6334E-03     19.8366E-03
            2184            2716     20.6334E-03     19.8366E-03
            2176            2716     20.6334E-03     19.8366E-03
            2175            2716     20.6334E-03     19.8366E-03
            2186            2717     20.6334E-03     19.8366E-03
            2176            2717     20.6334E-03     19.8366E-03
            2177            2717     20.6334E-03     19.8366E-03
            2185            2717     20.6334E-03     19.8366E-03
            2187            2718     31.7194E-03     32.0129E-03
            2186            2718     31.7194E-03     32.0129E-03
            2177            2718     31.7194E-03     32.0129E-03
            2178            2718     31.7194E-03     32.0129E-03
            2179            2719     46.9161E-03     47.4617E-03
            2187            2719     46.9161E-03     47.4617E-03
            2178            2719     46.9161E-03     47.4617E-03
            2188            2719     46.9161E-03     47.4617E-03
            2188            2720     63.2910E-03     63.1758E-03
            2189            2720     63.2910E-03     63.1758E-03
            2180            2720     63.2910E-03     63.1758E-03
            2179            2720     63.2910E-03     63.1758E-03
            2190            2721     65.5320E-03     65.1893E-03
            2181            2721     65.5320E-03     65.1893E-03
            2182            2721     65.5320E-03     65.1893E-03
            2191            2721     65.5320E-03     65.1893E-03
            2182            2722     48.4273E-03     48.8707E-03
            2192            2722     48.4273E-03     48.8707E-03
            2183            2722     48.4273E-03     48.8707E-03
            2191            2722     48.4273E-03     48.8707E-03
            2183            2723     32.4965E-03     33.0431E-03
            2193            2723     32.4965E-03     33.0431E-03
            2192            2723     32.4965E-03     33.0431E-03
            2184            2723     32.4965E-03     33.0431E-03
            2193            2724     21.0751E-03     21.2930E-03
            2194            2724     21.0751E-03     21.2930E-03
            2184            2724     21.0751E-03     21.2930E-03
            2185            2724     21.0751E-03     21.2930E-03
            2186            2725     21.0751E-03     21.2930E-03
            2195            2725     21.0751E-03     21.2930E-03
            2185            2725     21.0751E-03     21.2930E-03
            2194            2725     21.0751E-03     21.2930E-03
            2196            2726     32.4965E-03     33.0431E-03
            2186            2726     32.4965E-03     33.0431E-03
            2187            2726     32.4965E-03     33.0431E-03
            2195            2726     32.4965E-03     33.0431E-03
            2188            2727     48.4273E-03     48.8707E-03
            2197            2727     48.4273E-03     48.8707E-03
            2196            2727     48.4273E-03     48.8707E-03
            2187            2727     48.4273E-03     48.8707E-03
            2188            2728     65.5320E-03     65.1893E-03
            2189            2728     65.5320E-03     65.1893E-03
            2198            2728     65.5320E-03     65.1893E-03
            2197            2728     65.5320E-03     65.1893E-03
            2191            2729     67.6639E-03     67.3230E-03
            2199            2729     67.6639E-03     67.3230E-03
            2190            2729     67.6639E-03     67.3230E-03
            2200            2729     67.6639E-03     67.3230E-03
            2201            2730     49.8729E-03     50.4311E-03
            2200            2730     49.8729E-03     50.4311E-03
            2191            2730     49.8729E-03     50.4311E-03
            2192            2730     49.8729E-03     50.4311E-03
            2202            2731     33.3408E-03     34.4536E-03
            2192            2731     33.3408E-03     34.4536E-03
            2193            2731     33.3408E-03     34.4536E-03
            2201            2731     33.3408E-03     34.4536E-03
            2194            2732     21.4357E-03     22.7917E-03
            2202            2732     21.4357E-03     22.7917E-03
            2203            2732     21.4357E-03     22.7917E-03
            2193            2732     21.4357E-03     22.7917E-03
            2195            2733     21.4357E-03     22.7917E-03
            2204            2733     21.4357E-03     22.7917E-03
            2203            2733     21.4357E-03     22.7917E-03
            2194            2733     21.4357E-03     22.7917E-03
            2205            2734     33.3408E-03     34.4536E-03
            2196            2734     33.3408E-03     34.4536E-03
            2195            2734     33.3408E-03     34.4536E-03
            2204            2734     33.3408E-03     34.4536E-03
            2205            2735     49.8729E-03     50.4311E-03
            2206            2735     49.8729E-03     50.4311E-03
            2196            2735     49.8729E-03     50.4311E-03
            2197            2735     49.8729E-03     50.4311E-03
            2198            2736     67.6639E-03     67.3230E-03
            2207            2736     67.6639E-03     67.3230E-03
            2197            2736     67.6639E-03     67.3230E-03
            2206            2736     67.6639E-03     67.3230E-03
            2208            2737     69.6388E-03     69.5504E-03
            2209            2737     69.6388E-03     69.5504E-03
            2200            2737     69.6388E-03     69.5504E-03
            2199            2737     69.6388E-03     69.5504E-03
            2210            2738     51.4157E-03     52.5746E-03
            2200            2738     51.4157E-03     52.5746E-03
            2209            2738     51.4157E-03     52.5746E-03
            2201            2738     51.4157E-03     52.5746E-03
            2210            2739     34.0224E-03     35.8708E-03
            2211            2739     34.0224E-03     35.8708E-03
            2202            2739     34.0224E-03     35.8708E-03
            2201            2739     34.0224E-03     35.8708E-03
            2211            2740     21.0752E-03     23.3516E-03
            2212            2740     21.0752E-03     23.3516E-03
            2203            2740     21.0752E-03     23.3516E-03
            2202            2740     21.0752E-03     23.3516E-03
            2212            2741     21.0752E-03     23.3516E-03
            2203            2741     21.0752E-03     23.3516E-03
            2213            2741     21.0752E-03     23.3516E-03
            2204            2741     21.0752E-03     23.3516E-03
            2214            2742     34.0224E-03     35.8708E-03
            2205            2742     34.0224E-03     35.8708E-03
            2204            2742     34.0224E-03     35.8708E-03
            2213            2742     34.0224E-03     35.8708E-03
            2205            2743     51.4157E-03     52.5746E-03
            2206            2743     51.4157E-03     52.5746E-03
            2214            2743     51.4157E-03     52.5746E-03
            2215            2743     51.4157E-03     52.5746E-03
            2215            2744     69.6388E-03     69.5504E-03
            2207            2744     69.6388E-03     69.5504E-03
            2206            2744     69.6388E-03     69.5504E-03
            2216            2744     69.6388E-03     69.5504E-03
            2218            2745     72.3467E-03     72.9514E-03
            2209            2745     72.3467E-03     72.9514E-03
            2217            2745     72.3467E-03     72.9514E-03
            2208            2745     72.3467E-03     72.9514E-03
            2209            2746     52.4970E-03     53.8001E-03
            2218            2746     52.4970E-03     53.8001E-03
            2219            2746     52.4970E-03     53.8001E-03
            2210            2746     52.4970E-03     53.8001E-03
            2219            2747     33.2465E-03     34.8289E-03
            2210            2747     33.2465E-03     34.8289E-03
            2211            2747     33.2465E-03     34.8289E-03
            2220            2747     33.2465E-03     34.8289E-03
            2211            2748     19.6447E-03     22.1091E-03
            2220            2748     19.6447E-03     22.1091E-03
            2221            2748     19.6447E-03     22.1091E-03
            2212            2748     19.6447E-03     22.1091E-03
            2221            2749     19.6447E-03     22.1091E-03
            2222            2749     19.6447E-03     22.1091E-03
            2213            2749     19.6447E-03     22.1091E-03
            2212            2749     19.6447E-03     22.1091E-03
            2223            2750     33.2465E-03     34.8289E-03
            2222            2750     33.2465E-03     34.8289E-03
            2213            2750     33.2465E-03     34.8289E-03
            2214            2750     33.2465E-03     34.8289E-03
            2224            2751     52.4970E-03     53.8001E-03
            2215            2751     52.4970E-03     53.8001E-03
            2214            2751     52.4970E-03     53.8001E-03
            2223            2751     52.4970E-03     53.8001E-03
            2216            2752     72.3467E-03     72.9514E-03
            2224            2752     72.3467E-03     72.9514E-03
            2225            2752     72.3467E-03     72.9514E-03
            2215            2752     72.3467E-03     72.9514E-03
            2218            2753     74.2412E-03     71.6942E-03
            2226            2753     74.2412E-03     71.6942E-03
            2227            2753     74.2412E-03     71.6942E-03
            2217            2753     74.2412E-03     71.6942E-03
            2219            2754     50.8539E-03     49.1127E-03
            2218            2754     50.8539E-03     49.1127E-03
            2228            2754     50.8539E-03     49.1127E-03
            2227            2754     50.8539E-03     49.1127E-03
            2228            2755     30.9083E-03     30.2652E-03
            2220            2755     30.9083E-03     30.2652E-03
            2229            2755     30.9083E-03     30.2652E-03
            2219            2755     30.9083E-03     30.2652E-03
            2221            2756     16.1705E-03     17.3938E-03
            2230            2756     16.1705E-03     17.3938E-03
            2229            2756     16.1705E-03     17.3938E-03
            2220            2756     16.1705E-03     17.3938E-03
            2230            2757     16.1705E-03     17.3938E-03
            2222            2757     16.1705E-03     17.3938E-03
            2221            2757     16.1705E-03     17.3938E-03
            2231            2757     16.1705E-03     17.3938E-03
            2231            2758     30.9083E-03     30.2652E-03
            2232            2758     30.9083E-03     30.2652E-03
            2222            2758     30.9083E-03     30.2652E-03
            2223            2758     30.9083E-03     30.2652E-03
            2223            2759     50.8539E-03     49.1127E-03
            2232            2759     50.8539E-03     49.1127E-03
            2224            2759     50.8539E-03     49.1127E-03
            2233            2759     50.8539E-03     49.1127E-03
            2224            2760     74.2412E-03     71.6942E-03
            2225            2760     74.2412E-03     71.6942E-03
            2234            2760     74.2412E-03     71.6942E-03
            2233            2760     74.2412E-03     71.6942E-03
            2245            2761     2.76844E-15     2.87461E-15
            2244            2761     2.76844E-15     2.87461E-15
            2236            2761     2.76844E-15     2.87461E-15
            2235            2761     2.76844E-15     2.87461E-15
            2237            2762     2.39857E-15     1.78122E-15
            2245            2762     2.39857E-15     1.78122E-15
            2236            2762     2.39857E-15     1.78122E-15
            2246            2762     2.39857E-15     1.78122E-15
            2238            2763     1.46909E-15     1.26186E-15
            2246            2763     1.46909E-15     1.26186E-15
            2247            2763     1.46909E-15     1.26186E-15
            2237            2763     1.46909E-15     1.26186E-15
            2248            2764     1.02936E-15     693.203E-18
            2238            2764     1.02936E-15     693.203E-18
            2239            2764     1.02936E-15     693.203E-18
            2247            2764     1.02936E-15     693.203E-18
            2249            2765     1.03880E-15     1.03044E-15
            2248            2765     1.03880E-15     1.03044E-15
            2239            2765     1.03880E-15     1.03044E-15
            2240            2765     1.03880E-15     1.03044E-15
            2249            2766     1.85711E-15     2.14991E-15
            2241            2766     1.85711E-15     2.14991E-15
            2240            2766     1.85711E-15     2.14991E-15
            2250            2766     1.85711E-15     2.14991E-15
            2242            2767     2.85709E-15     2.79501E-15
            2250            2767     2.85709E-15     2.79501E-15
            2251            2767     2.85709E-15     2.79501E-15
            2241            2767     2.85709E-15     2.79501E-15
            2243            2768     2.82687E-15     2.37286E-15
            2242            2768     2.82687E-15     2.37286E-15
            2252            2768     2.82687E-15     2.37286E-15
            2251            2768     2.82687E-15     2.37286E-15
            2254            2769     3.47347E-15     3.33120E-15
            2253            2769     3.47347E-15     3.33120E-15
            2245            2769     3.47347E-15     3.33120E-15
            2244            2769     3.47347E-15     3.33120E-15
            2246            2770     2.48259E-15     2.47995E-15
            2254            2770     2.48259E-15     2.47995E-15
            2245            2770     2.48259E-15     2.47995E-15
            2255            2770     2.48259E-15     2.47995E-15
            2255            2771     1.27217E-15     1.24536E-15
            2247            2771     1.27217E-15     1.24536E-15
            2256            2771     1.27217E-15     1.24536E-15
            2246            2771     1.27217E-15     1.24536E-15
            2247            2772     1.09845E-15     1.03782E-15
            2248            2772     1.09845E-15     1.03782E-15
            2257            2772     1.09845E-15     1.03782E-15
            2256            2772     1.09845E-15     1.03782E-15
            2257            2773     837.973E-18     1.22235E-15
            2258            2773     837.973E-18     1.22235E-15
            2249            2773     837.973E-18     1.22235E-15
            2248            2773     837.973E-18     1.22235E-15
            2258            2774     1.42749E-15     1.64705E-15
            2259            2774     1.42749E-15     1.64705E-15
            2250            2774     1.42749E-15     1.64705E-15
            2249            2774     1.42749E-15     1.64705E-15
            2251            2775     2.14960E-15     2.30326E-15
            2260            2775     2.14960E-15     2.30326E-15
            2259            2775     2.14960E-15     2.30326E-15
            2250            2775     2.14960E-15     2.30326E-15
            2251            2776     2.47659E-15     2.71382E-15
            2252            2776     2.47659E-15     2.71382E-15
            2260            2776     2.47659E-15     2.71382E-15
            2261            2776     2.47659E-15     2.71382E-15
            2254            2777     3.67010E-15     2.84337E-15
            2253            2777     3.67010E-15     2.84337E-15
            2263            2777     3.67010E-15     2.84337E-15
            2262            2777     3.67010E-15     2.84337E-15
            2264            2778     2.04026E-15     2.26244E-15
            2263            2778     2.04026E-15     2.26244E-15
            2254            2778     2.04026E-15     2.26244E-15
            2255            2778     2.04026E-15     2.26244E-15
            2256            2779     1.53587E-15     1.54769E-15
            2255            2779     1.53587E-15     1.54769E-15
            2265            2779     1.53587E-15     1.54769E-15
            2264            2779     1.53587E-15     1.54769E-15
            2265            2780     1.19875E-15     1.15007E-15
            2266            2780     1.19875E-15     1.15007E-15
            2256            2780     1.19875E-15     1.15007E-15
            2257            2780     1.19875E-15     1.15007E-15
            2267            2781     964.329E-18     1.15848E-15
            2258            2781     964.329E-18     1.15848E-15
            2257            2781     964.329E-18     1.15848E-15
            2266            2781     964.329E-18     1.15848E-15
            2267            2782     1.46288E-15     1.55603E-15
            2259            2782     1.46288E-15     1.55603E-15
            2268            2782     1.46288E-15     1.55603E-15
            2258            2782     1.46288E-15     1.55603E-15
            2268            2783     1.79742E-15     2.11772E-15
            2269            2783     1.79742E-15     2.11772E-15
            2260            2783     1.79742E-15     2.11772E-15
            2259            2783     1.79742E-15     2.11772E-15
            2261            2784     2.65761E-15     2.98895E-15
            2269            2784     2.65761E-15     2.98895E-15
            2260            2784     2.65761E-15     2.98895E-15
            2270            2784     2.65761E-15     2.98895E-15
            3851            4163     80.5927E-03     78.6473E-03
            3860            4163     80.5927E-03     78.6473E-03
            3852            4163     80.5927E-03     78.6473E-03
            3861            4163     80.5927E-03     78.6473E-03
            3852            4164     55.0277E-03     54.2065E-03
            3853            4164     55.0277E-03     54.2065E-03
            3862            4164     55.0277E-03     54.2065E-03
            3861            4164     55.0277E-03     54.2065E-03
            3862            4165     33.8366E-03     33.6718E-03
            3853            4165     33.8366E-03     33.6718E-03
            3854            4165     33.8366E-03     33.6718E-03
            3863            4165     33.8366E-03     33.6718E-03
            3854            4166     18.5837E-03     19.2924E-03
            3855            4166     18.5837E-03     19.2924E-03
            3864            4166     18.5837E-03     19.2924E-03
            3863            4166     18.5837E-03     19.2924E-03
            3864            4167     18.5837E-03     19.2924E-03
            3855            4167     18.5837E-03     19.2924E-03
            3856            4167     18.5837E-03     19.2924E-03
            3865            4167     18.5837E-03     19.2924E-03
            3856            4168     33.8366E-03     33.6718E-03
            3866            4168     33.8366E-03     33.6718E-03
            3857            4168     33.8366E-03     33.6718E-03
            3865            4168     33.8366E-03     33.6718E-03
            3867            4169     55.0277E-03     54.2065E-03
            3857            4169     55.0277E-03     54.2065E-03
            3866            4169     55.0277E-03     54.2065E-03
            3858            4169     55.0277E-03     54.2065E-03
            3858            4170     80.5927E-03     78.6473E-03
            3868            4170     80.5927E-03     78.6473E-03
            3867            4170     80.5927E-03     78.6473E-03
            3859            4170     80.5927E-03     78.6473E-03
            3860            4171     78.3337E-03     80.0435E-03
            3870            4171     78.3337E-03     80.0435E-03
            3869            4171     78.3337E-03     80.0435E-03
            3861            4171     78.3337E-03     80.0435E-03
            3871            4172     57.2425E-03     59.8317E-03
            3861            4172     57.2425E-03     59.8317E-03
            3870            4172     57.2425E-03     59.8317E-03
            3862            4172     57.2425E-03     59.8317E-03
            3871            4173     36.8798E-03     38.7889E-03
            3863            4173     36.8798E-03     38.7889E-03
            3862            4173     36.8798E-03     38.7889E-03
            3872            4173     36.8798E-03     38.7889E-03
            3872            4174     22.5733E-03     23.7877E-03
            3863            4174     22.5733E-03     23.7877E-03
            3873            4174     22.5733E-03     23.7877E-03
            3864            4174     22.5733E-03     23.7877E-03
            3873            4175     22.5733E-03     23.7877E-03
            3864            4175     22.5733E-03     23.7877E-03
            3865            4175     22.5733E-03     23.7877E-03
            3874            4175     22.5733E-03     23.7877E-03
            3865            4176     36.8798E-03     38.7889E-03
            3866            4176     36.8798E-03     38.7889E-03
            3875            4176     36.8798E-03     38.7889E-03
            3874            4176     36.8798E-03     38.7889E-03
            3866            4177     57.2425E-03     59.8317E-03
            3876            4177     57.2425E-03     59.8317E-03
            3867            4177     57.2425E-03     59.8317E-03
            3875            4177     57.2425E-03     59.8317E-03
            3868            4178     78.3337E-03     80.0435E-03
            3867            4178     78.3337E-03     80.0435E-03
            3876            4178     78.3337E-03     80.0435E-03
            3877            4178     78.3337E-03     80.0435E-03
            3870            4179     74.7723E-03     76.4282E-03
            3879            4179     74.7723E-03     76.4282E-03
            3869            4179     74.7723E-03     76.4282E-03
            3878            4179     74.7723E-03     76.4282E-03
            3879            4180     56.4838E-03     59.4947E-03
            3870            4180     56.4838E-03     59.4947E-03
            3871            4180     56.4838E-03     59.4947E-03
            3880            4180     56.4838E-03     59.4947E-03
            3880            4181     38.2865E-03     40.2555E-03
            3871            4181     38.2865E-03     40.2555E-03
            3872            4181     38.2865E-03     40.2555E-03
            3881            4181     38.2865E-03     40.2555E-03
            3882            4182     24.4510E-03     24.9268E-03
            3872            4182     24.4510E-03     24.9268E-03
            3881            4182     24.4510E-03     24.9268E-03
            3873            4182     24.4510E-03     24.9268E-03
            3883            4183     24.4510E-03     24.9268E-03
            3882            4183     24.4510E-03     24.9268E-03
            3873            4183     24.4510E-03     24.9268E-03
            3874            4183     24.4510E-03     24.9268E-03
            3875            4184     38.2865E-03     40.2555E-03
            3883            4184     38.2865E-03     40.2555E-03
            3874            4184     38.2865E-03     40.2555E-03
            3884            4184     38.2865E-03     40.2555E-03
            3875            4185     56.4838E-03     59.4947E-03
            3876            4185     56.4838E-03     59.4947E-03
            3884            4185     56.4838E-03     59.4947E-03
            3885            4185     56.4838E-03     59.4947E-03
            3877            4186     74.7723E-03     76.4282E-03
            3876            4186     74.7723E-03     76.4282E-03
            3885            4186     74.7723E-03     76.4282E-03
            3886            4186     74.7723E-03     76.4282E-03
            3888            4187     72.0324E-03     73.8202E-03
            3878            4187     72.0324E-03     73.8202E-03
            3887            4187     72.0324E-03     73.8202E-03
            3879            4187     72.0324E-03     73.8202E-03
            3888            4188     54.6603E-03     56.1688E-03
            3880            4188     54.6603E-03     56.1688E-03
            3879            4188     54.6603E-03     56.1688E-03
            3889            4188     54.6603E-03     56.1688E-03
            3890            4189     37.8131E-03     37.9888E-03
            3880            4189     37.8131E-03     37.9888E-03
            3881            4189     37.8131E-03     37.9888E-03
            3889            4189     37.8131E-03     37.9888E-03
            3890            4190     25.7486E-03     25.0881E-03
            3881            4190     25.7486E-03     25.0881E-03
            3891            4190     25.7486E-03     25.0881E-03
            3882            4190     25.7486E-03     25.0881E-03
            3891            4191     25.7486E-03     25.0881E-03
            3892            4191     25.7486E-03     25.0881E-03
            3883            4191     25.7486E-03     25.0881E-03
            3882            4191     25.7486E-03     25.0881E-03
            3892            4192     37.8131E-03     37.9888E-03
            3893            4192     37.8131E-03     37.9888E-03
            3883            4192     37.8131E-03     37.9888E-03
            3884            4192     37.8131E-03     37.9888E-03
            3893            4193     54.6603E-03     56.1688E-03
            3885            4193     54.6603E-03     56.1688E-03
            3884            4193     54.6603E-03     56.1688E-03
            3894            4193     54.6603E-03     56.1688E-03
            3895            4194     72.0324E-03     73.8202E-03
            3885            4194     72.0324E-03     73.8202E-03
            3886            4194     72.0324E-03     73.8202E-03
            3894            4194     72.0324E-03     73.8202E-03
            3888            4195     67.5565E-03     65.2619E-03
            3887            4195     67.5565E-03     65.2619E-03
            3896            4195     67.5565E-03     65.2619E-03
            3897            4195     67.5565E-03     65.2619E-03
            3897            4196     51.6841E-03     49.4558E-03
            3889            4196     51.6841E-03     49.4558E-03
            3898            4196     51.6841E-03     49.4558E-03
            3888            4196     51.6841E-03     49.4558E-03
            3889            4197     37.3541E-03     35.6462E-03
            3899            4197     37.3541E-03     35.6462E-03
            3890            4197     37.3541E-03     35.6462E-03
            3898            4197     37.3541E-03     35.6462E-03
            3900            4198     27.9798E-03     26.7813E-03
            3899            4198     27.9798E-03     26.7813E-03
            3891            4198     27.9798E-03     26.7813E-03
            3890            4198     27.9798E-03     26.7813E-03
            3891            4199     27.9798E-03     26.7813E-03
            3892            4199     27.9798E-03     26.7813E-03
            3901            4199     27.9798E-03     26.7813E-03
            3900            4199     27.9798E-03     26.7813E-03
            3893            4200     37.3541E-03     35.6462E-03
            3892            4200     37.3541E-03     35.6462E-03
            3901            4200     37.3541E-03     35.6462E-03
            3902            4200     37.3541E-03     35.6462E-03
            3902            4201     51.6841E-03     49.4558E-03
            3894            4201     51.6841E-03     49.4558E-03
            3893            4201     51.6841E-03     49.4558E-03
            3903            4201     51.6841E-03     49.4558E-03
            3895            4202     67.5565E-03     65.2619E-03
            3894            4202     67.5565E-03     65.2619E-03
            3904            4202     67.5565E-03     65.2619E-03
            3903            4202     67.5565E-03     65.2619E-03
            3905            4203     66.5805E-03     63.7863E-03
            3906            4203     66.5805E-03     63.7863E-03
            3915            4203     66.5805E-03     63.7863E-03
            3914            4203     66.5805E-03     63.7863E-03
            3915            4204     48.8415E-03     46.9838E-03
            3916            4204     48.8415E-03     46.9838E-03
            3907            4204     48.8415E-03     46.9838E-03
            3906            4204     48.8415E-03     46.9838E-03
            3907            4205     32.5942E-03     31.7479E-03
            3917            4205     32.5942E-03     31.7479E-03
            3916            4205     32.5942E-03     31.7479E-03
            3908            4205     32.5942E-03     31.7479E-03
            3909            4206     20.5494E-03     20.2417E-03
            3917            4206     20.5494E-03     20.2417E-03
            3918            4206     20.5494E-03     20.2417E-03
            3908            4206     20.5494E-03     20.2417E-03
            3918            4207     20.5494E-03     20.2417E-03
            3910            4207     20.5494E-03     20.2417E-03
            3919            4207     20.5494E-03     20.2417E-03
            3909            4207     20.5494E-03     20.2417E-03
            3919            4208     32.5942E-03     31.7479E-03
            3910            4208     32.5942E-03     31.7479E-03
            3920            4208     32.5942E-03     31.7479E-03
            3911            4208     32.5942E-03     31.7479E-03
            3921            4209     48.8415E-03     46.9838E-03
            3911            4209     48.8415E-03     46.9838E-03
            3920            4209     48.8415E-03     46.9838E-03
            3912            4209     48.8415E-03     46.9838E-03
            3913            4210     66.5805E-03     63.7863E-03
            3921            4210     66.5805E-03     63.7863E-03
            3912            4210     66.5805E-03     63.7863E-03
            3922            4210     66.5805E-03     63.7863E-03
            3915            4211     70.4739E-03     68.8025E-03
            3923            4211     70.4739E-03     68.8025E-03
            3924            4211     70.4739E-03     68.8025E-03
            3914            4211     70.4739E-03     68.8025E-03
            3916            4212     52.5806E-03     51.2210E-03
            3925            4212     52.5806E-03     51.2210E-03
            3915            4212     52.5806E-03     51.2210E-03
            3924            4212     52.5806E-03     51.2210E-03
            3916            4213     36.3950E-03     35.5434E-03
            3917            4213     36.3950E-03     35.5434E-03
            3925            4213     36.3950E-03     35.5434E-03
            3926            4213     36.3950E-03     35.5434E-03
            3926            4214     25.2659E-03     24.8246E-03
            3918            4214     25.2659E-03     24.8246E-03
            3917            4214     25.2659E-03     24.8246E-03
            3927            4214     25.2659E-03     24.8246E-03
            3919            4215     25.2659E-03     24.8246E-03
            3928            4215     25.2659E-03     24.8246E-03
            3918            4215     25.2659E-03     24.8246E-03
            3927            4215     25.2659E-03     24.8246E-03
            3929            4216     36.3950E-03     35.5434E-03
            3920            4216     36.3950E-03     35.5434E-03
            3928            4216     36.3950E-03     35.5434E-03
            3919            4216     36.3950E-03     35.5434E-03
            3930            4217     52.5806E-03     51.2210E-03
            3920            4217     52.5806E-03     51.2210E-03
            3929            4217     52.5806E-03     51.2210E-03
            3921            4217     52.5806E-03     51.2210E-03
            3930            4218     70.4739E-03     68.8025E-03
            3931            4218     70.4739E-03     68.8025E-03
            3922            4218     70.4739E-03     68.8025E-03
            3921            4218     70.4739E-03     68.8025E-03
            3923            4219     74.4573E-03     76.7276E-03
            3933            4219     74.4573E-03     76.7276E-03
            3924            4219     74.4573E-03     76.7276E-03
            3932            4219     74.4573E-03     76.7276E-03
            3925            4220     55.7938E-03     58.1136E-03
            3934            4220     55.7938E-03     58.1136E-03
            3933            4220     55.7938E-03     58.1136E-03
            3924            4220     55.7938E-03     58.1136E-03
            3926            4221     36.7613E-03     37.6561E-03
            3934            4221     36.7613E-03     37.6561E-03
            3935            4221     36.7613E-03     37.6561E-03
            3925            4221     36.7613E-03     37.6561E-03
            3926            4222     22.1728E-03     22.1565E-03
            3935            4222     22.1728E-03     22.1565E-03
            3936            4222     22.1728E-03     22.1565E-03
            3927            4222     22.1728E-03     22.1565E-03
            3927            4223     22.1728E-03     22.1565E-03
            3936            4223     22.1728E-03     22.1565E-03
            3937            4223     22.1728E-03     22.1565E-03
            3928            4223     22.1728E-03     22.1565E-03
            3929            4224     36.7613E-03     37.6561E-03
            3937            4224     36.7613E-03     37.6561E-03
            3928            4224     36.7613E-03     37.6561E-03
            3938            4224     36.7613E-03     37.6561E-03
            3938            4225     55.7938E-03     58.1136E-03
            3930            4225     55.7938E-03     58.1136E-03
            3929            4225     55.7938E-03     58.1136E-03
            3939            4225     55.7938E-03     58.1136E-03
            3931            4226     74.4573E-03     76.7276E-03
            3930            4226     74.4573E-03     76.7276E-03
            3939            4226     74.4573E-03     76.7276E-03
            3940            4226     74.4573E-03     76.7276E-03
            3932            4227     77.3800E-03     79.7283E-03
            3941            4227     77.3800E-03     79.7283E-03
            3933            4227     77.3800E-03     79.7283E-03
            3942            4227     77.3800E-03     79.7283E-03
            3933            4228     56.6776E-03     59.6691E-03
            3943            4228     56.6776E-03     59.6691E-03
            3942            4228     56.6776E-03     59.6691E-03
            3934            4228     56.6776E-03     59.6691E-03
            3935            4229     35.6769E-03     37.1686E-03
            3934            4229     35.6769E-03     37.1686E-03
            3943            4229     35.6769E-03     37.1686E-03
            3944            4229     35.6769E-03     37.1686E-03
            3945            4230     19.8082E-03     20.2796E-03
            3944            4230     19.8082E-03     20.2796E-03
            3935            4230     19.8082E-03     20.2796E-03
            3936            4230     19.8082E-03     20.2796E-03
            3946            4231     19.8082E-03     20.2796E-03
            3945            4231     19.8082E-03     20.2796E-03
            3936            4231     19.8082E-03     20.2796E-03
            3937            4231     19.8082E-03     20.2796E-03
            3947            4232     35.6769E-03     37.1686E-03
            3938            4232     35.6769E-03     37.1686E-03
            3937            4232     35.6769E-03     37.1686E-03
            3946            4232     35.6769E-03     37.1686E-03
            3938            4233     56.6776E-03     59.6691E-03
            3948            4233     56.6776E-03     59.6691E-03
            3947            4233     56.6776E-03     59.6691E-03
            3939            4233     56.6776E-03     59.6691E-03
            3939            4234     77.3800E-03     79.7283E-03
            3948            4234     77.3800E-03     79.7283E-03
            3940            4234     77.3800E-03     79.7283E-03
            3949            4234     77.3800E-03     79.7283E-03
            3950            4235     79.0095E-03     77.7216E-03
            3951            4235     79.0095E-03     77.7216E-03
            3941            4235     79.0095E-03     77.7216E-03
            3942            4235     79.0095E-03     77.7216E-03
            3951            4236     54.0455E-03     53.8076E-03
            3952            4236     54.0455E-03     53.8076E-03
            3942            4236     54.0455E-03     53.8076E-03
            3943            4236     54.0455E-03     53.8076E-03
            3944            4237     32.6288E-03     32.6818E-03
            3952            4237     32.6288E-03     32.6818E-03
            3943            4237     32.6288E-03     32.6818E-03
            3953            4237     32.6288E-03     32.6818E-03
            3954            4238     15.7023E-03     15.9794E-03
            3944            4238     15.7023E-03     15.9794E-03
            3953            4238     15.7023E-03     15.9794E-03
            3945            4238     15.7023E-03     15.9794E-03
            3945            4239     15.7023E-03     15.9794E-03
            3954            4239     15.7023E-03     15.9794E-03
            3955            4239     15.7023E-03     15.9794E-03
            3946            4239     15.7023E-03     15.9794E-03
            3946            4240     32.6288E-03     32.6818E-03
            3956            4240     32.6288E-03     32.6818E-03
            3955            4240     32.6288E-03     32.6818E-03
            3947            4240     32.6288E-03     32.6818E-03
            3957            4241     54.0455E-03     53.8076E-03
            3948            4241     54.0455E-03     53.8076E-03
            3947            4241     54.0455E-03     53.8076E-03
            3956            4241     54.0455E-03     53.8076E-03
            3949            4242     79.0095E-03     77.7216E-03
            3948            4242     79.0095E-03     77.7216E-03
            3958            4242     79.0095E-03     77.7216E-03
            3957            4242     79.0095E-03     77.7216E-03
            5325            5425     1.42093E-15     2.24126E-15
            5334            5425     1.42093E-15     2.24126E-15
            5326            5425     1.42093E-15     2.24126E-15
            5335            5425     1.42093E-15     2.24126E-15
            5326            5426     1.16542E-15     865.565E-18
            5336            5426     1.16542E-15     865.565E-18
            5327            5426     1.16542E-15     865.565E-18
            5335            5426     1.16542E-15     865.565E-18
            5328            5427     1.02866E-15     621.605E-18
            5337            5427     1.02866E-15     621.605E-18
            5336            5427     1.02866E-15     621.605E-18
            5327            5427     1.02866E-15     621.605E-18
            5337            5428     887.598E-18     539.690E-18
            5338            5428     887.598E-18     539.690E-18
            5328            5428     887.598E-18     539.690E-18
            5329            5428     887.598E-18     539.690E-18
            5339            5429     1.20414E-15     830.510E-18
            5338            5429     1.20414E-15     830.510E-18
            5329            5429     1.20414E-15     830.510E-18
            5330            5429     1.20414E-15     830.510E-18
            5331            5430     1.92056E-15     1.03368E-15
            5339            5430     1.92056E-15     1.03368E-15
            5340            5430     1.92056E-15     1.03368E-15
            5330            5430     1.92056E-15     1.03368E-15
            5340            5431     1.89411E-15     1.48229E-15
            5331            5431     1.89411E-15     1.48229E-15
            5341            5431     1.89411E-15     1.48229E-15
            5332            5431     1.89411E-15     1.48229E-15
            5333            5432     2.80737E-15     3.24195E-15
            5342            5432     2.80737E-15     3.24195E-15
            5332            5432     2.80737E-15     3.24195E-15
            5341            5432     2.80737E-15     3.24195E-15
            5334            5433     2.12211E-15     2.98601E-15
            5335            5433     2.12211E-15     2.98601E-15
            5343            5433     2.12211E-15     2.98601E-15
            5344            5433     2.12211E-15     2.98601E-15
            5335            5434     1.11331E-15     1.01681E-15
            5336            5434     1.11331E-15     1.01681E-15
            5345            5434     1.11331E-15     1.01681E-15
            5344            5434     1.11331E-15     1.01681E-15
            5345            5435     977.422E-18     797.173E-18
            5346            5435     977.422E-18     797.173E-18
            5337            5435     977.422E-18     797.173E-18
            5336            5435     977.422E-18     797.173E-18
            5338            5436     899.252E-18     804.182E-18
            5337            5436     899.252E-18     804.182E-18
            5346            5436     899.252E-18     804.182E-18
            5347            5436     899.252E-18     804.182E-18
            5339            5437     1.17899E-15     956.737E-18
            5338            5437     1.17899E-15     956.737E-18
            5347            5437     1.17899E-15     956.737E-18
            5348            5437     1.17899E-15     956.737E-18
            5349            5438     1.66200E-15     945.092E-18
            5340            5438     1.66200E-15     945.092E-18
            5339            5438     1.66200E-15     945.092E-18
            5348            5438     1.66200E-15     945.092E-18
            5341            5439     1.85626E-15     1.04115E-15
            5349            5439     1.85626E-15     1.04115E-15
            5340            5439     1.85626E-15     1.04115E-15
            5350            5439     1.85626E-15     1.04115E-15
            5351            5440     2.67150E-15     2.81796E-15
            5341            5440     2.67150E-15     2.81796E-15
            5342            5440     2.67150E-15     2.81796E-15
            5350            5440     2.67150E-15     2.81796E-15
            5352            5441     2.63800E-15     2.31663E-15
            5353            5441     2.63800E-15     2.31663E-15
            5343            5441     2.63800E-15     2.31663E-15
            5344            5441     2.63800E-15     2.31663E-15
            5353            5442     1.76207E-15     1.15310E-15
            5345            5442     1.76207E-15     1.15310E-15
            5354            5442     1.76207E-15     1.15310E-15
            5344            5442     1.76207E-15     1.15310E-15
            5355            5443     1.16025E-15     1.05135E-15
            5346            5443     1.16025E-15     1.05135E-15
            5354            5443     1.16025E-15     1.05135E-15
            5345            5443     1.16025E-15     1.05135E-15
            5356            5444     1.24348E-15     1.24787E-15
            5347            5444     1.24348E-15     1.24787E-15
            5346            5444     1.24348E-15     1.24787E-15
            5355            5444     1.24348E-15     1.24787E-15
            5347            5445     1.51192E-15     1.17415E-15
            5356            5445     1.51192E-15     1.17415E-15
            5348            5445     1.51192E-15     1.17415E-15
            5357            5445     1.51192E-15     1.17415E-15
            5348            5446     1.51689E-15     979.233E-18
            5349            5446     1.51689E-15     979.233E-18
            5357            5446     1.51689E-15     979.233E-18
            5358            5446     1.51689E-15     979.233E-18
            5358            5447     1.86358E-15     1.19476E-15
            5350            5447     1.86358E-15     1.19476E-15
            5349            5447     1.86358E-15     1.19476E-15
            5359            5447     1.86358E-15     1.19476E-15
            5351            5448     2.35025E-15     2.67934E-15
            5359            5448     2.35025E-15     2.67934E-15
            5350            5448     2.35025E-15     2.67934E-15
            5360            5448     2.35025E-15     2.67934E-15
            5352            5449     2.71138E-15     2.82245E-15
            5361            5449     2.71138E-15     2.82245E-15
            5353            5449     2.71138E-15     2.82245E-15
            5362            5449     2.71138E-15     2.82245E-15
            5353            5450     2.27596E-15     1.79656E-15
            5363            5450     2.27596E-15     1.79656E-15
            5362            5450     2.27596E-15     1.79656E-15
            5354            5450     2.27596E-15     1.79656E-15
            5355            5451     1.92120E-15     1.33556E-15
            5363            5451     1.92120E-15     1.33556E-15
            5364            5451     1.92120E-15     1.33556E-15
            5354            5451     1.92120E-15     1.33556E-15
            5365            5452     1.83309E-15     1.32547E-15
            5355            5452     1.83309E-15     1.32547E-15
            5356            5452     1.83309E-15     1.32547E-15
            5364            5452     1.83309E-15     1.32547E-15
            5365            5453     1.68090E-15     1.34763E-15
            5366            5453     1.68090E-15     1.34763E-15
            5357            5453     1.68090E-15     1.34763E-15
            5356            5453     1.68090E-15     1.34763E-15
            5358            5454     1.43179E-15     1.18189E-15
            5366            5454     1.43179E-15     1.18189E-15
            5357            5454     1.43179E-15     1.18189E-15
            5367            5454     1.43179E-15     1.18189E-15
            5368            5455     1.36684E-15     1.57789E-15
            5359            5455     1.36684E-15     1.57789E-15
            5358            5455     1.36684E-15     1.57789E-15
            5367            5455     1.36684E-15     1.57789E-15
            5368            5456     1.47570E-15     2.34807E-15
            5360            5456     1.47570E-15     2.34807E-15
            5359            5456     1.47570E-15     2.34807E-15
            5369            5456     1.47570E-15     2.34807E-15
            5361            5457     3.28119E-15     3.44805E-15
            5370            5457     3.28119E-15     3.44805E-15
            5362            5457     3.28119E-15     3.44805E-15
            5371            5457     3.28119E-15     3.44805E-15
            5362            5458     2.92275E-15     2.63312E-15
            5372            5458     2.92275E-15     2.63312E-15
            5363            5458     2.92275E-15     2.63312E-15
            5371            5458     2.92275E-15     2.63312E-15
            5373            5459     1.97265E-15     1.55642E-15
            5363            5459     1.97265E-15     1.55642E-15
            5372            5459     1.97265E-15     1.55642E-15
            5364            5459     1.97265E-15     1.55642E-15
            5373            5460     1.49067E-15     1.06135E-15
            5365            5460     1.49067E-15     1.06135E-15
            5364            5460     1.49067E-15     1.06135E-15
            5374            5460     1.49067E-15     1.06135E-15
            5366            5461     1.51168E-15     1.11515E-15
            5375            5461     1.51168E-15     1.11515E-15
            5374            5461     1.51168E-15     1.11515E-15
            5365            5461     1.51168E-15     1.11515E-15
            5367            5462     1.57715E-15     1.43875E-15
            5375            5462     1.57715E-15     1.43875E-15
            5366            5462     1.57715E-15     1.43875E-15
            5376            5462     1.57715E-15     1.43875E-15
            5377            5463     1.56087E-15     1.76192E-15
            5368            5463     1.56087E-15     1.76192E-15
            5376            5463     1.56087E-15     1.76192E-15
            5367            5463     1.56087E-15     1.76192E-15
            5378            5464     1.87942E-15     1.90036E-15
            5377            5464     1.87942E-15     1.90036E-15
            5369            5464     1.87942E-15     1.90036E-15
            5368            5464     1.87942E-15     1.90036E-15
            5388            5465     67.7070E-03     64.8865E-03
            5389            5465     67.7070E-03     64.8865E-03
            5379            5465     67.7070E-03     64.8865E-03
            5380            5465     67.7070E-03     64.8865E-03
            5389            5466     46.6586E-03     44.7227E-03
            5380            5466     46.6586E-03     44.7227E-03
            5390            5466     46.6586E-03     44.7227E-03
            5381            5466     46.6586E-03     44.7227E-03
            5381            5467     29.1090E-03     28.2171E-03
            5390            5467     29.1090E-03     28.2171E-03
            5382            5467     29.1090E-03     28.2171E-03
            5391            5467     29.1090E-03     28.2171E-03
            5392            5468     15.6327E-03     15.7484E-03
            5383            5468     15.6327E-03     15.7484E-03
            5382            5468     15.6327E-03     15.7484E-03
            5391            5468     15.6327E-03     15.7484E-03
            5383            5469     15.6327E-03     15.7484E-03
            5392            5469     15.6327E-03     15.7484E-03
            5393            5469     15.6327E-03     15.7484E-03
            5384            5469     15.6327E-03     15.7484E-03
            5385            5470     29.1090E-03     28.2171E-03
            5393            5470     29.1090E-03     28.2171E-03
            5394            5470     29.1090E-03     28.2171E-03
            5384            5470     29.1090E-03     28.2171E-03
            5386            5471     46.6586E-03     44.7227E-03
            5394            5471     46.6586E-03     44.7227E-03
            5385            5471     46.6586E-03     44.7227E-03
            5395            5471     46.6586E-03     44.7227E-03
            5395            5472     67.7070E-03     64.8865E-03
            5396            5472     67.7070E-03     64.8865E-03
            5386            5472     67.7070E-03     64.8865E-03
            5387            5472     67.7070E-03     64.8865E-03
            5397            5473     72.2108E-03     69.8593E-03
            5398            5473     72.2108E-03     69.8593E-03
            5388            5473     72.2108E-03     69.8593E-03
            5389            5473     72.2108E-03     69.8593E-03
            5399            5474     49.7556E-03     48.3124E-03
            5390            5474     49.7556E-03     48.3124E-03
            5398            5474     49.7556E-03     48.3124E-03
            5389            5474     49.7556E-03     48.3124E-03
            5391            5475     31.3207E-03     30.9895E-03
            5390            5475     31.3207E-03     30.9895E-03
            5400            5475     31.3207E-03     30.9895E-03
            5399            5475     31.3207E-03     30.9895E-03
            5400            5476     18.8071E-03     20.0774E-03
            5391            5476     18.8071E-03     20.0774E-03
            5392            5476     18.8071E-03     20.0774E-03
            5401            5476     18.8071E-03     20.0774E-03
            5401            5477     18.8071E-03     20.0774E-03
            5402            5477     18.8071E-03     20.0774E-03
            5393            5477     18.8071E-03     20.0774E-03
            5392            5477     18.8071E-03     20.0774E-03
            5393            5478     31.3207E-03     30.9895E-03
            5403            5478     31.3207E-03     30.9895E-03
            5394            5478     31.3207E-03     30.9895E-03
            5402            5478     31.3207E-03     30.9895E-03
            5394            5479     49.7556E-03     48.3124E-03
            5404            5479     49.7556E-03     48.3124E-03
            5395            5479     49.7556E-03     48.3124E-03
            5403            5479     49.7556E-03     48.3124E-03
            5396            5480     72.2108E-03     69.8593E-03
            5404            5480     72.2108E-03     69.8593E-03
            5395            5480     72.2108E-03     69.8593E-03
            5405            5480     72.2108E-03     69.8593E-03
            5406            5481     69.6846E-03     70.1464E-03
            5407            5481     69.6846E-03     70.1464E-03
            5398            5481     69.6846E-03     70.1464E-03
            5397            5481     69.6846E-03     70.1464E-03
            5398            5482     51.2581E-03     52.4774E-03
            5399            5482     51.2581E-03     52.4774E-03
            5407            5482     51.2581E-03     52.4774E-03
            5408            5482     51.2581E-03     52.4774E-03
            5408            5483     33.8471E-03     35.4725E-03
            5399            5483     33.8471E-03     35.4725E-03
            5409            5483     33.8471E-03     35.4725E-03
            5400            5483     33.8471E-03     35.4725E-03
            5401            5484     22.4168E-03     24.8055E-03
            5409            5484     22.4168E-03     24.8055E-03
            5410            5484     22.4168E-03     24.8055E-03
            5400            5484     22.4168E-03     24.8055E-03
            5410            5485     22.4168E-03     24.8055E-03
            5411            5485     22.4168E-03     24.8055E-03
            5402            5485     22.4168E-03     24.8055E-03
            5401            5485     22.4168E-03     24.8055E-03
            5402            5486     33.8471E-03     35.4725E-03
            5412            5486     33.8471E-03     35.4725E-03
            5411            5486     33.8471E-03     35.4725E-03
            5403            5486     33.8471E-03     35.4725E-03
            5403            5487     51.2581E-03     52.4774E-03
            5404            5487     51.2581E-03     52.4774E-03
            5413            5487     51.2581E-03     52.4774E-03
            5412            5487     51.2581E-03     52.4774E-03
            5414            5488     69.6846E-03     70.1464E-03
            5405            5488     69.6846E-03     70.1464E-03
            5404            5488     69.6846E-03     70.1464E-03
            5413            5488     69.6846E-03     70.1464E-03
            5406            5489     66.4140E-03     66.2472E-03
            5407            5489     66.4140E-03     66.2472E-03
            5415            5489     66.4140E-03     66.2472E-03
            5416            5489     66.4140E-03     66.2472E-03
            5408            5490     49.9342E-03     50.9226E-03
            5417            5490     49.9342E-03     50.9226E-03
            5416            5490     49.9342E-03     50.9226E-03
            5407            5490     49.9342E-03     50.9226E-03
            5408            5491     34.6796E-03     36.4623E-03
            5417            5491     34.6796E-03     36.4623E-03
            5409            5491     34.6796E-03     36.4623E-03
            5418            5491     34.6796E-03     36.4623E-03
            5409            5492     24.0110E-03     26.2557E-03
            5410            5492     24.0110E-03     26.2557E-03
            5418            5492     24.0110E-03     26.2557E-03
            5419            5492     24.0110E-03     26.2557E-03
            5419            5493     24.0110E-03     26.2557E-03
            5420            5493     24.0110E-03     26.2557E-03
            5410            5493     24.0110E-03     26.2557E-03
            5411            5493     24.0110E-03     26.2557E-03
            5412            5494     34.6796E-03     36.4623E-03
            5421            5494     34.6796E-03     36.4623E-03
            5411            5494     34.6796E-03     36.4623E-03
            5420            5494     34.6796E-03     36.4623E-03
            5412            5495     49.9342E-03     50.9226E-03
            5422            5495     49.9342E-03     50.9226E-03
            5421            5495     49.9342E-03     50.9226E-03
            5413            5495     49.9342E-03     50.9226E-03
            5422            5496     66.4140E-03     66.2472E-03
            5413            5496     66.4140E-03     66.2472E-03
            5423            5496     66.4140E-03     66.2472E-03
            5414            5496     66.4140E-03     66.2472E-03
            5415            5497     64.0078E-03     63.5582E-03
            5416            5497     64.0078E-03     63.5582E-03
            5425            5497     64.0078E-03     63.5582E-03
            5424            5497     64.0078E-03     63.5582E-03
            5417            5498     48.1179E-03     48.5052E-03
            5425            5498     48.1179E-03     48.5052E-03
            5416            5498     48.1179E-03     48.5052E-03
            5426            5498     48.1179E-03     48.5052E-03
            5426            5499     33.9637E-03     35.0021E-03
            5417            5499     33.9637E-03     35.0021E-03
            5418            5499     33.9637E-03     35.0021E-03
            5427            5499     33.9637E-03     35.0021E-03
            5419            5500     24.4604E-03     25.9166E-03
            5427            5500     24.4604E-03     25.9166E-03
            5418            5500     24.4604E-03     25.9166E-03
            5428            5500     24.4604E-03     25.9166E-03
            5429            5501     24.4604E-03     25.9166E-03
            5428            5501     24.4604E-03     25.9166E-03
            5419            5501     24.4604E-03     25.9166E-03
            5420            5501     24.4604E-03     25.9166E-03
            5420            5502     33.9637E-03     35.0021E-03
            5429            5502     33.9637E-03     35.0021E-03
            5430            5502     33.9637E-03     35.0021E-03
            5421            5502     33.9637E-03     35.0021E-03
            5421            5503     48.1179E-03     48.5052E-03
            5422            5503     48.1179E-03     48.5052E-03
            5431            5503     48.1179E-03     48.5052E-03
            5430            5503     48.1179E-03     48.5052E-03
            5432            5504     64.0078E-03     63.5582E-03
            5431            5504     64.0078E-03     63.5582E-03
            5422            5504     64.0078E-03     63.5582E-03
            5423            5504     64.0078E-03     63.5582E-03
            5434            5505     61.4332E-03     60.9450E-03
            5433            5505     61.4332E-03     60.9450E-03
            5425            5505     61.4332E-03     60.9450E-03
            5424            5505     61.4332E-03     60.9450E-03
            5425            5506     46.4043E-03     46.5759E-03
            5434            5506     46.4043E-03     46.5759E-03
            5435            5506     46.4043E-03     46.5759E-03
            5426            5506     46.4043E-03     46.5759E-03
            5435            5507     33.0132E-03     33.4880E-03
            5436            5507     33.0132E-03     33.4880E-03
            5426            5507     33.0132E-03     33.4880E-03
            5427            5507     33.0132E-03     33.4880E-03
            5436            5508     24.1709E-03     24.6813E-03
            5428            5508     24.1709E-03     24.6813E-03
            5427            5508     24.1709E-03     24.6813E-03
            5437            5508     24.1709E-03     24.6813E-03
            5438            5509     24.1709E-03     24.6813E-03
            5437            5509     24.1709E-03     24.6813E-03
            5428            5509     24.1709E-03     24.6813E-03
            5429            5509     24.1709E-03     24.6813E-03
            5438            5510     33.0132E-03     33.4880E-03
            5430            5510     33.0132E-03     33.4880E-03
            5429            5510     33.0132E-03     33.4880E-03
            5439            5510     33.0132E-03     33.4880E-03
            5440            5511     46.4043E-03     46.5759E-03
            5431            5511     46.4043E-03     46.5759E-03
            5430            5511     46.4043E-03     46.5759E-03
            5439            5511     46.4043E-03     46.5759E-03
            5440            5512     61.4332E-03     60.9450E-03
            5431            5512     61.4332E-03     60.9450E-03
            5432            5512     61.4332E-03     60.9450E-03
            5441            5512     61.4332E-03     60.9450E-03
            5443            5513     58.8719E-03     58.4839E-03
            5434            5513     58.8719E-03     58.4839E-03
            5433            5513     58.8719E-03     58.4839E-03
            5442            5513     58.8719E-03     58.4839E-03
            5444            5514     44.6046E-03     44.7715E-03
            5434            5514     44.6046E-03     44.7715E-03
            5435            5514     44.6046E-03     44.7715E-03
            5443            5514     44.6046E-03     44.7715E-03
            5435            5515     32.0788E-03     32.2016E-03
            5436            5515     32.0788E-03     32.2016E-03
            5444            5515     32.0788E-03     32.2016E-03
            5445            5515     32.0788E-03     32.2016E-03
            5436            5516     23.7348E-03     23.4469E-03
            5446            5516     23.7348E-03     23.4469E-03
            5445            5516     23.7348E-03     23.4469E-03
            5437            5516     23.7348E-03     23.4469E-03
            5438            5517     23.7348E-03     23.4469E-03
            5447            5517     23.7348E-03     23.4469E-03
            5437            5517     23.7348E-03     23.4469E-03
            5446            5517     23.7348E-03     23.4469E-03
            5439            5518     32.0788E-03     32.2016E-03
            5447            5518     32.0788E-03     32.2016E-03
            5448            5518     32.0788E-03     32.2016E-03
            5438            5518     32.0788E-03     32.2016E-03
            5440            5519     44.6046E-03     44.7715E-03
            5448            5519     44.6046E-03     44.7715E-03
            5439            5519     44.6046E-03     44.7715E-03
            5449            5519     44.6046E-03     44.7715E-03
            5440            5520     58.8719E-03     58.4839E-03
            5449            5520     58.8719E-03     58.4839E-03
            5441            5520     58.8719E-03     58.4839E-03
            5450            5520     58.8719E-03     58.4839E-03
            5443            5521     56.2895E-03     56.1672E-03
            5451            5521     56.2895E-03     56.1672E-03
            5452            5521     56.2895E-03     56.1672E-03
            5442            5521     56.2895E-03     56.1672E-03
            5443            5522     42.9261E-03     43.2846E-03
            5444            5522     42.9261E-03     43.2846E-03
            5453            5522     42.9261E-03     43.2846E-03
            5452            5522     42.9261E-03     43.2846E-03
            5444            5523     31.1511E-03     31.0567E-03
            5454            5523     31.1511E-03     31.0567E-03
            5453            5523     31.1511E-03     31.0567E-03
            5445            5523     31.1511E-03     31.0567E-03
            5454            5524     23.3158E-03     22.2175E-03
            5446            5524     23.3158E-03     22.2175E-03
            5445            5524     23.3158E-03     22.2175E-03
            5455            5524     23.3158E-03     22.2175E-03
            5455            5525     23.3158E-03     22.2175E-03
            5456            5525     23.3158E-03     22.2175E-03
            5447            5525     23.3158E-03     22.2175E-03
            5446            5525     23.3158E-03     22.2175E-03
            5447            5526     31.1511E-03     31.0567E-03
            5456            5526     31.1511E-03     31.0567E-03
            5457            5526     31.1511E-03     31.0567E-03
            5448            5526     31.1511E-03     31.0567E-03
            5449            5527     42.9261E-03     43.2846E-03
            5457            5527     42.9261E-03     43.2846E-03
            5458            5527     42.9261E-03     43.2846E-03
            5448            5527     42.9261E-03     43.2846E-03
            5458            5528     56.2895E-03     56.1672E-03
            5449            5528     56.2895E-03     56.1672E-03
            5450            5528     56.2895E-03     56.1672E-03
            5459            5528     56.2895E-03     56.1672E-03
            5460            5529     53.5328E-03     53.9072E-03
            5452            5529     53.5328E-03     53.9072E-03
            5461            5529     53.5328E-03     53.9072E-03
            5451            5529     53.5328E-03     53.9072E-03
            5461            5530     41.3786E-03     42.0935E-03
            5453            5530     41.3786E-03     42.0935E-03
            5462            5530     41.3786E-03     42.0935E-03
            5452            5530     41.3786E-03     42.0935E-03
            5462            5531     30.4197E-03     29.8927E-03
            5453            5531     30.4197E-03     29.8927E-03
            5463            5531     30.4197E-03     29.8927E-03
            5454            5531     30.4197E-03     29.8927E-03
            5463            5532     22.8798E-03     20.9487E-03
            5464            5532     22.8798E-03     20.9487E-03
            5455            5532     22.8798E-03     20.9487E-03
            5454            5532     22.8798E-03     20.9487E-03
            5456            5533     22.8798E-03     20.9487E-03
            5455            5533     22.8798E-03     20.9487E-03
            5464            5533     22.8798E-03     20.9487E-03
            5465            5533     22.8798E-03     20.9487E-03
            5466            5534     30.4197E-03     29.8927E-03
            5457            5534     30.4197E-03     29.8927E-03
            5456            5534     30.4197E-03     29.8927E-03
            5465            5534     30.4197E-03     29.8927E-03
            5466            5535     41.3786E-03     42.0935E-03
            5458            5535     41.3786E-03     42.0935E-03
            5457            5535     41.3786E-03     42.0935E-03
            5467            5535     41.3786E-03     42.0935E-03
            5459            5536     53.5328E-03     53.9072E-03
            5467            5536     53.5328E-03     53.9072E-03
            5468            5536     53.5328E-03     53.9072E-03
            5458            5536     53.5328E-03     53.9072E-03
            5460            5537     50.7223E-03     51.6036E-03
            5469            5537     50.7223E-03     51.6036E-03
            5470            5537     50.7223E-03     51.6036E-03
            5461            5537     50.7223E-03     51.6036E-03
            5470            5538     39.8650E-03     39.8825E-03
            5462            5538     39.8650E-03     39.8825E-03
            5471            5538     39.8650E-03     39.8825E-03
            5461            5538     39.8650E-03     39.8825E-03
            5463            5539     29.6751E-03     28.1591E-03
            5472            5539     29.6751E-03     28.1591E-03
            5471            5539     29.6751E-03     28.1591E-03
            5462            5539     29.6751E-03     28.1591E-03
            5464            5540     22.8326E-03     20.3774E-03
            5472            5540     22.8326E-03     20.3774E-03
            5463            5540     22.8326E-03     20.3774E-03
            5473            5540     22.8326E-03     20.3774E-03
            5465            5541     22.8326E-03     20.3774E-03
            5474            5541     22.8326E-03     20.3774E-03
            5473            5541     22.8326E-03     20.3774E-03
            5464            5541     22.8326E-03     20.3774E-03
            5474            5542     29.6751E-03     28.1591E-03
            5475            5542     29.6751E-03     28.1591E-03
            5465            5542     29.6751E-03     28.1591E-03
            5466            5542     29.6751E-03     28.1591E-03
            5467            5543     39.8650E-03     39.8825E-03
            5475            5543     39.8650E-03     39.8825E-03
            5476            5543     39.8650E-03     39.8825E-03
            5466            5543     39.8650E-03     39.8825E-03
            5477            5544     50.7223E-03     51.6036E-03
            5476            5544     50.7223E-03     51.6036E-03
            5467            5544     50.7223E-03     51.6036E-03
            5468            5544     50.7223E-03     51.6036E-03
            5478            5545     47.1235E-03     44.6172E-03
            5470            5545     47.1235E-03     44.6172E-03
            5469            5545     47.1235E-03     44.6172E-03
            5479            5545     47.1235E-03     44.6172E-03
            5480            5546     37.8877E-03     35.0529E-03
            5470            5546     37.8877E-03     35.0529E-03
            5471            5546     37.8877E-03     35.0529E-03
            5479            5546     37.8877E-03     35.0529E-03
            5471            5547     29.3350E-03     26.8669E-03
            5481            5547     29.3350E-03     26.8669E-03
            5472            5547     29.3350E-03     26.8669E-03
            5480            5547     29.3350E-03     26.8669E-03
            5472            5548     23.9360E-03     21.8400E-03
            5481            5548     23.9360E-03     21.8400E-03
            5473            5548     23.9360E-03     21.8400E-03
            5482            5548     23.9360E-03     21.8400E-03
            5482            5549     23.9360E-03     21.8400E-03
            5483            5549     23.9360E-03     21.8400E-03
            5474            5549     23.9360E-03     21.8400E-03
            5473            5549     23.9360E-03     21.8400E-03
            5474            5550     29.3350E-03     26.8669E-03
            5484            5550     29.3350E-03     26.8669E-03
            5475            5550     29.3350E-03     26.8669E-03
            5483            5550     29.3350E-03     26.8669E-03
            5475            5551     37.8877E-03     35.0529E-03
            5476            5551     37.8877E-03     35.0529E-03
            5484            5551     37.8877E-03     35.0529E-03
            5485            5551     37.8877E-03     35.0529E-03
            5485            5552     47.1235E-03     44.6172E-03
            5477            5552     47.1235E-03     44.6172E-03
            5476            5552     47.1235E-03     44.6172E-03
            5486            5552     47.1235E-03     44.6172E-03
            5488            5553     49.9083E-03     45.0262E-03
            5479            5553     49.9083E-03     45.0262E-03
            5487            5553     49.9083E-03     45.0262E-03
            5478            5553     49.9083E-03     45.0262E-03
            5488            5554     36.6541E-03     33.1448E-03
            5489            5554     36.6541E-03     33.1448E-03
            5480            5554     36.6541E-03     33.1448E-03
            5479            5554     36.6541E-03     33.1448E-03
            5489            5555     26.8116E-03     24.9741E-03
            5480            5555     26.8116E-03     24.9741E-03
            5490            5555     26.8116E-03     24.9741E-03
            5481            5555     26.8116E-03     24.9741E-03
            5491            5556     20.5142E-03     19.8874E-03
            5481            5556     20.5142E-03     19.8874E-03
            5490            5556     20.5142E-03     19.8874E-03
            5482            5556     20.5142E-03     19.8874E-03
            5491            5557     20.5142E-03     19.8874E-03
            5492            5557     20.5142E-03     19.8874E-03
            5482            5557     20.5142E-03     19.8874E-03
            5483            5557     20.5142E-03     19.8874E-03
            5483            5558     26.8116E-03     24.9741E-03
            5484            5558     26.8116E-03     24.9741E-03
            5492            5558     26.8116E-03     24.9741E-03
            5493            5558     26.8116E-03     24.9741E-03
            5484            5559     36.6541E-03     33.1448E-03
            5485            5559     36.6541E-03     33.1448E-03
            5494            5559     36.6541E-03     33.1448E-03
            5493            5559     36.6541E-03     33.1448E-03
            5485            5560     49.9083E-03     45.0262E-03
            5495            5560     49.9083E-03     45.0262E-03
            5494            5560     49.9083E-03     45.0262E-03
            5486            5560     49.9083E-03     45.0262E-03
            5487            5561     54.1215E-03     52.6047E-03
            5488            5561     54.1215E-03     52.6047E-03
            5496            5561     54.1215E-03     52.6047E-03
            5497            5561     54.1215E-03     52.6047E-03
            5488            5562     37.9949E-03     37.2635E-03
            5497            5562     37.9949E-03     37.2635E-03
            5498            5562     37.9949E-03     37.2635E-03
            5489            5562     37.9949E-03     37.2635E-03
            5498            5563     25.5758E-03     25.6237E-03
            5489            5563     25.5758E-03     25.6237E-03
            5499            5563     25.5758E-03     25.6237E-03
            5490            5563     25.5758E-03     25.6237E-03
            5490            5564     18.0763E-03     19.0509E-03
            5499            5564     18.0763E-03     19.0509E-03
            5500            5564     18.0763E-03     19.0509E-03
            5491            5564     18.0763E-03     19.0509E-03
            5492            5565     18.0763E-03     19.0509E-03
            5501            5565     18.0763E-03     19.0509E-03
            5491            5565     18.0763E-03     19.0509E-03
            5500            5565     18.0763E-03     19.0509E-03
            5493            5566     25.5758E-03     25.6237E-03
            5501            5566     25.5758E-03     25.6237E-03
            5492            5566     25.5758E-03     25.6237E-03
            5502            5566     25.5758E-03     25.6237E-03
            5494            5567     37.9949E-03     37.2635E-03
            5493            5567     37.9949E-03     37.2635E-03
            5503            5567     37.9949E-03     37.2635E-03
            5502            5567     37.9949E-03     37.2635E-03
            5504            5568     54.1215E-03     52.6047E-03
            5495            5568     54.1215E-03     52.6047E-03
            5503            5568     54.1215E-03     52.6047E-03
            5494            5568     54.1215E-03     52.6047E-03
            5506            5569     51.4095E-03     51.6521E-03
            5496            5569     51.4095E-03     51.6521E-03
            5497            5569     51.4095E-03     51.6521E-03
            5505            5569     51.4095E-03     51.6521E-03
            5497            5570     38.9914E-03     39.8646E-03
            5506            5570     38.9914E-03     39.8646E-03
            5498            5570     38.9914E-03     39.8646E-03
            5507            5570     38.9914E-03     39.8646E-03
            5508            5571     27.7072E-03     28.9576E-03
            5498            5571     27.7072E-03     28.9576E-03
            5507            5571     27.7072E-03     28.9576E-03
            5499            5571     27.7072E-03     28.9576E-03
            5499            5572     20.9970E-03     22.6735E-03
            5509            5572     20.9970E-03     22.6735E-03
            5500            5572     20.9970E-03     22.6735E-03
            5508            5572     20.9970E-03     22.6735E-03
            5500            5573     20.9970E-03     22.6735E-03
            5510            5573     20.9970E-03     22.6735E-03
            5501            5573     20.9970E-03     22.6735E-03
            5509            5573     20.9970E-03     22.6735E-03
            5502            5574     27.7072E-03     28.9576E-03
            5501            5574     27.7072E-03     28.9576E-03
            5510            5574     27.7072E-03     28.9576E-03
            5511            5574     27.7072E-03     28.9576E-03
            5503            5575     38.9914E-03     39.8646E-03
            5502            5575     38.9914E-03     39.8646E-03
            5512            5575     38.9914E-03     39.8646E-03
            5511            5575     38.9914E-03     39.8646E-03
            5504            5576     51.4095E-03     51.6521E-03
            5503            5576     51.4095E-03     51.6521E-03
            5513            5576     51.4095E-03     51.6521E-03
            5512            5576     51.4095E-03     51.6521E-03
            5506            5577     48.2138E-03     48.0157E-03
            5515            5577     48.2138E-03     48.0157E-03
            5505            5577     48.2138E-03     48.0157E-03
            5514            5577     48.2138E-03     48.0157E-03
            5506            5578     37.6273E-03     38.2217E-03
            5515            5578     37.6273E-03     38.2217E-03
            5516            5578     37.6273E-03     38.2217E-03
            5507            5578     37.6273E-03     38.2217E-03
            5516            5579     28.3694E-03     29.6034E-03
            5507            5579     28.3694E-03     29.6034E-03
            5517            5579     28.3694E-03     29.6034E-03
            5508            5579     28.3694E-03     29.6034E-03
            5509            5580     22.3636E-03     23.9209E-03
            5517            5580     22.3636E-03     23.9209E-03
            5508            5580     22.3636E-03     23.9209E-03
            5518            5580     22.3636E-03     23.9209E-03
            5510            5581     22.3636E-03     23.9209E-03
            5509            5581     22.3636E-03     23.9209E-03
            5519            5581     22.3636E-03     23.9209E-03
            5518            5581     22.3636E-03     23.9209E-03
            5511            5582     28.3694E-03     29.6034E-03
            5519            5582     28.3694E-03     29.6034E-03
            5510            5582     28.3694E-03     29.6034E-03
            5520            5582     28.3694E-03     29.6034E-03
            5511            5583     37.6273E-03     38.2217E-03
            5521            5583     37.6273E-03     38.2217E-03
            5512            5583     37.6273E-03     38.2217E-03
            5520            5583     37.6273E-03     38.2217E-03
            5512            5584     48.2138E-03     48.0157E-03
            5522            5584     48.2138E-03     48.0157E-03
            5521            5584     48.2138E-03     48.0157E-03
            5513            5584     48.2138E-03     48.0157E-03
            5524            5585     45.8103E-03     45.4335E-03
            5523            5585     45.8103E-03     45.4335E-03
            5515            5585     45.8103E-03     45.4335E-03
            5514            5585     45.8103E-03     45.4335E-03
            5525            5586     35.9297E-03     36.1042E-03
            5515            5586     35.9297E-03     36.1042E-03
            5516            5586     35.9297E-03     36.1042E-03
            5524            5586     35.9297E-03     36.1042E-03
            5516            5587     27.7503E-03     28.4354E-03
            5526            5587     27.7503E-03     28.4354E-03
            5525            5587     27.7503E-03     28.4354E-03
            5517            5587     27.7503E-03     28.4354E-03
            5517            5588     22.7752E-03     23.8102E-03
            5518            5588     22.7752E-03     23.8102E-03
            5527            5588     22.7752E-03     23.8102E-03
            5526            5588     22.7752E-03     23.8102E-03
            5519            5589     22.7752E-03     23.8102E-03
            5528            5589     22.7752E-03     23.8102E-03
            5527            5589     22.7752E-03     23.8102E-03
            5518            5589     22.7752E-03     23.8102E-03
            5529            5590     27.7503E-03     28.4354E-03
            5520            5590     27.7503E-03     28.4354E-03
            5528            5590     27.7503E-03     28.4354E-03
            5519            5590     27.7503E-03     28.4354E-03
            5521            5591     35.9297E-03     36.1042E-03
            5530            5591     35.9297E-03     36.1042E-03
            5520            5591     35.9297E-03     36.1042E-03
            5529            5591     35.9297E-03     36.1042E-03
            5530            5592     45.8103E-03     45.4335E-03
            5522            5592     45.8103E-03     45.4335E-03
            5531            5592     45.8103E-03     45.4335E-03
            5521            5592     45.8103E-03     45.4335E-03
            5533            5593     43.3372E-03     42.9134E-03
            5523            5593     43.3372E-03     42.9134E-03
            5524            5593     43.3372E-03     42.9134E-03
            5532            5593     43.3372E-03     42.9134E-03
            5533            5594     34.3249E-03     34.3316E-03
            5534            5594     34.3249E-03     34.3316E-03
            5525            5594     34.3249E-03     34.3316E-03
            5524            5594     34.3249E-03     34.3316E-03
            5534            5595     26.9518E-03     27.2552E-03
            5535            5595     26.9518E-03     27.2552E-03
            5526            5595     26.9518E-03     27.2552E-03
            5525            5595     26.9518E-03     27.2552E-03
            5526            5596     22.5894E-03     23.0504E-03
            5535            5596     22.5894E-03     23.0504E-03
            5536            5596     22.5894E-03     23.0504E-03
            5527            5596     22.5894E-03     23.0504E-03
            5528            5597     22.5894E-03     23.0504E-03
            5536            5597     22.5894E-03     23.0504E-03
            5537            5597     22.5894E-03     23.0504E-03
            5527            5597     22.5894E-03     23.0504E-03
            5529            5598     26.9518E-03     27.2552E-03
            5528            5598     26.9518E-03     27.2552E-03
            5538            5598     26.9518E-03     27.2552E-03
            5537            5598     26.9518E-03     27.2552E-03
            5529            5599     34.3249E-03     34.3316E-03
            5530            5599     34.3249E-03     34.3316E-03
            5538            5599     34.3249E-03     34.3316E-03
            5539            5599     34.3249E-03     34.3316E-03
            5531            5600     43.3372E-03     42.9134E-03
            5540            5600     43.3372E-03     42.9134E-03
            5530            5600     43.3372E-03     42.9134E-03
            5539            5600     43.3372E-03     42.9134E-03
            5542            5601     40.8897E-03     40.5037E-03
            5541            5601     40.8897E-03     40.5037E-03
            5533            5601     40.8897E-03     40.5037E-03
            5532            5601     40.8897E-03     40.5037E-03
            5534            5602     32.6616E-03     32.5997E-03
            5533            5602     32.6616E-03     32.5997E-03
            5542            5602     32.6616E-03     32.5997E-03
            5543            5602     32.6616E-03     32.5997E-03
            5544            5603     26.1420E-03     26.2015E-03
            5535            5603     26.1420E-03     26.2015E-03
            5543            5603     26.1420E-03     26.2015E-03
            5534            5603     26.1420E-03     26.2015E-03
            5536            5604     22.2916E-03     22.3095E-03
            5545            5604     22.2916E-03     22.3095E-03
            5535            5604     22.2916E-03     22.3095E-03
            5544            5604     22.2916E-03     22.3095E-03
            5546            5605     22.2916E-03     22.3095E-03
            5536            5605     22.2916E-03     22.3095E-03
            5545            5605     22.2916E-03     22.3095E-03
            5537            5605     22.2916E-03     22.3095E-03
            5547            5606     26.1420E-03     26.2015E-03
            5538            5606     26.1420E-03     26.2015E-03
            5546            5606     26.1420E-03     26.2015E-03
            5537            5606     26.1420E-03     26.2015E-03
            5547            5607     32.6616E-03     32.5997E-03
            5548            5607     32.6616E-03     32.5997E-03
            5539            5607     32.6616E-03     32.5997E-03
            5538            5607     32.6616E-03     32.5997E-03
            5539            5608     40.8897E-03     40.5037E-03
            5540            5608     40.8897E-03     40.5037E-03
            5548            5608     40.8897E-03     40.5037E-03
            5549            5608     40.8897E-03     40.5037E-03
            5542            5609     38.5067E-03     38.2224E-03
            5551            5609     38.5067E-03     38.2224E-03
            5550            5609     38.5067E-03     38.2224E-03
            5541            5609     38.5067E-03     38.2224E-03
            5552            5610     31.0942E-03     31.0990E-03
            5542            5610     31.0942E-03     31.0990E-03
            5543            5610     31.0942E-03     31.0990E-03
            5551            5610     31.0942E-03     31.0990E-03
            5552            5611     25.3145E-03     25.1826E-03
            5543            5611     25.3145E-03     25.1826E-03
            5553            5611     25.3145E-03     25.1826E-03
            5544            5611     25.3145E-03     25.1826E-03
            5544            5612     21.9997E-03     21.5975E-03
            5545            5612     21.9997E-03     21.5975E-03
            5553            5612     21.9997E-03     21.5975E-03
            5554            5612     21.9997E-03     21.5975E-03
            5554            5613     21.9997E-03     21.5975E-03
            5545            5613     21.9997E-03     21.5975E-03
            5546            5613     21.9997E-03     21.5975E-03
            5555            5613     21.9997E-03     21.5975E-03
            5546            5614     25.3145E-03     25.1826E-03
            5556            5614     25.3145E-03     25.1826E-03
            5547            5614     25.3145E-03     25.1826E-03
            5555            5614     25.3145E-03     25.1826E-03
            5547            5615     31.0942E-03     31.0990E-03
            5556            5615     31.0942E-03     31.0990E-03
            5548            5615     31.0942E-03     31.0990E-03
            5557            5615     31.0942E-03     31.0990E-03
            5548            5616     38.5067E-03     38.2224E-03
            5557            5616     38.5067E-03     38.2224E-03
            5558            5616     38.5067E-03     38.2224E-03
            5549            5616     38.5067E-03     38.2224E-03
            5551            5617     36.0577E-03     36.0247E-03
            5550            5617     36.0577E-03     36.0247E-03
            5559            5617     36.0577E-03     36.0247E-03
            5560            5617     36.0577E-03     36.0247E-03
            5560            5618     29.6070E-03     29.7436E-03
            5552            5618     29.6070E-03     29.7436E-03
            5561            5618     29.6070E-03     29.7436E-03
            5551            5618     29.6070E-03     29.7436E-03
            5561            5619     24.6206E-03     24.3278E-03
            5562            5619     24.6206E-03     24.3278E-03
            5552            5619     24.6206E-03     24.3278E-03
            5553            5619     24.6206E-03     24.3278E-03
            5562            5620     21.6475E-03     20.7390E-03
            5554            5620     21.6475E-03     20.7390E-03
            5563            5620     21.6475E-03     20.7390E-03
            5553            5620     21.6475E-03     20.7390E-03
            5554            5621     21.6475E-03     20.7390E-03
            5564            5621     21.6475E-03     20.7390E-03
            5563            5621     21.6475E-03     20.7390E-03
            5555            5621     21.6475E-03     20.7390E-03
            5555            5622     24.6206E-03     24.3278E-03
            5564            5622     24.6206E-03     24.3278E-03
            5556            5622     24.6206E-03     24.3278E-03
            5565            5622     24.6206E-03     24.3278E-03
            5566            5623     29.6070E-03     29.7436E-03
            5556            5623     29.6070E-03     29.7436E-03
            5557            5623     29.6070E-03     29.7436E-03
            5565            5623     29.6070E-03     29.7436E-03
            5557            5624     36.0577E-03     36.0247E-03
            5566            5624     36.0577E-03     36.0247E-03
            5558            5624     36.0577E-03     36.0247E-03
            5567            5624     36.0577E-03     36.0247E-03
            5568            5625     33.5708E-03     33.8841E-03
            5569            5625     33.5708E-03     33.8841E-03
            5560            5625     33.5708E-03     33.8841E-03
            5559            5625     33.5708E-03     33.8841E-03
            5560            5626     28.2918E-03     28.6069E-03
            5561            5626     28.2918E-03     28.6069E-03
            5570            5626     28.2918E-03     28.6069E-03
            5569            5626     28.2918E-03     28.6069E-03
            5571            5627     24.0014E-03     23.3404E-03
            5570            5627     24.0014E-03     23.3404E-03
            5562            5627     24.0014E-03     23.3404E-03
            5561            5627     24.0014E-03     23.3404E-03
            5563            5628     21.2573E-03     19.8178E-03
            5571            5628     21.2573E-03     19.8178E-03
            5572            5628     21.2573E-03     19.8178E-03
            5562            5628     21.2573E-03     19.8178E-03
            5563            5629     21.2573E-03     19.8178E-03
            5572            5629     21.2573E-03     19.8178E-03
            5573            5629     21.2573E-03     19.8178E-03
            5564            5629     21.2573E-03     19.8178E-03
            5574            5630     24.0014E-03     23.3404E-03
            5573            5630     24.0014E-03     23.3404E-03
            5565            5630     24.0014E-03     23.3404E-03
            5564            5630     24.0014E-03     23.3404E-03
            5575            5631     28.2918E-03     28.6069E-03
            5574            5631     28.2918E-03     28.6069E-03
            5565            5631     28.2918E-03     28.6069E-03
            5566            5631     28.2918E-03     28.6069E-03
            5575            5632     33.5708E-03     33.8841E-03
            5566            5632     33.5708E-03     33.8841E-03
            5567            5632     33.5708E-03     33.8841E-03
            5576            5632     33.5708E-03     33.8841E-03
            5569            5633     31.0014E-03     31.6298E-03
            5568            5633     31.0014E-03     31.6298E-03
            5577            5633     31.0014E-03     31.6298E-03
            5578            5633     31.0014E-03     31.6298E-03
            5569            5634     27.1312E-03     26.8854E-03
            5578            5634     27.1312E-03     26.8854E-03
            5579            5634     27.1312E-03     26.8854E-03
            5570            5634     27.1312E-03     26.8854E-03
            5580            5635     23.4186E-03     22.1394E-03
            5570            5635     23.4186E-03     22.1394E-03
            5579            5635     23.4186E-03     22.1394E-03
            5571            5635     23.4186E-03     22.1394E-03
            5572            5636     20.9613E-03     19.2352E-03
            5581            5636     20.9613E-03     19.2352E-03
            5571            5636     20.9613E-03     19.2352E-03
            5580            5636     20.9613E-03     19.2352E-03
            5581            5637     20.9613E-03     19.2352E-03
            5582            5637     20.9613E-03     19.2352E-03
            5572            5637     20.9613E-03     19.2352E-03
            5573            5637     20.9613E-03     19.2352E-03
            5573            5638     23.4186E-03     22.1394E-03
            5582            5638     23.4186E-03     22.1394E-03
            5574            5638     23.4186E-03     22.1394E-03
            5583            5638     23.4186E-03     22.1394E-03
            5583            5639     27.1312E-03     26.8854E-03
            5574            5639     27.1312E-03     26.8854E-03
            5575            5639     27.1312E-03     26.8854E-03
            5584            5639     27.1312E-03     26.8854E-03
            5576            5640     31.0014E-03     31.6298E-03
            5584            5640     31.0014E-03     31.6298E-03
            5585            5640     31.0014E-03     31.6298E-03
            5575            5640     31.0014E-03     31.6298E-03
            5586            5641     27.9821E-03     26.4673E-03
            5577            5641     27.9821E-03     26.4673E-03
            5587            5641     27.9821E-03     26.4673E-03
            5578            5641     27.9821E-03     26.4673E-03
            5578            5642     25.8364E-03     23.9799E-03
            5579            5642     25.8364E-03     23.9799E-03
            5588            5642     25.8364E-03     23.9799E-03
            5587            5642     25.8364E-03     23.9799E-03
            5579            5643     23.0478E-03     21.4389E-03
            5588            5643     23.0478E-03     21.4389E-03
            5580            5643     23.0478E-03     21.4389E-03
            5589            5643     23.0478E-03     21.4389E-03
            5589            5644     21.3168E-03     19.9448E-03
            5580            5644     21.3168E-03     19.9448E-03
            5581            5644     21.3168E-03     19.9448E-03
            5590            5644     21.3168E-03     19.9448E-03
            5591            5645     21.3168E-03     19.9448E-03
            5581            5645     21.3168E-03     19.9448E-03
            5582            5645     21.3168E-03     19.9448E-03
            5590            5645     21.3168E-03     19.9448E-03
            5582            5646     23.0478E-03     21.4389E-03
            5591            5646     23.0478E-03     21.4389E-03
            5583            5646     23.0478E-03     21.4389E-03
            5592            5646     23.0478E-03     21.4389E-03
            5593            5647     25.8364E-03     23.9799E-03
            5584            5647     25.8364E-03     23.9799E-03
            5592            5647     25.8364E-03     23.9799E-03
            5583            5647     25.8364E-03     23.9799E-03
            5585            5648     27.9821E-03     26.4673E-03
            5593            5648     27.9821E-03     26.4673E-03
            5584            5648     27.9821E-03     26.4673E-03
            5594            5648     27.9821E-03     26.4673E-03
            5595            5649     30.8713E-03     28.1985E-03
            5586            5649     30.8713E-03     28.1985E-03
            5596            5649     30.8713E-03     28.1985E-03
            5587            5649     30.8713E-03     28.1985E-03
            5587            5650     25.1019E-03     23.3194E-03
            5597            5650     25.1019E-03     23.3194E-03
            5596            5650     25.1019E-03     23.3194E-03
            5588            5650     25.1019E-03     23.3194E-03
            5597            5651     21.2440E-03     20.3607E-03
            5598            5651     21.2440E-03     20.3607E-03
            5589            5651     21.2440E-03     20.3607E-03
            5588            5651     21.2440E-03     20.3607E-03
            5599            5652     19.1506E-03     18.7980E-03
            5598            5652     19.1506E-03     18.7980E-03
            5590            5652     19.1506E-03     18.7980E-03
            5589            5652     19.1506E-03     18.7980E-03
            5600            5653     19.1506E-03     18.7980E-03
            5599            5653     19.1506E-03     18.7980E-03
            5590            5653     19.1506E-03     18.7980E-03
            5591            5653     19.1506E-03     18.7980E-03
            5591            5654     21.2440E-03     20.3607E-03
            5600            5654     21.2440E-03     20.3607E-03
            5601            5654     21.2440E-03     20.3607E-03
            5592            5654     21.2440E-03     20.3607E-03
            5593            5655     25.1019E-03     23.3194E-03
            5601            5655     25.1019E-03     23.3194E-03
            5602            5655     25.1019E-03     23.3194E-03
            5592            5655     25.1019E-03     23.3194E-03
            5603            5656     30.8713E-03     28.1985E-03
            5602            5656     30.8713E-03     28.1985E-03
            5594            5656     30.8713E-03     28.1985E-03
            5593            5656     30.8713E-03     28.1985E-03
            5595            5657     34.4363E-03     33.7591E-03
            5605            5657     34.4363E-03     33.7591E-03
            5596            5657     34.4363E-03     33.7591E-03
            5604            5657     34.4363E-03     33.7591E-03
            5596            5658     26.0006E-03     25.8959E-03
            5606            5658     26.0006E-03     25.8959E-03
            5597            5658     26.0006E-03     25.8959E-03
            5605            5658     26.0006E-03     25.8959E-03
            5607            5659     20.4728E-03     20.7165E-03
            5606            5659     20.4728E-03     20.7165E-03
            5597            5659     20.4728E-03     20.7165E-03
            5598            5659     20.4728E-03     20.7165E-03
            5599            5660     17.8575E-03     18.4077E-03
            5607            5660     17.8575E-03     18.4077E-03
            5608            5660     17.8575E-03     18.4077E-03
            5598            5660     17.8575E-03     18.4077E-03
            5600            5661     17.8575E-03     18.4077E-03
            5609            5661     17.8575E-03     18.4077E-03
            5599            5661     17.8575E-03     18.4077E-03
            5608            5661     17.8575E-03     18.4077E-03
            5600            5662     20.4728E-03     20.7165E-03
            5610            5662     20.4728E-03     20.7165E-03
            5601            5662     20.4728E-03     20.7165E-03
            5609            5662     20.4728E-03     20.7165E-03
            5610            5663     26.0006E-03     25.8959E-03
            5602            5663     26.0006E-03     25.8959E-03
            5611            5663     26.0006E-03     25.8959E-03
            5601            5663     26.0006E-03     25.8959E-03
            5602            5664     34.4363E-03     33.7591E-03
            5612            5664     34.4363E-03     33.7591E-03
            5603            5664     34.4363E-03     33.7591E-03
            5611            5664     34.4363E-03     33.7591E-03
            5604            5665     31.5198E-03     31.5576E-03
            5614            5665     31.5198E-03     31.5576E-03
            5613            5665     31.5198E-03     31.5576E-03
            5605            5665     31.5198E-03     31.5576E-03
            5606            5666     26.3937E-03     26.8476E-03
            5614            5666     26.3937E-03     26.8476E-03
            5605            5666     26.3937E-03     26.8476E-03
            5615            5666     26.3937E-03     26.8476E-03
            5616            5667     22.0379E-03     22.7524E-03
            5615            5667     22.0379E-03     22.7524E-03
            5607            5667     22.0379E-03     22.7524E-03
            5606            5667     22.0379E-03     22.7524E-03
            5608            5668     19.8986E-03     20.7441E-03
            5607            5668     19.8986E-03     20.7441E-03
            5617            5668     19.8986E-03     20.7441E-03
            5616            5668     19.8986E-03     20.7441E-03
            5609            5669     19.8986E-03     20.7441E-03
            5617            5669     19.8986E-03     20.7441E-03
            5608            5669     19.8986E-03     20.7441E-03
            5618            5669     19.8986E-03     20.7441E-03
            5619            5670     22.0379E-03     22.7524E-03
            5609            5670     22.0379E-03     22.7524E-03
            5618            5670     22.0379E-03     22.7524E-03
            5610            5670     22.0379E-03     22.7524E-03
            5619            5671     26.3937E-03     26.8476E-03
            5620            5671     26.3937E-03     26.8476E-03
            5611            5671     26.3937E-03     26.8476E-03
            5610            5671     26.3937E-03     26.8476E-03
            5612            5672     31.5198E-03     31.5576E-03
            5620            5672     31.5198E-03     31.5576E-03
            5621            5672     31.5198E-03     31.5576E-03
            5611            5672     31.5198E-03     31.5576E-03
            5613            5673     28.4725E-03     28.3091E-03
            5622            5673     28.4725E-03     28.3091E-03
            5614            5673     28.4725E-03     28.3091E-03
            5623            5673     28.4725E-03     28.3091E-03
            5624            5674     25.0617E-03     25.2863E-03
            5623            5674     25.0617E-03     25.2863E-03
            5614            5674     25.0617E-03     25.2863E-03
            5615            5674     25.0617E-03     25.2863E-03
            5615            5675     22.5142E-03     23.1133E-03
            5624            5675     22.5142E-03     23.1133E-03
            5625            5675     22.5142E-03     23.1133E-03
            5616            5675     22.5142E-03     23.1133E-03
            5625            5676     20.9959E-03     21.7446E-03
            5626            5676     20.9959E-03     21.7446E-03
            5617            5676     20.9959E-03     21.7446E-03
            5616            5676     20.9959E-03     21.7446E-03
            5618            5677     20.9959E-03     21.7446E-03
            5627            5677     20.9959E-03     21.7446E-03
            5626            5677     20.9959E-03     21.7446E-03
            5617            5677     20.9959E-03     21.7446E-03
            5628            5678     22.5142E-03     23.1133E-03
            5619            5678     22.5142E-03     23.1133E-03
            5618            5678     22.5142E-03     23.1133E-03
            5627            5678     22.5142E-03     23.1133E-03
            5629            5679     25.0617E-03     25.2863E-03
            5628            5679     25.0617E-03     25.2863E-03
            5619            5679     25.0617E-03     25.2863E-03
            5620            5679     25.0617E-03     25.2863E-03
            5630            5680     28.4725E-03     28.3091E-03
            5621            5680     28.4725E-03     28.3091E-03
            5629            5680     28.4725E-03     28.3091E-03
            5620            5680     28.4725E-03     28.3091E-03
            5632            5681     26.1672E-03     25.9718E-03
            5631            5681     26.1672E-03     25.9718E-03
            5623            5681     26.1672E-03     25.9718E-03
            5622            5681     26.1672E-03     25.9718E-03
            5624            5682     23.6351E-03     23.7113E-03
            5623            5682     23.6351E-03     23.7113E-03
            5633            5682     23.6351E-03     23.7113E-03
            5632            5682     23.6351E-03     23.7113E-03
            5633            5683     22.1129E-03     22.4197E-03
            5625            5683     22.1129E-03     22.4197E-03
            5624            5683     22.1129E-03     22.4197E-03
            5634            5683     22.1129E-03     22.4197E-03
            5626            5684     21.3999E-03     21.8578E-03
            5635            5684     21.3999E-03     21.8578E-03
            5625            5684     21.3999E-03     21.8578E-03
            5634            5684     21.3999E-03     21.8578E-03
            5636            5685     21.3999E-03     21.8578E-03
            5635            5685     21.3999E-03     21.8578E-03
            5626            5685     21.3999E-03     21.8578E-03
            5627            5685     21.3999E-03     21.8578E-03
            5628            5686     22.1129E-03     22.4197E-03
            5627            5686     22.1129E-03     22.4197E-03
            5636            5686     22.1129E-03     22.4197E-03
            5637            5686     22.1129E-03     22.4197E-03
            5638            5687     23.6351E-03     23.7113E-03
            5628            5687     23.6351E-03     23.7113E-03
            5637            5687     23.6351E-03     23.7113E-03
            5629            5687     23.6351E-03     23.7113E-03
            5629            5688     26.1672E-03     25.9718E-03
            5638            5688     26.1672E-03     25.9718E-03
            5630            5688     26.1672E-03     25.9718E-03
            5639            5688     26.1672E-03     25.9718E-03
            5640            5689     23.9014E-03     23.7564E-03
            5632            5689     23.9014E-03     23.7564E-03
            5631            5689     23.9014E-03     23.7564E-03
            5641            5689     23.9014E-03     23.7564E-03
            5633            5690     22.3657E-03     22.4127E-03
            5632            5690     22.3657E-03     22.4127E-03
            5641            5690     22.3657E-03     22.4127E-03
            5642            5690     22.3657E-03     22.4127E-03
            5634            5691     21.6201E-03     21.7481E-03
            5643            5691     21.6201E-03     21.7481E-03
            5642            5691     21.6201E-03     21.7481E-03
            5633            5691     21.6201E-03     21.7481E-03
            5643            5692     21.3633E-03     21.5063E-03
            5635            5692     21.3633E-03     21.5063E-03
            5634            5692     21.3633E-03     21.5063E-03
            5644            5692     21.3633E-03     21.5063E-03
            5636            5693     21.3633E-03     21.5063E-03
            5644            5693     21.3633E-03     21.5063E-03
            5635            5693     21.3633E-03     21.5063E-03
            5645            5693     21.3633E-03     21.5063E-03
            5645            5694     21.6201E-03     21.7481E-03
            5637            5694     21.6201E-03     21.7481E-03
            5636            5694     21.6201E-03     21.7481E-03
            5646            5694     21.6201E-03     21.7481E-03
            5647            5695     22.3657E-03     22.4127E-03
            5638            5695     22.3657E-03     22.4127E-03
            5646            5695     22.3657E-03     22.4127E-03
            5637            5695     22.3657E-03     22.4127E-03
            5638            5696     23.9014E-03     23.7564E-03
            5639            5696     23.9014E-03     23.7564E-03
            5647            5696     23.9014E-03     23.7564E-03
            5648            5696     23.9014E-03     23.7564E-03
            5640            5697     21.7684E-03     21.7096E-03
            5650            5697     21.7684E-03     21.7096E-03
            5649            5697     21.7684E-03     21.7096E-03
            5641            5697     21.7684E-03     21.7096E-03
            5642            5698     21.1507E-03     21.2038E-03
            5651            5698     21.1507E-03     21.2038E-03
            5650            5698     21.1507E-03     21.2038E-03
            5641            5698     21.1507E-03     21.2038E-03
            5643            5699     21.1403E-03     21.1142E-03
            5651            5699     21.1403E-03     21.1142E-03
            5652            5699     21.1403E-03     21.1142E-03
            5642            5699     21.1403E-03     21.1142E-03
            5652            5700     21.2061E-03     21.0738E-03
            5644            5700     21.2061E-03     21.0738E-03
            5643            5700     21.2061E-03     21.0738E-03
            5653            5700     21.2061E-03     21.0738E-03
            5644            5701     21.2061E-03     21.0738E-03
            5645            5701     21.2061E-03     21.0738E-03
            5653            5701     21.2061E-03     21.0738E-03
            5654            5701     21.2061E-03     21.0738E-03
            5646            5702     21.1403E-03     21.1142E-03
            5655            5702     21.1403E-03     21.1142E-03
            5645            5702     21.1403E-03     21.1142E-03
            5654            5702     21.1403E-03     21.1142E-03
            5647            5703     21.1507E-03     21.2038E-03
            5656            5703     21.1507E-03     21.2038E-03
            5655            5703     21.1507E-03     21.2038E-03
            5646            5703     21.1507E-03     21.2038E-03
            5648            5704     21.7684E-03     21.7096E-03
            5656            5704     21.7684E-03     21.7096E-03
            5647            5704     21.7684E-03     21.7096E-03
            5657            5704     21.7684E-03     21.7096E-03
            5659            5705     19.7694E-03     19.8559E-03
            5649            5705     19.7694E-03     19.8559E-03
            5658            5705     19.7694E-03     19.8559E-03
            5650            5705     19.7694E-03     19.8559E-03
            5660            5706     20.1433E-03     20.2142E-03
            5650            5706     20.1433E-03     20.2142E-03
            5659            5706     20.1433E-03     20.2142E-03
            5651            5706     20.1433E-03     20.2142E-03
            5652            5707     20.6838E-03     20.4921E-03
            5651            5707     20.6838E-03     20.4921E-03
            5661            5707     20.6838E-03     20.4921E-03
            5660            5707     20.6838E-03     20.4921E-03
            5662            5708     20.9721E-03     20.5440E-03
            5653            5708     20.9721E-03     20.5440E-03
            5652            5708     20.9721E-03     20.5440E-03
            5661            5708     20.9721E-03     20.5440E-03
            5663            5709     20.9721E-03     20.5440E-03
            5662            5709     20.9721E-03     20.5440E-03
            5654            5709     20.9721E-03     20.5440E-03
            5653            5709     20.9721E-03     20.5440E-03
            5663            5710     20.6838E-03     20.4921E-03
            5664            5710     20.6838E-03     20.4921E-03
            5655            5710     20.6838E-03     20.4921E-03
            5654            5710     20.6838E-03     20.4921E-03
            5656            5711     20.1433E-03     20.2142E-03
            5655            5711     20.1433E-03     20.2142E-03
            5664            5711     20.1433E-03     20.2142E-03
            5665            5711     20.1433E-03     20.2142E-03
            5657            5712     19.7694E-03     19.8559E-03
            5656            5712     19.7694E-03     19.8559E-03
            5666            5712     19.7694E-03     19.8559E-03
            5665            5712     19.7694E-03     19.8559E-03
            5659            5713     17.9021E-03     18.1881E-03
            5658            5713     17.9021E-03     18.1881E-03
            5667            5713     17.9021E-03     18.1881E-03
            5668            5713     17.9021E-03     18.1881E-03
            5660            5714     19.3809E-03     19.4316E-03
            5659            5714     19.3809E-03     19.4316E-03
            5669            5714     19.3809E-03     19.4316E-03
            5668            5714     19.3809E-03     19.4316E-03
            5660            5715     20.3284E-03     19.8776E-03
            5669            5715     20.3284E-03     19.8776E-03
            5670            5715     20.3284E-03     19.8776E-03
            5661            5715     20.3284E-03     19.8776E-03
            5671            5716     20.5533E-03     19.8427E-03
            5661            5716     20.5533E-03     19.8427E-03
            5662            5716     20.5533E-03     19.8427E-03
            5670            5716     20.5533E-03     19.8427E-03
            5662            5717     20.5533E-03     19.8427E-03
            5663            5717     20.5533E-03     19.8427E-03
            5671            5717     20.5533E-03     19.8427E-03
            5672            5717     20.5533E-03     19.8427E-03
            5673            5718     20.3284E-03     19.8776E-03
            5664            5718     20.3284E-03     19.8776E-03
            5663            5718     20.3284E-03     19.8776E-03
            5672            5718     20.3284E-03     19.8776E-03
            5665            5719     19.3809E-03     19.4316E-03
            5664            5719     19.3809E-03     19.4316E-03
            5674            5719     19.3809E-03     19.4316E-03
            5673            5719     19.3809E-03     19.4316E-03
            5674            5720     17.9021E-03     18.1881E-03
            5675            5720     17.9021E-03     18.1881E-03
            5665            5720     17.9021E-03     18.1881E-03
            5666            5720     17.9021E-03     18.1881E-03
            5676            5721     16.3576E-03     16.7655E-03
            5677            5721     16.3576E-03     16.7655E-03
            5668            5721     16.3576E-03     16.7655E-03
            5667            5721     16.3576E-03     16.7655E-03
            5669            5722     18.9497E-03     18.6669E-03
            5677            5722     18.9497E-03     18.6669E-03
            5678            5722     18.9497E-03     18.6669E-03
            5668            5722     18.9497E-03     18.6669E-03
            5678            5723     19.8292E-03     19.1159E-03
            5679            5723     19.8292E-03     19.1159E-03
            5669            5723     19.8292E-03     19.1159E-03
            5670            5723     19.8292E-03     19.1159E-03
            5679            5724     19.9873E-03     19.1484E-03
            5670            5724     19.9873E-03     19.1484E-03
            5680            5724     19.9873E-03     19.1484E-03
            5671            5724     19.9873E-03     19.1484E-03
            5681            5725     19.9873E-03     19.1484E-03
            5671            5725     19.9873E-03     19.1484E-03
            5680            5725     19.9873E-03     19.1484E-03
            5672            5725     19.9873E-03     19.1484E-03
            5673            5726     19.8292E-03     19.1159E-03
            5672            5726     19.8292E-03     19.1159E-03
            5682            5726     19.8292E-03     19.1159E-03
            5681            5726     19.8292E-03     19.1159E-03
            5683            5727     18.9497E-03     18.6669E-03
            5673            5727     18.9497E-03     18.6669E-03
            5682            5727     18.9497E-03     18.6669E-03
            5674            5727     18.9497E-03     18.6669E-03
            5675            5728     16.3576E-03     16.7655E-03
            5674            5728     16.3576E-03     16.7655E-03
            5683            5728     16.3576E-03     16.7655E-03
            5684            5728     16.3576E-03     16.7655E-03
            5686            5729     15.0543E-03     14.8960E-03
            5677            5729     15.0543E-03     14.8960E-03
            5685            5729     15.0543E-03     14.8960E-03
            5676            5729     15.0543E-03     14.8960E-03
            5687            5730     18.3387E-03     17.6450E-03
            5677            5730     18.3387E-03     17.6450E-03
            5686            5730     18.3387E-03     17.6450E-03
            5678            5730     18.3387E-03     17.6450E-03
            5687            5731     19.2193E-03     18.5482E-03
            5679            5731     19.2193E-03     18.5482E-03
            5688            5731     19.2193E-03     18.5482E-03
            5678            5731     19.2193E-03     18.5482E-03
            5688            5732     19.5609E-03     18.9316E-03
            5680            5732     19.5609E-03     18.9316E-03
            5679            5732     19.5609E-03     18.9316E-03
            5689            5732     19.5609E-03     18.9316E-03
            5689            5733     19.5609E-03     18.9316E-03
            5680            5733     19.5609E-03     18.9316E-03
            5690            5733     19.5609E-03     18.9316E-03
            5681            5733     19.5609E-03     18.9316E-03
            5681            5734     19.2193E-03     18.5482E-03
            5691            5734     19.2193E-03     18.5482E-03
            5690            5734     19.2193E-03     18.5482E-03
            5682            5734     19.2193E-03     18.5482E-03
            5691            5735     18.3387E-03     17.6450E-03
            5682            5735     18.3387E-03     17.6450E-03
            5683            5735     18.3387E-03     17.6450E-03
            5692            5735     18.3387E-03     17.6450E-03
            5693            5736     15.0543E-03     14.8960E-03
            5692            5736     15.0543E-03     14.8960E-03
            5684            5736     15.0543E-03     14.8960E-03
            5683            5736     15.0543E-03     14.8960E-03
            5694            5737     16.6480E-03     16.1966E-03
            5686            5737     16.6480E-03     16.1966E-03
            5695            5737     16.6480E-03     16.1966E-03
            5685            5737     16.6480E-03     16.1966E-03
            5687            5738     17.8515E-03     17.4938E-03
            5696            5738     17.8515E-03     17.4938E-03
            5695            5738     17.8515E-03     17.4938E-03
            5686            5738     17.8515E-03     17.4938E-03
            5697            5739     18.3787E-03     18.1310E-03
            5696            5739     18.3787E-03     18.1310E-03
            5688            5739     18.3787E-03     18.1310E-03
            5687            5739     18.3787E-03     18.1310E-03
            5698            5740     18.7671E-03     18.5758E-03
            5688            5740     18.7671E-03     18.5758E-03
            5689            5740     18.7671E-03     18.5758E-03
            5697            5740     18.7671E-03     18.5758E-03
            5689            5741     18.7671E-03     18.5758E-03
            5690            5741     18.7671E-03     18.5758E-03
            5699            5741     18.7671E-03     18.5758E-03
            5698            5741     18.7671E-03     18.5758E-03
            5691            5742     18.3787E-03     18.1310E-03
            5690            5742     18.3787E-03     18.1310E-03
            5699            5742     18.3787E-03     18.1310E-03
            5700            5742     18.3787E-03     18.1310E-03
            5701            5743     17.8515E-03     17.4938E-03
            5700            5743     17.8515E-03     17.4938E-03
            5692            5743     17.8515E-03     17.4938E-03
            5691            5743     17.8515E-03     17.4938E-03
            5702            5744     16.6480E-03     16.1966E-03
            5693            5744     16.6480E-03     16.1966E-03
            5701            5744     16.6480E-03     16.1966E-03
            5692            5744     16.6480E-03     16.1966E-03
            5695            5745     17.9256E-03     17.8753E-03
            5704            5745     17.9256E-03     17.8753E-03
            5694            5745     17.9256E-03     17.8753E-03
            5703            5745     17.9256E-03     17.8753E-03
            5695            5746     18.2556E-03     18.3810E-03
            5696            5746     18.2556E-03     18.3810E-03
            5705            5746     18.2556E-03     18.3810E-03
            5704            5746     18.2556E-03     18.3810E-03
            5696            5747     18.3697E-03     18.4455E-03
            5705            5747     18.3697E-03     18.4455E-03
            5697            5747     18.3697E-03     18.4455E-03
            5706            5747     18.3697E-03     18.4455E-03
            5706            5748     18.5438E-03     18.5853E-03
            5707            5748     18.5438E-03     18.5853E-03
            5698            5748     18.5438E-03     18.5853E-03
            5697            5748     18.5438E-03     18.5853E-03
            5707            5749     18.5438E-03     18.5853E-03
            5698            5749     18.5438E-03     18.5853E-03
            5699            5749     18.5438E-03     18.5853E-03
            5708            5749     18.5438E-03     18.5853E-03
            5708            5750     18.3697E-03     18.4455E-03
            5699            5750     18.3697E-03     18.4455E-03
            5700            5750     18.3697E-03     18.4455E-03
            5709            5750     18.3697E-03     18.4455E-03
            5710            5751     18.2556E-03     18.3810E-03
            5709            5751     18.2556E-03     18.3810E-03
            5700            5751     18.2556E-03     18.3810E-03
            5701            5751     18.2556E-03     18.3810E-03
            5710            5752     17.9256E-03     17.8753E-03
            5701            5752     17.9256E-03     17.8753E-03
            5702            5752     17.9256E-03     17.8753E-03
            5711            5752     17.9256E-03     17.8753E-03
            5704            5753     15.6884E-03     15.7538E-03
            5712            5753     15.6884E-03     15.7538E-03
            5713            5753     15.6884E-03     15.7538E-03
            5703            5753     15.6884E-03     15.7538E-03
            5704            5754     18.5773E-03     18.6457E-03
            5713            5754     18.5773E-03     18.6457E-03
            5714            5754     18.5773E-03     18.6457E-03
            5705            5754     18.5773E-03     18.6457E-03
            5714            5755     19.2394E-03     19.3010E-03
            5715            5755     19.2394E-03     19.3010E-03
            5705            5755     19.2394E-03     19.3010E-03
            5706            5755     19.2394E-03     19.3010E-03
            5706            5756     19.2035E-03     19.2352E-03
            5707            5756     19.2035E-03     19.2352E-03
            5715            5756     19.2035E-03     19.2352E-03
            5716            5756     19.2035E-03     19.2352E-03
            5708            5757     19.2035E-03     19.2352E-03
            5716            5757     19.2035E-03     19.2352E-03
            5717            5757     19.2035E-03     19.2352E-03
            5707            5757     19.2035E-03     19.2352E-03
            5717            5758     19.2394E-03     19.3010E-03
            5709            5758     19.2394E-03     19.3010E-03
            5718            5758     19.2394E-03     19.3010E-03
            5708            5758     19.2394E-03     19.3010E-03
            5719            5759     18.5773E-03     18.6457E-03
            5718            5759     18.5773E-03     18.6457E-03
            5710            5759     18.5773E-03     18.6457E-03
            5709            5759     18.5773E-03     18.6457E-03
            5711            5760     15.6884E-03     15.7538E-03
            5720            5760     15.6884E-03     15.7538E-03
            5719            5760     15.6884E-03     15.7538E-03
            5710            5760     15.6884E-03     15.7538E-03
            5713            5761     14.5353E-03     14.5912E-03
            5712            5761     14.5353E-03     14.5912E-03
            5721            5761     14.5353E-03     14.5912E-03
            5722            5761     14.5353E-03     14.5912E-03
            5722            5762     18.3102E-03     18.2310E-03
            5713            5762     18.3102E-03     18.2310E-03
            5714            5762     18.3102E-03     18.2310E-03
            5723            5762     18.3102E-03     18.2310E-03
            5724            5763     19.3347E-03     19.2969E-03
            5723            5763     19.3347E-03     19.2969E-03
            5714            5763     19.3347E-03     19.2969E-03
            5715            5763     19.3347E-03     19.2969E-03
            5724            5764     19.3651E-03     19.3504E-03
            5715            5764     19.3651E-03     19.3504E-03
            5716            5764     19.3651E-03     19.3504E-03
            5725            5764     19.3651E-03     19.3504E-03
            5725            5765     19.3651E-03     19.3504E-03
            5717            5765     19.3651E-03     19.3504E-03
            5716            5765     19.3651E-03     19.3504E-03
            5726            5765     19.3651E-03     19.3504E-03
            5718            5766     19.3347E-03     19.2969E-03
            5727            5766     19.3347E-03     19.2969E-03
            5726            5766     19.3347E-03     19.2969E-03
            5717            5766     19.3347E-03     19.2969E-03
            5718            5767     18.3102E-03     18.2310E-03
            5719            5767     18.3102E-03     18.2310E-03
            5728            5767     18.3102E-03     18.2310E-03
            5727            5767     18.3102E-03     18.2310E-03
            5729            5768     14.5353E-03     14.5912E-03
            5728            5768     14.5353E-03     14.5912E-03
            5720            5768     14.5353E-03     14.5912E-03
            5719            5768     14.5353E-03     14.5912E-03
            5721            5769     14.7734E-03     14.7776E-03
            5722            5769     14.7734E-03     14.7776E-03
            5730            5769     14.7734E-03     14.7776E-03
            5731            5769     14.7734E-03     14.7776E-03
            5722            5770     17.7564E-03     17.6614E-03
            5732            5770     17.7564E-03     17.6614E-03
            5731            5770     17.7564E-03     17.6614E-03
            5723            5770     17.7564E-03     17.6614E-03
            5732            5771     18.7454E-03     18.6694E-03
            5723            5771     18.7454E-03     18.6694E-03
            5724            5771     18.7454E-03     18.6694E-03
            5733            5771     18.7454E-03     18.6694E-03
            5725            5772     19.1789E-03     19.1408E-03
            5734            5772     19.1789E-03     19.1408E-03
            5724            5772     19.1789E-03     19.1408E-03
            5733            5772     19.1789E-03     19.1408E-03
            5734            5773     19.1789E-03     19.1408E-03
            5725            5773     19.1789E-03     19.1408E-03
            5726            5773     19.1789E-03     19.1408E-03
            5735            5773     19.1789E-03     19.1408E-03
            5735            5774     18.7454E-03     18.6694E-03
            5736            5774     18.7454E-03     18.6694E-03
            5727            5774     18.7454E-03     18.6694E-03
            5726            5774     18.7454E-03     18.6694E-03
            5727            5775     17.7564E-03     17.6614E-03
            5736            5775     17.7564E-03     17.6614E-03
            5728            5775     17.7564E-03     17.6614E-03
            5737            5775     17.7564E-03     17.6614E-03
            5738            5776     14.7734E-03     14.7776E-03
            5729            5776     14.7734E-03     14.7776E-03
            5728            5776     14.7734E-03     14.7776E-03
            5737            5776     14.7734E-03     14.7776E-03


  Minimum                            837.973E-18     539.690E-18
      At Element                            2258            5338
            Node                            2773            5428

  Maximum                            96.1126E-03     91.4247E-03
      At Element                            3958            3868
            Node                               8             182

           Total                         118.153         117.102


Field Output reported at element nodes for region: A320-1.Region_3
   Computation algorithm: EXTRAPOLATE_COMPUTE_AVERAGE
   Averaged at nodes
   Averaging regions: ODB_REGIONS

   Element Label      Node Label         S.Mises         S.Mises
                                          @Loc 1          @Loc 2
-----------------------------------------------------------------
            1760               1     29.9055E-15     12.3419E-15
               1               1     29.9055E-15     12.3419E-15
            3550               2     7.45240E-03     7.40905E-03
            1757               2     7.45240E-03     7.40905E-03
              29               2     7.45240E-03     7.40905E-03
               4               2     7.45240E-03     7.40905E-03
              28               3     1.84247E-03     2.92168E-03
             329               3     1.84247E-03     2.92168E-03
              25               4     14.6480E-15     15.9723E-15
              78               5     16.0480E-03     15.8559E-03
             379               5     16.0480E-03     15.8559E-03
            2348               5     16.0480E-03     15.8559E-03
            3501               5     16.0480E-03     15.8559E-03
             415               6     87.1113E-03     94.0698E-03
             378               6     87.1113E-03     94.0698E-03
            2343               7     17.9479E-03     17.2833E-03
            5288               7     17.9479E-03     17.2833E-03
             421               7     17.9479E-03     17.2833E-03
             384               7     17.9479E-03     17.2833E-03
             457               8     96.6436E-03     112.254E-03
             420               8     96.6436E-03     112.254E-03
             426               9     17.8394E-03     19.3584E-03
             505               9     17.8394E-03     19.3584E-03
            4106               9     17.8394E-03     19.3584E-03
            5283               9     17.8394E-03     19.3584E-03
             745              10     78.3444E-03     83.0377E-03
             462              10     78.3444E-03     83.0377E-03
             463              11     31.4331E-15     33.9441E-15
            6572              11     31.4331E-15     33.9441E-15
            4067              12     9.07433E-03     9.04462E-03
             468              12     9.07433E-03     9.04462E-03
            6567              12     9.07433E-03     9.04462E-03
             544              12     9.07433E-03     9.04462E-03
             504              13     1.81793E-03     3.14908E-03
            4307              13     1.81793E-03     3.14908E-03
             499              14     45.1796E-15     42.4437E-15
            6603              15     1.81793E-03     3.14908E-03
             784              15     1.81793E-03     3.14908E-03
            1781              17     1.84247E-03     2.92168E-03
            3850              17     1.84247E-03     2.92168E-03
            1784              18     4.07508E-15     3.84761E-15
            3801              21     87.1113E-03     94.0698E-03
            2384              21     87.1113E-03     94.0698E-03
            2379              22     96.6436E-03     112.254E-03
            5324              22     96.6436E-03     112.254E-03
            5319              25     78.3444E-03     83.0377E-03
            4346              25     78.3444E-03     83.0377E-03
            6608              27     25.2864E-15     25.9290E-15
            1760              29     29.3371E-15     17.4145E-15
               2              29     29.3371E-15     17.4145E-15
               1              29     29.3371E-15     17.4145E-15
            1759              29     29.3371E-15     17.4145E-15
            1759              30     27.0647E-15     22.8720E-15
               2              30     27.0647E-15     22.8720E-15
            1758              30     27.0647E-15     22.8720E-15
               3              30     27.0647E-15     22.8720E-15
               3              31     29.4845E-15     28.9036E-15
            1757              31     29.4845E-15     28.9036E-15
            1758              31     29.4845E-15     28.9036E-15
               4              31     29.4845E-15     28.9036E-15
               4              32     7.26051E-03     7.20805E-03
              29              32     7.26051E-03     7.20805E-03
               8              32     7.26051E-03     7.20805E-03
              79              32     7.26051E-03     7.20805E-03
               8              33     6.67335E-03     6.61330E-03
             129              33     6.67335E-03     6.61330E-03
              79              33     6.67335E-03     6.61330E-03
              12              33     6.67335E-03     6.61330E-03
              16              34     5.70767E-03     5.65747E-03
              12              34     5.70767E-03     5.65747E-03
             179              34     5.70767E-03     5.65747E-03
             129              34     5.70767E-03     5.65747E-03
              16              35     4.35535E-03     4.39318E-03
             229              35     4.35535E-03     4.39318E-03
              20              35     4.35535E-03     4.39318E-03
             179              35     4.35535E-03     4.39318E-03
              24              36     2.90814E-03     3.07963E-03
              20              36     2.90814E-03     3.07963E-03
             229              36     2.90814E-03     3.07963E-03
             279              36     2.90814E-03     3.07963E-03
             279              37     2.04266E-03     2.69498E-03
             329              37     2.04266E-03     2.69498E-03
              28              37     2.04266E-03     2.69498E-03
              24              37     2.04266E-03     2.69498E-03
              28              38     25.4560E-15     25.6012E-15
              27              38     25.4560E-15     25.6012E-15
              26              39     32.3005E-15     31.8462E-15
              27              39     32.3005E-15     31.8462E-15
              25              40     26.3369E-15     25.7019E-15
              26              40     26.3369E-15     25.7019E-15
              21              41     13.7921E-15     14.6220E-15
              25              41     13.7921E-15     14.6220E-15
              21              42     22.4708E-15     23.3172E-15
              17              42     22.4708E-15     23.3172E-15
              17              43     32.2322E-15     31.4688E-15
              13              43     32.2322E-15     31.4688E-15
               9              44     30.6945E-15     26.5013E-15
              13              44     30.6945E-15     26.5013E-15
               5              45     29.2214E-15     21.2685E-15
               9              45     29.2214E-15     21.2685E-15
               1              46     26.8590E-15     14.1543E-15
               5              46     26.8590E-15     14.1543E-15
              29              47     14.9944E-03     14.8718E-03
            3550              47     14.9944E-03     14.8718E-03
            3549              47     14.9944E-03     14.8718E-03
              30              47     14.9944E-03     14.8718E-03
            3549              48     15.0505E-03     14.9752E-03
              30              48     15.0505E-03     14.9752E-03
              31              48     15.0505E-03     14.9752E-03
            3548              48     15.0505E-03     14.9752E-03
            3547              49     14.9964E-03     14.9483E-03
            3548              49     14.9964E-03     14.9483E-03
              32              49     14.9964E-03     14.9483E-03
              31              49     14.9964E-03     14.9483E-03
            3547              50     14.9399E-03     14.9619E-03
            3546              50     14.9399E-03     14.9619E-03
              32              50     14.9399E-03     14.9619E-03
              33              50     14.9399E-03     14.9619E-03
              34              51     15.0892E-03     15.0005E-03
            3545              51     15.0892E-03     15.0005E-03
              33              51     15.0892E-03     15.0005E-03
            3546              51     15.0892E-03     15.0005E-03
              35              52     15.0305E-03     14.7027E-03
            3545              52     15.0305E-03     14.7027E-03
              34              52     15.0305E-03     14.7027E-03
            3544              52     15.0305E-03     14.7027E-03
            3544              53     15.1031E-03     14.9464E-03
            3543              53     15.1031E-03     14.9464E-03
              36              53     15.1031E-03     14.9464E-03
              35              53     15.1031E-03     14.9464E-03
              37              54     15.4672E-03     15.3022E-03
            3543              54     15.4672E-03     15.3022E-03
              36              54     15.4672E-03     15.3022E-03
            3542              54     15.4672E-03     15.3022E-03
              38              55     15.5778E-03     15.2204E-03
            3542              55     15.5778E-03     15.2204E-03
              37              55     15.5778E-03     15.2204E-03
            3541              55     15.5778E-03     15.2204E-03
              39              56     15.6029E-03     15.2869E-03
              38              56     15.6029E-03     15.2869E-03
            3540              56     15.6029E-03     15.2869E-03
            3541              56     15.6029E-03     15.2869E-03
            3540              57     15.5793E-03     15.3183E-03
              40              57     15.5793E-03     15.3183E-03
            3539              57     15.5793E-03     15.3183E-03
              39              57     15.5793E-03     15.3183E-03
            3539              58     15.5202E-03     15.3864E-03
              41              58     15.5202E-03     15.3864E-03
            3538              58     15.5202E-03     15.3864E-03
              40              58     15.5202E-03     15.3864E-03
            3537              59     15.4742E-03     15.5174E-03
            3538              59     15.4742E-03     15.5174E-03
              42              59     15.4742E-03     15.5174E-03
              41              59     15.4742E-03     15.5174E-03
            3537              60     15.4181E-03     15.5170E-03
              43              60     15.4181E-03     15.5170E-03
            3536              60     15.4181E-03     15.5170E-03
              42              60     15.4181E-03     15.5170E-03
              44              61     15.2337E-03     15.6660E-03
            3535              61     15.2337E-03     15.6660E-03
              43              61     15.2337E-03     15.6660E-03
            3536              61     15.2337E-03     15.6660E-03
            3535              62     15.6043E-03     15.7694E-03
            3534              62     15.6043E-03     15.7694E-03
              44              62     15.6043E-03     15.7694E-03
              45              62     15.6043E-03     15.7694E-03
            3534              63     15.5732E-03     15.0820E-03
            3533              63     15.5732E-03     15.0820E-03
              46              63     15.5732E-03     15.0820E-03
              45              63     15.5732E-03     15.0820E-03
              47              64     15.4936E-03     15.4104E-03
            3533              64     15.4936E-03     15.4104E-03
              46              64     15.4936E-03     15.4104E-03
            3532              64     15.4936E-03     15.4104E-03
              48              65     15.8904E-03     15.8247E-03
            3531              65     15.8904E-03     15.8247E-03
            3532              65     15.8904E-03     15.8247E-03
              47              65     15.8904E-03     15.8247E-03
            3531              66     16.1144E-03     15.4789E-03
              48              66     16.1144E-03     15.4789E-03
              49              66     16.1144E-03     15.4789E-03
            3530              66     16.1144E-03     15.4789E-03
              49              67     16.2618E-03     15.6923E-03
            3530              67     16.2618E-03     15.6923E-03
            3529              67     16.2618E-03     15.6923E-03
              50              67     16.2618E-03     15.6923E-03
              50              68     16.2023E-03     15.7978E-03
            3528              68     16.2023E-03     15.7978E-03
              51              68     16.2023E-03     15.7978E-03
            3529              68     16.2023E-03     15.7978E-03
            3528              69     16.1067E-03     15.9342E-03
            3527              69     16.1067E-03     15.9342E-03
              52              69     16.1067E-03     15.9342E-03
              51              69     16.1067E-03     15.9342E-03
              52              70     16.0236E-03     16.1715E-03
            3526              70     16.0236E-03     16.1715E-03
              53              70     16.0236E-03     16.1715E-03
            3527              70     16.0236E-03     16.1715E-03
            3525              71     15.9093E-03     16.1581E-03
              54              71     15.9093E-03     16.1581E-03
              53              71     15.9093E-03     16.1581E-03
            3526              71     15.9093E-03     16.1581E-03
              55              72     15.5901E-03     16.3795E-03
            3525              72     15.5901E-03     16.3795E-03
            3524              72     15.5901E-03     16.3795E-03
              54              72     15.5901E-03     16.3795E-03
              55              73     16.1610E-03     16.4790E-03
            3524              73     16.1610E-03     16.4790E-03
              56              73     16.1610E-03     16.4790E-03
            3523              73     16.1610E-03     16.4790E-03
              57              74     16.0785E-03     15.4271E-03
              56              74     16.0785E-03     15.4271E-03
            3522              74     16.0785E-03     15.4271E-03
            3523              74     16.0785E-03     15.4271E-03
            3521              75     15.9377E-03     16.0128E-03
            3522              75     15.9377E-03     16.0128E-03
              57              75     15.9377E-03     16.0128E-03
              58              75     15.9377E-03     16.0128E-03
              59              76     16.5782E-03     16.5772E-03
            3520              76     16.5782E-03     16.5772E-03
              58              76     16.5782E-03     16.5772E-03
            3521              76     16.5782E-03     16.5772E-03
              60              77     16.9513E-03     16.0289E-03
            3519              77     16.9513E-03     16.0289E-03
            3520              77     16.9513E-03     16.0289E-03
              59              77     16.9513E-03     16.0289E-03
            3518              78     17.1818E-03     16.4211E-03
            3519              78     17.1818E-03     16.4211E-03
              60              78     17.1818E-03     16.4211E-03
              61              78     17.1818E-03     16.4211E-03
            3517              79     17.1191E-03     16.5908E-03
              62              79     17.1191E-03     16.5908E-03
              61              79     17.1191E-03     16.5908E-03
            3518              79     17.1191E-03     16.5908E-03
            3517              80     16.9976E-03     16.8117E-03
            3516              80     16.9976E-03     16.8117E-03
              63              80     16.9976E-03     16.8117E-03
              62              80     16.9976E-03     16.8117E-03
            3516              81     16.8824E-03     17.1413E-03
            3515              81     16.8824E-03     17.1413E-03
              64              81     16.8824E-03     17.1413E-03
              63              81     16.8824E-03     17.1413E-03
              65              82     16.7100E-03     17.0922E-03
            3514              82     16.7100E-03     17.0922E-03
              64              82     16.7100E-03     17.0922E-03
            3515              82     16.7100E-03     17.0922E-03
            3514              83     16.2423E-03     17.3771E-03
            3513              83     16.2423E-03     17.3771E-03
              65              83     16.2423E-03     17.3771E-03
              66              83     16.2423E-03     17.3771E-03
              67              84     17.0137E-03     17.4299E-03
            3513              84     17.0137E-03     17.4299E-03
            3512              84     17.0137E-03     17.4299E-03
              66              84     17.0137E-03     17.4299E-03
              68              85     16.8318E-03     16.0274E-03
            3511              85     16.8318E-03     16.0274E-03
            3512              85     16.8318E-03     16.0274E-03
              67              85     16.8318E-03     16.0274E-03
              68              86     16.5813E-03     16.9254E-03
            3511              86     16.5813E-03     16.9254E-03
            3510              86     16.5813E-03     16.9254E-03
              69              86     16.5813E-03     16.9254E-03
            3509              87     17.5584E-03     17.6949E-03
            3510              87     17.5584E-03     17.6949E-03
              70              87     17.5584E-03     17.6949E-03
              69              87     17.5584E-03     17.6949E-03
              71              88     18.0174E-03     17.0311E-03
            3508              88     18.0174E-03     17.0311E-03
              70              88     18.0174E-03     17.0311E-03
            3509              88     18.0174E-03     17.0311E-03
            3508              89     18.2818E-03     17.6283E-03
              72              89     18.2818E-03     17.6283E-03
            3507              89     18.2818E-03     17.6283E-03
              71              89     18.2818E-03     17.6283E-03
            3507              90     18.0291E-03     17.8400E-03
              73              90     18.0291E-03     17.8400E-03
            3506              90     18.0291E-03     17.8400E-03
              72              90     18.0291E-03     17.8400E-03
              74              91     17.9690E-03     18.0766E-03
            3506              91     17.9690E-03     18.0766E-03
              73              91     17.9690E-03     18.0766E-03
            3505              91     17.9690E-03     18.0766E-03
            3505              92     17.7094E-03     18.0041E-03
              75              92     17.7094E-03     18.0041E-03
            3504              92     17.7094E-03     18.0041E-03
              74              92     17.7094E-03     18.0041E-03
              76              93     17.0708E-03     18.3178E-03
            3504              93     17.0708E-03     18.3178E-03
            3503              93     17.0708E-03     18.3178E-03
              75              93     17.0708E-03     18.3178E-03
              77              94     17.9362E-03     18.2894E-03
            3502              94     17.9362E-03     18.2894E-03
              76              94     17.9362E-03     18.2894E-03
            3503              94     17.9362E-03     18.2894E-03
            3501              95     17.6082E-03     16.6399E-03
              78              95     17.6082E-03     16.6399E-03
            3502              95     17.6082E-03     16.6399E-03
              77              95     17.6082E-03     16.6399E-03
             379              96     22.2150E-03     23.1140E-03
             385              96     22.2150E-03     23.1140E-03
              78              96     22.2150E-03     23.1140E-03
             128              96     22.2150E-03     23.1140E-03
             385              97     35.8742E-03     39.1088E-03
             391              97     35.8742E-03     39.1088E-03
             128              97     35.8742E-03     39.1088E-03
             178              97     35.8742E-03     39.1088E-03
             178              98     50.2197E-03     56.2938E-03
             391              98     50.2197E-03     56.2938E-03
             228              98     50.2197E-03     56.2938E-03
             397              98     50.2197E-03     56.2938E-03
             228              99     62.7152E-03     72.5898E-03
             403              99     62.7152E-03     72.5898E-03
             397              99     62.7152E-03     72.5898E-03
             278              99     62.7152E-03     72.5898E-03
             409             100     72.4717E-03     85.0348E-03
             278             100     72.4717E-03     85.0348E-03
             328             100     72.4717E-03     85.0348E-03
             403             100     72.4717E-03     85.0348E-03
             328             101     81.8487E-03     91.8510E-03
             378             101     81.8487E-03     91.8510E-03
             409             101     81.8487E-03     91.8510E-03
             415             101     81.8487E-03     91.8510E-03
             377             102     97.7066E-03     94.1518E-03
             378             102     97.7066E-03     94.1518E-03
             377             103     93.2436E-03     87.9133E-03
             376             103     93.2436E-03     87.9133E-03
             376             104     84.3372E-03     86.8423E-03
             375             104     84.3372E-03     86.8423E-03
             375             105     83.2031E-03     81.3037E-03
             374             105     83.2031E-03     81.3037E-03
             374             106     79.6595E-03     79.6030E-03
             373             106     79.6595E-03     79.6030E-03
             372             107     77.2810E-03     75.7959E-03
             373             107     77.2810E-03     75.7959E-03
             372             108     73.2698E-03     74.5078E-03
             371             108     73.2698E-03     74.5078E-03
             370             109     74.0750E-03     69.9471E-03
             371             109     74.0750E-03     69.9471E-03
             369             110     72.2860E-03     68.5970E-03
             370             110     72.2860E-03     68.5970E-03
             369             111     70.8582E-03     79.1268E-03
             368             111     70.8582E-03     79.1268E-03
             368             112     79.3286E-03     76.5508E-03
             367             112     79.3286E-03     76.5508E-03
             367             113     75.1664E-03     70.9407E-03
             366             113     75.1664E-03     70.9407E-03
             366             114     67.4201E-03     69.5267E-03
             365             114     67.4201E-03     69.5267E-03
             365             115     66.0303E-03     64.5145E-03
             364             115     66.0303E-03     64.5145E-03
             363             116     62.7036E-03     62.5706E-03
             364             116     62.7036E-03     62.5706E-03
             362             117     60.0485E-03     59.6643E-03
             363             117     60.0485E-03     59.6643E-03
             361             118     57.5197E-03     56.4768E-03
             362             118     57.5197E-03     56.4768E-03
             361             119     53.9776E-03     54.6754E-03
             360             119     53.9776E-03     54.6754E-03
             359             120     53.6164E-03     50.6869E-03
             360             120     53.6164E-03     50.6869E-03
             359             121     51.6784E-03     48.7831E-03
             358             121     51.6784E-03     48.7831E-03
             357             122     51.5165E-03     57.4936E-03
             358             122     51.5165E-03     57.4936E-03
             357             123     58.4637E-03     56.5908E-03
             356             123     58.4637E-03     56.5908E-03
             356             124     54.6384E-03     51.5625E-03
             355             124     54.6384E-03     51.5625E-03
             355             125     48.0754E-03     49.7385E-03
             354             125     48.0754E-03     49.7385E-03
             354             126     46.3505E-03     45.2431E-03
             353             126     46.3505E-03     45.2431E-03
             352             127     43.1539E-03     43.1034E-03
             353             127     43.1539E-03     43.1034E-03
             352             128     40.5001E-03     40.1986E-03
             351             128     40.5001E-03     40.1986E-03
             351             129     37.8434E-03     37.2089E-03
             350             129     37.8434E-03     37.2089E-03
             350             130     34.6358E-03     34.8921E-03
             349             130     34.6358E-03     34.8921E-03
             348             131     33.0901E-03     31.3166E-03
             349             131     33.0901E-03     31.3166E-03
             347             132     30.8332E-03     28.8447E-03
             348             132     30.8332E-03     28.8447E-03
             346             133     32.0495E-03     35.7428E-03
             347             133     32.0495E-03     35.7428E-03
             345             134     37.6091E-03     36.6412E-03
             346             134     37.6091E-03     36.6412E-03
             345             135     34.1120E-03     32.1913E-03
             344             135     34.1120E-03     32.1913E-03
             343             136     28.7370E-03     29.9588E-03
             344             136     28.7370E-03     29.9588E-03
             342             137     26.6844E-03     25.9859E-03
             343             137     26.6844E-03     25.9859E-03
             342             138     23.6232E-03     23.6550E-03
             341             138     23.6232E-03     23.6550E-03
             340             139     20.9755E-03     20.7574E-03
             341             139     20.9755E-03     20.7574E-03
             339             140     18.1948E-03     17.9689E-03
             340             140     18.1948E-03     17.9689E-03
             339             141     15.3123E-03     15.1385E-03
             338             141     15.3123E-03     15.1385E-03
             337             142     12.5737E-03     11.9918E-03
             338             142     12.5737E-03     11.9918E-03
             336             143     10.1159E-03     9.06393E-03
             337             143     10.1159E-03     9.06393E-03
             336             144     12.2480E-03     13.6080E-03
             335             144     12.2480E-03     13.6080E-03
             334             145     15.6527E-03     15.5673E-03
             335             145     15.6527E-03     15.5673E-03
             333             146     12.2227E-03     11.3552E-03
             334             146     12.2227E-03     11.3552E-03
             333             147     7.72968E-03     8.48649E-03
             332             147     7.72968E-03     8.48649E-03
             332             148     5.13986E-03     4.65656E-03
             331             148     5.13986E-03     4.65656E-03
             330             149     2.81721E-03     2.53861E-03
             331             149     2.81721E-03     2.53861E-03
             330             150     2.88391E-03     3.85552E-03
             329             150     2.88391E-03     3.85552E-03
            2348             151     16.7865E-03     17.9036E-03
             379             151     16.7865E-03     17.9036E-03
            2347             151     16.7865E-03     17.9036E-03
             380             151     16.7865E-03     17.9036E-03
             381             152     17.1951E-03     18.3000E-03
            2347             152     17.1951E-03     18.3000E-03
             380             152     17.1951E-03     18.3000E-03
            2346             152     17.1951E-03     18.3000E-03
            2345             153     17.2641E-03     17.9246E-03
             382             153     17.2641E-03     17.9246E-03
             381             153     17.2641E-03     17.9246E-03
            2346             153     17.2641E-03     17.9246E-03
            2345             154     18.9526E-03     18.2058E-03
             382             154     18.9526E-03     18.2058E-03
            2344             154     18.9526E-03     18.2058E-03
             383             154     18.9526E-03     18.2058E-03
             383             155     18.1848E-03     16.6322E-03
             384             155     18.1848E-03     16.6322E-03
            2343             155     18.1848E-03     16.6322E-03
            2344             155     18.1848E-03     16.6322E-03
             427             156     24.1115E-03     26.5567E-03
             390             156     24.1115E-03     26.5567E-03
             384             156     24.1115E-03     26.5567E-03
             421             156     24.1115E-03     26.5567E-03
             427             157     37.4775E-03     45.2822E-03
             390             157     37.4775E-03     45.2822E-03
             396             157     37.4775E-03     45.2822E-03
             433             157     37.4775E-03     45.2822E-03
             402             158     51.2409E-03     63.6356E-03
             396             158     51.2409E-03     63.6356E-03
             439             158     51.2409E-03     63.6356E-03
             433             158     51.2409E-03     63.6356E-03
             408             159     63.1298E-03     82.5300E-03
             439             159     63.1298E-03     82.5300E-03
             445             159     63.1298E-03     82.5300E-03
             402             159     63.1298E-03     82.5300E-03
             445             160     72.4757E-03     98.7837E-03
             414             160     72.4757E-03     98.7837E-03
             408             160     72.4757E-03     98.7837E-03
             451             160     72.4757E-03     98.7837E-03
             420             161     86.5687E-03     108.649E-03
             414             161     86.5687E-03     108.649E-03
             457             161     86.5687E-03     108.649E-03
             451             161     86.5687E-03     108.649E-03
             420             162     102.049E-03     98.0301E-03
             419             162     102.049E-03     98.0301E-03
             419             163     96.9534E-03     92.5034E-03
             418             163     96.9534E-03     92.5034E-03
             418             164     91.5188E-03     89.1959E-03
             417             164     91.5188E-03     89.1959E-03
             417             165     89.9192E-03     85.1825E-03
             416             165     89.9192E-03     85.1825E-03
             415             166     82.0176E-03     87.5092E-03
             416             166     82.0176E-03     87.5092E-03
             422             167     21.5443E-03     19.6384E-03
            5288             167     21.5443E-03     19.6384E-03
            5287             167     21.5443E-03     19.6384E-03
             421             167     21.5443E-03     19.6384E-03
            5287             168     21.8972E-03     21.3333E-03
            5286             168     21.8972E-03     21.3333E-03
             423             168     21.8972E-03     21.3333E-03
             422             168     21.8972E-03     21.3333E-03
            5286             169     20.7542E-03     21.4183E-03
             423             169     20.7542E-03     21.4183E-03
             424             169     20.7542E-03     21.4183E-03
            5285             169     20.7542E-03     21.4183E-03
            5284             170     20.9631E-03     20.5781E-03
             424             170     20.9631E-03     20.5781E-03
             425             170     20.9631E-03     20.5781E-03
            5285             170     20.9631E-03     20.5781E-03
             425             171     20.7219E-03     22.0194E-03
            5284             171     20.7219E-03     22.0194E-03
            5283             171     20.7219E-03     22.0194E-03
             426             171     20.7219E-03     22.0194E-03
             426             172     23.6774E-03     25.7159E-03
             432             172     23.6774E-03     25.7159E-03
             505             172     23.6774E-03     25.7159E-03
             545             172     23.6774E-03     25.7159E-03
             585             173     36.1117E-03     39.2953E-03
             545             173     36.1117E-03     39.2953E-03
             432             173     36.1117E-03     39.2953E-03
             438             173     36.1117E-03     39.2953E-03
             438             174     48.7578E-03     53.5929E-03
             625             174     48.7578E-03     53.5929E-03
             585             174     48.7578E-03     53.5929E-03
             444             174     48.7578E-03     53.5929E-03
             665             175     59.8135E-03     67.7431E-03
             625             175     59.8135E-03     67.7431E-03
             450             175     59.8135E-03     67.7431E-03
             444             175     59.8135E-03     67.7431E-03
             705             176     68.7418E-03     79.0398E-03
             456             176     68.7418E-03     79.0398E-03
             665             176     68.7418E-03     79.0398E-03
             450             176     68.7418E-03     79.0398E-03
             705             177     75.5042E-03     83.1499E-03
             745             177     75.5042E-03     83.1499E-03
             456             177     75.5042E-03     83.1499E-03
             462             177     75.5042E-03     83.1499E-03
             461             178     85.7140E-03     81.9451E-03
             462             178     85.7140E-03     81.9451E-03
             461             179     89.6733E-03     83.1400E-03
             460             179     89.6733E-03     83.1400E-03
             459             180     87.6832E-03     92.6283E-03
             460             180     87.6832E-03     92.6283E-03
             459             181     99.8067E-03     92.1371E-03
             458             181     99.8067E-03     92.1371E-03
             458             182     104.305E-03     100.922E-03
             457             182     104.305E-03     100.922E-03
            6572             183     27.6658E-15     28.2406E-15
             464             183     27.6658E-15     28.2406E-15
             463             183     27.6658E-15     28.2406E-15
            6571             183     27.6658E-15     28.2406E-15
             465             184     15.8942E-15     16.0183E-15
            6570             184     15.8942E-15     16.0183E-15
            6571             184     15.8942E-15     16.0183E-15
             464             184     15.8942E-15     16.0183E-15
             465             185     11.0153E-15     11.7326E-15
             466             185     11.0153E-15     11.7326E-15
            6570             185     11.0153E-15     11.7326E-15
            6569             185     11.0153E-15     11.7326E-15
            6569             186     12.2431E-15     13.2914E-15
             467             186     12.2431E-15     13.2914E-15
             466             186     12.2431E-15     13.2914E-15
            6568             186     12.2431E-15     13.2914E-15
             468             187     10.7486E-15     11.3076E-15
             467             187     10.7486E-15     11.3076E-15
            6567             187     10.7486E-15     11.3076E-15
            6568             187     10.7486E-15     11.3076E-15
             474             188     8.85630E-03     8.80447E-03
            4107             188     8.85630E-03     8.80447E-03
            4067             188     8.85630E-03     8.80447E-03
             468             188     8.85630E-03     8.80447E-03
             474             189     8.18307E-03     8.12681E-03
             480             189     8.18307E-03     8.12681E-03
            4147             189     8.18307E-03     8.12681E-03
            4107             189     8.18307E-03     8.12681E-03
             486             190     7.10630E-03     7.02804E-03
            4147             190     7.10630E-03     7.02804E-03
            4187             190     7.10630E-03     7.02804E-03
             480             190     7.10630E-03     7.02804E-03
            4187             191     5.59273E-03     5.49785E-03
             492             191     5.59273E-03     5.49785E-03
             486             191     5.59273E-03     5.49785E-03
            4227             191     5.59273E-03     5.49785E-03
             498             192     3.69242E-03     3.73254E-03
            4227             192     3.69242E-03     3.73254E-03
             492             192     3.69242E-03     3.73254E-03
            4267             192     3.69242E-03     3.73254E-03
            4307             193     2.25103E-03     2.99261E-03
             498             193     2.25103E-03     2.99261E-03
             504             193     2.25103E-03     2.99261E-03
            4267             193     2.25103E-03     2.99261E-03
             503             194     28.0522E-15     29.4292E-15
             504             194     28.0522E-15     29.4292E-15
             503             195     21.9331E-15     26.2294E-15
             502             195     21.9331E-15     26.2294E-15
             501             196     22.6955E-15     25.3006E-15
             502             196     22.6955E-15     25.3006E-15
             501             197     20.6623E-15     19.6783E-15
             500             197     20.6623E-15     19.6783E-15
             500             198     29.8636E-15     26.6888E-15
             499             198     29.8636E-15     26.6888E-15
             493             199     37.2155E-15     37.1155E-15
             499             199     37.2155E-15     37.1155E-15
             493             200     25.4952E-15     27.5020E-15
             487             200     25.4952E-15     27.5020E-15
             487             201     23.5189E-15     25.0015E-15
             481             201     23.5189E-15     25.0015E-15
             475             202     22.8824E-15     23.9067E-15
             481             202     22.8824E-15     23.9067E-15
             475             203     26.2879E-15     27.4155E-15
             469             203     26.2879E-15     27.4155E-15
             463             204     34.8504E-15     36.7391E-15
             469             204     34.8504E-15     36.7391E-15
            4105             205     17.1857E-03     16.8467E-03
            4106             205     17.1857E-03     16.8467E-03
             505             205     17.1857E-03     16.8467E-03
             506             205     17.1857E-03     16.8467E-03
             507             206     20.6848E-03     19.6864E-03
             506             206     20.6848E-03     19.6864E-03
            4105             206     20.6848E-03     19.6864E-03
            4104             206     20.6848E-03     19.6864E-03
             508             207     20.9252E-03     21.3676E-03
            4103             207     20.9252E-03     21.3676E-03
            4104             207     20.9252E-03     21.3676E-03
             507             207     20.9252E-03     21.3676E-03
             509             208     19.9938E-03     21.3180E-03
            4103             208     19.9938E-03     21.3180E-03
            4102             208     19.9938E-03     21.3180E-03
             508             208     19.9938E-03     21.3180E-03
            4101             209     20.5340E-03     20.9734E-03
             509             209     20.5340E-03     20.9734E-03
             510             209     20.5340E-03     20.9734E-03
            4102             209     20.5340E-03     20.9734E-03
             510             210     20.7561E-03     21.0410E-03
             511             210     20.7561E-03     21.0410E-03
            4100             210     20.7561E-03     21.0410E-03
            4101             210     20.7561E-03     21.0410E-03
             512             211     20.8905E-03     20.6848E-03
            4100             211     20.8905E-03     20.6848E-03
            4099             211     20.8905E-03     20.6848E-03
             511             211     20.8905E-03     20.6848E-03
            4099             212     21.0447E-03     20.4489E-03
             513             212     21.0447E-03     20.4489E-03
             512             212     21.0447E-03     20.4489E-03
            4098             212     21.0447E-03     20.4489E-03
            4097             213     21.1335E-03     20.2516E-03
            4098             213     21.1335E-03     20.2516E-03
             514             213     21.1335E-03     20.2516E-03
             513             213     21.1335E-03     20.2516E-03
            4097             214     20.8577E-03     19.8068E-03
            4096             214     20.8577E-03     19.8068E-03
             514             214     20.8577E-03     19.8068E-03
             515             214     20.8577E-03     19.8068E-03
            4095             215     20.4373E-03     20.4704E-03
             515             215     20.4373E-03     20.4704E-03
             516             215     20.4373E-03     20.4704E-03
            4096             215     20.4373E-03     20.4704E-03
             517             216     19.7363E-03     19.8046E-03
            4094             216     19.7363E-03     19.8046E-03
             516             216     19.7363E-03     19.8046E-03
            4095             216     19.7363E-03     19.8046E-03
            4093             217     19.9524E-03     19.1339E-03
             518             217     19.9524E-03     19.1339E-03
             517             217     19.9524E-03     19.1339E-03
            4094             217     19.9524E-03     19.1339E-03
            4092             218     20.0438E-03     20.4072E-03
            4093             218     20.0438E-03     20.4072E-03
             518             218     20.0438E-03     20.4072E-03
             519             218     20.0438E-03     20.4072E-03
             520             219     19.3103E-03     20.3125E-03
            4092             219     19.3103E-03     20.3125E-03
            4091             219     19.3103E-03     20.3125E-03
             519             219     19.3103E-03     20.3125E-03
            4090             220     19.6300E-03     20.0359E-03
             520             220     19.6300E-03     20.0359E-03
             521             220     19.6300E-03     20.0359E-03
            4091             220     19.6300E-03     20.0359E-03
            4089             221     19.7186E-03     20.0453E-03
             522             221     19.7186E-03     20.0453E-03
            4090             221     19.7186E-03     20.0453E-03
             521             221     19.7186E-03     20.0453E-03
            4089             222     19.7916E-03     19.7709E-03
             523             222     19.7916E-03     19.7709E-03
             522             222     19.7916E-03     19.7709E-03
            4088             222     19.7916E-03     19.7709E-03
             523             223     19.9368E-03     19.4976E-03
            4088             223     19.9368E-03     19.4976E-03
            4087             223     19.9368E-03     19.4976E-03
             524             223     19.9368E-03     19.4976E-03
             524             224     19.9416E-03     19.3588E-03
             525             224     19.9416E-03     19.3588E-03
            4087             224     19.9416E-03     19.3588E-03
            4086             224     19.9416E-03     19.3588E-03
            4085             225     20.0065E-03     19.2408E-03
             525             225     20.0065E-03     19.2408E-03
             526             225     20.0065E-03     19.2408E-03
            4086             225     20.0065E-03     19.2408E-03
            4085             226     19.8086E-03     19.0293E-03
            4084             226     19.8086E-03     19.0293E-03
             526             226     19.8086E-03     19.0293E-03
             527             226     19.8086E-03     19.0293E-03
            4084             227     19.5596E-03     19.4255E-03
             527             227     19.5596E-03     19.4255E-03
             528             227     19.5596E-03     19.4255E-03
            4083             227     19.5596E-03     19.4255E-03
             528             228     19.1022E-03     18.9694E-03
             529             228     19.1022E-03     18.9694E-03
            4083             228     19.1022E-03     18.9694E-03
            4082             228     19.1022E-03     18.9694E-03
             530             229     19.2168E-03     18.6382E-03
             529             229     19.2168E-03     18.6382E-03
            4081             229     19.2168E-03     18.6382E-03
            4082             229     19.2168E-03     18.6382E-03
             531             230     19.2664E-03     19.4025E-03
            4080             230     19.2664E-03     19.4025E-03
             530             230     19.2664E-03     19.4025E-03
            4081             230     19.2664E-03     19.4025E-03
            4080             231     18.8539E-03     19.2926E-03
            4079             231     18.8539E-03     19.2926E-03
             532             231     18.8539E-03     19.2926E-03
             531             231     18.8539E-03     19.2926E-03
            4078             232     19.0481E-03     19.1258E-03
             532             232     19.0481E-03     19.1258E-03
             533             232     19.0481E-03     19.1258E-03
            4079             232     19.0481E-03     19.1258E-03
             534             233     19.1129E-03     19.1340E-03
             533             233     19.1129E-03     19.1340E-03
            4077             233     19.1129E-03     19.1340E-03
            4078             233     19.1129E-03     19.1340E-03
            4076             234     19.1591E-03     19.0121E-03
             534             234     19.1591E-03     19.0121E-03
             535             234     19.1591E-03     19.0121E-03
            4077             234     19.1591E-03     19.0121E-03
             535             235     19.2214E-03     18.9467E-03
            4075             235     19.2214E-03     18.9467E-03
            4076             235     19.2214E-03     18.9467E-03
             536             235     19.2214E-03     18.9467E-03
            4075             236     19.2398E-03     18.9283E-03
             536             236     19.2398E-03     18.9283E-03
            4074             236     19.2398E-03     18.9283E-03
             537             236     19.2398E-03     18.9283E-03
            4074             237     19.2416E-03     18.8751E-03
            4073             237     19.2416E-03     18.8751E-03
             537             237     19.2416E-03     18.8751E-03
             538             237     19.2416E-03     18.8751E-03
            4072             238     19.1263E-03     18.9076E-03
             538             238     19.1263E-03     18.9076E-03
             539             238     19.1263E-03     18.9076E-03
            4073             238     19.1263E-03     18.9076E-03
             539             239     18.5553E-03     18.3699E-03
            4072             239     18.5553E-03     18.3699E-03
            4071             239     18.5553E-03     18.3699E-03
             540             239     18.5553E-03     18.3699E-03
            4070             240     18.2905E-03     17.9546E-03
             540             240     18.2905E-03     17.9546E-03
             541             240     18.2905E-03     17.9546E-03
            4071             240     18.2905E-03     17.9546E-03
             541             241     18.3259E-03     18.2347E-03
             542             241     18.3259E-03     18.2347E-03
            4070             241     18.3259E-03     18.2347E-03
            4069             241     18.3259E-03     18.2347E-03
            4068             242     18.2212E-03     18.1939E-03
            4069             242     18.2212E-03     18.1939E-03
             543             242     18.2212E-03     18.1939E-03
             542             242     18.2212E-03     18.1939E-03
            4068             243     18.2257E-03     18.0864E-03
             544             243     18.2257E-03     18.0864E-03
            4067             243     18.2257E-03     18.0864E-03
             543             243     18.2257E-03     18.0864E-03
            6567             244     8.85630E-03     8.80447E-03
            6573             244     8.85630E-03     8.80447E-03
             544             244     8.85630E-03     8.80447E-03
             584             244     8.85630E-03     8.80447E-03
            6573             245     8.18307E-03     8.12681E-03
             624             245     8.18307E-03     8.12681E-03
            6579             245     8.18307E-03     8.12681E-03
             584             245     8.18307E-03     8.12681E-03
            6579             246     7.10630E-03     7.02804E-03
             664             246     7.10630E-03     7.02804E-03
            6585             246     7.10630E-03     7.02804E-03
             624             246     7.10630E-03     7.02804E-03
             704             247     5.59273E-03     5.49785E-03
             664             247     5.59273E-03     5.49785E-03
            6591             247     5.59273E-03     5.49785E-03
            6585             247     5.59273E-03     5.49785E-03
            6597             248     3.69242E-03     3.73254E-03
             744             248     3.69242E-03     3.73254E-03
            6591             248     3.69242E-03     3.73254E-03
             704             248     3.69242E-03     3.73254E-03
             784             249     2.25103E-03     2.99261E-03
             744             249     2.25103E-03     2.99261E-03
            6603             249     2.25103E-03     2.99261E-03
            6597             249     2.25103E-03     2.99261E-03
             783             250     3.11156E-03     4.41973E-03
             784             250     3.11156E-03     4.41973E-03
             783             251     3.87058E-03     4.57788E-03
             782             251     3.87058E-03     4.57788E-03
             781             252     9.05118E-03     7.98078E-03
             782             252     9.05118E-03     7.98078E-03
             780             253     13.3851E-03     13.5958E-03
             781             253     13.3851E-03     13.5958E-03
             780             254     10.2952E-03     11.5047E-03
             779             254     10.2952E-03     11.5047E-03
             778             255     7.75202E-03     6.76570E-03
             779             255     7.75202E-03     6.76570E-03
             777             256     10.6555E-03     10.2459E-03
             778             256     10.6555E-03     10.2459E-03
             777             257     14.2893E-03     13.9824E-03
             776             257     14.2893E-03     13.9824E-03
             776             258     17.7495E-03     17.5701E-03
             775             258     17.7495E-03     17.5701E-03
             774             259     21.1845E-03     20.9418E-03
             775             259     21.1845E-03     20.9418E-03
             774             260     24.4354E-03     24.4744E-03
             773             260     24.4354E-03     24.4744E-03
             772             261     28.1335E-03     27.3936E-03
             773             261     28.1335E-03     27.3936E-03
             772             262     30.7442E-03     32.1553E-03
             771             262     30.7442E-03     32.1553E-03
             770             263     37.1162E-03     34.9373E-03
             771             263     37.1162E-03     34.9373E-03
             770             264     41.2463E-03     40.2971E-03
             769             264     41.2463E-03     40.2971E-03
             768             265     34.6495E-03     38.7218E-03
             769             265     34.6495E-03     38.7218E-03
             768             266     32.7996E-03     30.5428E-03
             767             266     32.7996E-03     30.5428E-03
             767             267     35.5654E-03     33.5300E-03
             766             267     35.5654E-03     33.5300E-03
             765             268     37.5626E-03     37.8058E-03
             766             268     37.5626E-03     37.8058E-03
             765             269     41.3932E-03     40.6377E-03
             764             269     41.3932E-03     40.6377E-03
             763             270     44.5632E-03     44.2291E-03
             764             270     44.5632E-03     44.2291E-03
             763             271     47.8002E-03     47.4478E-03
             762             271     47.8002E-03     47.4478E-03
             762             272     50.9887E-03     50.9078E-03
             761             272     50.9887E-03     50.9078E-03
             761             273     54.7818E-03     53.5341E-03
             760             273     54.7818E-03     53.5341E-03
             759             274     56.8925E-03     58.9370E-03
             760             274     56.8925E-03     58.9370E-03
             759             275     64.8518E-03     61.0805E-03
             758             275     64.8518E-03     61.0805E-03
             757             276     69.2993E-03     67.1669E-03
             758             276     69.2993E-03     67.1669E-03
             756             277     60.5576E-03     67.7872E-03
             757             277     60.5576E-03     67.7872E-03
             755             278     60.4109E-03     56.9830E-03
             756             278     60.4109E-03     56.9830E-03
             754             279     62.8894E-03     59.3426E-03
             755             279     62.8894E-03     59.3426E-03
             754             280     63.4233E-03     64.2183E-03
             753             280     63.4233E-03     64.2183E-03
             752             281     67.6834E-03     66.4908E-03
             753             281     67.6834E-03     66.4908E-03
             752             282     70.8227E-03     70.3536E-03
             751             282     70.8227E-03     70.3536E-03
             751             283     74.0881E-03     73.9030E-03
             750             283     74.0881E-03     73.9030E-03
             749             284     78.1085E-03     76.3548E-03
             750             284     78.1085E-03     76.3548E-03
             748             285     79.9137E-03     82.4556E-03
             749             285     79.9137E-03     82.4556E-03
             748             286     89.3760E-03     84.1510E-03
             747             286     89.3760E-03     84.1510E-03
             747             287     94.2755E-03     91.0352E-03
             746             287     94.2755E-03     91.0352E-03
             745             288     83.5529E-03     90.6830E-03
             746             288     83.5529E-03     90.6830E-03
            1782             306     38.7642E-15     39.0867E-15
            1781             306     38.7642E-15     39.0867E-15
            1783             307     37.1084E-15     37.9932E-15
            1782             307     37.1084E-15     37.9932E-15
            1784             308     23.1188E-15     23.2344E-15
            1783             308     23.1188E-15     23.2344E-15
            1760             412     36.2473E-15     21.5980E-15
            1764             412     36.2473E-15     21.5980E-15
            1764             413     21.6681E-15     15.1854E-15
            1768             413     21.6681E-15     15.1854E-15
            1772             414     12.2453E-15     12.5126E-15
            1768             414     12.2453E-15     12.5126E-15
            1776             415     17.2960E-15     21.5702E-15
            1772             415     17.2960E-15     21.5702E-15
            1776             416     25.4512E-15     28.1317E-15
            1780             416     25.4512E-15     28.1317E-15
            1780             417     19.2143E-15     19.6682E-15
            1784             417     19.2143E-15     19.6682E-15
            3800             418     2.04266E-03     2.69498E-03
            1777             418     2.04266E-03     2.69498E-03
            3850             418     2.04266E-03     2.69498E-03
            1781             418     2.04266E-03     2.69498E-03
            3800             419     2.90814E-03     3.07963E-03
            1777             419     2.90814E-03     3.07963E-03
            3750             419     2.90814E-03     3.07963E-03
            1773             419     2.90814E-03     3.07963E-03
            3700             420     4.35535E-03     4.39318E-03
            3750             420     4.35535E-03     4.39318E-03
            1769             420     4.35535E-03     4.39318E-03
            1773             420     4.35535E-03     4.39318E-03
            3650             421     5.70767E-03     5.65747E-03
            3700             421     5.70767E-03     5.65747E-03
            1769             421     5.70767E-03     5.65747E-03
            1765             421     5.70767E-03     5.65747E-03
            3650             422     6.67335E-03     6.61330E-03
            1765             422     6.67335E-03     6.61330E-03
            1761             422     6.67335E-03     6.61330E-03
            3600             422     6.67335E-03     6.61330E-03
            3600             423     7.26051E-03     7.20805E-03
            1761             423     7.26051E-03     7.20805E-03
            3550             423     7.26051E-03     7.20805E-03
            1757             423     7.26051E-03     7.20805E-03
            3801             440     97.7066E-03     94.1518E-03
            3802             440     97.7066E-03     94.1518E-03
            3803             441     93.2436E-03     87.9133E-03
            3802             441     93.2436E-03     87.9133E-03
            3804             442     84.3372E-03     86.8423E-03
            3803             442     84.3372E-03     86.8423E-03
            3805             443     83.2031E-03     81.3037E-03
            3804             443     83.2031E-03     81.3037E-03
            3806             444     79.6595E-03     79.6030E-03
            3805             444     79.6595E-03     79.6030E-03
            3807             445     77.2810E-03     75.7959E-03
            3806             445     77.2810E-03     75.7959E-03
            3808             446     73.2698E-03     74.5078E-03
            3807             446     73.2698E-03     74.5078E-03
            3808             447     74.0750E-03     69.9471E-03
            3809             447     74.0750E-03     69.9471E-03
            3809             448     72.2860E-03     68.5970E-03
            3810             448     72.2860E-03     68.5970E-03
            3811             449     70.8582E-03     79.1268E-03
            3810             449     70.8582E-03     79.1268E-03
            3812             450     79.3286E-03     76.5508E-03
            3811             450     79.3286E-03     76.5508E-03
            3813             451     75.1664E-03     70.9407E-03
            3812             451     75.1664E-03     70.9407E-03
            3813             452     67.4201E-03     69.5267E-03
            3814             452     67.4201E-03     69.5267E-03
            3814             453     66.0303E-03     64.5145E-03
            3815             453     66.0303E-03     64.5145E-03
            3816             454     62.7036E-03     62.5706E-03
            3815             454     62.7036E-03     62.5706E-03
            3816             455     60.0485E-03     59.6643E-03
            3817             455     60.0485E-03     59.6643E-03
            3817             456     57.5197E-03     56.4768E-03
            3818             456     57.5197E-03     56.4768E-03
            3819             457     53.9776E-03     54.6754E-03
            3818             457     53.9776E-03     54.6754E-03
            3819             458     53.6164E-03     50.6869E-03
            3820             458     53.6164E-03     50.6869E-03
            3821             459     51.6784E-03     48.7831E-03
            3820             459     51.6784E-03     48.7831E-03
            3821             460     51.5165E-03     57.4936E-03
            3822             460     51.5165E-03     57.4936E-03
            3823             461     58.4637E-03     56.5908E-03
            3822             461     58.4637E-03     56.5908E-03
            3824             462     54.6384E-03     51.5625E-03
            3823             462     54.6384E-03     51.5625E-03
            3825             463     48.0754E-03     49.7385E-03
            3824             463     48.0754E-03     49.7385E-03
            3825             464     46.3505E-03     45.2431E-03
            3826             464     46.3505E-03     45.2431E-03
            3827             465     43.1539E-03     43.1034E-03
            3826             465     43.1539E-03     43.1034E-03
            3828             466     40.5001E-03     40.1986E-03
            3827             466     40.5001E-03     40.1986E-03
            3829             467     37.8434E-03     37.2089E-03
            3828             467     37.8434E-03     37.2089E-03
            3829             468     34.6358E-03     34.8921E-03
            3830             468     34.6358E-03     34.8921E-03
            3830             469     33.0901E-03     31.3166E-03
            3831             469     33.0901E-03     31.3166E-03
            3832             470     30.8332E-03     28.8447E-03
            3831             470     30.8332E-03     28.8447E-03
            3833             471     32.0495E-03     35.7428E-03
            3832             471     32.0495E-03     35.7428E-03
            3834             472     37.6091E-03     36.6412E-03
            3833             472     37.6091E-03     36.6412E-03
            3834             473     34.1120E-03     32.1913E-03
            3835             473     34.1120E-03     32.1913E-03
            3836             474     28.7370E-03     29.9588E-03
            3835             474     28.7370E-03     29.9588E-03
            3836             475     26.6844E-03     25.9859E-03
            3837             475     26.6844E-03     25.9859E-03
            3837             476     23.6232E-03     23.6550E-03
            3838             476     23.6232E-03     23.6550E-03
            3838             477     20.9755E-03     20.7574E-03
            3839             477     20.9755E-03     20.7574E-03
            3839             478     18.1948E-03     17.9689E-03
            3840             478     18.1948E-03     17.9689E-03
            3841             479     15.3123E-03     15.1385E-03
            3840             479     15.3123E-03     15.1385E-03
            3842             480     12.5737E-03     11.9918E-03
            3841             480     12.5737E-03     11.9918E-03
            3843             481     10.1159E-03     9.06393E-03
            3842             481     10.1159E-03     9.06393E-03
            3844             482     12.2480E-03     13.6080E-03
            3843             482     12.2480E-03     13.6080E-03
            3845             483     15.6527E-03     15.5673E-03
            3844             483     15.6527E-03     15.5673E-03
            3846             484     12.2227E-03     11.3552E-03
            3845             484     12.2227E-03     11.3552E-03
            3846             485     7.72968E-03     8.48649E-03
            3847             485     7.72968E-03     8.48649E-03
            3848             486     5.13986E-03     4.65656E-03
            3847             486     5.13986E-03     4.65656E-03
            3849             487     2.81721E-03     2.53861E-03
            3848             487     2.81721E-03     2.53861E-03
            3850             488     2.88391E-03     3.85552E-03
            3849             488     2.88391E-03     3.85552E-03
            2354             514     22.2150E-03     23.1140E-03
            3501             514     22.2150E-03     23.1140E-03
            2348             514     22.2150E-03     23.1140E-03
            3551             514     22.2150E-03     23.1140E-03
            3601             515     35.8742E-03     39.1088E-03
            3551             515     35.8742E-03     39.1088E-03
            2354             515     35.8742E-03     39.1088E-03
            2360             515     35.8742E-03     39.1088E-03
            2366             516     50.2197E-03     56.2938E-03
            3601             516     50.2197E-03     56.2938E-03
            2360             516     50.2197E-03     56.2938E-03
            3651             516     50.2197E-03     56.2938E-03
            3701             517     62.7152E-03     72.5898E-03
            3651             517     62.7152E-03     72.5898E-03
            2366             517     62.7152E-03     72.5898E-03
            2372             517     62.7152E-03     72.5898E-03
            2372             518     72.4717E-03     85.0348E-03
            3701             518     72.4717E-03     85.0348E-03
            3751             518     72.4717E-03     85.0348E-03
            2378             518     72.4717E-03     85.0348E-03
            3751             519     81.8487E-03     91.8510E-03
            2378             519     81.8487E-03     91.8510E-03
            2384             519     81.8487E-03     91.8510E-03
            3801             519     81.8487E-03     91.8510E-03
            2384             520     82.0176E-03     87.5092E-03
            2383             520     82.0176E-03     87.5092E-03
            2383             521     89.9192E-03     85.1825E-03
            2382             521     89.9192E-03     85.1825E-03
            2381             522     91.5188E-03     89.1959E-03
            2382             522     91.5188E-03     89.1959E-03
            2380             523     96.9534E-03     92.5034E-03
            2381             523     96.9534E-03     92.5034E-03
            2380             524     102.049E-03     98.0301E-03
            2379             524     102.049E-03     98.0301E-03
            2379             525     86.5687E-03     108.649E-03
            5324             525     86.5687E-03     108.649E-03
            2373             525     86.5687E-03     108.649E-03
            5318             525     86.5687E-03     108.649E-03
            5312             526     72.4757E-03     98.7837E-03
            2367             526     72.4757E-03     98.7837E-03
            2373             526     72.4757E-03     98.7837E-03
            5318             526     72.4757E-03     98.7837E-03
            5306             527     63.1298E-03     82.5300E-03
            5312             527     63.1298E-03     82.5300E-03
            2361             527     63.1298E-03     82.5300E-03
            2367             527     63.1298E-03     82.5300E-03
            2361             528     51.2409E-03     63.6356E-03
            5306             528     51.2409E-03     63.6356E-03
            5300             528     51.2409E-03     63.6356E-03
            2355             528     51.2409E-03     63.6356E-03
            2349             529     37.4775E-03     45.2822E-03
            5294             529     37.4775E-03     45.2822E-03
            2355             529     37.4775E-03     45.2822E-03
            5300             529     37.4775E-03     45.2822E-03
            5288             530     24.1115E-03     26.5567E-03
            2349             530     24.1115E-03     26.5567E-03
            2343             530     24.1115E-03     26.5567E-03
            5294             530     24.1115E-03     26.5567E-03
            5320             625     85.7140E-03     81.9451E-03
            5319             625     85.7140E-03     81.9451E-03
            5321             626     89.6733E-03     83.1400E-03
            5320             626     89.6733E-03     83.1400E-03
            5321             627     87.6832E-03     92.6283E-03
            5322             627     87.6832E-03     92.6283E-03
            5323             628     99.8067E-03     92.1371E-03
            5322             628     99.8067E-03     92.1371E-03
            5324             629     104.305E-03     100.922E-03
            5323             629     104.305E-03     100.922E-03
            5283             630     23.6774E-03     25.7159E-03
            5289             630     23.6774E-03     25.7159E-03
            4106             630     23.6774E-03     25.7159E-03
            4146             630     23.6774E-03     25.7159E-03
            4186             631     36.1117E-03     39.2953E-03
            4146             631     36.1117E-03     39.2953E-03
            5289             631     36.1117E-03     39.2953E-03
            5295             631     36.1117E-03     39.2953E-03
            4186             632     48.7578E-03     53.5929E-03
            5295             632     48.7578E-03     53.5929E-03
            4226             632     48.7578E-03     53.5929E-03
            5301             632     48.7578E-03     53.5929E-03
            4226             633     59.8135E-03     67.7431E-03
            5307             633     59.8135E-03     67.7431E-03
            5301             633     59.8135E-03     67.7431E-03
            4266             633     59.8135E-03     67.7431E-03
            5313             634     68.7418E-03     79.0398E-03
            4266             634     68.7418E-03     79.0398E-03
            4306             634     68.7418E-03     79.0398E-03
            5307             634     68.7418E-03     79.0398E-03
            5319             635     75.5042E-03     83.1499E-03
            4306             635     75.5042E-03     83.1499E-03
            5313             635     75.5042E-03     83.1499E-03
            4346             635     75.5042E-03     83.1499E-03
            4346             636     83.5529E-03     90.6830E-03
            4345             636     83.5529E-03     90.6830E-03
            4345             637     94.2755E-03     91.0352E-03
            4344             637     94.2755E-03     91.0352E-03
            4344             638     89.3760E-03     84.1510E-03
            4343             638     89.3760E-03     84.1510E-03
            4342             639     79.9137E-03     82.4556E-03
            4343             639     79.9137E-03     82.4556E-03
            4341             640     78.1085E-03     76.3548E-03
            4342             640     78.1085E-03     76.3548E-03
            4341             641     74.0881E-03     73.9030E-03
            4340             641     74.0881E-03     73.9030E-03
            4339             642     70.8227E-03     70.3536E-03
            4340             642     70.8227E-03     70.3536E-03
            4338             643     67.6834E-03     66.4908E-03
            4339             643     67.6834E-03     66.4908E-03
            4337             644     63.4233E-03     64.2183E-03
            4338             644     63.4233E-03     64.2183E-03
            4336             645     62.8894E-03     59.3426E-03
            4337             645     62.8894E-03     59.3426E-03
            4335             646     60.4109E-03     56.9830E-03
            4336             646     60.4109E-03     56.9830E-03
            4335             647     60.5576E-03     67.7872E-03
            4334             647     60.5576E-03     67.7872E-03
            4333             648     69.2993E-03     67.1669E-03
            4334             648     69.2993E-03     67.1669E-03
            4332             649     64.8518E-03     61.0805E-03
            4333             649     64.8518E-03     61.0805E-03
            4332             650     56.8925E-03     58.9370E-03
            4331             650     56.8925E-03     58.9370E-03
            4330             651     54.7818E-03     53.5341E-03
            4331             651     54.7818E-03     53.5341E-03
            4329             652     50.9887E-03     50.9078E-03
            4330             652     50.9887E-03     50.9078E-03
            4328             653     47.8002E-03     47.4478E-03
            4329             653     47.8002E-03     47.4478E-03
            4328             654     44.5632E-03     44.2291E-03
            4327             654     44.5632E-03     44.2291E-03
            4326             655     41.3932E-03     40.6377E-03
            4327             655     41.3932E-03     40.6377E-03
            4326             656     37.5626E-03     37.8058E-03
            4325             656     37.5626E-03     37.8058E-03
            4324             657     35.5654E-03     33.5300E-03
            4325             657     35.5654E-03     33.5300E-03
            4324             658     32.7996E-03     30.5428E-03
            4323             658     32.7996E-03     30.5428E-03
            4323             659     34.6495E-03     38.7218E-03
            4322             659     34.6495E-03     38.7218E-03
            4321             660     41.2463E-03     40.2971E-03
            4322             660     41.2463E-03     40.2971E-03
            4320             661     37.1162E-03     34.9373E-03
            4321             661     37.1162E-03     34.9373E-03
            4320             662     30.7442E-03     32.1553E-03
            4319             662     30.7442E-03     32.1553E-03
            4319             663     28.1335E-03     27.3936E-03
            4318             663     28.1335E-03     27.3936E-03
            4318             664     24.4354E-03     24.4744E-03
            4317             664     24.4354E-03     24.4744E-03
            4317             665     21.1845E-03     20.9418E-03
            4316             665     21.1845E-03     20.9418E-03
            4316             666     17.7495E-03     17.5701E-03
            4315             666     17.7495E-03     17.5701E-03
            4315             667     14.2893E-03     13.9824E-03
            4314             667     14.2893E-03     13.9824E-03
            4314             668     10.6555E-03     10.2459E-03
            4313             668     10.6555E-03     10.2459E-03
            4313             669     7.75202E-03     6.76570E-03
            4312             669     7.75202E-03     6.76570E-03
            4312             670     10.2952E-03     11.5047E-03
            4311             670     10.2952E-03     11.5047E-03
            4310             671     13.3851E-03     13.5958E-03
            4311             671     13.3851E-03     13.5958E-03
            4309             672     9.05118E-03     7.98078E-03
            4310             672     9.05118E-03     7.98078E-03
            4308             673     3.87058E-03     4.57788E-03
            4309             673     3.87058E-03     4.57788E-03
            4308             674     3.11156E-03     4.41973E-03
            4307             674     3.11156E-03     4.41973E-03
            6604             765     24.0312E-15     21.2728E-15
            6603             765     24.0312E-15     21.2728E-15
            6605             766     17.7627E-15     18.4231E-15
            6604             766     17.7627E-15     18.4231E-15
            6606             767     26.4000E-15     27.1591E-15
            6605             767     26.4000E-15     27.1591E-15
            6607             768     32.0216E-15     32.6767E-15
            6606             768     32.0216E-15     32.6767E-15
            6608             769     22.7048E-15     24.1437E-15
            6607             769     22.7048E-15     24.1437E-15
            6578             825     22.0291E-15     24.2581E-15
            6572             825     22.0291E-15     24.2581E-15
            6584             826     20.9445E-15     23.8366E-15
            6578             826     20.9445E-15     23.8366E-15
            6584             827     17.7908E-15     19.9913E-15
            6590             827     17.7908E-15     19.9913E-15
            6596             828     19.8870E-15     19.1682E-15
            6590             828     19.8870E-15     19.1682E-15
            6596             829     18.7658E-15     17.7991E-15
            6602             829     18.7658E-15     17.7991E-15
            6608             830     17.7598E-15     17.9013E-15
            6602             830     17.7598E-15     17.9013E-15
               2             831     22.4072E-15     17.1353E-15
               5             831     22.4072E-15     17.1353E-15
               6             831     22.4072E-15     17.1353E-15
               1             831     22.4072E-15     17.1353E-15
               3             832     16.4043E-15     17.1397E-15
               6             832     16.4043E-15     17.1397E-15
               7             832     16.4043E-15     17.1397E-15
               2             832     16.4043E-15     17.1397E-15
               8             833     26.0140E-15     25.5105E-15
               3             833     26.0140E-15     25.5105E-15
               7             833     26.0140E-15     25.5105E-15
               4             833     26.0140E-15     25.5105E-15
               5             834     26.8394E-15     25.8022E-15
              10             834     26.8394E-15     25.8022E-15
               6             834     26.8394E-15     25.8022E-15
               9             834     26.8394E-15     25.8022E-15
              10             835     17.8331E-15     21.9881E-15
               6             835     17.8331E-15     21.9881E-15
               7             835     17.8331E-15     21.9881E-15
              11             835     17.8331E-15     21.9881E-15
               8             836     23.7711E-15     23.3473E-15
              11             836     23.7711E-15     23.3473E-15
               7             836     23.7711E-15     23.3473E-15
              12             836     23.7711E-15     23.3473E-15
               9             837     31.9582E-15     31.2728E-15
              13             837     31.9582E-15     31.2728E-15
              10             837     31.9582E-15     31.2728E-15
              14             837     31.9582E-15     31.2728E-15
              11             838     24.7528E-15     26.0317E-15
              14             838     24.7528E-15     26.0317E-15
              10             838     24.7528E-15     26.0317E-15
              15             838     24.7528E-15     26.0317E-15
              16             839     23.7565E-15     23.8595E-15
              15             839     23.7565E-15     23.8595E-15
              12             839     23.7565E-15     23.8595E-15
              11             839     23.7565E-15     23.8595E-15
              13             840     27.0881E-15     27.0064E-15
              17             840     27.0881E-15     27.0064E-15
              14             840     27.0881E-15     27.0064E-15
              18             840     27.0881E-15     27.0064E-15
              15             841     19.6588E-15     17.5210E-15
              18             841     19.6588E-15     17.5210E-15
              14             841     19.6588E-15     17.5210E-15
              19             841     19.6588E-15     17.5210E-15
              19             842     21.5492E-15     21.4407E-15
              20             842     21.5492E-15     21.4407E-15
              15             842     21.5492E-15     21.4407E-15
              16             842     21.5492E-15     21.4407E-15
              17             843     17.4293E-15     17.6521E-15
              21             843     17.4293E-15     17.6521E-15
              18             843     17.4293E-15     17.6521E-15
              22             843     17.4293E-15     17.6521E-15
              19             844     12.6807E-15     9.89682E-15
              22             844     12.6807E-15     9.89682E-15
              18             844     12.6807E-15     9.89682E-15
              23             844     12.6807E-15     9.89682E-15
              23             845     16.9908E-15     16.1440E-15
              24             845     16.9908E-15     16.1440E-15
              19             845     16.9908E-15     16.1440E-15
              20             845     16.9908E-15     16.1440E-15
              25             846     18.2142E-15     17.5105E-15
              21             846     18.2142E-15     17.5105E-15
              22             846     18.2142E-15     17.5105E-15
              26             846     18.2142E-15     17.5105E-15
              27             847     20.9997E-15     18.9475E-15
              22             847     20.9997E-15     18.9475E-15
              26             847     20.9997E-15     18.9475E-15
              23             847     20.9997E-15     18.9475E-15
              23             848     21.8118E-15     20.9456E-15
              27             848     21.8118E-15     20.9456E-15
              28             848     21.8118E-15     20.9456E-15
              24             848     21.8118E-15     20.9456E-15
              30             849     14.6039E-03     14.4802E-03
              80             849     14.6039E-03     14.4802E-03
              79             849     14.6039E-03     14.4802E-03
              29             849     14.6039E-03     14.4802E-03
              30             850     14.6712E-03     14.5795E-03
              81             850     14.6712E-03     14.5795E-03
              80             850     14.6712E-03     14.5795E-03
              31             850     14.6712E-03     14.5795E-03
              32             851     14.6717E-03     14.5939E-03
              81             851     14.6717E-03     14.5939E-03
              82             851     14.6717E-03     14.5939E-03
              31             851     14.6717E-03     14.5939E-03
              83             852     14.6446E-03     14.6942E-03
              82             852     14.6446E-03     14.6942E-03
              33             852     14.6446E-03     14.6942E-03
              32             852     14.6446E-03     14.6942E-03
              33             853     14.8648E-03     14.7718E-03
              34             853     14.8648E-03     14.7718E-03
              84             853     14.8648E-03     14.7718E-03
              83             853     14.8648E-03     14.7718E-03
              34             854     14.8536E-03     14.5780E-03
              35             854     14.8536E-03     14.5780E-03
              85             854     14.8536E-03     14.5780E-03
              84             854     14.8536E-03     14.5780E-03
              35             855     14.8272E-03     14.7556E-03
              86             855     14.8272E-03     14.7556E-03
              36             855     14.8272E-03     14.7556E-03
              85             855     14.8272E-03     14.7556E-03
              36             856     15.1800E-03     15.0156E-03
              87             856     15.1800E-03     15.0156E-03
              37             856     15.1800E-03     15.0156E-03
              86             856     15.1800E-03     15.0156E-03
              37             857     15.3701E-03     15.0801E-03
              88             857     15.3701E-03     15.0801E-03
              38             857     15.3701E-03     15.0801E-03
              87             857     15.3701E-03     15.0801E-03
              38             858     15.5314E-03     15.3152E-03
              88             858     15.5314E-03     15.3152E-03
              39             858     15.5314E-03     15.3152E-03
              89             858     15.5314E-03     15.3152E-03
              90             859     15.6696E-03     15.5108E-03
              39             859     15.6696E-03     15.5108E-03
              89             859     15.6696E-03     15.5108E-03
              40             859     15.6696E-03     15.5108E-03
              90             860     15.8104E-03     15.7864E-03
              41             860     15.8104E-03     15.7864E-03
              40             860     15.8104E-03     15.7864E-03
              91             860     15.8104E-03     15.7864E-03
              92             861     16.0207E-03     16.0593E-03
              41             861     16.0207E-03     16.0593E-03
              91             861     16.0207E-03     16.0593E-03
              42             861     16.0207E-03     16.0593E-03
              42             862     16.2003E-03     16.2137E-03
              93             862     16.2003E-03     16.2137E-03
              92             862     16.2003E-03     16.2137E-03
              43             862     16.2003E-03     16.2137E-03
              43             863     16.1329E-03     16.6230E-03
              44             863     16.1329E-03     16.6230E-03
              94             863     16.1329E-03     16.6230E-03
              93             863     16.1329E-03     16.6230E-03
              95             864     16.8414E-03     16.6864E-03
              94             864     16.8414E-03     16.6864E-03
              44             864     16.8414E-03     16.6864E-03
              45             864     16.8414E-03     16.6864E-03
              96             865     16.7827E-03     16.1880E-03
              46             865     16.7827E-03     16.1880E-03
              45             865     16.7827E-03     16.1880E-03
              95             865     16.7827E-03     16.1880E-03
              47             866     16.1331E-03     16.4426E-03
              46             866     16.1331E-03     16.4426E-03
              97             866     16.1331E-03     16.4426E-03
              96             866     16.1331E-03     16.4426E-03
              97             867     16.7590E-03     16.5746E-03
              47             867     16.7590E-03     16.5746E-03
              98             867     16.7590E-03     16.5746E-03
              48             867     16.7590E-03     16.5746E-03
              48             868     17.2616E-03     16.6739E-03
              98             868     17.2616E-03     16.6739E-03
              99             868     17.2616E-03     16.6739E-03
              49             868     17.2616E-03     16.6739E-03
              50             869     17.5504E-03     17.2863E-03
             100             869     17.5504E-03     17.2863E-03
              99             869     17.5504E-03     17.2863E-03
              49             869     17.5504E-03     17.2863E-03
             100             870     17.8676E-03     17.6290E-03
              50             870     17.8676E-03     17.6290E-03
             101             870     17.8676E-03     17.6290E-03
              51             870     17.8676E-03     17.6290E-03
             101             871     18.1255E-03     18.1149E-03
             102             871     18.1255E-03     18.1149E-03
              51             871     18.1255E-03     18.1149E-03
              52             871     18.1255E-03     18.1149E-03
              52             872     18.4341E-03     18.5449E-03
             102             872     18.4341E-03     18.5449E-03
             103             872     18.4341E-03     18.5449E-03
              53             872     18.4341E-03     18.5449E-03
             104             873     18.6415E-03     18.7182E-03
              53             873     18.6415E-03     18.7182E-03
              54             873     18.6415E-03     18.7182E-03
             103             873     18.6415E-03     18.7182E-03
              55             874     18.4135E-03     19.3118E-03
             105             874     18.4135E-03     19.3118E-03
             104             874     18.4135E-03     19.3118E-03
              54             874     18.4135E-03     19.3118E-03
              56             875     19.4826E-03     19.2180E-03
             105             875     19.4826E-03     19.2180E-03
              55             875     19.4826E-03     19.2180E-03
             106             875     19.4826E-03     19.2180E-03
              57             876     19.2246E-03     18.3731E-03
             107             876     19.2246E-03     18.3731E-03
             106             876     19.2246E-03     18.3731E-03
              56             876     19.2246E-03     18.3731E-03
             107             877     18.0093E-03     18.8782E-03
             108             877     18.0093E-03     18.8782E-03
              57             877     18.0093E-03     18.8782E-03
              58             877     18.0093E-03     18.8782E-03
              59             878     19.2477E-03     18.9677E-03
             109             878     19.2477E-03     18.9677E-03
             108             878     19.2477E-03     18.9677E-03
              58             878     19.2477E-03     18.9677E-03
              60             879     20.1021E-03     19.1604E-03
              59             879     20.1021E-03     19.1604E-03
             110             879     20.1021E-03     19.1604E-03
             109             879     20.1021E-03     19.1604E-03
             111             880     20.3733E-03     20.1626E-03
             110             880     20.3733E-03     20.1626E-03
              60             880     20.3733E-03     20.1626E-03
              61             880     20.3733E-03     20.1626E-03
              61             881     20.8769E-03     20.5650E-03
             112             881     20.8769E-03     20.5650E-03
             111             881     20.8769E-03     20.5650E-03
              62             881     20.8769E-03     20.5650E-03
              62             882     21.2080E-03     21.2233E-03
             112             882     21.2080E-03     21.2233E-03
             113             882     21.2080E-03     21.2233E-03
              63             882     21.2080E-03     21.2233E-03
              63             883     21.5586E-03     21.7513E-03
             113             883     21.5586E-03     21.7513E-03
              64             883     21.5586E-03     21.7513E-03
             114             883     21.5586E-03     21.7513E-03
              64             884     21.7476E-03     21.8781E-03
              65             884     21.7476E-03     21.8781E-03
             114             884     21.7476E-03     21.8781E-03
             115             884     21.7476E-03     21.8781E-03
              66             885     21.3162E-03     22.6023E-03
             116             885     21.3162E-03     22.6023E-03
             115             885     21.3162E-03     22.6023E-03
              65             885     21.3162E-03     22.6023E-03
             117             886     22.6974E-03     22.2792E-03
              66             886     22.6974E-03     22.2792E-03
              67             886     22.6974E-03     22.2792E-03
             116             886     22.6974E-03     22.2792E-03
              67             887     22.1749E-03     21.0786E-03
             117             887     22.1749E-03     21.0786E-03
             118             887     22.1749E-03     21.0786E-03
              68             887     22.1749E-03     21.0786E-03
             118             888     20.4128E-03     21.9167E-03
              68             888     20.4128E-03     21.9167E-03
              69             888     20.4128E-03     21.9167E-03
             119             888     20.4128E-03     21.9167E-03
             119             889     22.3472E-03     22.0452E-03
             120             889     22.3472E-03     22.0452E-03
              69             889     22.3472E-03     22.0452E-03
              70             889     22.3472E-03     22.0452E-03
             120             890     23.5581E-03     22.3925E-03
              70             890     23.5581E-03     22.3925E-03
             121             890     23.5581E-03     22.3925E-03
              71             890     23.5581E-03     22.3925E-03
              72             891     23.6655E-03     23.7274E-03
              71             891     23.6655E-03     23.7274E-03
             121             891     23.6655E-03     23.7274E-03
             122             891     23.6655E-03     23.7274E-03
             123             892     24.2007E-03     24.2215E-03
              73             892     24.2007E-03     24.2215E-03
              72             892     24.2007E-03     24.2215E-03
             122             892     24.2007E-03     24.2215E-03
              74             893     24.6774E-03     24.8616E-03
             123             893     24.6774E-03     24.8616E-03
              73             893     24.6774E-03     24.8616E-03
             124             893     24.6774E-03     24.8616E-03
              75             894     24.8120E-03     25.0557E-03
             125             894     24.8120E-03     25.0557E-03
             124             894     24.8120E-03     25.0557E-03
              74             894     24.8120E-03     25.0557E-03
              75             895     24.1998E-03     25.8205E-03
             126             895     24.1998E-03     25.8205E-03
             125             895     24.1998E-03     25.8205E-03
              76             895     24.1998E-03     25.8205E-03
             127             896     25.8116E-03     25.2650E-03
              76             896     25.8116E-03     25.2650E-03
             126             896     25.8116E-03     25.2650E-03
              77             896     25.8116E-03     25.2650E-03
              78             897     24.9942E-03     23.7421E-03
             127             897     24.9942E-03     23.7421E-03
             128             897     24.9942E-03     23.7421E-03
              77             897     24.9942E-03     23.7421E-03
              79             898     13.4278E-03     13.3132E-03
              80             898     13.4278E-03     13.3132E-03
             130             898     13.4278E-03     13.3132E-03
             129             898     13.4278E-03     13.3132E-03
              81             899     13.5456E-03     13.4668E-03
              80             899     13.5456E-03     13.4668E-03
             130             899     13.5456E-03     13.4668E-03
             131             899     13.5456E-03     13.4668E-03
              82             900     13.6302E-03     13.5579E-03
             131             900     13.6302E-03     13.5579E-03
             132             900     13.6302E-03     13.5579E-03
              81             900     13.6302E-03     13.5579E-03
              83             901     13.7499E-03     13.9064E-03
             132             901     13.7499E-03     13.9064E-03
             133             901     13.7499E-03     13.9064E-03
              82             901     13.7499E-03     13.9064E-03
             134             902     14.3258E-03     14.1129E-03
              83             902     14.3258E-03     14.1129E-03
             133             902     14.3258E-03     14.1129E-03
              84             902     14.3258E-03     14.1129E-03
              84             903     14.3667E-03     14.1354E-03
             134             903     14.3667E-03     14.1354E-03
              85             903     14.3667E-03     14.1354E-03
             135             903     14.3667E-03     14.1354E-03
             135             904     14.0432E-03     14.2519E-03
             136             904     14.0432E-03     14.2519E-03
              85             904     14.0432E-03     14.2519E-03
              86             904     14.0432E-03     14.2519E-03
              86             905     14.4569E-03     14.3439E-03
             137             905     14.4569E-03     14.3439E-03
             136             905     14.4569E-03     14.3439E-03
              87             905     14.4569E-03     14.3439E-03
             138             906     14.9069E-03     14.8464E-03
              88             906     14.9069E-03     14.8464E-03
             137             906     14.9069E-03     14.8464E-03
              87             906     14.9069E-03     14.8464E-03
              89             907     15.3763E-03     15.4967E-03
             139             907     15.3763E-03     15.4967E-03
              88             907     15.3763E-03     15.4967E-03
             138             907     15.3763E-03     15.4967E-03
             139             908     15.9969E-03     16.0604E-03
             140             908     15.9969E-03     16.0604E-03
              90             908     15.9969E-03     16.0604E-03
              89             908     15.9969E-03     16.0604E-03
             141             909     16.5842E-03     16.7215E-03
              90             909     16.5842E-03     16.7215E-03
             140             909     16.5842E-03     16.7215E-03
              91             909     16.5842E-03     16.7215E-03
              91             910     17.3625E-03     17.3024E-03
             142             910     17.3625E-03     17.3024E-03
             141             910     17.3625E-03     17.3024E-03
              92             910     17.3625E-03     17.3024E-03
              93             911     18.0541E-03     17.7729E-03
             143             911     18.0541E-03     17.7729E-03
              92             911     18.0541E-03     17.7729E-03
             142             911     18.0541E-03     17.7729E-03
             144             912     18.3455E-03     18.9233E-03
              93             912     18.3455E-03     18.9233E-03
              94             912     18.3455E-03     18.9233E-03
             143             912     18.3455E-03     18.9233E-03
             144             913     20.0599E-03     19.0535E-03
             145             913     20.0599E-03     19.0535E-03
              94             913     20.0599E-03     19.0535E-03
              95             913     20.0599E-03     19.0535E-03
              96             914     19.8032E-03     19.0290E-03
              95             914     19.8032E-03     19.0290E-03
             145             914     19.8032E-03     19.0290E-03
             146             914     19.8032E-03     19.0290E-03
             146             915     17.9503E-03     19.4312E-03
             147             915     17.9503E-03     19.4312E-03
              97             915     17.9503E-03     19.4312E-03
              96             915     17.9503E-03     19.4312E-03
              98             916     19.2853E-03     18.9203E-03
             148             916     19.2853E-03     18.9203E-03
             147             916     19.2853E-03     18.9203E-03
              97             916     19.2853E-03     18.9203E-03
              98             917     20.4581E-03     19.9561E-03
              99             917     20.4581E-03     19.9561E-03
             149             917     20.4581E-03     19.9561E-03
             148             917     20.4581E-03     19.9561E-03
              99             918     20.8732E-03     21.3618E-03
             150             918     20.8732E-03     21.3618E-03
             100             918     20.8732E-03     21.3618E-03
             149             918     20.8732E-03     21.3618E-03
             101             919     22.0053E-03     21.9692E-03
             100             919     22.0053E-03     21.9692E-03
             151             919     22.0053E-03     21.9692E-03
             150             919     22.0053E-03     21.9692E-03
             151             920     22.8486E-03     22.9614E-03
             152             920     22.8486E-03     22.9614E-03
             102             920     22.8486E-03     22.9614E-03
             101             920     22.8486E-03     22.9614E-03
             153             921     23.8837E-03     23.7492E-03
             102             921     23.8837E-03     23.7492E-03
             103             921     23.8837E-03     23.7492E-03
             152             921     23.8837E-03     23.7492E-03
             153             922     24.7550E-03     24.2887E-03
             154             922     24.7550E-03     24.2887E-03
             103             922     24.7550E-03     24.2887E-03
             104             922     24.7550E-03     24.2887E-03
             105             923     24.8661E-03     25.9513E-03
             155             923     24.8661E-03     25.9513E-03
             104             923     24.8661E-03     25.9513E-03
             154             923     24.8661E-03     25.9513E-03
             155             924     27.3295E-03     25.6997E-03
             106             924     27.3295E-03     25.6997E-03
             105             924     27.3295E-03     25.6997E-03
             156             924     27.3295E-03     25.6997E-03
             106             925     26.5505E-03     25.3572E-03
             157             925     26.5505E-03     25.3572E-03
             107             925     26.5505E-03     25.3572E-03
             156             925     26.5505E-03     25.3572E-03
             107             926     23.2983E-03     26.2108E-03
             108             926     23.2983E-03     26.2108E-03
             157             926     23.2983E-03     26.2108E-03
             158             926     23.2983E-03     26.2108E-03
             159             927     25.9521E-03     25.2442E-03
             158             927     25.9521E-03     25.2442E-03
             108             927     25.9521E-03     25.2442E-03
             109             927     25.9521E-03     25.2442E-03
             110             928     27.8267E-03     26.7338E-03
             160             928     27.8267E-03     26.7338E-03
             109             928     27.8267E-03     26.7338E-03
             159             928     27.8267E-03     26.7338E-03
             111             929     27.8653E-03     28.7945E-03
             160             929     27.8653E-03     28.7945E-03
             161             929     27.8653E-03     28.7945E-03
             110             929     27.8653E-03     28.7945E-03
             162             930     29.4020E-03     29.2346E-03
             111             930     29.4020E-03     29.2346E-03
             161             930     29.4020E-03     29.2346E-03
             112             930     29.4020E-03     29.2346E-03
             163             931     30.3588E-03     30.4407E-03
             112             931     30.3588E-03     30.4407E-03
             162             931     30.3588E-03     30.4407E-03
             113             931     30.3588E-03     30.4407E-03
             114             932     31.4981E-03     31.3154E-03
             113             932     31.4981E-03     31.3154E-03
             163             932     31.4981E-03     31.3154E-03
             164             932     31.4981E-03     31.3154E-03
             114             933     32.4339E-03     31.8089E-03
             115             933     32.4339E-03     31.8089E-03
             165             933     32.4339E-03     31.8089E-03
             164             933     32.4339E-03     31.8089E-03
             116             934     32.2771E-03     33.8571E-03
             165             934     32.2771E-03     33.8571E-03
             115             934     32.2771E-03     33.8571E-03
             166             934     32.2771E-03     33.8571E-03
             167             935     35.3723E-03     33.1301E-03
             116             935     35.3723E-03     33.1301E-03
             166             935     35.3723E-03     33.1301E-03
             117             935     35.3723E-03     33.1301E-03
             167             936     34.0101E-03     32.4197E-03
             118             936     34.0101E-03     32.4197E-03
             117             936     34.0101E-03     32.4197E-03
             168             936     34.0101E-03     32.4197E-03
             118             937     29.4097E-03     33.7359E-03
             119             937     29.4097E-03     33.7359E-03
             169             937     29.4097E-03     33.7359E-03
             168             937     29.4097E-03     33.7359E-03
             170             938     33.4301E-03     32.3851E-03
             120             938     33.4301E-03     32.3851E-03
             119             938     33.4301E-03     32.3851E-03
             169             938     33.4301E-03     32.3851E-03
             121             939     36.0267E-03     34.3506E-03
             170             939     36.0267E-03     34.3506E-03
             171             939     36.0267E-03     34.3506E-03
             120             939     36.0267E-03     34.3506E-03
             171             940     35.6353E-03     36.9715E-03
             172             940     35.6353E-03     36.9715E-03
             122             940     35.6353E-03     36.9715E-03
             121             940     35.6353E-03     36.9715E-03
             123             941     37.3355E-03     37.4129E-03
             172             941     37.3355E-03     37.4129E-03
             173             941     37.3355E-03     37.4129E-03
             122             941     37.3355E-03     37.4129E-03
             124             942     38.7734E-03     38.5502E-03
             173             942     38.7734E-03     38.5502E-03
             174             942     38.7734E-03     38.5502E-03
             123             942     38.7734E-03     38.5502E-03
             174             943     39.5128E-03     39.1545E-03
             125             943     39.5128E-03     39.1545E-03
             175             943     39.5128E-03     39.1545E-03
             124             943     39.5128E-03     39.1545E-03
             125             944     39.1978E-03     41.3175E-03
             176             944     39.1978E-03     41.3175E-03
             126             944     39.1978E-03     41.3175E-03
             175             944     39.1978E-03     41.3175E-03
             176             945     42.7477E-03     40.1100E-03
             126             945     42.7477E-03     40.1100E-03
             127             945     42.7477E-03     40.1100E-03
             177             945     42.7477E-03     40.1100E-03
             127             946     40.8132E-03     38.9563E-03
             128             946     40.8132E-03     38.9563E-03
             177             946     40.8132E-03     38.9563E-03
             178             946     40.8132E-03     38.9563E-03
             129             947     11.4822E-03     11.4533E-03
             180             947     11.4822E-03     11.4533E-03
             130             947     11.4822E-03     11.4533E-03
             179             947     11.4822E-03     11.4533E-03
             131             948     11.6477E-03     11.7032E-03
             181             948     11.6477E-03     11.7032E-03
             130             948     11.6477E-03     11.7032E-03
             180             948     11.6477E-03     11.7032E-03
             132             949     11.9332E-03     12.0006E-03
             182             949     11.9332E-03     12.0006E-03
             131             949     11.9332E-03     12.0006E-03
             181             949     11.9332E-03     12.0006E-03
             182             950     12.3005E-03     12.6313E-03
             133             950     12.3005E-03     12.6313E-03
             183             950     12.3005E-03     12.6313E-03
             132             950     12.3005E-03     12.6313E-03
             133             951     13.5181E-03     12.8991E-03
             183             951     13.5181E-03     12.8991E-03
             184             951     13.5181E-03     12.8991E-03
             134             951     13.5181E-03     12.8991E-03
             184             952     13.7277E-03     13.4110E-03
             185             952     13.7277E-03     13.4110E-03
             135             952     13.7277E-03     13.4110E-03
             134             952     13.7277E-03     13.4110E-03
             136             953     13.0241E-03     13.7922E-03
             135             953     13.0241E-03     13.7922E-03
             186             953     13.0241E-03     13.7922E-03
             185             953     13.0241E-03     13.7922E-03
             136             954     13.7232E-03     13.7954E-03
             137             954     13.7232E-03     13.7954E-03
             187             954     13.7232E-03     13.7954E-03
             186             954     13.7232E-03     13.7954E-03
             138             955     14.5374E-03     14.8239E-03
             188             955     14.5374E-03     14.8239E-03
             187             955     14.5374E-03     14.8239E-03
             137             955     14.5374E-03     14.8239E-03
             189             956     15.3604E-03     15.8605E-03
             139             956     15.3604E-03     15.8605E-03
             138             956     15.3604E-03     15.8605E-03
             188             956     15.3604E-03     15.8605E-03
             140             957     16.4830E-03     16.6092E-03
             190             957     16.4830E-03     16.6092E-03
             139             957     16.4830E-03     16.6092E-03
             189             957     16.4830E-03     16.6092E-03
             140             958     17.5066E-03     17.6426E-03
             190             958     17.5066E-03     17.6426E-03
             141             958     17.5066E-03     17.6426E-03
             191             958     17.5066E-03     17.6426E-03
             142             959     18.8124E-03     18.6219E-03
             141             959     18.8124E-03     18.6219E-03
             192             959     18.8124E-03     18.6219E-03
             191             959     18.8124E-03     18.6219E-03
             143             960     20.0439E-03     19.5408E-03
             193             960     20.0439E-03     19.5408E-03
             192             960     20.0439E-03     19.5408E-03
             142             960     20.0439E-03     19.5408E-03
             144             961     20.8048E-03     21.6315E-03
             143             961     20.8048E-03     21.6315E-03
             194             961     20.8048E-03     21.6315E-03
             193             961     20.8048E-03     21.6315E-03
             145             962     24.0239E-03     22.0229E-03
             194             962     24.0239E-03     22.0229E-03
             195             962     24.0239E-03     22.0229E-03
             144             962     24.0239E-03     22.0229E-03
             146             963     23.7899E-03     22.9345E-03
             196             963     23.7899E-03     22.9345E-03
             145             963     23.7899E-03     22.9345E-03
             195             963     23.7899E-03     22.9345E-03
             196             964     20.6616E-03     24.0831E-03
             146             964     20.6616E-03     24.0831E-03
             147             964     20.6616E-03     24.0831E-03
             197             964     20.6616E-03     24.0831E-03
             197             965     23.1818E-03     22.8678E-03
             198             965     23.1818E-03     22.8678E-03
             148             965     23.1818E-03     22.8678E-03
             147             965     23.1818E-03     22.8678E-03
             199             966     24.9830E-03     24.4571E-03
             148             966     24.9830E-03     24.4571E-03
             198             966     24.9830E-03     24.4571E-03
             149             966     24.9830E-03     24.4571E-03
             199             967     25.1031E-03     26.2377E-03
             149             967     25.1031E-03     26.2377E-03
             150             967     25.1031E-03     26.2377E-03
             200             967     25.1031E-03     26.2377E-03
             150             968     26.7180E-03     26.6079E-03
             201             968     26.7180E-03     26.6079E-03
             151             968     26.7180E-03     26.6079E-03
             200             968     26.7180E-03     26.6079E-03
             201             969     27.8766E-03     27.9345E-03
             151             969     27.8766E-03     27.9345E-03
             202             969     27.8766E-03     27.9345E-03
             152             969     27.8766E-03     27.9345E-03
             202             970     29.4202E-03     29.0981E-03
             153             970     29.4202E-03     29.0981E-03
             152             970     29.4202E-03     29.0981E-03
             203             970     29.4202E-03     29.0981E-03
             203             971     30.9388E-03     30.0907E-03
             154             971     30.9388E-03     30.0907E-03
             153             971     30.9388E-03     30.0907E-03
             204             971     30.9388E-03     30.0907E-03
             155             972     31.5950E-03     33.0459E-03
             205             972     31.5950E-03     33.0459E-03
             204             972     31.5950E-03     33.0459E-03
             154             972     31.5950E-03     33.0459E-03
             156             973     36.1249E-03     33.0736E-03
             205             973     36.1249E-03     33.0736E-03
             206             973     36.1249E-03     33.0736E-03
             155             973     36.1249E-03     33.0736E-03
             207             974     35.1905E-03     33.8689E-03
             157             974     35.1905E-03     33.8689E-03
             156             974     35.1905E-03     33.8689E-03
             206             974     35.1905E-03     33.8689E-03
             208             975     29.9690E-03     35.9212E-03
             157             975     29.9690E-03     35.9212E-03
             158             975     29.9690E-03     35.9212E-03
             207             975     29.9690E-03     35.9212E-03
             209             976     34.5359E-03     33.8060E-03
             159             976     34.5359E-03     33.8060E-03
             158             976     34.5359E-03     33.8060E-03
             208             976     34.5359E-03     33.8060E-03
             209             977     37.1698E-03     35.6952E-03
             210             977     37.1698E-03     35.6952E-03
             160             977     37.1698E-03     35.6952E-03
             159             977     37.1698E-03     35.6952E-03
             160             978     36.2583E-03     38.0380E-03
             211             978     36.2583E-03     38.0380E-03
             161             978     36.2583E-03     38.0380E-03
             210             978     36.2583E-03     38.0380E-03
             211             979     38.1896E-03     37.8117E-03
             212             979     38.1896E-03     37.8117E-03
             161             979     38.1896E-03     37.8117E-03
             162             979     38.1896E-03     37.8117E-03
             163             980     39.3178E-03     39.2838E-03
             213             980     39.3178E-03     39.2838E-03
             212             980     39.3178E-03     39.2838E-03
             162             980     39.3178E-03     39.2838E-03
             163             981     40.9332E-03     40.5042E-03
             164             981     40.9332E-03     40.5042E-03
             213             981     40.9332E-03     40.5042E-03
             214             981     40.9332E-03     40.5042E-03
             164             982     42.6100E-03     41.4624E-03
             214             982     42.6100E-03     41.4624E-03
             165             982     42.6100E-03     41.4624E-03
             215             982     42.6100E-03     41.4624E-03
             166             983     43.0678E-03     45.1510E-03
             165             983     43.0678E-03     45.1510E-03
             215             983     43.0678E-03     45.1510E-03
             216             983     43.0678E-03     45.1510E-03
             216             984     48.7782E-03     44.7416E-03
             217             984     48.7782E-03     44.7416E-03
             166             984     48.7782E-03     44.7416E-03
             167             984     48.7782E-03     44.7416E-03
             167             985     47.1135E-03     45.3574E-03
             168             985     47.1135E-03     45.3574E-03
             217             985     47.1135E-03     45.3574E-03
             218             985     47.1135E-03     45.3574E-03
             168             986     39.7879E-03     48.1273E-03
             169             986     39.7879E-03     48.1273E-03
             219             986     39.7879E-03     48.1273E-03
             218             986     39.7879E-03     48.1273E-03
             220             987     46.2880E-03     45.1193E-03
             169             987     46.2880E-03     45.1193E-03
             170             987     46.2880E-03     45.1193E-03
             219             987     46.2880E-03     45.1193E-03
             171             988     49.8372E-03     47.3126E-03
             220             988     49.8372E-03     47.3126E-03
             221             988     49.8372E-03     47.3126E-03
             170             988     49.8372E-03     47.3126E-03
             172             989     47.9701E-03     50.1518E-03
             221             989     47.9701E-03     50.1518E-03
             171             989     47.9701E-03     50.1518E-03
             222             989     47.9701E-03     50.1518E-03
             222             990     50.0469E-03     49.7458E-03
             173             990     50.0469E-03     49.7458E-03
             223             990     50.0469E-03     49.7458E-03
             172             990     50.0469E-03     49.7458E-03
             174             991     51.9003E-03     51.0285E-03
             224             991     51.9003E-03     51.0285E-03
             223             991     51.9003E-03     51.0285E-03
             173             991     51.9003E-03     51.0285E-03
             175             992     53.1309E-03     52.0652E-03
             225             992     53.1309E-03     52.0652E-03
             174             992     53.1309E-03     52.0652E-03
             224             992     53.1309E-03     52.0652E-03
             175             993     53.4519E-03     55.9779E-03
             176             993     53.4519E-03     55.9779E-03
             226             993     53.4519E-03     55.9779E-03
             225             993     53.4519E-03     55.9779E-03
             176             994     60.0332E-03     55.1210E-03
             226             994     60.0332E-03     55.1210E-03
             227             994     60.0332E-03     55.1210E-03
             177             994     60.0332E-03     55.1210E-03
             177             995     57.6126E-03     55.4677E-03
             227             995     57.6126E-03     55.4677E-03
             178             995     57.6126E-03     55.4677E-03
             228             995     57.6126E-03     55.4677E-03
             180             996     8.74849E-03     9.01668E-03
             179             996     8.74849E-03     9.01668E-03
             229             996     8.74849E-03     9.01668E-03
             230             996     8.74849E-03     9.01668E-03
             181             997     9.14618E-03     9.38081E-03
             230             997     9.14618E-03     9.38081E-03
             180             997     9.14618E-03     9.38081E-03
             231             997     9.14618E-03     9.38081E-03
             182             998     9.78863E-03     9.78972E-03
             231             998     9.78863E-03     9.78972E-03
             232             998     9.78863E-03     9.78972E-03
             181             998     9.78863E-03     9.78972E-03
             182             999     10.4185E-03     10.9408E-03
             232             999     10.4185E-03     10.9408E-03
             233             999     10.4185E-03     10.9408E-03
             183             999     10.4185E-03     10.9408E-03
             184            1000     12.4042E-03     11.3565E-03
             233            1000     12.4042E-03     11.3565E-03
             234            1000     12.4042E-03     11.3565E-03
             183            1000     12.4042E-03     11.3565E-03
             185            1001     12.8083E-03     12.5738E-03
             234            1001     12.8083E-03     12.5738E-03
             184            1001     12.8083E-03     12.5738E-03
             235            1001     12.8083E-03     12.5738E-03
             236            1002     11.9382E-03     13.8639E-03
             186            1002     11.9382E-03     13.8639E-03
             235            1002     11.9382E-03     13.8639E-03
             185            1002     11.9382E-03     13.8639E-03
             237            1003     13.4187E-03     13.7168E-03
             187            1003     13.4187E-03     13.7168E-03
             186            1003     13.4187E-03     13.7168E-03
             236            1003     13.4187E-03     13.7168E-03
             187            1004     14.5256E-03     14.8374E-03
             237            1004     14.5256E-03     14.8374E-03
             238            1004     14.5256E-03     14.8374E-03
             188            1004     14.5256E-03     14.8374E-03
             239            1005     15.3119E-03     15.9620E-03
             188            1005     15.3119E-03     15.9620E-03
             189            1005     15.3119E-03     15.9620E-03
             238            1005     15.3119E-03     15.9620E-03
             189            1006     16.8141E-03     16.8406E-03
             190            1006     16.8141E-03     16.8406E-03
             239            1006     16.8141E-03     16.8406E-03
             240            1006     16.8141E-03     16.8406E-03
             240            1007     18.1274E-03     18.4715E-03
             190            1007     18.1274E-03     18.4715E-03
             241            1007     18.1274E-03     18.4715E-03
             191            1007     18.1274E-03     18.4715E-03
             192            1008     19.9922E-03     20.0283E-03
             242            1008     19.9922E-03     20.0283E-03
             191            1008     19.9922E-03     20.0283E-03
             241            1008     19.9922E-03     20.0283E-03
             242            1009     21.7689E-03     21.5251E-03
             192            1009     21.7689E-03     21.5251E-03
             193            1009     21.7689E-03     21.5251E-03
             243            1009     21.7689E-03     21.5251E-03
             194            1010     22.8973E-03     24.6730E-03
             244            1010     22.8973E-03     24.6730E-03
             193            1010     22.8973E-03     24.6730E-03
             243            1010     22.8973E-03     24.6730E-03
             195            1011     27.6725E-03     25.0474E-03
             244            1011     27.6725E-03     25.0474E-03
             194            1011     27.6725E-03     25.0474E-03
             245            1011     27.6725E-03     25.0474E-03
             195            1012     27.6867E-03     27.0821E-03
             196            1012     27.6867E-03     27.0821E-03
             246            1012     27.6867E-03     27.0821E-03
             245            1012     27.6867E-03     27.0821E-03
             246            1013     23.6767E-03     29.8926E-03
             197            1013     23.6767E-03     29.8926E-03
             247            1013     23.6767E-03     29.8926E-03
             196            1013     23.6767E-03     29.8926E-03
             198            1014     27.6080E-03     27.5667E-03
             197            1014     27.6080E-03     27.5667E-03
             248            1014     27.6080E-03     27.5667E-03
             247            1014     27.6080E-03     27.5667E-03
             249            1015     29.5580E-03     28.6118E-03
             198            1015     29.5580E-03     28.6118E-03
             199            1015     29.5580E-03     28.6118E-03
             248            1015     29.5580E-03     28.6118E-03
             199            1016     28.7205E-03     30.4092E-03
             250            1016     28.7205E-03     30.4092E-03
             249            1016     28.7205E-03     30.4092E-03
             200            1016     28.7205E-03     30.4092E-03
             200            1017     30.5917E-03     30.5392E-03
             251            1017     30.5917E-03     30.5392E-03
             201            1017     30.5917E-03     30.5392E-03
             250            1017     30.5917E-03     30.5392E-03
             252            1018     31.8602E-03     32.4734E-03
             202            1018     31.8602E-03     32.4734E-03
             251            1018     31.8602E-03     32.4734E-03
             201            1018     31.8602E-03     32.4734E-03
             253            1019     33.8817E-03     34.1581E-03
             202            1019     33.8817E-03     34.1581E-03
             203            1019     33.8817E-03     34.1581E-03
             252            1019     33.8817E-03     34.1581E-03
             204            1020     35.9753E-03     35.6177E-03
             203            1020     35.9753E-03     35.6177E-03
             254            1020     35.9753E-03     35.6177E-03
             253            1020     35.9753E-03     35.6177E-03
             254            1021     36.9920E-03     39.8322E-03
             255            1021     36.9920E-03     39.8322E-03
             205            1021     36.9920E-03     39.8322E-03
             204            1021     36.9920E-03     39.8322E-03
             205            1022     43.7358E-03     39.7749E-03
             255            1022     43.7358E-03     39.7749E-03
             256            1022     43.7358E-03     39.7749E-03
             206            1022     43.7358E-03     39.7749E-03
             257            1023     43.1426E-03     42.2028E-03
             256            1023     43.1426E-03     42.2028E-03
             207            1023     43.1426E-03     42.2028E-03
             206            1023     43.1426E-03     42.2028E-03
             208            1024     36.4950E-03     46.7399E-03
             257            1024     36.4950E-03     46.7399E-03
             207            1024     36.4950E-03     46.7399E-03
             258            1024     36.4950E-03     46.7399E-03
             208            1025     43.0577E-03     42.7174E-03
             209            1025     43.0577E-03     42.7174E-03
             258            1025     43.0577E-03     42.7174E-03
             259            1025     43.0577E-03     42.7174E-03
             210            1026     45.6939E-03     43.4752E-03
             259            1026     45.6939E-03     43.4752E-03
             209            1026     45.6939E-03     43.4752E-03
             260            1026     45.6939E-03     43.4752E-03
             261            1027     43.0411E-03     45.7900E-03
             260            1027     43.0411E-03     45.7900E-03
             210            1027     43.0411E-03     45.7900E-03
             211            1027     43.0411E-03     45.7900E-03
             262            1028     45.1463E-03     44.9969E-03
             261            1028     45.1463E-03     44.9969E-03
             212            1028     45.1463E-03     44.9969E-03
             211            1028     45.1463E-03     44.9969E-03
             263            1029     46.2498E-03     47.1023E-03
             212            1029     46.2498E-03     47.1023E-03
             213            1029     46.2498E-03     47.1023E-03
             262            1029     46.2498E-03     47.1023E-03
             263            1030     48.3106E-03     48.8193E-03
             214            1030     48.3106E-03     48.8193E-03
             213            1030     48.3106E-03     48.8193E-03
             264            1030     48.3106E-03     48.8193E-03
             215            1031     50.6369E-03     50.1743E-03
             214            1031     50.6369E-03     50.1743E-03
             265            1031     50.6369E-03     50.1743E-03
             264            1031     50.6369E-03     50.1743E-03
             215            1032     51.4807E-03     55.3837E-03
             266            1032     51.4807E-03     55.3837E-03
             265            1032     51.4807E-03     55.3837E-03
             216            1032     51.4807E-03     55.3837E-03
             216            1033     60.1033E-03     54.8681E-03
             267            1033     60.1033E-03     54.8681E-03
             266            1033     60.1033E-03     54.8681E-03
             217            1033     60.1033E-03     54.8681E-03
             217            1034     58.8825E-03     57.6447E-03
             218            1034     58.8825E-03     57.6447E-03
             267            1034     58.8825E-03     57.6447E-03
             268            1034     58.8825E-03     57.6447E-03
             218            1035     49.5041E-03     63.5898E-03
             219            1035     49.5041E-03     63.5898E-03
             269            1035     49.5041E-03     63.5898E-03
             268            1035     49.5041E-03     63.5898E-03
             219            1036     58.4216E-03     57.7725E-03
             220            1036     58.4216E-03     57.7725E-03
             270            1036     58.4216E-03     57.7725E-03
             269            1036     58.4216E-03     57.7725E-03
             220            1037     61.9113E-03     58.3117E-03
             221            1037     61.9113E-03     58.3117E-03
             271            1037     61.9113E-03     58.3117E-03
             270            1037     61.9113E-03     58.3117E-03
             272            1038     57.6098E-03     61.0202E-03
             271            1038     57.6098E-03     61.0202E-03
             222            1038     57.6098E-03     61.0202E-03
             221            1038     57.6098E-03     61.0202E-03
             222            1039     59.6899E-03     59.9473E-03
             223            1039     59.6899E-03     59.9473E-03
             273            1039     59.6899E-03     59.9473E-03
             272            1039     59.6899E-03     59.9473E-03
             223            1040     61.8569E-03     61.7951E-03
             273            1040     61.8569E-03     61.7951E-03
             274            1040     61.8569E-03     61.7951E-03
             224            1040     61.8569E-03     61.7951E-03
             274            1041     63.4737E-03     63.2127E-03
             225            1041     63.4737E-03     63.2127E-03
             224            1041     63.4737E-03     63.2127E-03
             275            1041     63.4737E-03     63.2127E-03
             276            1042     64.3072E-03     68.8035E-03
             226            1042     64.3072E-03     68.8035E-03
             225            1042     64.3072E-03     68.8035E-03
             275            1042     64.3072E-03     68.8035E-03
             227            1043     74.4282E-03     67.9529E-03
             277            1043     74.4282E-03     67.9529E-03
             226            1043     74.4282E-03     67.9529E-03
             276            1043     74.4282E-03     67.9529E-03
             227            1044     72.5344E-03     71.0000E-03
             228            1044     72.5344E-03     71.0000E-03
             278            1044     72.5344E-03     71.0000E-03
             277            1044     72.5344E-03     71.0000E-03
             230            1045     5.85336E-03     6.19193E-03
             229            1045     5.85336E-03     6.19193E-03
             280            1045     5.85336E-03     6.19193E-03
             279            1045     5.85336E-03     6.19193E-03
             281            1046     6.21714E-03     6.19761E-03
             230            1046     6.21714E-03     6.19761E-03
             280            1046     6.21714E-03     6.19761E-03
             231            1046     6.21714E-03     6.19761E-03
             282            1047     7.17132E-03     6.82541E-03
             232            1047     7.17132E-03     6.82541E-03
             231            1047     7.17132E-03     6.82541E-03
             281            1047     7.17132E-03     6.82541E-03
             282            1048     8.34489E-03     9.22075E-03
             232            1048     8.34489E-03     9.22075E-03
             233            1048     8.34489E-03     9.22075E-03
             283            1048     8.34489E-03     9.22075E-03
             283            1049     11.6024E-03     10.5004E-03
             284            1049     11.6024E-03     10.5004E-03
             233            1049     11.6024E-03     10.5004E-03
             234            1049     11.6024E-03     10.5004E-03
             284            1050     12.3891E-03     12.4749E-03
             234            1050     12.3891E-03     12.4749E-03
             235            1050     12.3891E-03     12.4749E-03
             285            1050     12.3891E-03     12.4749E-03
             285            1051     11.3117E-03     14.2196E-03
             286            1051     11.3117E-03     14.2196E-03
             235            1051     11.3117E-03     14.2196E-03
             236            1051     11.3117E-03     14.2196E-03
             286            1052     13.3538E-03     13.4446E-03
             236            1052     13.3538E-03     13.4446E-03
             287            1052     13.3538E-03     13.4446E-03
             237            1052     13.3538E-03     13.4446E-03
             288            1053     14.2222E-03     14.3270E-03
             287            1053     14.2222E-03     14.3270E-03
             238            1053     14.2222E-03     14.3270E-03
             237            1053     14.2222E-03     14.3270E-03
             239            1054     14.9339E-03     15.7497E-03
             238            1054     14.9339E-03     15.7497E-03
             288            1054     14.9339E-03     15.7497E-03
             289            1054     14.9339E-03     15.7497E-03
             290            1055     16.9658E-03     17.2232E-03
             239            1055     16.9658E-03     17.2232E-03
             240            1055     16.9658E-03     17.2232E-03
             289            1055     16.9658E-03     17.2232E-03
             291            1056     18.6810E-03     19.5589E-03
             290            1056     18.6810E-03     19.5589E-03
             241            1056     18.6810E-03     19.5589E-03
             240            1056     18.6810E-03     19.5589E-03
             242            1057     21.1030E-03     21.7691E-03
             291            1057     21.1030E-03     21.7691E-03
             292            1057     21.1030E-03     21.7691E-03
             241            1057     21.1030E-03     21.7691E-03
             242            1058     23.5523E-03     23.7413E-03
             292            1058     23.5523E-03     23.7413E-03
             243            1058     23.5523E-03     23.7413E-03
             293            1058     23.5523E-03     23.7413E-03
             243            1059     24.8757E-03     27.7953E-03
             244            1059     24.8757E-03     27.7953E-03
             293            1059     24.8757E-03     27.7953E-03
             294            1059     24.8757E-03     27.7953E-03
             294            1060     30.8960E-03     28.5766E-03
             295            1060     30.8960E-03     28.5766E-03
             244            1060     30.8960E-03     28.5766E-03
             245            1060     30.8960E-03     28.5766E-03
             245            1061     31.2220E-03     31.1169E-03
             295            1061     31.2220E-03     31.1169E-03
             246            1061     31.2220E-03     31.1169E-03
             296            1061     31.2220E-03     31.1169E-03
             247            1062     26.5313E-03     34.5215E-03
             296            1062     26.5313E-03     34.5215E-03
             246            1062     26.5313E-03     34.5215E-03
             297            1062     26.5313E-03     34.5215E-03
             248            1063     31.0994E-03     31.0430E-03
             297            1063     31.0994E-03     31.0430E-03
             247            1063     31.0994E-03     31.0430E-03
             298            1063     31.0994E-03     31.0430E-03
             298            1064     32.4294E-03     31.4777E-03
             248            1064     32.4294E-03     31.4777E-03
             249            1064     32.4294E-03     31.4777E-03
             299            1064     32.4294E-03     31.4777E-03
             249            1065     31.0137E-03     33.5616E-03
             299            1065     31.0137E-03     33.5616E-03
             250            1065     31.0137E-03     33.5616E-03
             300            1065     31.0137E-03     33.5616E-03
             301            1066     33.5774E-03     34.1256E-03
             300            1066     33.5774E-03     34.1256E-03
             250            1066     33.5774E-03     34.1256E-03
             251            1066     33.5774E-03     34.1256E-03
             301            1067     35.0994E-03     36.7765E-03
             302            1067     35.0994E-03     36.7765E-03
             251            1067     35.0994E-03     36.7765E-03
             252            1067     35.0994E-03     36.7765E-03
             253            1068     37.5890E-03     39.0415E-03
             302            1068     37.5890E-03     39.0415E-03
             252            1068     37.5890E-03     39.0415E-03
             303            1068     37.5890E-03     39.0415E-03
             253            1069     40.3535E-03     40.8169E-03
             254            1069     40.3535E-03     40.8169E-03
             304            1069     40.3535E-03     40.8169E-03
             303            1069     40.3535E-03     40.8169E-03
             305            1070     41.2910E-03     45.9466E-03
             255            1070     41.2910E-03     45.9466E-03
             304            1070     41.2910E-03     45.9466E-03
             254            1070     41.2910E-03     45.9466E-03
             256            1071     49.6328E-03     46.2304E-03
             255            1071     49.6328E-03     46.2304E-03
             306            1071     49.6328E-03     46.2304E-03
             305            1071     49.6328E-03     46.2304E-03
             257            1072     49.6255E-03     49.4036E-03
             256            1072     49.6255E-03     49.4036E-03
             307            1072     49.6255E-03     49.4036E-03
             306            1072     49.6255E-03     49.4036E-03
             258            1073     42.0227E-03     54.9842E-03
             257            1073     42.0227E-03     54.9842E-03
             308            1073     42.0227E-03     54.9842E-03
             307            1073     42.0227E-03     54.9842E-03
             259            1074     49.5066E-03     49.3444E-03
             309            1074     49.5066E-03     49.3444E-03
             308            1074     49.5066E-03     49.3444E-03
             258            1074     49.5066E-03     49.3444E-03
             260            1075     51.1958E-03     49.1817E-03
             310            1075     51.1958E-03     49.1817E-03
             259            1075     51.1958E-03     49.1817E-03
             309            1075     51.1958E-03     49.1817E-03
             310            1076     47.5169E-03     51.7832E-03
             261            1076     47.5169E-03     51.7832E-03
             311            1076     47.5169E-03     51.7832E-03
             260            1076     47.5169E-03     51.7832E-03
             312            1077     50.5093E-03     51.3237E-03
             262            1077     50.5093E-03     51.3237E-03
             311            1077     50.5093E-03     51.3237E-03
             261            1077     50.5093E-03     51.3237E-03
             263            1078     51.7698E-03     54.2174E-03
             312            1078     51.7698E-03     54.2174E-03
             313            1078     51.7698E-03     54.2174E-03
             262            1078     51.7698E-03     54.2174E-03
             314            1079     54.2748E-03     56.4949E-03
             264            1079     54.2748E-03     56.4949E-03
             313            1079     54.2748E-03     56.4949E-03
             263            1079     54.2748E-03     56.4949E-03
             314            1080     57.3277E-03     58.0536E-03
             315            1080     57.3277E-03     58.0536E-03
             265            1080     57.3277E-03     58.0536E-03
             264            1080     57.3277E-03     58.0536E-03
             316            1081     57.8668E-03     64.2402E-03
             265            1081     57.8668E-03     64.2402E-03
             315            1081     57.8668E-03     64.2402E-03
             266            1081     57.8668E-03     64.2402E-03
             316            1082     68.5040E-03     64.0402E-03
             317            1082     68.5040E-03     64.0402E-03
             267            1082     68.5040E-03     64.0402E-03
             266            1082     68.5040E-03     64.0402E-03
             267            1083     68.1618E-03     67.8399E-03
             318            1083     68.1618E-03     67.8399E-03
             268            1083     68.1618E-03     67.8399E-03
             317            1083     68.1618E-03     67.8399E-03
             269            1084     57.4983E-03     75.3172E-03
             318            1084     57.4983E-03     75.3172E-03
             268            1084     57.4983E-03     75.3172E-03
             319            1084     57.4983E-03     75.3172E-03
             319            1085     67.6427E-03     67.3646E-03
             269            1085     67.6427E-03     67.3646E-03
             320            1085     67.6427E-03     67.3646E-03
             270            1085     67.6427E-03     67.3646E-03
             270            1086     69.7587E-03     66.7429E-03
             271            1086     69.7587E-03     66.7429E-03
             321            1086     69.7587E-03     66.7429E-03
             320            1086     69.7587E-03     66.7429E-03
             271            1087     64.1491E-03     69.6764E-03
             272            1087     64.1491E-03     69.6764E-03
             322            1087     64.1491E-03     69.6764E-03
             321            1087     64.1491E-03     69.6764E-03
             272            1088     67.0471E-03     68.8272E-03
             273            1088     67.0471E-03     68.8272E-03
             323            1088     67.0471E-03     68.8272E-03
             322            1088     67.0471E-03     68.8272E-03
             274            1089     69.3899E-03     71.7140E-03
             273            1089     69.3899E-03     71.7140E-03
             323            1089     69.3899E-03     71.7140E-03
             324            1089     69.3899E-03     71.7140E-03
             275            1090     71.8167E-03     73.1988E-03
             324            1090     71.8167E-03     73.1988E-03
             274            1090     71.8167E-03     73.1988E-03
             325            1090     71.8167E-03     73.1988E-03
             275            1091     72.3661E-03     79.9342E-03
             276            1091     72.3661E-03     79.9342E-03
             325            1091     72.3661E-03     79.9342E-03
             326            1091     72.3661E-03     79.9342E-03
             277            1092     84.8816E-03     79.4958E-03
             276            1092     84.8816E-03     79.4958E-03
             326            1092     84.8816E-03     79.4958E-03
             327            1092     84.8816E-03     79.4958E-03
             277            1093     84.2642E-03     83.8663E-03
             278            1093     84.2642E-03     83.8663E-03
             328            1093     84.2642E-03     83.8663E-03
             327            1093     84.2642E-03     83.8663E-03
             280            1094     3.70794E-03     4.28742E-03
             330            1094     3.70794E-03     4.28742E-03
             279            1094     3.70794E-03     4.28742E-03
             329            1094     3.70794E-03     4.28742E-03
             281            1095     3.72759E-03     3.41435E-03
             331            1095     3.72759E-03     3.41435E-03
             280            1095     3.72759E-03     3.41435E-03
             330            1095     3.72759E-03     3.41435E-03
             281            1096     5.42919E-03     4.92650E-03
             332            1096     5.42919E-03     4.92650E-03
             282            1096     5.42919E-03     4.92650E-03
             331            1096     5.42919E-03     4.92650E-03
             333            1097     7.51658E-03     8.46130E-03
             283            1097     7.51658E-03     8.46130E-03
             282            1097     7.51658E-03     8.46130E-03
             332            1097     7.51658E-03     8.46130E-03
             283            1098     11.8221E-03     10.8793E-03
             333            1098     11.8221E-03     10.8793E-03
             284            1098     11.8221E-03     10.8793E-03
             334            1098     11.8221E-03     10.8793E-03
             285            1099     14.1065E-03     14.1871E-03
             334            1099     14.1065E-03     14.1871E-03
             335            1099     14.1065E-03     14.1871E-03
             284            1099     14.1065E-03     14.1871E-03
             285            1100     11.7541E-03     13.9824E-03
             335            1100     11.7541E-03     13.9824E-03
             286            1100     11.7541E-03     13.9824E-03
             336            1100     11.7541E-03     13.9824E-03
             287            1101     11.7057E-03     11.0756E-03
             286            1101     11.7057E-03     11.0756E-03
             336            1101     11.7057E-03     11.0756E-03
             337            1101     11.7057E-03     11.0756E-03
             287            1102     13.1952E-03     12.9328E-03
             288            1102     13.1952E-03     12.9328E-03
             338            1102     13.1952E-03     12.9328E-03
             337            1102     13.1952E-03     12.9328E-03
             338            1103     14.9923E-03     15.3925E-03
             288            1103     14.9923E-03     15.3925E-03
             289            1103     14.9923E-03     15.3925E-03
             339            1103     14.9923E-03     15.3925E-03
             289            1104     17.6152E-03     17.7676E-03
             340            1104     17.6152E-03     17.7676E-03
             290            1104     17.6152E-03     17.7676E-03
             339            1104     17.6152E-03     17.7676E-03
             291            1105     20.0141E-03     20.4804E-03
             340            1105     20.0141E-03     20.4804E-03
             290            1105     20.0141E-03     20.4804E-03
             341            1105     20.0141E-03     20.4804E-03
             341            1106     22.6559E-03     23.1884E-03
             342            1106     22.6559E-03     23.1884E-03
             291            1106     22.6559E-03     23.1884E-03
             292            1106     22.6559E-03     23.1884E-03
             293            1107     25.6066E-03     25.4322E-03
             342            1107     25.6066E-03     25.4322E-03
             292            1107     25.6066E-03     25.4322E-03
             343            1107     25.6066E-03     25.4322E-03
             344            1108     27.3222E-03     29.6000E-03
             294            1108     27.3222E-03     29.6000E-03
             293            1108     27.3222E-03     29.6000E-03
             343            1108     27.3222E-03     29.6000E-03
             294            1109     33.2828E-03     31.3961E-03
             344            1109     33.2828E-03     31.3961E-03
             295            1109     33.2828E-03     31.3961E-03
             345            1109     33.2828E-03     31.3961E-03
             346            1110     35.3228E-03     34.9078E-03
             295            1110     35.3228E-03     34.9078E-03
             345            1110     35.3228E-03     34.9078E-03
             296            1110     35.3228E-03     34.9078E-03
             297            1111     29.9770E-03     35.8895E-03
             346            1111     29.9770E-03     35.8895E-03
             347            1111     29.9770E-03     35.8895E-03
             296            1111     29.9770E-03     35.8895E-03
             298            1112     31.6183E-03     30.5085E-03
             297            1112     31.6183E-03     30.5085E-03
             347            1112     31.6183E-03     30.5085E-03
             348            1112     31.6183E-03     30.5085E-03
             298            1113     33.1458E-03     31.9596E-03
             348            1113     33.1458E-03     31.9596E-03
             349            1113     33.1458E-03     31.9596E-03
             299            1113     33.1458E-03     31.9596E-03
             350            1114     33.2607E-03     34.9144E-03
             300            1114     33.2607E-03     34.9144E-03
             349            1114     33.2607E-03     34.9144E-03
             299            1114     33.2607E-03     34.9144E-03
             350            1115     36.3866E-03     36.5597E-03
             351            1115     36.3866E-03     36.5597E-03
             300            1115     36.3866E-03     36.5597E-03
             301            1115     36.3866E-03     36.5597E-03
             302            1116     38.5894E-03     39.5234E-03
             351            1116     38.5894E-03     39.5234E-03
             301            1116     38.5894E-03     39.5234E-03
             352            1116     38.5894E-03     39.5234E-03
             353            1117     41.2431E-03     42.2432E-03
             302            1117     41.2431E-03     42.2432E-03
             352            1117     41.2431E-03     42.2432E-03
             303            1117     41.2431E-03     42.2432E-03
             304            1118     44.4241E-03     44.2620E-03
             303            1118     44.4241E-03     44.2620E-03
             354            1118     44.4241E-03     44.2620E-03
             353            1118     44.4241E-03     44.2620E-03
             305            1119     45.6840E-03     49.2003E-03
             304            1119     45.6840E-03     49.2003E-03
             354            1119     45.6840E-03     49.2003E-03
             355            1119     45.6840E-03     49.2003E-03
             355            1120     53.4137E-03     50.5892E-03
             305            1120     53.4137E-03     50.5892E-03
             356            1120     53.4137E-03     50.5892E-03
             306            1120     53.4137E-03     50.5892E-03
             306            1121     55.5403E-03     54.6676E-03
             356            1121     55.5403E-03     54.6676E-03
             307            1121     55.5403E-03     54.6676E-03
             357            1121     55.5403E-03     54.6676E-03
             307            1122     47.9971E-03     57.5732E-03
             357            1122     47.9971E-03     57.5732E-03
             358            1122     47.9971E-03     57.5732E-03
             308            1122     47.9971E-03     57.5732E-03
             359            1123     51.8306E-03     50.2595E-03
             309            1123     51.8306E-03     50.2595E-03
             308            1123     51.8306E-03     50.2595E-03
             358            1123     51.8306E-03     50.2595E-03
             360            1124     53.2795E-03     51.1573E-03
             359            1124     53.2795E-03     51.1573E-03
             310            1124     53.2795E-03     51.1573E-03
             309            1124     53.2795E-03     51.1573E-03
             360            1125     51.6399E-03     54.5265E-03
             311            1125     51.6399E-03     54.5265E-03
             310            1125     51.6399E-03     54.5265E-03
             361            1125     51.6399E-03     54.5265E-03
             361            1126     55.2278E-03     55.4120E-03
             312            1126     55.2278E-03     55.4120E-03
             362            1126     55.2278E-03     55.4120E-03
             311            1126     55.2278E-03     55.4120E-03
             362            1127     57.2123E-03     58.6078E-03
             312            1127     57.2123E-03     58.6078E-03
             313            1127     57.2123E-03     58.6078E-03
             363            1127     57.2123E-03     58.6078E-03
             363            1128     59.8685E-03     61.3302E-03
             364            1128     59.8685E-03     61.3302E-03
             313            1128     59.8685E-03     61.3302E-03
             314            1128     59.8685E-03     61.3302E-03
             364            1129     63.2748E-03     63.1221E-03
             365            1129     63.2748E-03     63.1221E-03
             314            1129     63.2748E-03     63.1221E-03
             315            1129     63.2748E-03     63.1221E-03
             316            1130     64.0819E-03     68.8275E-03
             315            1130     64.0819E-03     68.8275E-03
             366            1130     64.0819E-03     68.8275E-03
             365            1130     64.0819E-03     68.8275E-03
             316            1131     73.5803E-03     69.8181E-03
             317            1131     73.5803E-03     69.8181E-03
             367            1131     73.5803E-03     69.8181E-03
             366            1131     73.5803E-03     69.8181E-03
             317            1132     75.8060E-03     74.4732E-03
             318            1132     75.8060E-03     74.4732E-03
             367            1132     75.8060E-03     74.4732E-03
             368            1132     75.8060E-03     74.4732E-03
             318            1133     65.9236E-03     79.1362E-03
             369            1133     65.9236E-03     79.1362E-03
             319            1133     65.9236E-03     79.1362E-03
             368            1133     65.9236E-03     79.1362E-03
             320            1134     71.7900E-03     69.8225E-03
             319            1134     71.7900E-03     69.8225E-03
             369            1134     71.7900E-03     69.8225E-03
             370            1134     71.7900E-03     69.8225E-03
             320            1135     73.2448E-03     70.2436E-03
             321            1135     73.2448E-03     70.2436E-03
             370            1135     73.2448E-03     70.2436E-03
             371            1135     73.2448E-03     70.2436E-03
             322            1136     70.0336E-03     74.0035E-03
             371            1136     70.0336E-03     74.0035E-03
             372            1136     70.0336E-03     74.0035E-03
             321            1136     70.0336E-03     74.0035E-03
             322            1137     73.8953E-03     74.4122E-03
             373            1137     73.8953E-03     74.4122E-03
             323            1137     73.8953E-03     74.4122E-03
             372            1137     73.8953E-03     74.4122E-03
             323            1138     76.1826E-03     78.0219E-03
             373            1138     76.1826E-03     78.0219E-03
             374            1138     76.1826E-03     78.0219E-03
             324            1138     76.1826E-03     78.0219E-03
             325            1139     79.5200E-03     79.6024E-03
             324            1139     79.5200E-03     79.6024E-03
             375            1139     79.5200E-03     79.6024E-03
             374            1139     79.5200E-03     79.6024E-03
             375            1140     80.1461E-03     85.8738E-03
             326            1140     80.1461E-03     85.8738E-03
             376            1140     80.1461E-03     85.8738E-03
             325            1140     80.1461E-03     85.8738E-03
             326            1141     91.2042E-03     86.6309E-03
             377            1141     91.2042E-03     86.6309E-03
             376            1141     91.2042E-03     86.6309E-03
             327            1141     91.2042E-03     86.6309E-03
             378            1142     93.5725E-03     91.8757E-03
             327            1142     93.5725E-03     91.8757E-03
             377            1142     93.5725E-03     91.8757E-03
             328            1142     93.5725E-03     91.8757E-03
             379            1143     23.2516E-03     25.0830E-03
             385            1143     23.2516E-03     25.0830E-03
             380            1143     23.2516E-03     25.0830E-03
             386            1143     23.2516E-03     25.0830E-03
             380            1144     25.3370E-03     25.7608E-03
             387            1144     25.3370E-03     25.7608E-03
             381            1144     25.3370E-03     25.7608E-03
             386            1144     25.3370E-03     25.7608E-03
             388            1145     25.7087E-03     26.0713E-03
             381            1145     25.7087E-03     26.0713E-03
             382            1145     25.7087E-03     26.0713E-03
             387            1145     25.7087E-03     26.0713E-03
             383            1146     27.3408E-03     26.3750E-03
             388            1146     27.3408E-03     26.3750E-03
             382            1146     27.3408E-03     26.3750E-03
             389            1146     27.3408E-03     26.3750E-03
             390            1147     26.3046E-03     24.9989E-03
             383            1147     26.3046E-03     24.9989E-03
             384            1147     26.3046E-03     24.9989E-03
             389            1147     26.3046E-03     24.9989E-03
             386            1148     36.9329E-03     40.1281E-03
             385            1148     36.9329E-03     40.1281E-03
             391            1148     36.9329E-03     40.1281E-03
             392            1148     36.9329E-03     40.1281E-03
             387            1149     41.7647E-03     40.8432E-03
             393            1149     41.7647E-03     40.8432E-03
             386            1149     41.7647E-03     40.8432E-03
             392            1149     41.7647E-03     40.8432E-03
             394            1150     43.5823E-03     43.6388E-03
             388            1150     43.5823E-03     43.6388E-03
             393            1150     43.5823E-03     43.6388E-03
             387            1150     43.5823E-03     43.6388E-03
             389            1151     45.2249E-03     44.0069E-03
             395            1151     45.2249E-03     44.0069E-03
             394            1151     45.2249E-03     44.0069E-03
             388            1151     45.2249E-03     44.0069E-03
             390            1152     43.2651E-03     42.0145E-03
             389            1152     43.2651E-03     42.0145E-03
             395            1152     43.2651E-03     42.0145E-03
             396            1152     43.2651E-03     42.0145E-03
             397            1153     50.5188E-03     55.3059E-03
             391            1153     50.5188E-03     55.3059E-03
             392            1153     50.5188E-03     55.3059E-03
             398            1153     50.5188E-03     55.3059E-03
             393            1154     57.5707E-03     55.5808E-03
             399            1154     57.5707E-03     55.5808E-03
             392            1154     57.5707E-03     55.5808E-03
             398            1154     57.5707E-03     55.5808E-03
             394            1155     61.5698E-03     60.7267E-03
             393            1155     61.5698E-03     60.7267E-03
             400            1155     61.5698E-03     60.7267E-03
             399            1155     61.5698E-03     60.7267E-03
             401            1156     63.7618E-03     61.2786E-03
             400            1156     63.7618E-03     61.2786E-03
             395            1156     63.7618E-03     61.2786E-03
             394            1156     63.7618E-03     61.2786E-03
             401            1157     60.5963E-03     58.5523E-03
             402            1157     60.5963E-03     58.5523E-03
             396            1157     60.5963E-03     58.5523E-03
             395            1157     60.5963E-03     58.5523E-03
             398            1158     62.3470E-03     69.9227E-03
             404            1158     62.3470E-03     69.9227E-03
             403            1158     62.3470E-03     69.9227E-03
             397            1158     62.3470E-03     69.9227E-03
             404            1159     71.3351E-03     69.1399E-03
             398            1159     71.3351E-03     69.1399E-03
             405            1159     71.3351E-03     69.1399E-03
             399            1159     71.3351E-03     69.1399E-03
             399            1160     76.3690E-03     73.7822E-03
             405            1160     76.3690E-03     73.7822E-03
             400            1160     76.3690E-03     73.7822E-03
             406            1160     76.3690E-03     73.7822E-03
             406            1161     79.1374E-03     74.0785E-03
             407            1161     79.1374E-03     74.0785E-03
             400            1161     79.1374E-03     74.0785E-03
             401            1161     79.1374E-03     74.0785E-03
             407            1162     75.4845E-03     72.9218E-03
             402            1162     75.4845E-03     72.9218E-03
             401            1162     75.4845E-03     72.9218E-03
             408            1162     75.4845E-03     72.9218E-03
             403            1163     71.7022E-03     81.7937E-03
             404            1163     71.7022E-03     81.7937E-03
             409            1163     71.7022E-03     81.7937E-03
             410            1163     71.7022E-03     81.7937E-03
             411            1164     82.2042E-03     80.2153E-03
             404            1164     82.2042E-03     80.2153E-03
             410            1164     82.2042E-03     80.2153E-03
             405            1164     82.2042E-03     80.2153E-03
             412            1165     85.4208E-03     84.1437E-03
             411            1165     85.4208E-03     84.1437E-03
             406            1165     85.4208E-03     84.1437E-03
             405            1165     85.4208E-03     84.1437E-03
             412            1166     88.8498E-03     84.7525E-03
             407            1166     88.8498E-03     84.7525E-03
             413            1166     88.8498E-03     84.7525E-03
             406            1166     88.8498E-03     84.7525E-03
             408            1167     87.0867E-03     85.3162E-03
             414            1167     87.0867E-03     85.3162E-03
             407            1167     87.0867E-03     85.3162E-03
             413            1167     87.0867E-03     85.3162E-03
             410            1168     78.8082E-03     86.9347E-03
             415            1168     78.8082E-03     86.9347E-03
             416            1168     78.8082E-03     86.9347E-03
             409            1168     78.8082E-03     86.9347E-03
             410            1169     88.3742E-03     85.0150E-03
             416            1169     88.3742E-03     85.0150E-03
             411            1169     88.3742E-03     85.0150E-03
             417            1169     88.3742E-03     85.0150E-03
             411            1170     89.8753E-03     89.1564E-03
             412            1170     89.8753E-03     89.1564E-03
             417            1170     89.8753E-03     89.1564E-03
             418            1170     89.8753E-03     89.1564E-03
             412            1171     94.5906E-03     91.4695E-03
             419            1171     94.5906E-03     91.4695E-03
             413            1171     94.5906E-03     91.4695E-03
             418            1171     94.5906E-03     91.4695E-03
             420            1172     97.1702E-03     94.6299E-03
             419            1172     97.1702E-03     94.6299E-03
             413            1172     97.1702E-03     94.6299E-03
             414            1172     97.1702E-03     94.6299E-03
             421            1173     28.8572E-03     27.3850E-03
             428            1173     28.8572E-03     27.3850E-03
             427            1173     28.8572E-03     27.3850E-03
             422            1173     28.8572E-03     27.3850E-03
             423            1174     29.6676E-03     28.5374E-03
             428            1174     29.6676E-03     28.5374E-03
             422            1174     29.6676E-03     28.5374E-03
             429            1174     29.6676E-03     28.5374E-03
             423            1175     27.3171E-03     29.3208E-03
             424            1175     27.3171E-03     29.3208E-03
             429            1175     27.3171E-03     29.3208E-03
             430            1175     27.3171E-03     29.3208E-03
             424            1176     28.4344E-03     27.4152E-03
             425            1176     28.4344E-03     27.4152E-03
             431            1176     28.4344E-03     27.4152E-03
             430            1176     28.4344E-03     27.4152E-03
             432            1177     27.4320E-03     27.8195E-03
             426            1177     27.4320E-03     27.8195E-03
             431            1177     27.4320E-03     27.8195E-03
             425            1177     27.4320E-03     27.8195E-03
             433            1178     44.7625E-03     43.3651E-03
             427            1178     44.7625E-03     43.3651E-03
             434            1178     44.7625E-03     43.3651E-03
             428            1178     44.7625E-03     43.3651E-03
             428            1179     46.8932E-03     44.1896E-03
             434            1179     46.8932E-03     44.1896E-03
             429            1179     46.8932E-03     44.1896E-03
             435            1179     46.8932E-03     44.1896E-03
             429            1180     42.0924E-03     46.6057E-03
             435            1180     42.0924E-03     46.6057E-03
             430            1180     42.0924E-03     46.6057E-03
             436            1180     42.0924E-03     46.6057E-03
             430            1181     44.4252E-03     42.0847E-03
             437            1181     44.4252E-03     42.0847E-03
             436            1181     44.4252E-03     42.0847E-03
             431            1181     44.4252E-03     42.0847E-03
             437            1182     41.7194E-03     40.4224E-03
             431            1182     41.7194E-03     40.4224E-03
             432            1182     41.7194E-03     40.4224E-03
             438            1182     41.7194E-03     40.4224E-03
             439            1183     61.7728E-03     59.4550E-03
             433            1183     61.7728E-03     59.4550E-03
             434            1183     61.7728E-03     59.4550E-03
             440            1183     61.7728E-03     59.4550E-03
             440            1184     65.2235E-03     59.6253E-03
             434            1184     65.2235E-03     59.6253E-03
             441            1184     65.2235E-03     59.6253E-03
             435            1184     65.2235E-03     59.6253E-03
             441            1185     57.6532E-03     63.4803E-03
             436            1185     57.6532E-03     63.4803E-03
             435            1185     57.6532E-03     63.4803E-03
             442            1185     57.6532E-03     63.4803E-03
             437            1186     60.9365E-03     56.9714E-03
             443            1186     60.9365E-03     56.9714E-03
             436            1186     60.9365E-03     56.9714E-03
             442            1186     60.9365E-03     56.9714E-03
             444            1187     56.3827E-03     54.1864E-03
             437            1187     56.3827E-03     54.1864E-03
             443            1187     56.3827E-03     54.1864E-03
             438            1187     56.3827E-03     54.1864E-03
             446            1188     76.7427E-03     74.1270E-03
             439            1188     76.7427E-03     74.1270E-03
             440            1188     76.7427E-03     74.1270E-03
             445            1188     76.7427E-03     74.1270E-03
             447            1189     80.3386E-03     71.3223E-03
             440            1189     80.3386E-03     71.3223E-03
             446            1189     80.3386E-03     71.3223E-03
             441            1189     80.3386E-03     71.3223E-03
             447            1190     69.3776E-03     76.7986E-03
             448            1190     69.3776E-03     76.7986E-03
             442            1190     69.3776E-03     76.7986E-03
             441            1190     69.3776E-03     76.7986E-03
             442            1191     74.8688E-03     68.7993E-03
             448            1191     74.8688E-03     68.7993E-03
             449            1191     74.8688E-03     68.7993E-03
             443            1191     74.8688E-03     68.7993E-03
             443            1192     69.7100E-03     67.4921E-03
             449            1192     69.7100E-03     67.4921E-03
             444            1192     69.7100E-03     67.4921E-03
             450            1192     69.7100E-03     67.4921E-03
             445            1193     88.5598E-03     87.5616E-03
             452            1193     88.5598E-03     87.5616E-03
             451            1193     88.5598E-03     87.5616E-03
             446            1193     88.5598E-03     87.5616E-03
             446            1194     90.9210E-03     82.1678E-03
             453            1194     90.9210E-03     82.1678E-03
             447            1194     90.9210E-03     82.1678E-03
             452            1194     90.9210E-03     82.1678E-03
             453            1195     76.2054E-03     87.3481E-03
             448            1195     76.2054E-03     87.3481E-03
             454            1195     76.2054E-03     87.3481E-03
             447            1195     76.2054E-03     87.3481E-03
             448            1196     84.1837E-03     78.1475E-03
             454            1196     84.1837E-03     78.1475E-03
             455            1196     84.1837E-03     78.1475E-03
             449            1196     84.1837E-03     78.1475E-03
             456            1197     80.1016E-03     78.6703E-03
             450            1197     80.1016E-03     78.6703E-03
             449            1197     80.1016E-03     78.6703E-03
             455            1197     80.1016E-03     78.6703E-03
             451            1198     99.0649E-03     97.5514E-03
             452            1198     99.0649E-03     97.5514E-03
             458            1198     99.0649E-03     97.5514E-03
             457            1198     99.0649E-03     97.5514E-03
             453            1199     97.5351E-03     90.2204E-03
             459            1199     97.5351E-03     90.2204E-03
             458            1199     97.5351E-03     90.2204E-03
             452            1199     97.5351E-03     90.2204E-03
             460            1200     83.1702E-03     92.3499E-03
             459            1200     83.1702E-03     92.3499E-03
             453            1200     83.1702E-03     92.3499E-03
             454            1200     83.1702E-03     92.3499E-03
             454            1201     88.6157E-03     82.9311E-03
             460            1201     88.6157E-03     82.9311E-03
             461            1201     88.6157E-03     82.9311E-03
             455            1201     88.6157E-03     82.9311E-03
             455            1202     84.9830E-03     82.7247E-03
             462            1202     84.9830E-03     82.7247E-03
             456            1202     84.9830E-03     82.7247E-03
             461            1202     84.9830E-03     82.7247E-03
             469            1203     25.9846E-15     27.4471E-15
             464            1203     25.9846E-15     27.4471E-15
             470            1203     25.9846E-15     27.4471E-15
             463            1203     25.9846E-15     27.4471E-15
             470            1204     17.9714E-15     18.8933E-15
             464            1204     17.9714E-15     18.8933E-15
             465            1204     17.9714E-15     18.8933E-15
             471            1204     17.9714E-15     18.8933E-15
             465            1205     20.2174E-15     19.9087E-15
             471            1205     20.2174E-15     19.9087E-15
             466            1205     20.2174E-15     19.9087E-15
             472            1205     20.2174E-15     19.9087E-15
             467            1206     20.5903E-15     20.8964E-15
             472            1206     20.5903E-15     20.8964E-15
             473            1206     20.5903E-15     20.8964E-15
             466            1206     20.5903E-15     20.8964E-15
             467            1207     23.4101E-15     23.7063E-15
             468            1207     23.4101E-15     23.7063E-15
             474            1207     23.4101E-15     23.7063E-15
             473            1207     23.4101E-15     23.7063E-15
             476            1208     22.6595E-15     22.9939E-15
             469            1208     22.6595E-15     22.9939E-15
             475            1208     22.6595E-15     22.9939E-15
             470            1208     22.6595E-15     22.9939E-15
             471            1209     27.1702E-15     27.8133E-15
             470            1209     27.1702E-15     27.8133E-15
             477            1209     27.1702E-15     27.8133E-15
             476            1209     27.1702E-15     27.8133E-15
             477            1210     28.5282E-15     29.2391E-15
             472            1210     28.5282E-15     29.2391E-15
             478            1210     28.5282E-15     29.2391E-15
             471            1210     28.5282E-15     29.2391E-15
             473            1211     20.5047E-15     21.5797E-15
             478            1211     20.5047E-15     21.5797E-15
             472            1211     20.5047E-15     21.5797E-15
             479            1211     20.5047E-15     21.5797E-15
             473            1212     27.1955E-15     28.9077E-15
             480            1212     27.1955E-15     28.9077E-15
             479            1212     27.1955E-15     28.9077E-15
             474            1212     27.1955E-15     28.9077E-15
             475            1213     22.5994E-15     22.0699E-15
             481            1213     22.5994E-15     22.0699E-15
             476            1213     22.5994E-15     22.0699E-15
             482            1213     22.5994E-15     22.0699E-15
             482            1214     25.6066E-15     27.0343E-15
             477            1214     25.6066E-15     27.0343E-15
             476            1214     25.6066E-15     27.0343E-15
             483            1214     25.6066E-15     27.0343E-15
             483            1215     28.6332E-15     32.7831E-15
             484            1215     28.6332E-15     32.7831E-15
             478            1215     28.6332E-15     32.7831E-15
             477            1215     28.6332E-15     32.7831E-15
             484            1216     19.1182E-15     21.9207E-15
             485            1216     19.1182E-15     21.9207E-15
             478            1216     19.1182E-15     21.9207E-15
             479            1216     19.1182E-15     21.9207E-15
             486            1217     16.9384E-15     18.6414E-15
             479            1217     16.9384E-15     18.6414E-15
             485            1217     16.9384E-15     18.6414E-15
             480            1217     16.9384E-15     18.6414E-15
             482            1218     23.6797E-15     25.7949E-15
             488            1218     23.6797E-15     25.7949E-15
             481            1218     23.6797E-15     25.7949E-15
             487            1218     23.6797E-15     25.7949E-15
             488            1219     22.5341E-15     27.5313E-15
             489            1219     22.5341E-15     27.5313E-15
             483            1219     22.5341E-15     27.5313E-15
             482            1219     22.5341E-15     27.5313E-15
             490            1220     27.4452E-15     33.0234E-15
             483            1220     27.4452E-15     33.0234E-15
             484            1220     27.4452E-15     33.0234E-15
             489            1220     27.4452E-15     33.0234E-15
             485            1221     24.6659E-15     24.3200E-15
             484            1221     24.6659E-15     24.3200E-15
             491            1221     24.6659E-15     24.3200E-15
             490            1221     24.6659E-15     24.3200E-15
             486            1222     14.5554E-15     11.9401E-15
             492            1222     14.5554E-15     11.9401E-15
             491            1222     14.5554E-15     11.9401E-15
             485            1222     14.5554E-15     11.9401E-15
             493            1223     23.6199E-15     27.7075E-15
             494            1223     23.6199E-15     27.7075E-15
             487            1223     23.6199E-15     27.7075E-15
             488            1223     23.6199E-15     27.7075E-15
             495            1224     22.1166E-15     27.3001E-15
             494            1224     22.1166E-15     27.3001E-15
             488            1224     22.1166E-15     27.3001E-15
             489            1224     22.1166E-15     27.3001E-15
             490            1225     22.7760E-15     27.3665E-15
             495            1225     22.7760E-15     27.3665E-15
             489            1225     22.7760E-15     27.3665E-15
             496            1225     22.7760E-15     27.3665E-15
             496            1226     24.4127E-15     24.0000E-15
             497            1226     24.4127E-15     24.0000E-15
             491            1226     24.4127E-15     24.0000E-15
             490            1226     24.4127E-15     24.0000E-15
             492            1227     24.5589E-15     22.3326E-15
             491            1227     24.5589E-15     22.3326E-15
             498            1227     24.5589E-15     22.3326E-15
             497            1227     24.5589E-15     22.3326E-15
             500            1228     27.2208E-15     27.9598E-15
             493            1228     27.2208E-15     27.9598E-15
             499            1228     27.2208E-15     27.9598E-15
             494            1228     27.2208E-15     27.9598E-15
             495            1229     19.2690E-15     21.2914E-15
             500            1229     19.2690E-15     21.2914E-15
             501            1229     19.2690E-15     21.2914E-15
             494            1229     19.2690E-15     21.2914E-15
             495            1230     19.9609E-15     23.5964E-15
             501            1230     19.9609E-15     23.5964E-15
             502            1230     19.9609E-15     23.5964E-15
             496            1230     19.9609E-15     23.5964E-15
             502            1231     21.7658E-15     24.5673E-15
             496            1231     21.7658E-15     24.5673E-15
             503            1231     21.7658E-15     24.5673E-15
             497            1231     21.7658E-15     24.5673E-15
             498            1232     29.7845E-15     30.4851E-15
             503            1232     29.7845E-15     30.4851E-15
             497            1232     29.7845E-15     30.4851E-15
             504            1232     29.7845E-15     30.4851E-15
             546            1233     22.9402E-03     23.6633E-03
             505            1233     22.9402E-03     23.6633E-03
             545            1233     22.9402E-03     23.6633E-03
             506            1233     22.9402E-03     23.6633E-03
             507            1234     26.8518E-03     25.5324E-03
             546            1234     26.8518E-03     25.5324E-03
             547            1234     26.8518E-03     25.5324E-03
             506            1234     26.8518E-03     25.5324E-03
             508            1235     27.5017E-03     26.9547E-03
             507            1235     27.5017E-03     26.9547E-03
             547            1235     27.5017E-03     26.9547E-03
             548            1235     27.5017E-03     26.9547E-03
             509            1236     25.8294E-03     27.3622E-03
             549            1236     25.8294E-03     27.3622E-03
             508            1236     25.8294E-03     27.3622E-03
             548            1236     25.8294E-03     27.3622E-03
             509            1237     26.3063E-03     26.5011E-03
             510            1237     26.3063E-03     26.5011E-03
             549            1237     26.3063E-03     26.5011E-03
             550            1237     26.3063E-03     26.5011E-03
             550            1238     26.1052E-03     26.3320E-03
             551            1238     26.1052E-03     26.3320E-03
             511            1238     26.1052E-03     26.3320E-03
             510            1238     26.1052E-03     26.3320E-03
             511            1239     25.6845E-03     25.7203E-03
             551            1239     25.6845E-03     25.7203E-03
             552            1239     25.6845E-03     25.7203E-03
             512            1239     25.6845E-03     25.7203E-03
             552            1240     25.2917E-03     24.9559E-03
             513            1240     25.2917E-03     24.9559E-03
             512            1240     25.2917E-03     24.9559E-03
             553            1240     25.2917E-03     24.9559E-03
             514            1241     24.7282E-03     24.4690E-03
             513            1241     24.7282E-03     24.4690E-03
             554            1241     24.7282E-03     24.4690E-03
             553            1241     24.7282E-03     24.4690E-03
             554            1242     24.3976E-03     23.3002E-03
             555            1242     24.3976E-03     23.3002E-03
             515            1242     24.3976E-03     23.3002E-03
             514            1242     24.3976E-03     23.3002E-03
             515            1243     23.4050E-03     23.1070E-03
             555            1243     23.4050E-03     23.1070E-03
             556            1243     23.4050E-03     23.1070E-03
             516            1243     23.4050E-03     23.1070E-03
             556            1244     22.0162E-03     23.0352E-03
             557            1244     22.0162E-03     23.0352E-03
             517            1244     22.0162E-03     23.0352E-03
             516            1244     22.0162E-03     23.0352E-03
             557            1245     23.5000E-03     22.4514E-03
             558            1245     23.5000E-03     22.4514E-03
             518            1245     23.5000E-03     22.4514E-03
             517            1245     23.5000E-03     22.4514E-03
             519            1246     23.8105E-03     23.4238E-03
             558            1246     23.8105E-03     23.4238E-03
             518            1246     23.8105E-03     23.4238E-03
             559            1246     23.8105E-03     23.4238E-03
             560            1247     22.4824E-03     23.5377E-03
             520            1247     22.4824E-03     23.5377E-03
             519            1247     22.4824E-03     23.5377E-03
             559            1247     22.4824E-03     23.5377E-03
             560            1248     22.7133E-03     22.8229E-03
             561            1248     22.7133E-03     22.8229E-03
             521            1248     22.7133E-03     22.8229E-03
             520            1248     22.7133E-03     22.8229E-03
             562            1249     22.4744E-03     22.5998E-03
             561            1249     22.4744E-03     22.5998E-03
             521            1249     22.4744E-03     22.5998E-03
             522            1249     22.4744E-03     22.5998E-03
             562            1250     22.0943E-03     22.1671E-03
             523            1250     22.0943E-03     22.1671E-03
             563            1250     22.0943E-03     22.1671E-03
             522            1250     22.0943E-03     22.1671E-03
             524            1251     21.8209E-03     21.5984E-03
             563            1251     21.8209E-03     21.5984E-03
             564            1251     21.8209E-03     21.5984E-03
             523            1251     21.8209E-03     21.5984E-03
             524            1252     21.4575E-03     21.1131E-03
             564            1252     21.4575E-03     21.1131E-03
             565            1252     21.4575E-03     21.1131E-03
             525            1252     21.4575E-03     21.1131E-03
             525            1253     21.0879E-03     20.6900E-03
             566            1253     21.0879E-03     20.6900E-03
             526            1253     21.0879E-03     20.6900E-03
             565            1253     21.0879E-03     20.6900E-03
             526            1254     20.7610E-03     20.0635E-03
             527            1254     20.7610E-03     20.0635E-03
             567            1254     20.7610E-03     20.0635E-03
             566            1254     20.7610E-03     20.0635E-03
             527            1255     20.2061E-03     19.9968E-03
             568            1255     20.2061E-03     19.9968E-03
             567            1255     20.2061E-03     19.9968E-03
             528            1255     20.2061E-03     19.9968E-03
             529            1256     19.5970E-03     19.8555E-03
             569            1256     19.5970E-03     19.8555E-03
             528            1256     19.5970E-03     19.8555E-03
             568            1256     19.5970E-03     19.8555E-03
             570            1257     20.2843E-03     19.6098E-03
             529            1257     20.2843E-03     19.6098E-03
             530            1257     20.2843E-03     19.6098E-03
             569            1257     20.2843E-03     19.6098E-03
             570            1258     20.3454E-03     20.1517E-03
             530            1258     20.3454E-03     20.1517E-03
             571            1258     20.3454E-03     20.1517E-03
             531            1258     20.3454E-03     20.1517E-03
             572            1259     19.5678E-03     20.0749E-03
             531            1259     19.5678E-03     20.0749E-03
             532            1259     19.5678E-03     20.0749E-03
             571            1259     19.5678E-03     20.0749E-03
             532            1260     19.6204E-03     19.6308E-03
             573            1260     19.6204E-03     19.6308E-03
             572            1260     19.6204E-03     19.6308E-03
             533            1260     19.6204E-03     19.6308E-03
             574            1261     19.4338E-03     19.4613E-03
             573            1261     19.4338E-03     19.4613E-03
             534            1261     19.4338E-03     19.4613E-03
             533            1261     19.4338E-03     19.4613E-03
             574            1262     19.2150E-03     19.1852E-03
             575            1262     19.2150E-03     19.1852E-03
             534            1262     19.2150E-03     19.1852E-03
             535            1262     19.2150E-03     19.1852E-03
             535            1263     19.0810E-03     18.9082E-03
             536            1263     19.0810E-03     18.9082E-03
             575            1263     19.0810E-03     18.9082E-03
             576            1263     19.0810E-03     18.9082E-03
             537            1264     18.9551E-03     18.7250E-03
             536            1264     18.9551E-03     18.7250E-03
             576            1264     18.9551E-03     18.7250E-03
             577            1264     18.9551E-03     18.7250E-03
             577            1265     18.8177E-03     18.5175E-03
             538            1265     18.8177E-03     18.5175E-03
             578            1265     18.8177E-03     18.5175E-03
             537            1265     18.8177E-03     18.5175E-03
             578            1266     18.6447E-03     18.4350E-03
             538            1266     18.6447E-03     18.4350E-03
             539            1266     18.6447E-03     18.4350E-03
             579            1266     18.6447E-03     18.4350E-03
             580            1267     18.1086E-03     17.9766E-03
             579            1267     18.1086E-03     17.9766E-03
             540            1267     18.1086E-03     17.9766E-03
             539            1267     18.1086E-03     17.9766E-03
             581            1268     17.9154E-03     17.6249E-03
             580            1268     17.9154E-03     17.6249E-03
             540            1268     17.9154E-03     17.6249E-03
             541            1268     17.9154E-03     17.6249E-03
             541            1269     17.9357E-03     17.8331E-03
             582            1269     17.9357E-03     17.8331E-03
             581            1269     17.9357E-03     17.8331E-03
             542            1269     17.9357E-03     17.8331E-03
             542            1270     17.7889E-03     17.7830E-03
             543            1270     17.7889E-03     17.7830E-03
             583            1270     17.7889E-03     17.7830E-03
             582            1270     17.7889E-03     17.7830E-03
             543            1271     17.7848E-03     17.6367E-03
             544            1271     17.7848E-03     17.6367E-03
             584            1271     17.7848E-03     17.6367E-03
             583            1271     17.7848E-03     17.6367E-03
             545            1272     35.4354E-03     38.5510E-03
             546            1272     35.4354E-03     38.5510E-03
             586            1272     35.4354E-03     38.5510E-03
             585            1272     35.4354E-03     38.5510E-03
             586            1273     40.5866E-03     38.7191E-03
             547            1273     40.5866E-03     38.7191E-03
             587            1273     40.5866E-03     38.7191E-03
             546            1273     40.5866E-03     38.7191E-03
             588            1274     42.2847E-03     39.5215E-03
             547            1274     42.2847E-03     39.5215E-03
             548            1274     42.2847E-03     39.5215E-03
             587            1274     42.2847E-03     39.5215E-03
             548            1275     38.5570E-03     40.4536E-03
             588            1275     38.5570E-03     40.4536E-03
             549            1275     38.5570E-03     40.4536E-03
             589            1275     38.5570E-03     40.4536E-03
             589            1276     38.6706E-03     38.0331E-03
             590            1276     38.6706E-03     38.0331E-03
             549            1276     38.6706E-03     38.0331E-03
             550            1276     38.6706E-03     38.0331E-03
             550            1277     37.6017E-03     37.3869E-03
             591            1277     37.6017E-03     37.3869E-03
             551            1277     37.6017E-03     37.3869E-03
             590            1277     37.6017E-03     37.3869E-03
             551            1278     36.2228E-03     36.3410E-03
             591            1278     36.2228E-03     36.3410E-03
             552            1278     36.2228E-03     36.3410E-03
             592            1278     36.2228E-03     36.3410E-03
             552            1279     35.0411E-03     34.9104E-03
             593            1279     35.0411E-03     34.9104E-03
             592            1279     35.0411E-03     34.9104E-03
             553            1279     35.0411E-03     34.9104E-03
             593            1280     33.2556E-03     34.3229E-03
             594            1280     33.2556E-03     34.3229E-03
             553            1280     33.2556E-03     34.3229E-03
             554            1280     33.2556E-03     34.3229E-03
             554            1281     33.1706E-03     31.8576E-03
             594            1281     33.1706E-03     31.8576E-03
             555            1281     33.1706E-03     31.8576E-03
             595            1281     33.1706E-03     31.8576E-03
             555            1282     30.9423E-03     30.1337E-03
             595            1282     30.9423E-03     30.1337E-03
             596            1282     30.9423E-03     30.1337E-03
             556            1282     30.9423E-03     30.1337E-03
             597            1283     27.9234E-03     31.4154E-03
             596            1283     27.9234E-03     31.4154E-03
             556            1283     27.9234E-03     31.4154E-03
             557            1283     27.9234E-03     31.4154E-03
             598            1284     31.8621E-03     30.4482E-03
             597            1284     31.8621E-03     30.4482E-03
             558            1284     31.8621E-03     30.4482E-03
             557            1284     31.8621E-03     30.4482E-03
             558            1285     32.8233E-03     30.7409E-03
             599            1285     32.8233E-03     30.7409E-03
             559            1285     32.8233E-03     30.7409E-03
             598            1285     32.8233E-03     30.7409E-03
             599            1286     29.8185E-03     31.0367E-03
             600            1286     29.8185E-03     31.0367E-03
             559            1286     29.8185E-03     31.0367E-03
             560            1286     29.8185E-03     31.0367E-03
             600            1287     29.6281E-03     29.0295E-03
             561            1287     29.6281E-03     29.0295E-03
             560            1287     29.6281E-03     29.0295E-03
             601            1287     29.6281E-03     29.0295E-03
             561            1288     28.6632E-03     28.2930E-03
             602            1288     28.6632E-03     28.2930E-03
             562            1288     28.6632E-03     28.2930E-03
             601            1288     28.6632E-03     28.2930E-03
             603            1289     27.3583E-03     27.4596E-03
             563            1289     27.3583E-03     27.4596E-03
             602            1289     27.3583E-03     27.4596E-03
             562            1289     27.3583E-03     27.4596E-03
             564            1290     26.4341E-03     26.3932E-03
             563            1290     26.4341E-03     26.3932E-03
             603            1290     26.4341E-03     26.3932E-03
             604            1290     26.4341E-03     26.3932E-03
             605            1291     25.3230E-03     25.3923E-03
             564            1291     25.3230E-03     25.3923E-03
             565            1291     25.3230E-03     25.3923E-03
             604            1291     25.3230E-03     25.3923E-03
             606            1292     24.0887E-03     24.6036E-03
             605            1292     24.0887E-03     24.6036E-03
             566            1292     24.0887E-03     24.6036E-03
             565            1292     24.0887E-03     24.6036E-03
             606            1293     23.5645E-03     23.0574E-03
             566            1293     23.5645E-03     23.0574E-03
             567            1293     23.5645E-03     23.0574E-03
             607            1293     23.5645E-03     23.0574E-03
             607            1294     22.3116E-03     21.9653E-03
             568            1294     22.3116E-03     21.9653E-03
             608            1294     22.3116E-03     21.9653E-03
             567            1294     22.3116E-03     21.9653E-03
             609            1295     21.0031E-03     22.5295E-03
             608            1295     21.0031E-03     22.5295E-03
             569            1295     21.0031E-03     22.5295E-03
             568            1295     21.0031E-03     22.5295E-03
             570            1296     22.9775E-03     22.1402E-03
             569            1296     22.9775E-03     22.1402E-03
             609            1296     22.9775E-03     22.1402E-03
             610            1296     22.9775E-03     22.1402E-03
             570            1297     23.2383E-03     22.1192E-03
             611            1297     23.2383E-03     22.1192E-03
             571            1297     23.2383E-03     22.1192E-03
             610            1297     23.2383E-03     22.1192E-03
             571            1298     21.3472E-03     21.9470E-03
             612            1298     21.3472E-03     21.9470E-03
             572            1298     21.3472E-03     21.9470E-03
             611            1298     21.3472E-03     21.9470E-03
             613            1299     20.9688E-03     20.7080E-03
             612            1299     20.9688E-03     20.7080E-03
             572            1299     20.9688E-03     20.7080E-03
             573            1299     20.9688E-03     20.7080E-03
             574            1300     20.2269E-03     20.1747E-03
             573            1300     20.2269E-03     20.1747E-03
             613            1300     20.2269E-03     20.1747E-03
             614            1300     20.2269E-03     20.1747E-03
             574            1301     19.3857E-03     19.5577E-03
             614            1301     19.3857E-03     19.5577E-03
             615            1301     19.3857E-03     19.5577E-03
             575            1301     19.3857E-03     19.5577E-03
             616            1302     18.7737E-03     18.8604E-03
             576            1302     18.7737E-03     18.8604E-03
             575            1302     18.7737E-03     18.8604E-03
             615            1302     18.7737E-03     18.8604E-03
             616            1303     18.1718E-03     18.2519E-03
             576            1303     18.1718E-03     18.2519E-03
             617            1303     18.1718E-03     18.2519E-03
             577            1303     18.1718E-03     18.2519E-03
             617            1304     17.6980E-03     17.6516E-03
             577            1304     17.6980E-03     17.6516E-03
             618            1304     17.6980E-03     17.6516E-03
             578            1304     17.6980E-03     17.6516E-03
             619            1305     17.3047E-03     17.1822E-03
             618            1305     17.3047E-03     17.1822E-03
             578            1305     17.3047E-03     17.1822E-03
             579            1305     17.3047E-03     17.1822E-03
             580            1306     16.8057E-03     16.8954E-03
             620            1306     16.8057E-03     16.8954E-03
             619            1306     16.8057E-03     16.8954E-03
             579            1306     16.8057E-03     16.8954E-03
             621            1307     16.8421E-03     16.6665E-03
             620            1307     16.8421E-03     16.6665E-03
             580            1307     16.8421E-03     16.6665E-03
             581            1307     16.8421E-03     16.6665E-03
             622            1308     16.8507E-03     16.6510E-03
             581            1308     16.8507E-03     16.6510E-03
             582            1308     16.8507E-03     16.6510E-03
             621            1308     16.8507E-03     16.6510E-03
             622            1309     16.5208E-03     16.5298E-03
             623            1309     16.5208E-03     16.5298E-03
             583            1309     16.5208E-03     16.5298E-03
             582            1309     16.5208E-03     16.5298E-03
             624            1310     16.4431E-03     16.2923E-03
             584            1310     16.4431E-03     16.2923E-03
             623            1310     16.4431E-03     16.2923E-03
             583            1310     16.4431E-03     16.2923E-03
             625            1311     48.5097E-03     54.5775E-03
             585            1311     48.5097E-03     54.5775E-03
             626            1311     48.5097E-03     54.5775E-03
             586            1311     48.5097E-03     54.5775E-03
             586            1312     55.9170E-03     53.8707E-03
             627            1312     55.9170E-03     53.8707E-03
             626            1312     55.9170E-03     53.8707E-03
             587            1312     55.9170E-03     53.8707E-03
             588            1313     58.0658E-03     53.0542E-03
             587            1313     58.0658E-03     53.0542E-03
             628            1313     58.0658E-03     53.0542E-03
             627            1313     58.0658E-03     53.0542E-03
             629            1314     51.2202E-03     53.6632E-03
             628            1314     51.2202E-03     53.6632E-03
             588            1314     51.2202E-03     53.6632E-03
             589            1314     51.2202E-03     53.6632E-03
             630            1315     50.5686E-03     49.3030E-03
             629            1315     50.5686E-03     49.3030E-03
             589            1315     50.5686E-03     49.3030E-03
             590            1315     50.5686E-03     49.3030E-03
             590            1316     48.6414E-03     48.0717E-03
             631            1316     48.6414E-03     48.0717E-03
             591            1316     48.6414E-03     48.0717E-03
             630            1316     48.6414E-03     48.0717E-03
             631            1317     46.6768E-03     46.6153E-03
             591            1317     46.6768E-03     46.6153E-03
             632            1317     46.6768E-03     46.6153E-03
             592            1317     46.6768E-03     46.6153E-03
             632            1318     45.2303E-03     44.8761E-03
             633            1318     45.2303E-03     44.8761E-03
             593            1318     45.2303E-03     44.8761E-03
             592            1318     45.2303E-03     44.8761E-03
             634            1319     42.9548E-03     45.0328E-03
             594            1319     42.9548E-03     45.0328E-03
             633            1319     42.9548E-03     45.0328E-03
             593            1319     42.9548E-03     45.0328E-03
             594            1320     43.9402E-03     42.1569E-03
             595            1320     43.9402E-03     42.1569E-03
             634            1320     43.9402E-03     42.1569E-03
             635            1320     43.9402E-03     42.1569E-03
             595            1321     40.7380E-03     39.9095E-03
             636            1321     40.7380E-03     39.9095E-03
             635            1321     40.7380E-03     39.9095E-03
             596            1321     40.7380E-03     39.9095E-03
             596            1322     35.5003E-03     42.6714E-03
             637            1322     35.5003E-03     42.6714E-03
             636            1322     35.5003E-03     42.6714E-03
             597            1322     35.5003E-03     42.6714E-03
             597            1323     41.8836E-03     40.3965E-03
             598            1323     41.8836E-03     40.3965E-03
             638            1323     41.8836E-03     40.3965E-03
             637            1323     41.8836E-03     40.3965E-03
             639            1324     43.0904E-03     39.3117E-03
             598            1324     43.0904E-03     39.3117E-03
             638            1324     43.0904E-03     39.3117E-03
             599            1324     43.0904E-03     39.3117E-03
             600            1325     37.5869E-03     39.3241E-03
             640            1325     37.5869E-03     39.3241E-03
             639            1325     37.5869E-03     39.3241E-03
             599            1325     37.5869E-03     39.3241E-03
             640            1326     36.6937E-03     35.7764E-03
             600            1326     36.6937E-03     35.7764E-03
             601            1326     36.6937E-03     35.7764E-03
             641            1326     36.6937E-03     35.7764E-03
             601            1327     34.9402E-03     34.3495E-03
             642            1327     34.9402E-03     34.3495E-03
             602            1327     34.9402E-03     34.3495E-03
             641            1327     34.9402E-03     34.3495E-03
             603            1328     32.8477E-03     33.0005E-03
             602            1328     32.8477E-03     33.0005E-03
             642            1328     32.8477E-03     33.0005E-03
             643            1328     32.8477E-03     33.0005E-03
             644            1329     31.5044E-03     31.3966E-03
             604            1329     31.5044E-03     31.3966E-03
             643            1329     31.5044E-03     31.3966E-03
             603            1329     31.5044E-03     31.3966E-03
             645            1330     29.9959E-03     30.1162E-03
             605            1330     29.9959E-03     30.1162E-03
             644            1330     29.9959E-03     30.1162E-03
             604            1330     29.9959E-03     30.1162E-03
             605            1331     28.1724E-03     29.5254E-03
             645            1331     28.1724E-03     29.5254E-03
             606            1331     28.1724E-03     29.5254E-03
             646            1331     28.1724E-03     29.5254E-03
             607            1332     27.9202E-03     27.4702E-03
             606            1332     27.9202E-03     27.4702E-03
             646            1332     27.9202E-03     27.4702E-03
             647            1332     27.9202E-03     27.4702E-03
             608            1333     25.9320E-03     25.7065E-03
             647            1333     25.9320E-03     25.7065E-03
             648            1333     25.9320E-03     25.7065E-03
             607            1333     25.9320E-03     25.7065E-03
             608            1334     23.3119E-03     26.9929E-03
             648            1334     23.3119E-03     26.9929E-03
             609            1334     23.3119E-03     26.9929E-03
             649            1334     23.3119E-03     26.9929E-03
             609            1335     26.6665E-03     25.7569E-03
             649            1335     26.6665E-03     25.7569E-03
             610            1335     26.6665E-03     25.7569E-03
             650            1335     26.6665E-03     25.7569E-03
             610            1336     26.8969E-03     24.6300E-03
             651            1336     26.8969E-03     24.6300E-03
             650            1336     26.8969E-03     24.6300E-03
             611            1336     26.8969E-03     24.6300E-03
             612            1337     23.3106E-03     24.1683E-03
             611            1337     23.3106E-03     24.1683E-03
             652            1337     23.3106E-03     24.1683E-03
             651            1337     23.3106E-03     24.1683E-03
             652            1338     22.3726E-03     21.8868E-03
             653            1338     22.3726E-03     21.8868E-03
             613            1338     22.3726E-03     21.8868E-03
             612            1338     22.3726E-03     21.8868E-03
             614            1339     21.0261E-03     20.8148E-03
             653            1339     21.0261E-03     20.8148E-03
             654            1339     21.0261E-03     20.8148E-03
             613            1339     21.0261E-03     20.8148E-03
             654            1340     19.5605E-03     19.7380E-03
             615            1340     19.5605E-03     19.7380E-03
             614            1340     19.5605E-03     19.7380E-03
             655            1340     19.5605E-03     19.7380E-03
             616            1341     18.4089E-03     18.6113E-03
             655            1341     18.4089E-03     18.6113E-03
             615            1341     18.4089E-03     18.6113E-03
             656            1341     18.4089E-03     18.6113E-03
             657            1342     17.2318E-03     17.7099E-03
             656            1342     17.2318E-03     17.7099E-03
             616            1342     17.2318E-03     17.7099E-03
             617            1342     17.2318E-03     17.7099E-03
             617            1343     16.2497E-03     16.6744E-03
             657            1343     16.2497E-03     16.6744E-03
             658            1343     16.2497E-03     16.6744E-03
             618            1343     16.2497E-03     16.6744E-03
             658            1344     15.5255E-03     15.6629E-03
             659            1344     15.5255E-03     15.6629E-03
             619            1344     15.5255E-03     15.6629E-03
             618            1344     15.5255E-03     15.6629E-03
             619            1345     14.9918E-03     15.4534E-03
             620            1345     14.9918E-03     15.4534E-03
             660            1345     14.9918E-03     15.4534E-03
             659            1345     14.9918E-03     15.4534E-03
             621            1346     15.3397E-03     15.1781E-03
             660            1346     15.3397E-03     15.1781E-03
             620            1346     15.3397E-03     15.1781E-03
             661            1346     15.3397E-03     15.1781E-03
             661            1347     15.1283E-03     14.7573E-03
             621            1347     15.1283E-03     14.7573E-03
             662            1347     15.1283E-03     14.7573E-03
             622            1347     15.1283E-03     14.7573E-03
             663            1348     14.3420E-03     14.5415E-03
             662            1348     14.3420E-03     14.5415E-03
             622            1348     14.3420E-03     14.5415E-03
             623            1348     14.3420E-03     14.5415E-03
             663            1349     14.2568E-03     14.1714E-03
             624            1349     14.2568E-03     14.1714E-03
             664            1349     14.2568E-03     14.1714E-03
             623            1349     14.2568E-03     14.1714E-03
             626            1350     60.0592E-03     69.9078E-03
             665            1350     60.0592E-03     69.9078E-03
             625            1350     60.0592E-03     69.9078E-03
             666            1350     60.0592E-03     69.9078E-03
             627            1351     69.7422E-03     68.3435E-03
             626            1351     69.7422E-03     68.3435E-03
             666            1351     69.7422E-03     68.3435E-03
             667            1351     69.7422E-03     68.3435E-03
             668            1352     71.4566E-03     64.9019E-03
             628            1352     71.4566E-03     64.9019E-03
             627            1352     71.4566E-03     64.9019E-03
             667            1352     71.4566E-03     64.9019E-03
             628            1353     61.1171E-03     65.6788E-03
             668            1353     61.1171E-03     65.6788E-03
             629            1353     61.1171E-03     65.6788E-03
             669            1353     61.1171E-03     65.6788E-03
             670            1354     59.9475E-03     59.4916E-03
             669            1354     59.9475E-03     59.4916E-03
             630            1354     59.9475E-03     59.4916E-03
             629            1354     59.9475E-03     59.4916E-03
             631            1355     57.2705E-03     57.7391E-03
             671            1355     57.2705E-03     57.7391E-03
             670            1355     57.2705E-03     57.7391E-03
             630            1355     57.2705E-03     57.7391E-03
             631            1356     54.7603E-03     55.6837E-03
             672            1356     54.7603E-03     55.6837E-03
             671            1356     54.7603E-03     55.6837E-03
             632            1356     54.7603E-03     55.6837E-03
             633            1357     53.3088E-03     53.2046E-03
             673            1357     53.3088E-03     53.2046E-03
             672            1357     53.3088E-03     53.2046E-03
             632            1357     53.3088E-03     53.2046E-03
             633            1358     50.8525E-03     54.0390E-03
             634            1358     50.8525E-03     54.0390E-03
             673            1358     50.8525E-03     54.0390E-03
             674            1358     50.8525E-03     54.0390E-03
             675            1359     53.8817E-03     51.1779E-03
             674            1359     53.8817E-03     51.1779E-03
             635            1359     53.8817E-03     51.1779E-03
             634            1359     53.8817E-03     51.1779E-03
             676            1360     50.5873E-03     50.2427E-03
             635            1360     50.5873E-03     50.2427E-03
             675            1360     50.5873E-03     50.2427E-03
             636            1360     50.5873E-03     50.2427E-03
             637            1361     42.9983E-03     55.3101E-03
             676            1361     42.9983E-03     55.3101E-03
             636            1361     42.9983E-03     55.3101E-03
             677            1361     42.9983E-03     55.3101E-03
             677            1362     51.1597E-03     50.1622E-03
             637            1362     51.1597E-03     50.1622E-03
             678            1362     51.1597E-03     50.1622E-03
             638            1362     51.1597E-03     50.1622E-03
             639            1363     52.0697E-03     47.1746E-03
             678            1363     52.0697E-03     47.1746E-03
             638            1363     52.0697E-03     47.1746E-03
             679            1363     52.0697E-03     47.1746E-03
             680            1364     43.9436E-03     47.3619E-03
             679            1364     43.9436E-03     47.3619E-03
             639            1364     43.9436E-03     47.3619E-03
             640            1364     43.9436E-03     47.3619E-03
             681            1365     42.5597E-03     42.3817E-03
             641            1365     42.5597E-03     42.3817E-03
             680            1365     42.5597E-03     42.3817E-03
             640            1365     42.5597E-03     42.3817E-03
             682            1366     40.1744E-03     40.3047E-03
             642            1366     40.1744E-03     40.3047E-03
             681            1366     40.1744E-03     40.3047E-03
             641            1366     40.1744E-03     40.3047E-03
             682            1367     37.2890E-03     38.3159E-03
             642            1367     37.2890E-03     38.3159E-03
             643            1367     37.2890E-03     38.3159E-03
             683            1367     37.2890E-03     38.3159E-03
             643            1368     35.6773E-03     35.9793E-03
             684            1368     35.6773E-03     35.9793E-03
             644            1368     35.6773E-03     35.9793E-03
             683            1368     35.6773E-03     35.9793E-03
             685            1369     33.9188E-03     34.1371E-03
             645            1369     33.9188E-03     34.1371E-03
             684            1369     33.9188E-03     34.1371E-03
             644            1369     33.9188E-03     34.1371E-03
             645            1370     31.8097E-03     33.7311E-03
             686            1370     31.8097E-03     33.7311E-03
             685            1370     31.8097E-03     33.7311E-03
             646            1370     31.8097E-03     33.7311E-03
             686            1371     32.5946E-03     31.6689E-03
             687            1371     32.5946E-03     31.6689E-03
             647            1371     32.5946E-03     31.6689E-03
             646            1371     32.5946E-03     31.6689E-03
             688            1372     30.3191E-03     30.4469E-03
             648            1372     30.3191E-03     30.4469E-03
             687            1372     30.3191E-03     30.4469E-03
             647            1372     30.3191E-03     30.4469E-03
             648            1373     26.0722E-03     32.8861E-03
             649            1373     26.0722E-03     32.8861E-03
             689            1373     26.0722E-03     32.8861E-03
             688            1373     26.0722E-03     32.8861E-03
             690            1374     30.3560E-03     29.7438E-03
             650            1374     30.3560E-03     29.7438E-03
             689            1374     30.3560E-03     29.7438E-03
             649            1374     30.3560E-03     29.7438E-03
             650            1375     30.3446E-03     27.3228E-03
             690            1375     30.3446E-03     27.3228E-03
             691            1375     30.3446E-03     27.3228E-03
             651            1375     30.3446E-03     27.3228E-03
             652            1376     24.9839E-03     26.8789E-03
             691            1376     24.9839E-03     26.8789E-03
             692            1376     24.9839E-03     26.8789E-03
             651            1376     24.9839E-03     26.8789E-03
             692            1377     23.5700E-03     23.3421E-03
             652            1377     23.5700E-03     23.3421E-03
             693            1377     23.5700E-03     23.3421E-03
             653            1377     23.5700E-03     23.3421E-03
             693            1378     21.5745E-03     21.5177E-03
             654            1378     21.5745E-03     21.5177E-03
             653            1378     21.5745E-03     21.5177E-03
             694            1378     21.5745E-03     21.5177E-03
             654            1379     19.4015E-03     19.7329E-03
             655            1379     19.4015E-03     19.7329E-03
             694            1379     19.4015E-03     19.7329E-03
             695            1379     19.4015E-03     19.7329E-03
             696            1380     17.8488E-03     17.8997E-03
             695            1380     17.8488E-03     17.8997E-03
             656            1380     17.8488E-03     17.8997E-03
             655            1380     17.8488E-03     17.8997E-03
             697            1381     16.1936E-03     16.7764E-03
             696            1381     16.1936E-03     16.7764E-03
             657            1381     16.1936E-03     16.7764E-03
             656            1381     16.1936E-03     16.7764E-03
             658            1382     15.0260E-03     15.6354E-03
             698            1382     15.0260E-03     15.6354E-03
             657            1382     15.0260E-03     15.6354E-03
             697            1382     15.0260E-03     15.6354E-03
             659            1383     13.9399E-03     14.3867E-03
             658            1383     13.9399E-03     14.3867E-03
             699            1383     13.9399E-03     14.3867E-03
             698            1383     13.9399E-03     14.3867E-03
             659            1384     12.8013E-03     14.1080E-03
             700            1384     12.8013E-03     14.1080E-03
             699            1384     12.8013E-03     14.1080E-03
             660            1384     12.8013E-03     14.1080E-03
             700            1385     13.2610E-03     13.1056E-03
             701            1385     13.2610E-03     13.1056E-03
             661            1385     13.2610E-03     13.1056E-03
             660            1385     13.2610E-03     13.1056E-03
             661            1386     12.9030E-03     12.2315E-03
             702            1386     12.9030E-03     12.2315E-03
             662            1386     12.9030E-03     12.2315E-03
             701            1386     12.9030E-03     12.2315E-03
             663            1387     11.4695E-03     12.0900E-03
             702            1387     11.4695E-03     12.0900E-03
             662            1387     11.4695E-03     12.0900E-03
             703            1387     11.4695E-03     12.0900E-03
             703            1388     11.1947E-03     11.2966E-03
             663            1388     11.1947E-03     11.2966E-03
             664            1388     11.1947E-03     11.2966E-03
             704            1388     11.1947E-03     11.2966E-03
             706            1389     69.0981E-03     81.5968E-03
             705            1389     69.0981E-03     81.5968E-03
             666            1389     69.0981E-03     81.5968E-03
             665            1389     69.0981E-03     81.5968E-03
             666            1390     80.7154E-03     80.4346E-03
             667            1390     80.7154E-03     80.4346E-03
             707            1390     80.7154E-03     80.4346E-03
             706            1390     80.7154E-03     80.4346E-03
             707            1391     81.4469E-03     75.7542E-03
             667            1391     81.4469E-03     75.7542E-03
             708            1391     81.4469E-03     75.7542E-03
             668            1391     81.4469E-03     75.7542E-03
             669            1392     68.6288E-03     76.1649E-03
             668            1392     68.6288E-03     76.1649E-03
             708            1392     68.6288E-03     76.1649E-03
             709            1392     68.6288E-03     76.1649E-03
             669            1393     67.7752E-03     68.7519E-03
             710            1393     67.7752E-03     68.7519E-03
             670            1393     67.7752E-03     68.7519E-03
             709            1393     67.7752E-03     68.7519E-03
             670            1394     64.2190E-03     66.7195E-03
             671            1394     64.2190E-03     66.7195E-03
             711            1394     64.2190E-03     66.7195E-03
             710            1394     64.2190E-03     66.7195E-03
             671            1395     61.1494E-03     63.9709E-03
             672            1395     61.1494E-03     63.9709E-03
             712            1395     61.1494E-03     63.9709E-03
             711            1395     61.1494E-03     63.9709E-03
             672            1396     59.5015E-03     60.5290E-03
             712            1396     59.5015E-03     60.5290E-03
             673            1396     59.5015E-03     60.5290E-03
             713            1396     59.5015E-03     60.5290E-03
             713            1397     56.0136E-03     60.9749E-03
             674            1397     56.0136E-03     60.9749E-03
             714            1397     56.0136E-03     60.9749E-03
             673            1397     56.0136E-03     60.9749E-03
             675            1398     60.2978E-03     57.7758E-03
             714            1398     60.2978E-03     57.7758E-03
             715            1398     60.2978E-03     57.7758E-03
             674            1398     60.2978E-03     57.7758E-03
             716            1399     58.1026E-03     57.9552E-03
             676            1399     58.1026E-03     57.9552E-03
             715            1399     58.1026E-03     57.9552E-03
             675            1399     58.1026E-03     57.9552E-03
             677            1400     49.3946E-03     64.9461E-03
             717            1400     49.3946E-03     64.9461E-03
             676            1400     49.3946E-03     64.9461E-03
             716            1400     49.3946E-03     64.9461E-03
             718            1401     58.7465E-03     58.5594E-03
             717            1401     58.7465E-03     58.5594E-03
             678            1401     58.7465E-03     58.5594E-03
             677            1401     58.7465E-03     58.5594E-03
             719            1402     59.0584E-03     54.7399E-03
             718            1402     59.0584E-03     54.7399E-03
             679            1402     59.0584E-03     54.7399E-03
             678            1402     59.0584E-03     54.7399E-03
             679            1403     49.0593E-03     54.5550E-03
             719            1403     49.0593E-03     54.5550E-03
             720            1403     49.0593E-03     54.5550E-03
             680            1403     49.0593E-03     54.5550E-03
             681            1404     47.7358E-03     48.4966E-03
             721            1404     47.7358E-03     48.4966E-03
             720            1404     47.7358E-03     48.4966E-03
             680            1404     47.7358E-03     48.4966E-03
             722            1405     44.6415E-03     46.0764E-03
             721            1405     44.6415E-03     46.0764E-03
             682            1405     44.6415E-03     46.0764E-03
             681            1405     44.6415E-03     46.0764E-03
             683            1406     41.1882E-03     43.3831E-03
             682            1406     41.1882E-03     43.3831E-03
             723            1406     41.1882E-03     43.3831E-03
             722            1406     41.1882E-03     43.3831E-03
             723            1407     39.1152E-03     40.4377E-03
             724            1407     39.1152E-03     40.4377E-03
             683            1407     39.1152E-03     40.4377E-03
             684            1407     39.1152E-03     40.4377E-03
             684            1408     36.8503E-03     37.7495E-03
             725            1408     36.8503E-03     37.7495E-03
             724            1408     36.8503E-03     37.7495E-03
             685            1408     36.8503E-03     37.7495E-03
             685            1409     34.0944E-03     36.7703E-03
             726            1409     34.0944E-03     36.7703E-03
             725            1409     34.0944E-03     36.7703E-03
             686            1409     34.0944E-03     36.7703E-03
             687            1410     35.4373E-03     34.4253E-03
             726            1410     35.4373E-03     34.4253E-03
             686            1410     35.4373E-03     34.4253E-03
             727            1410     35.4373E-03     34.4253E-03
             687            1411     33.8664E-03     33.8810E-03
             727            1411     33.8664E-03     33.8810E-03
             728            1411     33.8664E-03     33.8810E-03
             688            1411     33.8664E-03     33.8810E-03
             688            1412     28.8440E-03     37.6644E-03
             689            1412     28.8440E-03     37.6644E-03
             728            1412     28.8440E-03     37.6644E-03
             729            1412     28.8440E-03     37.6644E-03
             689            1413     33.9118E-03     33.8706E-03
             729            1413     33.9118E-03     33.8706E-03
             690            1413     33.9118E-03     33.8706E-03
             730            1413     33.9118E-03     33.8706E-03
             691            1414     33.6096E-03     30.8617E-03
             731            1414     33.6096E-03     30.8617E-03
             690            1414     33.6096E-03     30.8617E-03
             730            1414     33.6096E-03     30.8617E-03
             732            1415     26.7513E-03     29.9077E-03
             731            1415     26.7513E-03     29.9077E-03
             691            1415     26.7513E-03     29.9077E-03
             692            1415     26.7513E-03     29.9077E-03
             692            1416     25.0035E-03     25.2228E-03
             733            1416     25.0035E-03     25.2228E-03
             732            1416     25.0035E-03     25.2228E-03
             693            1416     25.0035E-03     25.2228E-03
             734            1417     22.1627E-03     22.7394E-03
             693            1417     22.1627E-03     22.7394E-03
             694            1417     22.1627E-03     22.7394E-03
             733            1417     22.1627E-03     22.7394E-03
             694            1418     19.2434E-03     20.1108E-03
             735            1418     19.2434E-03     20.1108E-03
             734            1418     19.2434E-03     20.1108E-03
             695            1418     19.2434E-03     20.1108E-03
             735            1419     17.1487E-03     17.3853E-03
             695            1419     17.1487E-03     17.3853E-03
             696            1419     17.1487E-03     17.3853E-03
             736            1419     17.1487E-03     17.3853E-03
             697            1420     14.8816E-03     15.4794E-03
             696            1420     14.8816E-03     15.4794E-03
             737            1420     14.8816E-03     15.4794E-03
             736            1420     14.8816E-03     15.4794E-03
             738            1421     13.6719E-03     14.0038E-03
             697            1421     13.6719E-03     14.0038E-03
             737            1421     13.6719E-03     14.0038E-03
             698            1421     13.6719E-03     14.0038E-03
             699            1422     12.7912E-03     12.9591E-03
             698            1422     12.7912E-03     12.9591E-03
             738            1422     12.7912E-03     12.9591E-03
             739            1422     12.7912E-03     12.9591E-03
             699            1423     10.8125E-03     13.1131E-03
             740            1423     10.8125E-03     13.1131E-03
             739            1423     10.8125E-03     13.1131E-03
             700            1423     10.8125E-03     13.1131E-03
             700            1424     11.2066E-03     11.4028E-03
             740            1424     11.2066E-03     11.4028E-03
             701            1424     11.2066E-03     11.4028E-03
             741            1424     11.2066E-03     11.4028E-03
             701            1425     10.5010E-03     9.28715E-03
             742            1425     10.5010E-03     9.28715E-03
             702            1425     10.5010E-03     9.28715E-03
             741            1425     10.5010E-03     9.28715E-03
             702            1426     7.94351E-03     8.64400E-03
             743            1426     7.94351E-03     8.64400E-03
             742            1426     7.94351E-03     8.64400E-03
             703            1426     7.94351E-03     8.64400E-03
             704            1427     7.52320E-03     7.72267E-03
             703            1427     7.52320E-03     7.72267E-03
             744            1427     7.52320E-03     7.72267E-03
             743            1427     7.52320E-03     7.72267E-03
             705            1428     78.2371E-03     88.2969E-03
             746            1428     78.2371E-03     88.2969E-03
             745            1428     78.2371E-03     88.2969E-03
             706            1428     78.2371E-03     88.2969E-03
             747            1429     89.9507E-03     88.4495E-03
             746            1429     89.9507E-03     88.4495E-03
             706            1429     89.9507E-03     88.4495E-03
             707            1429     89.9507E-03     88.4495E-03
             747            1430     87.4985E-03     82.7314E-03
             748            1430     87.4985E-03     82.7314E-03
             708            1430     87.4985E-03     82.7314E-03
             707            1430     87.4985E-03     82.7314E-03
             708            1431     75.9643E-03     81.6267E-03
             748            1431     75.9643E-03     81.6267E-03
             749            1431     75.9643E-03     81.6267E-03
             709            1431     75.9643E-03     81.6267E-03
             710            1432     74.8191E-03     74.7218E-03
             749            1432     74.8191E-03     74.7218E-03
             750            1432     74.8191E-03     74.7218E-03
             709            1432     74.8191E-03     74.7218E-03
             750            1433     70.7594E-03     72.4283E-03
             711            1433     70.7594E-03     72.4283E-03
             751            1433     70.7594E-03     72.4283E-03
             710            1433     70.7594E-03     72.4283E-03
             752            1434     67.4937E-03     69.1162E-03
             711            1434     67.4937E-03     69.1162E-03
             751            1434     67.4937E-03     69.1162E-03
             712            1434     67.4937E-03     69.1162E-03
             753            1435     64.9928E-03     65.2671E-03
             713            1435     64.9928E-03     65.2671E-03
             712            1435     64.9928E-03     65.2671E-03
             752            1435     64.9928E-03     65.2671E-03
             714            1436     60.7335E-03     64.0981E-03
             754            1436     60.7335E-03     64.0981E-03
             713            1436     60.7335E-03     64.0981E-03
             753            1436     60.7335E-03     64.0981E-03
             754            1437     62.5991E-03     59.9653E-03
             714            1437     62.5991E-03     59.9653E-03
             755            1437     62.5991E-03     59.9653E-03
             715            1437     62.5991E-03     59.9653E-03
             756            1438     60.7027E-03     58.8517E-03
             715            1438     60.7027E-03     58.8517E-03
             716            1438     60.7027E-03     58.8517E-03
             755            1438     60.7027E-03     58.8517E-03
             756            1439     56.4000E-03     67.9185E-03
             716            1439     56.4000E-03     67.9185E-03
             757            1439     56.4000E-03     67.9185E-03
             717            1439     56.4000E-03     67.9185E-03
             717            1440     65.7817E-03     64.8135E-03
             718            1440     65.7817E-03     64.8135E-03
             758            1440     65.7817E-03     64.8135E-03
             757            1440     65.7817E-03     64.8135E-03
             718            1441     63.4703E-03     59.8966E-03
             758            1441     63.4703E-03     59.8966E-03
             759            1441     63.4703E-03     59.8966E-03
             719            1441     63.4703E-03     59.8966E-03
             719            1442     54.1576E-03     58.3305E-03
             759            1442     54.1576E-03     58.3305E-03
             720            1442     54.1576E-03     58.3305E-03
             760            1442     54.1576E-03     58.3305E-03
             721            1443     52.5309E-03     52.4338E-03
             761            1443     52.5309E-03     52.4338E-03
             720            1443     52.5309E-03     52.4338E-03
             760            1443     52.5309E-03     52.4338E-03
             721            1444     48.8534E-03     49.8593E-03
             762            1444     48.8534E-03     49.8593E-03
             761            1444     48.8534E-03     49.8593E-03
             722            1444     48.8534E-03     49.8593E-03
             762            1445     45.4872E-03     46.6137E-03
             723            1445     45.4872E-03     46.6137E-03
             722            1445     45.4872E-03     46.6137E-03
             763            1445     45.4872E-03     46.6137E-03
             764            1446     42.6423E-03     43.4259E-03
             723            1446     42.6423E-03     43.4259E-03
             763            1446     42.6423E-03     43.4259E-03
             724            1446     42.6423E-03     43.4259E-03
             765            1447     39.7878E-03     40.0889E-03
             724            1447     39.7878E-03     40.0889E-03
             764            1447     39.7878E-03     40.0889E-03
             725            1447     39.7878E-03     40.0889E-03
             725            1448     36.2343E-03     37.9335E-03
             765            1448     36.2343E-03     37.9335E-03
             766            1448     36.2343E-03     37.9335E-03
             726            1448     36.2343E-03     37.9335E-03
             767            1449     35.8378E-03     34.4831E-03
             766            1449     35.8378E-03     34.4831E-03
             726            1449     35.8378E-03     34.4831E-03
             727            1449     35.8378E-03     34.4831E-03
             728            1450     33.9938E-03     32.7307E-03
             768            1450     33.9938E-03     32.7307E-03
             767            1450     33.9938E-03     32.7307E-03
             727            1450     33.9938E-03     32.7307E-03
             769            1451     32.4512E-03     38.9734E-03
             728            1451     32.4512E-03     38.9734E-03
             768            1451     32.4512E-03     38.9734E-03
             729            1451     32.4512E-03     38.9734E-03
             770            1452     38.5439E-03     38.1827E-03
             729            1452     38.5439E-03     38.1827E-03
             769            1452     38.5439E-03     38.1827E-03
             730            1452     38.5439E-03     38.1827E-03
             770            1453     36.1939E-03     33.9688E-03
             730            1453     36.1939E-03     33.9688E-03
             771            1453     36.1939E-03     33.9688E-03
             731            1453     36.1939E-03     33.9688E-03
             731            1454     29.2436E-03     31.7563E-03
             772            1454     29.2436E-03     31.7563E-03
             732            1454     29.2436E-03     31.7563E-03
             771            1454     29.2436E-03     31.7563E-03
             732            1455     27.0005E-03     26.8242E-03
             772            1455     27.0005E-03     26.8242E-03
             773            1455     27.0005E-03     26.8242E-03
             733            1455     27.0005E-03     26.8242E-03
             773            1456     23.4826E-03     23.9934E-03
             774            1456     23.4826E-03     23.9934E-03
             734            1456     23.4826E-03     23.9934E-03
             733            1456     23.4826E-03     23.9934E-03
             734            1457     20.2444E-03     20.7083E-03
             775            1457     20.2444E-03     20.7083E-03
             735            1457     20.2444E-03     20.7083E-03
             774            1457     20.2444E-03     20.7083E-03
             735            1458     17.2801E-03     17.4564E-03
             776            1458     17.2801E-03     17.4564E-03
             736            1458     17.2801E-03     17.4564E-03
             775            1458     17.2801E-03     17.4564E-03
             777            1459     14.2278E-03     14.4131E-03
             776            1459     14.2278E-03     14.4131E-03
             737            1459     14.2278E-03     14.4131E-03
             736            1459     14.2278E-03     14.4131E-03
             737            1460     11.7223E-03     11.5942E-03
             777            1460     11.7223E-03     11.5942E-03
             738            1460     11.7223E-03     11.5942E-03
             778            1460     11.7223E-03     11.5942E-03
             779            1461     10.0297E-03     9.41717E-03
             778            1461     10.0297E-03     9.41717E-03
             738            1461     10.0297E-03     9.41717E-03
             739            1461     10.0297E-03     9.41717E-03
             779            1462     10.1759E-03     12.1071E-03
             780            1462     10.1759E-03     12.1071E-03
             739            1462     10.1759E-03     12.1071E-03
             740            1462     10.1759E-03     12.1071E-03
             741            1463     11.9058E-03     12.2542E-03
             780            1463     11.9058E-03     12.2542E-03
             740            1463     11.9058E-03     12.2542E-03
             781            1463     11.9058E-03     12.2542E-03
             781            1464     9.17392E-03     7.86806E-03
             782            1464     9.17392E-03     7.86806E-03
             742            1464     9.17392E-03     7.86806E-03
             741            1464     9.17392E-03     7.86806E-03
             782            1465     4.90883E-03     5.54076E-03
             743            1465     4.90883E-03     5.54076E-03
             742            1465     4.90883E-03     5.54076E-03
             783            1465     4.90883E-03     5.54076E-03
             743            1466     4.36993E-03     5.10863E-03
             744            1466     4.36993E-03     5.10863E-03
             783            1466     4.36993E-03     5.10863E-03
             784            1466     4.36993E-03     5.10863E-03
            1761            2351     39.0305E-15     34.4891E-15
            1757            2351     39.0305E-15     34.4891E-15
            1762            2351     39.0305E-15     34.4891E-15
            1758            2351     39.0305E-15     34.4891E-15
            1759            2352     27.3722E-15     21.5232E-15
            1758            2352     27.3722E-15     21.5232E-15
            1763            2352     27.3722E-15     21.5232E-15
            1762            2352     27.3722E-15     21.5232E-15
            1760            2353     26.4097E-15     16.5693E-15
            1759            2353     26.4097E-15     16.5693E-15
            1763            2353     26.4097E-15     16.5693E-15
            1764            2353     26.4097E-15     16.5693E-15
            1765            2354     31.7570E-15     28.9061E-15
            1762            2354     31.7570E-15     28.9061E-15
            1766            2354     31.7570E-15     28.9061E-15
            1761            2354     31.7570E-15     28.9061E-15
            1766            2355     22.3775E-15     19.0398E-15
            1767            2355     22.3775E-15     19.0398E-15
            1762            2355     22.3775E-15     19.0398E-15
            1763            2355     22.3775E-15     19.0398E-15
            1767            2356     17.8006E-15     13.6812E-15
            1768            2356     17.8006E-15     13.6812E-15
            1763            2356     17.8006E-15     13.6812E-15
            1764            2356     17.8006E-15     13.6812E-15
            1769            2357     24.8221E-15     26.7197E-15
            1765            2357     24.8221E-15     26.7197E-15
            1770            2357     24.8221E-15     26.7197E-15
            1766            2357     24.8221E-15     26.7197E-15
            1766            2358     25.0464E-15     25.8898E-15
            1770            2358     25.0464E-15     25.8898E-15
            1771            2358     25.0464E-15     25.8898E-15
            1767            2358     25.0464E-15     25.8898E-15
            1771            2359     20.7501E-15     21.3663E-15
            1767            2359     20.7501E-15     21.3663E-15
            1772            2359     20.7501E-15     21.3663E-15
            1768            2359     20.7501E-15     21.3663E-15
            1773            2360     17.2336E-15     22.6201E-15
            1769            2360     17.2336E-15     22.6201E-15
            1770            2360     17.2336E-15     22.6201E-15
            1774            2360     17.2336E-15     22.6201E-15
            1770            2361     22.3292E-15     27.7523E-15
            1775            2361     22.3292E-15     27.7523E-15
            1774            2361     22.3292E-15     27.7523E-15
            1771            2361     22.3292E-15     27.7523E-15
            1772            2362     23.1747E-15     28.0091E-15
            1775            2362     23.1747E-15     28.0091E-15
            1771            2362     23.1747E-15     28.0091E-15
            1776            2362     23.1747E-15     28.0091E-15
            1773            2363     11.7937E-15     18.2249E-15
            1777            2363     11.7937E-15     18.2249E-15
            1774            2363     11.7937E-15     18.2249E-15
            1778            2363     11.7937E-15     18.2249E-15
            1775            2364     12.3292E-15     17.1213E-15
            1774            2364     12.3292E-15     17.1213E-15
            1779            2364     12.3292E-15     17.1213E-15
            1778            2364     12.3292E-15     17.1213E-15
            1779            2365     20.2470E-15     22.7787E-15
            1775            2365     20.2470E-15     22.7787E-15
            1776            2365     20.2470E-15     22.7787E-15
            1780            2365     20.2470E-15     22.7787E-15
            1782            2366     28.9105E-15     31.1283E-15
            1781            2366     28.9105E-15     31.1283E-15
            1777            2366     28.9105E-15     31.1283E-15
            1778            2366     28.9105E-15     31.1283E-15
            1778            2367     23.0272E-15     24.4014E-15
            1782            2367     23.0272E-15     24.4014E-15
            1783            2367     23.0272E-15     24.4014E-15
            1779            2367     23.0272E-15     24.4014E-15
            1780            2368     21.4753E-15     21.8185E-15
            1779            2368     21.4753E-15     21.8185E-15
            1783            2368     21.4753E-15     21.8185E-15
            1784            2368     21.4753E-15     21.8185E-15
            2349            2836     26.3046E-03     24.9989E-03
            2344            2836     26.3046E-03     24.9989E-03
            2343            2836     26.3046E-03     24.9989E-03
            2350            2836     26.3046E-03     24.9989E-03
            2351            2837     27.3408E-03     26.3750E-03
            2344            2837     27.3408E-03     26.3750E-03
            2350            2837     27.3408E-03     26.3750E-03
            2345            2837     27.3408E-03     26.3750E-03
            2351            2838     25.7087E-03     26.0713E-03
            2345            2838     25.7087E-03     26.0713E-03
            2352            2838     25.7087E-03     26.0713E-03
            2346            2838     25.7087E-03     26.0713E-03
            2347            2839     25.3370E-03     25.7608E-03
            2346            2839     25.3370E-03     25.7608E-03
            2353            2839     25.3370E-03     25.7608E-03
            2352            2839     25.3370E-03     25.7608E-03
            2353            2840     23.2516E-03     25.0830E-03
            2347            2840     23.2516E-03     25.0830E-03
            2354            2840     23.2516E-03     25.0830E-03
            2348            2840     23.2516E-03     25.0830E-03
            2356            2841     43.2651E-03     42.0145E-03
            2355            2841     43.2651E-03     42.0145E-03
            2349            2841     43.2651E-03     42.0145E-03
            2350            2841     43.2651E-03     42.0145E-03
            2351            2842     45.2249E-03     44.0069E-03
            2356            2842     45.2249E-03     44.0069E-03
            2357            2842     45.2249E-03     44.0069E-03
            2350            2842     45.2249E-03     44.0069E-03
            2351            2843     43.5823E-03     43.6388E-03
            2352            2843     43.5823E-03     43.6388E-03
            2357            2843     43.5823E-03     43.6388E-03
            2358            2843     43.5823E-03     43.6388E-03
            2353            2844     41.7647E-03     40.8432E-03
            2358            2844     41.7647E-03     40.8432E-03
            2359            2844     41.7647E-03     40.8432E-03
            2352            2844     41.7647E-03     40.8432E-03
            2359            2845     36.9329E-03     40.1281E-03
            2360            2845     36.9329E-03     40.1281E-03
            2354            2845     36.9329E-03     40.1281E-03
            2353            2845     36.9329E-03     40.1281E-03
            2361            2846     60.5963E-03     58.5523E-03
            2355            2846     60.5963E-03     58.5523E-03
            2356            2846     60.5963E-03     58.5523E-03
            2362            2846     60.5963E-03     58.5523E-03
            2362            2847     63.7618E-03     61.2786E-03
            2357            2847     63.7618E-03     61.2786E-03
            2356            2847     63.7618E-03     61.2786E-03
            2363            2847     63.7618E-03     61.2786E-03
            2358            2848     61.5698E-03     60.7267E-03
            2357            2848     61.5698E-03     60.7267E-03
            2363            2848     61.5698E-03     60.7267E-03
            2364            2848     61.5698E-03     60.7267E-03
            2364            2849     57.5707E-03     55.5808E-03
            2365            2849     57.5707E-03     55.5808E-03
            2359            2849     57.5707E-03     55.5808E-03
            2358            2849     57.5707E-03     55.5808E-03
            2360            2850     50.5188E-03     55.3059E-03
            2365            2850     50.5188E-03     55.3059E-03
            2359            2850     50.5188E-03     55.3059E-03
            2366            2850     50.5188E-03     55.3059E-03
            2367            2851     75.4845E-03     72.9218E-03
            2368            2851     75.4845E-03     72.9218E-03
            2362            2851     75.4845E-03     72.9218E-03
            2361            2851     75.4845E-03     72.9218E-03
            2368            2852     79.1374E-03     74.0785E-03
            2363            2852     79.1374E-03     74.0785E-03
            2369            2852     79.1374E-03     74.0785E-03
            2362            2852     79.1374E-03     74.0785E-03
            2370            2853     76.3690E-03     73.7822E-03
            2363            2853     76.3690E-03     73.7822E-03
            2364            2853     76.3690E-03     73.7822E-03
            2369            2853     76.3690E-03     73.7822E-03
            2371            2854     71.3351E-03     69.1399E-03
            2365            2854     71.3351E-03     69.1399E-03
            2370            2854     71.3351E-03     69.1399E-03
            2364            2854     71.3351E-03     69.1399E-03
            2365            2855     62.3470E-03     69.9227E-03
            2371            2855     62.3470E-03     69.9227E-03
            2366            2855     62.3470E-03     69.9227E-03
            2372            2855     62.3470E-03     69.9227E-03
            2374            2856     87.0867E-03     85.3162E-03
            2367            2856     87.0867E-03     85.3162E-03
            2373            2856     87.0867E-03     85.3162E-03
            2368            2856     87.0867E-03     85.3162E-03
            2374            2857     88.8498E-03     84.7525E-03
            2375            2857     88.8498E-03     84.7525E-03
            2368            2857     88.8498E-03     84.7525E-03
            2369            2857     88.8498E-03     84.7525E-03
            2369            2858     85.4208E-03     84.1437E-03
            2375            2858     85.4208E-03     84.1437E-03
            2376            2858     85.4208E-03     84.1437E-03
            2370            2858     85.4208E-03     84.1437E-03
            2371            2859     82.2042E-03     80.2153E-03
            2370            2859     82.2042E-03     80.2153E-03
            2376            2859     82.2042E-03     80.2153E-03
            2377            2859     82.2042E-03     80.2153E-03
            2377            2860     71.7022E-03     81.7937E-03
            2372            2860     71.7022E-03     81.7937E-03
            2378            2860     71.7022E-03     81.7937E-03
            2371            2860     71.7022E-03     81.7937E-03
            2373            2861     97.1702E-03     94.6299E-03
            2379            2861     97.1702E-03     94.6299E-03
            2380            2861     97.1702E-03     94.6299E-03
            2374            2861     97.1702E-03     94.6299E-03
            2375            2862     94.5906E-03     91.4695E-03
            2381            2862     94.5906E-03     91.4695E-03
            2374            2862     94.5906E-03     91.4695E-03
            2380            2862     94.5906E-03     91.4695E-03
            2382            2863     89.8753E-03     89.1564E-03
            2381            2863     89.8753E-03     89.1564E-03
            2376            2863     89.8753E-03     89.1564E-03
            2375            2863     89.8753E-03     89.1564E-03
            2383            2864     88.3742E-03     85.0150E-03
            2377            2864     88.3742E-03     85.0150E-03
            2382            2864     88.3742E-03     85.0150E-03
            2376            2864     88.3742E-03     85.0150E-03
            2377            2865     78.8082E-03     86.9347E-03
            2383            2865     78.8082E-03     86.9347E-03
            2378            2865     78.8082E-03     86.9347E-03
            2384            2865     78.8082E-03     86.9347E-03
            3502            3869     24.9942E-03     23.7421E-03
            3551            3869     24.9942E-03     23.7421E-03
            3552            3869     24.9942E-03     23.7421E-03
            3501            3869     24.9942E-03     23.7421E-03
            3502            3870     25.8116E-03     25.2650E-03
            3553            3870     25.8116E-03     25.2650E-03
            3552            3870     25.8116E-03     25.2650E-03
            3503            3870     25.8116E-03     25.2650E-03
            3503            3871     24.1998E-03     25.8205E-03
            3554            3871     24.1998E-03     25.8205E-03
            3504            3871     24.1998E-03     25.8205E-03
            3553            3871     24.1998E-03     25.8205E-03
            3504            3872     24.8120E-03     25.0557E-03
            3554            3872     24.8120E-03     25.0557E-03
            3555            3872     24.8120E-03     25.0557E-03
            3505            3872     24.8120E-03     25.0557E-03
            3555            3873     24.6774E-03     24.8616E-03
            3556            3873     24.6774E-03     24.8616E-03
            3506            3873     24.6774E-03     24.8616E-03
            3505            3873     24.6774E-03     24.8616E-03
            3557            3874     24.2007E-03     24.2215E-03
            3507            3874     24.2007E-03     24.2215E-03
            3506            3874     24.2007E-03     24.2215E-03
            3556            3874     24.2007E-03     24.2215E-03
            3558            3875     23.6655E-03     23.7274E-03
            3507            3875     23.6655E-03     23.7274E-03
            3557            3875     23.6655E-03     23.7274E-03
            3508            3875     23.6655E-03     23.7274E-03
            3509            3876     23.5581E-03     22.3925E-03
            3559            3876     23.5581E-03     22.3925E-03
            3558            3876     23.5581E-03     22.3925E-03
            3508            3876     23.5581E-03     22.3925E-03
            3510            3877     22.3472E-03     22.0452E-03
            3559            3877     22.3472E-03     22.0452E-03
            3560            3877     22.3472E-03     22.0452E-03
            3509            3877     22.3472E-03     22.0452E-03
            3511            3878     20.4128E-03     21.9167E-03
            3561            3878     20.4128E-03     21.9167E-03
            3510            3878     20.4128E-03     21.9167E-03
            3560            3878     20.4128E-03     21.9167E-03
            3511            3879     22.1749E-03     21.0786E-03
            3561            3879     22.1749E-03     21.0786E-03
            3562            3879     22.1749E-03     21.0786E-03
            3512            3879     22.1749E-03     21.0786E-03
            3562            3880     22.6974E-03     22.2792E-03
            3563            3880     22.6974E-03     22.2792E-03
            3513            3880     22.6974E-03     22.2792E-03
            3512            3880     22.6974E-03     22.2792E-03
            3513            3881     21.3162E-03     22.6023E-03
            3563            3881     21.3162E-03     22.6023E-03
            3564            3881     21.3162E-03     22.6023E-03
            3514            3881     21.3162E-03     22.6023E-03
            3514            3882     21.7476E-03     21.8781E-03
            3565            3882     21.7476E-03     21.8781E-03
            3515            3882     21.7476E-03     21.8781E-03
            3564            3882     21.7476E-03     21.8781E-03
            3516            3883     21.5586E-03     21.7513E-03
            3565            3883     21.5586E-03     21.7513E-03
            3515            3883     21.5586E-03     21.7513E-03
            3566            3883     21.5586E-03     21.7513E-03
            3516            3884     21.2080E-03     21.2233E-03
            3517            3884     21.2080E-03     21.2233E-03
            3567            3884     21.2080E-03     21.2233E-03
            3566            3884     21.2080E-03     21.2233E-03
            3568            3885     20.8769E-03     20.5650E-03
            3517            3885     20.8769E-03     20.5650E-03
            3518            3885     20.8769E-03     20.5650E-03
            3567            3885     20.8769E-03     20.5650E-03
            3518            3886     20.3733E-03     20.1626E-03
            3569            3886     20.3733E-03     20.1626E-03
            3568            3886     20.3733E-03     20.1626E-03
            3519            3886     20.3733E-03     20.1626E-03
            3570            3887     20.1021E-03     19.1604E-03
            3519            3887     20.1021E-03     19.1604E-03
            3520            3887     20.1021E-03     19.1604E-03
            3569            3887     20.1021E-03     19.1604E-03
            3520            3888     19.2477E-03     18.9677E-03
            3571            3888     19.2477E-03     18.9677E-03
            3570            3888     19.2477E-03     18.9677E-03
            3521            3888     19.2477E-03     18.9677E-03
            3522            3889     18.0093E-03     18.8782E-03
            3571            3889     18.0093E-03     18.8782E-03
            3521            3889     18.0093E-03     18.8782E-03
            3572            3889     18.0093E-03     18.8782E-03
            3572            3890     19.2246E-03     18.3731E-03
            3523            3890     19.2246E-03     18.3731E-03
            3522            3890     19.2246E-03     18.3731E-03
            3573            3890     19.2246E-03     18.3731E-03
            3574            3891     19.4826E-03     19.2180E-03
            3573            3891     19.4826E-03     19.2180E-03
            3523            3891     19.4826E-03     19.2180E-03
            3524            3891     19.4826E-03     19.2180E-03
            3524            3892     18.4135E-03     19.3118E-03
            3574            3892     18.4135E-03     19.3118E-03
            3575            3892     18.4135E-03     19.3118E-03
            3525            3892     18.4135E-03     19.3118E-03
            3525            3893     18.6415E-03     18.7182E-03
            3526            3893     18.6415E-03     18.7182E-03
            3576            3893     18.6415E-03     18.7182E-03
            3575            3893     18.6415E-03     18.7182E-03
            3526            3894     18.4341E-03     18.5449E-03
            3576            3894     18.4341E-03     18.5449E-03
            3527            3894     18.4341E-03     18.5449E-03
            3577            3894     18.4341E-03     18.5449E-03
            3528            3895     18.1255E-03     18.1149E-03
            3578            3895     18.1255E-03     18.1149E-03
            3527            3895     18.1255E-03     18.1149E-03
            3577            3895     18.1255E-03     18.1149E-03
            3528            3896     17.8676E-03     17.6290E-03
            3529            3896     17.8676E-03     17.6290E-03
            3578            3896     17.8676E-03     17.6290E-03
            3579            3896     17.8676E-03     17.6290E-03
            3529            3897     17.5504E-03     17.2863E-03
            3530            3897     17.5504E-03     17.2863E-03
            3580            3897     17.5504E-03     17.2863E-03
            3579            3897     17.5504E-03     17.2863E-03
            3530            3898     17.2616E-03     16.6739E-03
            3531            3898     17.2616E-03     16.6739E-03
            3580            3898     17.2616E-03     16.6739E-03
            3581            3898     17.2616E-03     16.6739E-03
            3532            3899     16.7590E-03     16.5746E-03
            3582            3899     16.7590E-03     16.5746E-03
            3581            3899     16.7590E-03     16.5746E-03
            3531            3899     16.7590E-03     16.5746E-03
            3532            3900     16.1331E-03     16.4426E-03
            3533            3900     16.1331E-03     16.4426E-03
            3582            3900     16.1331E-03     16.4426E-03
            3583            3900     16.1331E-03     16.4426E-03
            3584            3901     16.7827E-03     16.1880E-03
            3534            3901     16.7827E-03     16.1880E-03
            3583            3901     16.7827E-03     16.1880E-03
            3533            3901     16.7827E-03     16.1880E-03
            3534            3902     16.8414E-03     16.6864E-03
            3535            3902     16.8414E-03     16.6864E-03
            3584            3902     16.8414E-03     16.6864E-03
            3585            3902     16.8414E-03     16.6864E-03
            3586            3903     16.1329E-03     16.6230E-03
            3535            3903     16.1329E-03     16.6230E-03
            3536            3903     16.1329E-03     16.6230E-03
            3585            3903     16.1329E-03     16.6230E-03
            3586            3904     16.2003E-03     16.2137E-03
            3587            3904     16.2003E-03     16.2137E-03
            3537            3904     16.2003E-03     16.2137E-03
            3536            3904     16.2003E-03     16.2137E-03
            3587            3905     16.0207E-03     16.0593E-03
            3538            3905     16.0207E-03     16.0593E-03
            3588            3905     16.0207E-03     16.0593E-03
            3537            3905     16.0207E-03     16.0593E-03
            3538            3906     15.8104E-03     15.7864E-03
            3589            3906     15.8104E-03     15.7864E-03
            3588            3906     15.8104E-03     15.7864E-03
            3539            3906     15.8104E-03     15.7864E-03
            3590            3907     15.6696E-03     15.5108E-03
            3540            3907     15.6696E-03     15.5108E-03
            3589            3907     15.6696E-03     15.5108E-03
            3539            3907     15.6696E-03     15.5108E-03
            3591            3908     15.5314E-03     15.3152E-03
            3541            3908     15.5314E-03     15.3152E-03
            3540            3908     15.5314E-03     15.3152E-03
            3590            3908     15.5314E-03     15.3152E-03
            3541            3909     15.3701E-03     15.0801E-03
            3542            3909     15.3701E-03     15.0801E-03
            3592            3909     15.3701E-03     15.0801E-03
            3591            3909     15.3701E-03     15.0801E-03
            3593            3910     15.1800E-03     15.0156E-03
            3592            3910     15.1800E-03     15.0156E-03
            3543            3910     15.1800E-03     15.0156E-03
            3542            3910     15.1800E-03     15.0156E-03
            3543            3911     14.8272E-03     14.7556E-03
            3544            3911     14.8272E-03     14.7556E-03
            3594            3911     14.8272E-03     14.7556E-03
            3593            3911     14.8272E-03     14.7556E-03
            3594            3912     14.8536E-03     14.5780E-03
            3595            3912     14.8536E-03     14.5780E-03
            3544            3912     14.8536E-03     14.5780E-03
            3545            3912     14.8536E-03     14.5780E-03
            3546            3913     14.8648E-03     14.7718E-03
            3595            3913     14.8648E-03     14.7718E-03
            3596            3913     14.8648E-03     14.7718E-03
            3545            3913     14.8648E-03     14.7718E-03
            3597            3914     14.6446E-03     14.6942E-03
            3547            3914     14.6446E-03     14.6942E-03
            3546            3914     14.6446E-03     14.6942E-03
            3596            3914     14.6446E-03     14.6942E-03
            3548            3915     14.6717E-03     14.5939E-03
            3547            3915     14.6717E-03     14.5939E-03
            3597            3915     14.6717E-03     14.5939E-03
            3598            3915     14.6717E-03     14.5939E-03
            3599            3916     14.6712E-03     14.5795E-03
            3548            3916     14.6712E-03     14.5795E-03
            3549            3916     14.6712E-03     14.5795E-03
            3598            3916     14.6712E-03     14.5795E-03
            3550            3917     14.6039E-03     14.4802E-03
            3600            3917     14.6039E-03     14.4802E-03
            3549            3917     14.6039E-03     14.4802E-03
            3599            3917     14.6039E-03     14.4802E-03
            3551            3918     40.8132E-03     38.9563E-03
            3552            3918     40.8132E-03     38.9563E-03
            3601            3918     40.8132E-03     38.9563E-03
            3602            3918     40.8132E-03     38.9563E-03
            3552            3919     42.7477E-03     40.1100E-03
            3602            3919     42.7477E-03     40.1100E-03
            3603            3919     42.7477E-03     40.1100E-03
            3553            3919     42.7477E-03     40.1100E-03
            3604            3920     39.1978E-03     41.3175E-03
            3554            3920     39.1978E-03     41.3175E-03
            3603            3920     39.1978E-03     41.3175E-03
            3553            3920     39.1978E-03     41.3175E-03
            3604            3921     39.5128E-03     39.1545E-03
            3605            3921     39.5128E-03     39.1545E-03
            3554            3921     39.5128E-03     39.1545E-03
            3555            3921     39.5128E-03     39.1545E-03
            3556            3922     38.7734E-03     38.5502E-03
            3605            3922     38.7734E-03     38.5502E-03
            3606            3922     38.7734E-03     38.5502E-03
            3555            3922     38.7734E-03     38.5502E-03
            3557            3923     37.3355E-03     37.4129E-03
            3556            3923     37.3355E-03     37.4129E-03
            3607            3923     37.3355E-03     37.4129E-03
            3606            3923     37.3355E-03     37.4129E-03
            3608            3924     35.6353E-03     36.9715E-03
            3558            3924     35.6353E-03     36.9715E-03
            3607            3924     35.6353E-03     36.9715E-03
            3557            3924     35.6353E-03     36.9715E-03
            3559            3925     36.0267E-03     34.3506E-03
            3608            3925     36.0267E-03     34.3506E-03
            3609            3925     36.0267E-03     34.3506E-03
            3558            3925     36.0267E-03     34.3506E-03
            3609            3926     33.4301E-03     32.3851E-03
            3560            3926     33.4301E-03     32.3851E-03
            3610            3926     33.4301E-03     32.3851E-03
            3559            3926     33.4301E-03     32.3851E-03
            3561            3927     29.4097E-03     33.7359E-03
            3610            3927     29.4097E-03     33.7359E-03
            3560            3927     29.4097E-03     33.7359E-03
            3611            3927     29.4097E-03     33.7359E-03
            3562            3928     34.0101E-03     32.4197E-03
            3612            3928     34.0101E-03     32.4197E-03
            3611            3928     34.0101E-03     32.4197E-03
            3561            3928     34.0101E-03     32.4197E-03
            3562            3929     35.3723E-03     33.1301E-03
            3612            3929     35.3723E-03     33.1301E-03
            3563            3929     35.3723E-03     33.1301E-03
            3613            3929     35.3723E-03     33.1301E-03
            3563            3930     32.2771E-03     33.8571E-03
            3613            3930     32.2771E-03     33.8571E-03
            3614            3930     32.2771E-03     33.8571E-03
            3564            3930     32.2771E-03     33.8571E-03
            3564            3931     32.4339E-03     31.8089E-03
            3615            3931     32.4339E-03     31.8089E-03
            3614            3931     32.4339E-03     31.8089E-03
            3565            3931     32.4339E-03     31.8089E-03
            3565            3932     31.4981E-03     31.3154E-03
            3615            3932     31.4981E-03     31.3154E-03
            3616            3932     31.4981E-03     31.3154E-03
            3566            3932     31.4981E-03     31.3154E-03
            3566            3933     30.3588E-03     30.4407E-03
            3617            3933     30.3588E-03     30.4407E-03
            3567            3933     30.3588E-03     30.4407E-03
            3616            3933     30.3588E-03     30.4407E-03
            3618            3934     29.4020E-03     29.2346E-03
            3568            3934     29.4020E-03     29.2346E-03
            3617            3934     29.4020E-03     29.2346E-03
            3567            3934     29.4020E-03     29.2346E-03
            3569            3935     27.8653E-03     28.7945E-03
            3619            3935     27.8653E-03     28.7945E-03
            3618            3935     27.8653E-03     28.7945E-03
            3568            3935     27.8653E-03     28.7945E-03
            3619            3936     27.8267E-03     26.7338E-03
            3620            3936     27.8267E-03     26.7338E-03
            3569            3936     27.8267E-03     26.7338E-03
            3570            3936     27.8267E-03     26.7338E-03
            3620            3937     25.9521E-03     25.2442E-03
            3570            3937     25.9521E-03     25.2442E-03
            3621            3937     25.9521E-03     25.2442E-03
            3571            3937     25.9521E-03     25.2442E-03
            3572            3938     23.2983E-03     26.2108E-03
            3621            3938     23.2983E-03     26.2108E-03
            3571            3938     23.2983E-03     26.2108E-03
            3622            3938     23.2983E-03     26.2108E-03
            3573            3939     26.5505E-03     25.3572E-03
            3572            3939     26.5505E-03     25.3572E-03
            3623            3939     26.5505E-03     25.3572E-03
            3622            3939     26.5505E-03     25.3572E-03
            3574            3940     27.3295E-03     25.6997E-03
            3573            3940     27.3295E-03     25.6997E-03
            3623            3940     27.3295E-03     25.6997E-03
            3624            3940     27.3295E-03     25.6997E-03
            3625            3941     24.8661E-03     25.9513E-03
            3574            3941     24.8661E-03     25.9513E-03
            3575            3941     24.8661E-03     25.9513E-03
            3624            3941     24.8661E-03     25.9513E-03
            3575            3942     24.7550E-03     24.2887E-03
            3576            3942     24.7550E-03     24.2887E-03
            3625            3942     24.7550E-03     24.2887E-03
            3626            3942     24.7550E-03     24.2887E-03
            3627            3943     23.8837E-03     23.7492E-03
            3576            3943     23.8837E-03     23.7492E-03
            3577            3943     23.8837E-03     23.7492E-03
            3626            3943     23.8837E-03     23.7492E-03
            3578            3944     22.8486E-03     22.9614E-03
            3577            3944     22.8486E-03     22.9614E-03
            3627            3944     22.8486E-03     22.9614E-03
            3628            3944     22.8486E-03     22.9614E-03
            3579            3945     22.0053E-03     21.9692E-03
            3578            3945     22.0053E-03     21.9692E-03
            3629            3945     22.0053E-03     21.9692E-03
            3628            3945     22.0053E-03     21.9692E-03
            3580            3946     20.8732E-03     21.3618E-03
            3579            3946     20.8732E-03     21.3618E-03
            3630            3946     20.8732E-03     21.3618E-03
            3629            3946     20.8732E-03     21.3618E-03
            3581            3947     20.4581E-03     19.9561E-03
            3580            3947     20.4581E-03     19.9561E-03
            3631            3947     20.4581E-03     19.9561E-03
            3630            3947     20.4581E-03     19.9561E-03
            3582            3948     19.2853E-03     18.9203E-03
            3631            3948     19.2853E-03     18.9203E-03
            3632            3948     19.2853E-03     18.9203E-03
            3581            3948     19.2853E-03     18.9203E-03
            3583            3949     17.9503E-03     19.4312E-03
            3633            3949     17.9503E-03     19.4312E-03
            3582            3949     17.9503E-03     19.4312E-03
            3632            3949     17.9503E-03     19.4312E-03
            3583            3950     19.8032E-03     19.0290E-03
            3633            3950     19.8032E-03     19.0290E-03
            3634            3950     19.8032E-03     19.0290E-03
            3584            3950     19.8032E-03     19.0290E-03
            3634            3951     20.0599E-03     19.0535E-03
            3584            3951     20.0599E-03     19.0535E-03
            3635            3951     20.0599E-03     19.0535E-03
            3585            3951     20.0599E-03     19.0535E-03
            3635            3952     18.3455E-03     18.9233E-03
            3586            3952     18.3455E-03     18.9233E-03
            3585            3952     18.3455E-03     18.9233E-03
            3636            3952     18.3455E-03     18.9233E-03
            3587            3953     18.0541E-03     17.7729E-03
            3636            3953     18.0541E-03     17.7729E-03
            3637            3953     18.0541E-03     17.7729E-03
            3586            3953     18.0541E-03     17.7729E-03
            3587            3954     17.3625E-03     17.3024E-03
            3637            3954     17.3625E-03     17.3024E-03
            3588            3954     17.3625E-03     17.3024E-03
            3638            3954     17.3625E-03     17.3024E-03
            3588            3955     16.5842E-03     16.7215E-03
            3589            3955     16.5842E-03     16.7215E-03
            3639            3955     16.5842E-03     16.7215E-03
            3638            3955     16.5842E-03     16.7215E-03
            3590            3956     15.9969E-03     16.0604E-03
            3639            3956     15.9969E-03     16.0604E-03
            3589            3956     15.9969E-03     16.0604E-03
            3640            3956     15.9969E-03     16.0604E-03
            3591            3957     15.3763E-03     15.4967E-03
            3640            3957     15.3763E-03     15.4967E-03
            3641            3957     15.3763E-03     15.4967E-03
            3590            3957     15.3763E-03     15.4967E-03
            3641            3958     14.9069E-03     14.8464E-03
            3591            3958     14.9069E-03     14.8464E-03
            3642            3958     14.9069E-03     14.8464E-03
            3592            3958     14.9069E-03     14.8464E-03
            3642            3959     14.4569E-03     14.3439E-03
            3593            3959     14.4569E-03     14.3439E-03
            3592            3959     14.4569E-03     14.3439E-03
            3643            3959     14.4569E-03     14.3439E-03
            3593            3960     14.0432E-03     14.2519E-03
            3594            3960     14.0432E-03     14.2519E-03
            3644            3960     14.0432E-03     14.2519E-03
            3643            3960     14.0432E-03     14.2519E-03
            3644            3961     14.3667E-03     14.1354E-03
            3645            3961     14.3667E-03     14.1354E-03
            3595            3961     14.3667E-03     14.1354E-03
            3594            3961     14.3667E-03     14.1354E-03
            3645            3962     14.3258E-03     14.1129E-03
            3646            3962     14.3258E-03     14.1129E-03
            3595            3962     14.3258E-03     14.1129E-03
            3596            3962     14.3258E-03     14.1129E-03
            3597            3963     13.7499E-03     13.9064E-03
            3596            3963     13.7499E-03     13.9064E-03
            3647            3963     13.7499E-03     13.9064E-03
            3646            3963     13.7499E-03     13.9064E-03
            3648            3964     13.6302E-03     13.5579E-03
            3597            3964     13.6302E-03     13.5579E-03
            3647            3964     13.6302E-03     13.5579E-03
            3598            3964     13.6302E-03     13.5579E-03
            3649            3965     13.5456E-03     13.4668E-03
            3599            3965     13.5456E-03     13.4668E-03
            3598            3965     13.5456E-03     13.4668E-03
            3648            3965     13.5456E-03     13.4668E-03
            3650            3966     13.4278E-03     13.3132E-03
            3649            3966     13.4278E-03     13.3132E-03
            3599            3966     13.4278E-03     13.3132E-03
            3600            3966     13.4278E-03     13.3132E-03
            3652            3967     57.6126E-03     55.4677E-03
            3601            3967     57.6126E-03     55.4677E-03
            3602            3967     57.6126E-03     55.4677E-03
            3651            3967     57.6126E-03     55.4677E-03
            3653            3968     60.0332E-03     55.1210E-03
            3652            3968     60.0332E-03     55.1210E-03
            3602            3968     60.0332E-03     55.1210E-03
            3603            3968     60.0332E-03     55.1210E-03
            3654            3969     53.4519E-03     55.9779E-03
            3653            3969     53.4519E-03     55.9779E-03
            3603            3969     53.4519E-03     55.9779E-03
            3604            3969     53.4519E-03     55.9779E-03
            3655            3970     53.1309E-03     52.0652E-03
            3604            3970     53.1309E-03     52.0652E-03
            3605            3970     53.1309E-03     52.0652E-03
            3654            3970     53.1309E-03     52.0652E-03
            3656            3971     51.9003E-03     51.0285E-03
            3655            3971     51.9003E-03     51.0285E-03
            3605            3971     51.9003E-03     51.0285E-03
            3606            3971     51.9003E-03     51.0285E-03
            3657            3972     50.0469E-03     49.7458E-03
            3656            3972     50.0469E-03     49.7458E-03
            3606            3972     50.0469E-03     49.7458E-03
            3607            3972     50.0469E-03     49.7458E-03
            3658            3973     47.9701E-03     50.1518E-03
            3657            3973     47.9701E-03     50.1518E-03
            3607            3973     47.9701E-03     50.1518E-03
            3608            3973     47.9701E-03     50.1518E-03
            3659            3974     49.8372E-03     47.3126E-03
            3608            3974     49.8372E-03     47.3126E-03
            3609            3974     49.8372E-03     47.3126E-03
            3658            3974     49.8372E-03     47.3126E-03
            3660            3975     46.2880E-03     45.1193E-03
            3659            3975     46.2880E-03     45.1193E-03
            3609            3975     46.2880E-03     45.1193E-03
            3610            3975     46.2880E-03     45.1193E-03
            3660            3976     39.7879E-03     48.1273E-03
            3610            3976     39.7879E-03     48.1273E-03
            3611            3976     39.7879E-03     48.1273E-03
            3661            3976     39.7879E-03     48.1273E-03
            3662            3977     47.1135E-03     45.3574E-03
            3661            3977     47.1135E-03     45.3574E-03
            3611            3977     47.1135E-03     45.3574E-03
            3612            3977     47.1135E-03     45.3574E-03
            3663            3978     48.7782E-03     44.7416E-03
            3662            3978     48.7782E-03     44.7416E-03
            3612            3978     48.7782E-03     44.7416E-03
            3613            3978     48.7782E-03     44.7416E-03
            3664            3979     43.0678E-03     45.1510E-03
            3663            3979     43.0678E-03     45.1510E-03
            3613            3979     43.0678E-03     45.1510E-03
            3614            3979     43.0678E-03     45.1510E-03
            3665            3980     42.6100E-03     41.4624E-03
            3614            3980     42.6100E-03     41.4624E-03
            3615            3980     42.6100E-03     41.4624E-03
            3664            3980     42.6100E-03     41.4624E-03
            3666            3981     40.9332E-03     40.5042E-03
            3665            3981     40.9332E-03     40.5042E-03
            3615            3981     40.9332E-03     40.5042E-03
            3616            3981     40.9332E-03     40.5042E-03
            3667            3982     39.3178E-03     39.2838E-03
            3616            3982     39.3178E-03     39.2838E-03
            3617            3982     39.3178E-03     39.2838E-03
            3666            3982     39.3178E-03     39.2838E-03
            3668            3983     38.1896E-03     37.8117E-03
            3667            3983     38.1896E-03     37.8117E-03
            3617            3983     38.1896E-03     37.8117E-03
            3618            3983     38.1896E-03     37.8117E-03
            3669            3984     36.2583E-03     38.0380E-03
            3668            3984     36.2583E-03     38.0380E-03
            3618            3984     36.2583E-03     38.0380E-03
            3619            3984     36.2583E-03     38.0380E-03
            3670            3985     37.1698E-03     35.6952E-03
            3619            3985     37.1698E-03     35.6952E-03
            3620            3985     37.1698E-03     35.6952E-03
            3669            3985     37.1698E-03     35.6952E-03
            3670            3986     34.5359E-03     33.8060E-03
            3620            3986     34.5359E-03     33.8060E-03
            3671            3986     34.5359E-03     33.8060E-03
            3621            3986     34.5359E-03     33.8060E-03
            3622            3987     29.9690E-03     35.9212E-03
            3671            3987     29.9690E-03     35.9212E-03
            3672            3987     29.9690E-03     35.9212E-03
            3621            3987     29.9690E-03     35.9212E-03
            3672            3988     35.1905E-03     33.8689E-03
            3623            3988     35.1905E-03     33.8689E-03
            3622            3988     35.1905E-03     33.8689E-03
            3673            3988     35.1905E-03     33.8689E-03
            3624            3989     36.1249E-03     33.0736E-03
            3674            3989     36.1249E-03     33.0736E-03
            3623            3989     36.1249E-03     33.0736E-03
            3673            3989     36.1249E-03     33.0736E-03
            3625            3990     31.5950E-03     33.0459E-03
            3624            3990     31.5950E-03     33.0459E-03
            3674            3990     31.5950E-03     33.0459E-03
            3675            3990     31.5950E-03     33.0459E-03
            3676            3991     30.9388E-03     30.0907E-03
            3625            3991     30.9388E-03     30.0907E-03
            3675            3991     30.9388E-03     30.0907E-03
            3626            3991     30.9388E-03     30.0907E-03
            3677            3992     29.4202E-03     29.0981E-03
            3676            3992     29.4202E-03     29.0981E-03
            3626            3992     29.4202E-03     29.0981E-03
            3627            3992     29.4202E-03     29.0981E-03
            3628            3993     27.8766E-03     27.9345E-03
            3627            3993     27.8766E-03     27.9345E-03
            3678            3993     27.8766E-03     27.9345E-03
            3677            3993     27.8766E-03     27.9345E-03
            3628            3994     26.7180E-03     26.6079E-03
            3629            3994     26.7180E-03     26.6079E-03
            3678            3994     26.7180E-03     26.6079E-03
            3679            3994     26.7180E-03     26.6079E-03
            3629            3995     25.1031E-03     26.2377E-03
            3680            3995     25.1031E-03     26.2377E-03
            3630            3995     25.1031E-03     26.2377E-03
            3679            3995     25.1031E-03     26.2377E-03
            3631            3996     24.9830E-03     24.4571E-03
            3630            3996     24.9830E-03     24.4571E-03
            3681            3996     24.9830E-03     24.4571E-03
            3680            3996     24.9830E-03     24.4571E-03
            3631            3997     23.1818E-03     22.8678E-03
            3632            3997     23.1818E-03     22.8678E-03
            3681            3997     23.1818E-03     22.8678E-03
            3682            3997     23.1818E-03     22.8678E-03
            3682            3998     20.6616E-03     24.0831E-03
            3683            3998     20.6616E-03     24.0831E-03
            3632            3998     20.6616E-03     24.0831E-03
            3633            3998     20.6616E-03     24.0831E-03
            3684            3999     23.7899E-03     22.9345E-03
            3683            3999     23.7899E-03     22.9345E-03
            3633            3999     23.7899E-03     22.9345E-03
            3634            3999     23.7899E-03     22.9345E-03
            3635            4000     24.0239E-03     22.0229E-03
            3634            4000     24.0239E-03     22.0229E-03
            3684            4000     24.0239E-03     22.0229E-03
            3685            4000     24.0239E-03     22.0229E-03
            3635            4001     20.8048E-03     21.6315E-03
            3686            4001     20.8048E-03     21.6315E-03
            3636            4001     20.8048E-03     21.6315E-03
            3685            4001     20.8048E-03     21.6315E-03
            3637            4002     20.0439E-03     19.5408E-03
            3636            4002     20.0439E-03     19.5408E-03
            3687            4002     20.0439E-03     19.5408E-03
            3686            4002     20.0439E-03     19.5408E-03
            3637            4003     18.8124E-03     18.6219E-03
            3638            4003     18.8124E-03     18.6219E-03
            3687            4003     18.8124E-03     18.6219E-03
            3688            4003     18.8124E-03     18.6219E-03
            3638            4004     17.5066E-03     17.6426E-03
            3689            4004     17.5066E-03     17.6426E-03
            3639            4004     17.5066E-03     17.6426E-03
            3688            4004     17.5066E-03     17.6426E-03
            3689            4005     16.4830E-03     16.6092E-03
            3690            4005     16.4830E-03     16.6092E-03
            3639            4005     16.4830E-03     16.6092E-03
            3640            4005     16.4830E-03     16.6092E-03
            3691            4006     15.3604E-03     15.8605E-03
            3690            4006     15.3604E-03     15.8605E-03
            3641            4006     15.3604E-03     15.8605E-03
            3640            4006     15.3604E-03     15.8605E-03
            3642            4007     14.5374E-03     14.8239E-03
            3641            4007     14.5374E-03     14.8239E-03
            3691            4007     14.5374E-03     14.8239E-03
            3692            4007     14.5374E-03     14.8239E-03
            3693            4008     13.7232E-03     13.7954E-03
            3642            4008     13.7232E-03     13.7954E-03
            3643            4008     13.7232E-03     13.7954E-03
            3692            4008     13.7232E-03     13.7954E-03
            3694            4009     13.0241E-03     13.7922E-03
            3643            4009     13.0241E-03     13.7922E-03
            3644            4009     13.0241E-03     13.7922E-03
            3693            4009     13.0241E-03     13.7922E-03
            3644            4010     13.7277E-03     13.4110E-03
            3695            4010     13.7277E-03     13.4110E-03
            3694            4010     13.7277E-03     13.4110E-03
            3645            4010     13.7277E-03     13.4110E-03
            3646            4011     13.5181E-03     12.8991E-03
            3696            4011     13.5181E-03     12.8991E-03
            3645            4011     13.5181E-03     12.8991E-03
            3695            4011     13.5181E-03     12.8991E-03
            3697            4012     12.3005E-03     12.6313E-03
            3647            4012     12.3005E-03     12.6313E-03
            3696            4012     12.3005E-03     12.6313E-03
            3646            4012     12.3005E-03     12.6313E-03
            3647            4013     11.9332E-03     12.0006E-03
            3698            4013     11.9332E-03     12.0006E-03
            3648            4013     11.9332E-03     12.0006E-03
            3697            4013     11.9332E-03     12.0006E-03
            3648            4014     11.6477E-03     11.7032E-03
            3649            4014     11.6477E-03     11.7032E-03
            3699            4014     11.6477E-03     11.7032E-03
            3698            4014     11.6477E-03     11.7032E-03
            3700            4015     11.4822E-03     11.4533E-03
            3650            4015     11.4822E-03     11.4533E-03
            3649            4015     11.4822E-03     11.4533E-03
            3699            4015     11.4822E-03     11.4533E-03
            3702            4016     72.5344E-03     71.0000E-03
            3651            4016     72.5344E-03     71.0000E-03
            3652            4016     72.5344E-03     71.0000E-03
            3701            4016     72.5344E-03     71.0000E-03
            3702            4017     74.4282E-03     67.9529E-03
            3652            4017     74.4282E-03     67.9529E-03
            3653            4017     74.4282E-03     67.9529E-03
            3703            4017     74.4282E-03     67.9529E-03
            3654            4018     64.3072E-03     68.8035E-03
            3653            4018     64.3072E-03     68.8035E-03
            3703            4018     64.3072E-03     68.8035E-03
            3704            4018     64.3072E-03     68.8035E-03
            3655            4019     63.4737E-03     63.2127E-03
            3654            4019     63.4737E-03     63.2127E-03
            3704            4019     63.4737E-03     63.2127E-03
            3705            4019     63.4737E-03     63.2127E-03
            3655            4020     61.8569E-03     61.7951E-03
            3705            4020     61.8569E-03     61.7951E-03
            3706            4020     61.8569E-03     61.7951E-03
            3656            4020     61.8569E-03     61.7951E-03
            3657            4021     59.6899E-03     59.9473E-03
            3656            4021     59.6899E-03     59.9473E-03
            3706            4021     59.6899E-03     59.9473E-03
            3707            4021     59.6899E-03     59.9473E-03
            3708            4022     57.6098E-03     61.0202E-03
            3658            4022     57.6098E-03     61.0202E-03
            3657            4022     57.6098E-03     61.0202E-03
            3707            4022     57.6098E-03     61.0202E-03
            3658            4023     61.9113E-03     58.3117E-03
            3659            4023     61.9113E-03     58.3117E-03
            3708            4023     61.9113E-03     58.3117E-03
            3709            4023     61.9113E-03     58.3117E-03
            3710            4024     58.4216E-03     57.7725E-03
            3659            4024     58.4216E-03     57.7725E-03
            3660            4024     58.4216E-03     57.7725E-03
            3709            4024     58.4216E-03     57.7725E-03
            3661            4025     49.5041E-03     63.5898E-03
            3710            4025     49.5041E-03     63.5898E-03
            3711            4025     49.5041E-03     63.5898E-03
            3660            4025     49.5041E-03     63.5898E-03
            3661            4026     58.8825E-03     57.6447E-03
            3662            4026     58.8825E-03     57.6447E-03
            3712            4026     58.8825E-03     57.6447E-03
            3711            4026     58.8825E-03     57.6447E-03
            3663            4027     60.1033E-03     54.8681E-03
            3662            4027     60.1033E-03     54.8681E-03
            3713            4027     60.1033E-03     54.8681E-03
            3712            4027     60.1033E-03     54.8681E-03
            3663            4028     51.4807E-03     55.3837E-03
            3713            4028     51.4807E-03     55.3837E-03
            3664            4028     51.4807E-03     55.3837E-03
            3714            4028     51.4807E-03     55.3837E-03
            3714            4029     50.6369E-03     50.1743E-03
            3715            4029     50.6369E-03     50.1743E-03
            3665            4029     50.6369E-03     50.1743E-03
            3664            4029     50.6369E-03     50.1743E-03
            3715            4030     48.3106E-03     48.8193E-03
            3666            4030     48.3106E-03     48.8193E-03
            3665            4030     48.3106E-03     48.8193E-03
            3716            4030     48.3106E-03     48.8193E-03
            3667            4031     46.2498E-03     47.1023E-03
            3716            4031     46.2498E-03     47.1023E-03
            3666            4031     46.2498E-03     47.1023E-03
            3717            4031     46.2498E-03     47.1023E-03
            3668            4032     45.1463E-03     44.9969E-03
            3667            4032     45.1463E-03     44.9969E-03
            3717            4032     45.1463E-03     44.9969E-03
            3718            4032     45.1463E-03     44.9969E-03
            3668            4033     43.0411E-03     45.7900E-03
            3719            4033     43.0411E-03     45.7900E-03
            3669            4033     43.0411E-03     45.7900E-03
            3718            4033     43.0411E-03     45.7900E-03
            3670            4034     45.6939E-03     43.4752E-03
            3719            4034     45.6939E-03     43.4752E-03
            3720            4034     45.6939E-03     43.4752E-03
            3669            4034     45.6939E-03     43.4752E-03
            3671            4035     43.0577E-03     42.7174E-03
            3670            4035     43.0577E-03     42.7174E-03
            3721            4035     43.0577E-03     42.7174E-03
            3720            4035     43.0577E-03     42.7174E-03
            3721            4036     36.4950E-03     46.7399E-03
            3722            4036     36.4950E-03     46.7399E-03
            3672            4036     36.4950E-03     46.7399E-03
            3671            4036     36.4950E-03     46.7399E-03
            3722            4037     43.1426E-03     42.2028E-03
            3723            4037     43.1426E-03     42.2028E-03
            3672            4037     43.1426E-03     42.2028E-03
            3673            4037     43.1426E-03     42.2028E-03
            3674            4038     43.7358E-03     39.7749E-03
            3723            4038     43.7358E-03     39.7749E-03
            3724            4038     43.7358E-03     39.7749E-03
            3673            4038     43.7358E-03     39.7749E-03
            3725            4039     36.9920E-03     39.8322E-03
            3724            4039     36.9920E-03     39.8322E-03
            3675            4039     36.9920E-03     39.8322E-03
            3674            4039     36.9920E-03     39.8322E-03
            3676            4040     35.9753E-03     35.6177E-03
            3725            4040     35.9753E-03     35.6177E-03
            3726            4040     35.9753E-03     35.6177E-03
            3675            4040     35.9753E-03     35.6177E-03
            3727            4041     33.8817E-03     34.1581E-03
            3677            4041     33.8817E-03     34.1581E-03
            3726            4041     33.8817E-03     34.1581E-03
            3676            4041     33.8817E-03     34.1581E-03
            3678            4042     31.8602E-03     32.4734E-03
            3677            4042     31.8602E-03     32.4734E-03
            3728            4042     31.8602E-03     32.4734E-03
            3727            4042     31.8602E-03     32.4734E-03
            3729            4043     30.5917E-03     30.5392E-03
            3679            4043     30.5917E-03     30.5392E-03
            3678            4043     30.5917E-03     30.5392E-03
            3728            4043     30.5917E-03     30.5392E-03
            3680            4044     28.7205E-03     30.4092E-03
            3730            4044     28.7205E-03     30.4092E-03
            3729            4044     28.7205E-03     30.4092E-03
            3679            4044     28.7205E-03     30.4092E-03
            3731            4045     29.5580E-03     28.6118E-03
            3681            4045     29.5580E-03     28.6118E-03
            3730            4045     29.5580E-03     28.6118E-03
            3680            4045     29.5580E-03     28.6118E-03
            3732            4046     27.6080E-03     27.5667E-03
            3681            4046     27.6080E-03     27.5667E-03
            3682            4046     27.6080E-03     27.5667E-03
            3731            4046     27.6080E-03     27.5667E-03
            3683            4047     23.6767E-03     29.8926E-03
            3733            4047     23.6767E-03     29.8926E-03
            3682            4047     23.6767E-03     29.8926E-03
            3732            4047     23.6767E-03     29.8926E-03
            3734            4048     27.6867E-03     27.0821E-03
            3683            4048     27.6867E-03     27.0821E-03
            3733            4048     27.6867E-03     27.0821E-03
            3684            4048     27.6867E-03     27.0821E-03
            3684            4049     27.6725E-03     25.0474E-03
            3734            4049     27.6725E-03     25.0474E-03
            3735            4049     27.6725E-03     25.0474E-03
            3685            4049     27.6725E-03     25.0474E-03
            3686            4050     22.8973E-03     24.6730E-03
            3735            4050     22.8973E-03     24.6730E-03
            3736            4050     22.8973E-03     24.6730E-03
            3685            4050     22.8973E-03     24.6730E-03
            3736            4051     21.7689E-03     21.5251E-03
            3737            4051     21.7689E-03     21.5251E-03
            3686            4051     21.7689E-03     21.5251E-03
            3687            4051     21.7689E-03     21.5251E-03
            3738            4052     19.9922E-03     20.0283E-03
            3688            4052     19.9922E-03     20.0283E-03
            3687            4052     19.9922E-03     20.0283E-03
            3737            4052     19.9922E-03     20.0283E-03
            3689            4053     18.1274E-03     18.4715E-03
            3688            4053     18.1274E-03     18.4715E-03
            3739            4053     18.1274E-03     18.4715E-03
            3738            4053     18.1274E-03     18.4715E-03
            3689            4054     16.8141E-03     16.8406E-03
            3740            4054     16.8141E-03     16.8406E-03
            3739            4054     16.8141E-03     16.8406E-03
            3690            4054     16.8141E-03     16.8406E-03
            3691            4055     15.3119E-03     15.9620E-03
            3740            4055     15.3119E-03     15.9620E-03
            3741            4055     15.3119E-03     15.9620E-03
            3690            4055     15.3119E-03     15.9620E-03
            3742            4056     14.5256E-03     14.8374E-03
            3691            4056     14.5256E-03     14.8374E-03
            3741            4056     14.5256E-03     14.8374E-03
            3692            4056     14.5256E-03     14.8374E-03
            3743            4057     13.4187E-03     13.7168E-03
            3742            4057     13.4187E-03     13.7168E-03
            3693            4057     13.4187E-03     13.7168E-03
            3692            4057     13.4187E-03     13.7168E-03
            3743            4058     11.9382E-03     13.8639E-03
            3744            4058     11.9382E-03     13.8639E-03
            3693            4058     11.9382E-03     13.8639E-03
            3694            4058     11.9382E-03     13.8639E-03
            3695            4059     12.8083E-03     12.5738E-03
            3745            4059     12.8083E-03     12.5738E-03
            3694            4059     12.8083E-03     12.5738E-03
            3744            4059     12.8083E-03     12.5738E-03
            3745            4060     12.4042E-03     11.3565E-03
            3696            4060     12.4042E-03     11.3565E-03
            3695            4060     12.4042E-03     11.3565E-03
            3746            4060     12.4042E-03     11.3565E-03
            3747            4061     10.4185E-03     10.9408E-03
            3746            4061     10.4185E-03     10.9408E-03
            3696            4061     10.4185E-03     10.9408E-03
            3697            4061     10.4185E-03     10.9408E-03
            3698            4062     9.78863E-03     9.78972E-03
            3697            4062     9.78863E-03     9.78972E-03
            3748            4062     9.78863E-03     9.78972E-03
            3747            4062     9.78863E-03     9.78972E-03
            3698            4063     9.14618E-03     9.38081E-03
            3748            4063     9.14618E-03     9.38081E-03
            3749            4063     9.14618E-03     9.38081E-03
            3699            4063     9.14618E-03     9.38081E-03
            3700            4064     8.74849E-03     9.01668E-03
            3699            4064     8.74849E-03     9.01668E-03
            3750            4064     8.74849E-03     9.01668E-03
            3749            4064     8.74849E-03     9.01668E-03
            3701            4065     84.2642E-03     83.8663E-03
            3751            4065     84.2642E-03     83.8663E-03
            3752            4065     84.2642E-03     83.8663E-03
            3702            4065     84.2642E-03     83.8663E-03
            3702            4066     84.8816E-03     79.4958E-03
            3753            4066     84.8816E-03     79.4958E-03
            3752            4066     84.8816E-03     79.4958E-03
            3703            4066     84.8816E-03     79.4958E-03
            3753            4067     72.3661E-03     79.9342E-03
            3704            4067     72.3661E-03     79.9342E-03
            3703            4067     72.3661E-03     79.9342E-03
            3754            4067     72.3661E-03     79.9342E-03
            3755            4068     71.8167E-03     73.1988E-03
            3704            4068     71.8167E-03     73.1988E-03
            3705            4068     71.8167E-03     73.1988E-03
            3754            4068     71.8167E-03     73.1988E-03
            3756            4069     69.3899E-03     71.7140E-03
            3705            4069     69.3899E-03     71.7140E-03
            3755            4069     69.3899E-03     71.7140E-03
            3706            4069     69.3899E-03     71.7140E-03
            3756            4070     67.0471E-03     68.8272E-03
            3757            4070     67.0471E-03     68.8272E-03
            3706            4070     67.0471E-03     68.8272E-03
            3707            4070     67.0471E-03     68.8272E-03
            3707            4071     64.1491E-03     69.6764E-03
            3757            4071     64.1491E-03     69.6764E-03
            3758            4071     64.1491E-03     69.6764E-03
            3708            4071     64.1491E-03     69.6764E-03
            3708            4072     69.7587E-03     66.7429E-03
            3758            4072     69.7587E-03     66.7429E-03
            3709            4072     69.7587E-03     66.7429E-03
            3759            4072     69.7587E-03     66.7429E-03
            3710            4073     67.6427E-03     67.3646E-03
            3759            4073     67.6427E-03     67.3646E-03
            3760            4073     67.6427E-03     67.3646E-03
            3709            4073     67.6427E-03     67.3646E-03
            3711            4074     57.4983E-03     75.3172E-03
            3760            4074     57.4983E-03     75.3172E-03
            3710            4074     57.4983E-03     75.3172E-03
            3761            4074     57.4983E-03     75.3172E-03
            3762            4075     68.1618E-03     67.8399E-03
            3711            4075     68.1618E-03     67.8399E-03
            3761            4075     68.1618E-03     67.8399E-03
            3712            4075     68.1618E-03     67.8399E-03
            3763            4076     68.5040E-03     64.0402E-03
            3762            4076     68.5040E-03     64.0402E-03
            3713            4076     68.5040E-03     64.0402E-03
            3712            4076     68.5040E-03     64.0402E-03
            3763            4077     57.8668E-03     64.2402E-03
            3714            4077     57.8668E-03     64.2402E-03
            3764            4077     57.8668E-03     64.2402E-03
            3713            4077     57.8668E-03     64.2402E-03
            3764            4078     57.3277E-03     58.0536E-03
            3714            4078     57.3277E-03     58.0536E-03
            3765            4078     57.3277E-03     58.0536E-03
            3715            4078     57.3277E-03     58.0536E-03
            3715            4079     54.2748E-03     56.4949E-03
            3716            4079     54.2748E-03     56.4949E-03
            3766            4079     54.2748E-03     56.4949E-03
            3765            4079     54.2748E-03     56.4949E-03
            3716            4080     51.7698E-03     54.2174E-03
            3766            4080     51.7698E-03     54.2174E-03
            3717            4080     51.7698E-03     54.2174E-03
            3767            4080     51.7698E-03     54.2174E-03
            3718            4081     50.5093E-03     51.3237E-03
            3768            4081     50.5093E-03     51.3237E-03
            3767            4081     50.5093E-03     51.3237E-03
            3717            4081     50.5093E-03     51.3237E-03
            3719            4082     47.5169E-03     51.7832E-03
            3768            4082     47.5169E-03     51.7832E-03
            3718            4082     47.5169E-03     51.7832E-03
            3769            4082     47.5169E-03     51.7832E-03
            3719            4083     51.1958E-03     49.1817E-03
            3770            4083     51.1958E-03     49.1817E-03
            3720            4083     51.1958E-03     49.1817E-03
            3769            4083     51.1958E-03     49.1817E-03
            3721            4084     49.5066E-03     49.3444E-03
            3770            4084     49.5066E-03     49.3444E-03
            3720            4084     49.5066E-03     49.3444E-03
            3771            4084     49.5066E-03     49.3444E-03
            3771            4085     42.0227E-03     54.9842E-03
            3772            4085     42.0227E-03     54.9842E-03
            3721            4085     42.0227E-03     54.9842E-03
            3722            4085     42.0227E-03     54.9842E-03
            3723            4086     49.6255E-03     49.4036E-03
            3772            4086     49.6255E-03     49.4036E-03
            3722            4086     49.6255E-03     49.4036E-03
            3773            4086     49.6255E-03     49.4036E-03
            3774            4087     49.6328E-03     46.2304E-03
            3723            4087     49.6328E-03     46.2304E-03
            3724            4087     49.6328E-03     46.2304E-03
            3773            4087     49.6328E-03     46.2304E-03
            3774            4088     41.2910E-03     45.9466E-03
            3724            4088     41.2910E-03     45.9466E-03
            3775            4088     41.2910E-03     45.9466E-03
            3725            4088     41.2910E-03     45.9466E-03
            3775            4089     40.3535E-03     40.8169E-03
            3776            4089     40.3535E-03     40.8169E-03
            3726            4089     40.3535E-03     40.8169E-03
            3725            4089     40.3535E-03     40.8169E-03
            3727            4090     37.5890E-03     39.0415E-03
            3776            4090     37.5890E-03     39.0415E-03
            3726            4090     37.5890E-03     39.0415E-03
            3777            4090     37.5890E-03     39.0415E-03
            3778            4091     35.0994E-03     36.7765E-03
            3728            4091     35.0994E-03     36.7765E-03
            3777            4091     35.0994E-03     36.7765E-03
            3727            4091     35.0994E-03     36.7765E-03
            3779            4092     33.5774E-03     34.1256E-03
            3729            4092     33.5774E-03     34.1256E-03
            3728            4092     33.5774E-03     34.1256E-03
            3778            4092     33.5774E-03     34.1256E-03
            3729            4093     31.0137E-03     33.5616E-03
            3779            4093     31.0137E-03     33.5616E-03
            3780            4093     31.0137E-03     33.5616E-03
            3730            4093     31.0137E-03     33.5616E-03
            3780            4094     32.4294E-03     31.4777E-03
            3781            4094     32.4294E-03     31.4777E-03
            3731            4094     32.4294E-03     31.4777E-03
            3730            4094     32.4294E-03     31.4777E-03
            3781            4095     31.0994E-03     31.0430E-03
            3732            4095     31.0994E-03     31.0430E-03
            3782            4095     31.0994E-03     31.0430E-03
            3731            4095     31.0994E-03     31.0430E-03
            3732            4096     26.5313E-03     34.5215E-03
            3783            4096     26.5313E-03     34.5215E-03
            3733            4096     26.5313E-03     34.5215E-03
            3782            4096     26.5313E-03     34.5215E-03
            3733            4097     31.2220E-03     31.1169E-03
            3734            4097     31.2220E-03     31.1169E-03
            3783            4097     31.2220E-03     31.1169E-03
            3784            4097     31.2220E-03     31.1169E-03
            3785            4098     30.8960E-03     28.5766E-03
            3734            4098     30.8960E-03     28.5766E-03
            3784            4098     30.8960E-03     28.5766E-03
            3735            4098     30.8960E-03     28.5766E-03
            3736            4099     24.8757E-03     27.7953E-03
            3735            4099     24.8757E-03     27.7953E-03
            3786            4099     24.8757E-03     27.7953E-03
            3785            4099     24.8757E-03     27.7953E-03
            3786            4100     23.5523E-03     23.7413E-03
            3736            4100     23.5523E-03     23.7413E-03
            3787            4100     23.5523E-03     23.7413E-03
            3737            4100     23.5523E-03     23.7413E-03
            3737            4101     21.1030E-03     21.7691E-03
            3787            4101     21.1030E-03     21.7691E-03
            3738            4101     21.1030E-03     21.7691E-03
            3788            4101     21.1030E-03     21.7691E-03
            3789            4102     18.6810E-03     19.5589E-03
            3738            4102     18.6810E-03     19.5589E-03
            3788            4102     18.6810E-03     19.5589E-03
            3739            4102     18.6810E-03     19.5589E-03
            3739            4103     16.9658E-03     17.2232E-03
            3789            4103     16.9658E-03     17.2232E-03
            3790            4103     16.9658E-03     17.2232E-03
            3740            4103     16.9658E-03     17.2232E-03
            3740            4104     14.9339E-03     15.7497E-03
            3790            4104     14.9339E-03     15.7497E-03
            3791            4104     14.9339E-03     15.7497E-03
            3741            4104     14.9339E-03     15.7497E-03
            3742            4105     14.2222E-03     14.3270E-03
            3791            4105     14.2222E-03     14.3270E-03
            3741            4105     14.2222E-03     14.3270E-03
            3792            4105     14.2222E-03     14.3270E-03
            3792            4106     13.3538E-03     13.4446E-03
            3793            4106     13.3538E-03     13.4446E-03
            3742            4106     13.3538E-03     13.4446E-03
            3743            4106     13.3538E-03     13.4446E-03
            3743            4107     11.3117E-03     14.2196E-03
            3794            4107     11.3117E-03     14.2196E-03
            3744            4107     11.3117E-03     14.2196E-03
            3793            4107     11.3117E-03     14.2196E-03
            3744            4108     12.3891E-03     12.4749E-03
            3795            4108     12.3891E-03     12.4749E-03
            3794            4108     12.3891E-03     12.4749E-03
            3745            4108     12.3891E-03     12.4749E-03
            3745            4109     11.6024E-03     10.5004E-03
            3746            4109     11.6024E-03     10.5004E-03
            3796            4109     11.6024E-03     10.5004E-03
            3795            4109     11.6024E-03     10.5004E-03
            3797            4110     8.34489E-03     9.22075E-03
            3746            4110     8.34489E-03     9.22075E-03
            3747            4110     8.34489E-03     9.22075E-03
            3796            4110     8.34489E-03     9.22075E-03
            3748            4111     7.17132E-03     6.82541E-03
            3797            4111     7.17132E-03     6.82541E-03
            3798            4111     7.17132E-03     6.82541E-03
            3747            4111     7.17132E-03     6.82541E-03
            3748            4112     6.21714E-03     6.19761E-03
            3798            4112     6.21714E-03     6.19761E-03
            3749            4112     6.21714E-03     6.19761E-03
            3799            4112     6.21714E-03     6.19761E-03
            3799            4113     5.85336E-03     6.19193E-03
            3749            4113     5.85336E-03     6.19193E-03
            3750            4113     5.85336E-03     6.19193E-03
            3800            4113     5.85336E-03     6.19193E-03
            3801            4114     93.5725E-03     91.8757E-03
            3751            4114     93.5725E-03     91.8757E-03
            3752            4114     93.5725E-03     91.8757E-03
            3802            4114     93.5725E-03     91.8757E-03
            3803            4115     91.2042E-03     86.6309E-03
            3802            4115     91.2042E-03     86.6309E-03
            3753            4115     91.2042E-03     86.6309E-03
            3752            4115     91.2042E-03     86.6309E-03
            3803            4116     80.1461E-03     85.8738E-03
            3754            4116     80.1461E-03     85.8738E-03
            3804            4116     80.1461E-03     85.8738E-03
            3753            4116     80.1461E-03     85.8738E-03
            3754            4117     79.5200E-03     79.6024E-03
            3755            4117     79.5200E-03     79.6024E-03
            3804            4117     79.5200E-03     79.6024E-03
            3805            4117     79.5200E-03     79.6024E-03
            3806            4118     76.1826E-03     78.0219E-03
            3805            4118     76.1826E-03     78.0219E-03
            3756            4118     76.1826E-03     78.0219E-03
            3755            4118     76.1826E-03     78.0219E-03
            3756            4119     73.8953E-03     74.4122E-03
            3807            4119     73.8953E-03     74.4122E-03
            3757            4119     73.8953E-03     74.4122E-03
            3806            4119     73.8953E-03     74.4122E-03
            3757            4120     70.0336E-03     74.0035E-03
            3808            4120     70.0336E-03     74.0035E-03
            3807            4120     70.0336E-03     74.0035E-03
            3758            4120     70.0336E-03     74.0035E-03
            3808            4121     73.2448E-03     70.2436E-03
            3809            4121     73.2448E-03     70.2436E-03
            3759            4121     73.2448E-03     70.2436E-03
            3758            4121     73.2448E-03     70.2436E-03
            3759            4122     71.7900E-03     69.8225E-03
            3810            4122     71.7900E-03     69.8225E-03
            3760            4122     71.7900E-03     69.8225E-03
            3809            4122     71.7900E-03     69.8225E-03
            3760            4123     65.9236E-03     79.1362E-03
            3810            4123     65.9236E-03     79.1362E-03
            3811            4123     65.9236E-03     79.1362E-03
            3761            4123     65.9236E-03     79.1362E-03
            3761            4124     75.8060E-03     74.4732E-03
            3812            4124     75.8060E-03     74.4732E-03
            3762            4124     75.8060E-03     74.4732E-03
            3811            4124     75.8060E-03     74.4732E-03
            3813            4125     73.5803E-03     69.8181E-03
            3812            4125     73.5803E-03     69.8181E-03
            3763            4125     73.5803E-03     69.8181E-03
            3762            4125     73.5803E-03     69.8181E-03
            3763            4126     64.0819E-03     68.8275E-03
            3814            4126     64.0819E-03     68.8275E-03
            3813            4126     64.0819E-03     68.8275E-03
            3764            4126     64.0819E-03     68.8275E-03
            3765            4127     63.2748E-03     63.1221E-03
            3815            4127     63.2748E-03     63.1221E-03
            3814            4127     63.2748E-03     63.1221E-03
            3764            4127     63.2748E-03     63.1221E-03
            3766            4128     59.8685E-03     61.3302E-03
            3815            4128     59.8685E-03     61.3302E-03
            3816            4128     59.8685E-03     61.3302E-03
            3765            4128     59.8685E-03     61.3302E-03
            3766            4129     57.2123E-03     58.6078E-03
            3817            4129     57.2123E-03     58.6078E-03
            3767            4129     57.2123E-03     58.6078E-03
            3816            4129     57.2123E-03     58.6078E-03
            3818            4130     55.2278E-03     55.4120E-03
            3768            4130     55.2278E-03     55.4120E-03
            3767            4130     55.2278E-03     55.4120E-03
            3817            4130     55.2278E-03     55.4120E-03
            3818            4131     51.6399E-03     54.5265E-03
            3768            4131     51.6399E-03     54.5265E-03
            3769            4131     51.6399E-03     54.5265E-03
            3819            4131     51.6399E-03     54.5265E-03
            3769            4132     53.2795E-03     51.1573E-03
            3770            4132     53.2795E-03     51.1573E-03
            3820            4132     53.2795E-03     51.1573E-03
            3819            4132     53.2795E-03     51.1573E-03
            3770            4133     51.8306E-03     50.2595E-03
            3820            4133     51.8306E-03     50.2595E-03
            3821            4133     51.8306E-03     50.2595E-03
            3771            4133     51.8306E-03     50.2595E-03
            3822            4134     47.9971E-03     57.5732E-03
            3821            4134     47.9971E-03     57.5732E-03
            3771            4134     47.9971E-03     57.5732E-03
            3772            4134     47.9971E-03     57.5732E-03
            3772            4135     55.5403E-03     54.6676E-03
            3822            4135     55.5403E-03     54.6676E-03
            3823            4135     55.5403E-03     54.6676E-03
            3773            4135     55.5403E-03     54.6676E-03
            3823            4136     53.4137E-03     50.5892E-03
            3824            4136     53.4137E-03     50.5892E-03
            3774            4136     53.4137E-03     50.5892E-03
            3773            4136     53.4137E-03     50.5892E-03
            3824            4137     45.6840E-03     49.2003E-03
            3825            4137     45.6840E-03     49.2003E-03
            3774            4137     45.6840E-03     49.2003E-03
            3775            4137     45.6840E-03     49.2003E-03
            3775            4138     44.4241E-03     44.2620E-03
            3825            4138     44.4241E-03     44.2620E-03
            3776            4138     44.4241E-03     44.2620E-03
            3826            4138     44.4241E-03     44.2620E-03
            3776            4139     41.2431E-03     42.2432E-03
            3827            4139     41.2431E-03     42.2432E-03
            3777            4139     41.2431E-03     42.2432E-03
            3826            4139     41.2431E-03     42.2432E-03
            3777            4140     38.5894E-03     39.5234E-03
            3827            4140     38.5894E-03     39.5234E-03
            3828            4140     38.5894E-03     39.5234E-03
            3778            4140     38.5894E-03     39.5234E-03
            3778            4141     36.3866E-03     36.5597E-03
            3779            4141     36.3866E-03     36.5597E-03
            3828            4141     36.3866E-03     36.5597E-03
            3829            4141     36.3866E-03     36.5597E-03
            3780            4142     33.2607E-03     34.9144E-03
            3830            4142     33.2607E-03     34.9144E-03
            3829            4142     33.2607E-03     34.9144E-03
            3779            4142     33.2607E-03     34.9144E-03
            3780            4143     33.1458E-03     31.9596E-03
            3831            4143     33.1458E-03     31.9596E-03
            3830            4143     33.1458E-03     31.9596E-03
            3781            4143     33.1458E-03     31.9596E-03
            3782            4144     31.6183E-03     30.5085E-03
            3831            4144     31.6183E-03     30.5085E-03
            3832            4144     31.6183E-03     30.5085E-03
            3781            4144     31.6183E-03     30.5085E-03
            3832            4145     29.9770E-03     35.8895E-03
            3782            4145     29.9770E-03     35.8895E-03
            3833            4145     29.9770E-03     35.8895E-03
            3783            4145     29.9770E-03     35.8895E-03
            3834            4146     35.3228E-03     34.9078E-03
            3783            4146     35.3228E-03     34.9078E-03
            3784            4146     35.3228E-03     34.9078E-03
            3833            4146     35.3228E-03     34.9078E-03
            3784            4147     33.2828E-03     31.3961E-03
            3785            4147     33.2828E-03     31.3961E-03
            3835            4147     33.2828E-03     31.3961E-03
            3834            4147     33.2828E-03     31.3961E-03
            3785            4148     27.3222E-03     29.6000E-03
            3835            4148     27.3222E-03     29.6000E-03
            3786            4148     27.3222E-03     29.6000E-03
            3836            4148     27.3222E-03     29.6000E-03
            3837            4149     25.6066E-03     25.4322E-03
            3836            4149     25.6066E-03     25.4322E-03
            3787            4149     25.6066E-03     25.4322E-03
            3786            4149     25.6066E-03     25.4322E-03
            3837            4150     22.6559E-03     23.1884E-03
            3787            4150     22.6559E-03     23.1884E-03
            3838            4150     22.6559E-03     23.1884E-03
            3788            4150     22.6559E-03     23.1884E-03
            3789            4151     20.0141E-03     20.4804E-03
            3788            4151     20.0141E-03     20.4804E-03
            3838            4151     20.0141E-03     20.4804E-03
            3839            4151     20.0141E-03     20.4804E-03
            3840            4152     17.6152E-03     17.7676E-03
            3790            4152     17.6152E-03     17.7676E-03
            3839            4152     17.6152E-03     17.7676E-03
            3789            4152     17.6152E-03     17.7676E-03
            3841            4153     14.9923E-03     15.3925E-03
            3790            4153     14.9923E-03     15.3925E-03
            3840            4153     14.9923E-03     15.3925E-03
            3791            4153     14.9923E-03     15.3925E-03
            3791            4154     13.1952E-03     12.9328E-03
            3842            4154     13.1952E-03     12.9328E-03
            3841            4154     13.1952E-03     12.9328E-03
            3792            4154     13.1952E-03     12.9328E-03
            3792            4155     11.7057E-03     11.0756E-03
            3842            4155     11.7057E-03     11.0756E-03
            3793            4155     11.7057E-03     11.0756E-03
            3843            4155     11.7057E-03     11.0756E-03
            3843            4156     11.7541E-03     13.9824E-03
            3844            4156     11.7541E-03     13.9824E-03
            3794            4156     11.7541E-03     13.9824E-03
            3793            4156     11.7541E-03     13.9824E-03
            3794            4157     14.1065E-03     14.1871E-03
            3844            4157     14.1065E-03     14.1871E-03
            3845            4157     14.1065E-03     14.1871E-03
            3795            4157     14.1065E-03     14.1871E-03
            3796            4158     11.8221E-03     10.8793E-03
            3846            4158     11.8221E-03     10.8793E-03
            3845            4158     11.8221E-03     10.8793E-03
            3795            4158     11.8221E-03     10.8793E-03
            3797            4159     7.51658E-03     8.46130E-03
            3847            4159     7.51658E-03     8.46130E-03
            3846            4159     7.51658E-03     8.46130E-03
            3796            4159     7.51658E-03     8.46130E-03
            3798            4160     5.42919E-03     4.92650E-03
            3847            4160     5.42919E-03     4.92650E-03
            3797            4160     5.42919E-03     4.92650E-03
            3848            4160     5.42919E-03     4.92650E-03
            3798            4161     3.72759E-03     3.41435E-03
            3799            4161     3.72759E-03     3.41435E-03
            3849            4161     3.72759E-03     3.41435E-03
            3848            4161     3.72759E-03     3.41435E-03
            3850            4162     3.70794E-03     4.28742E-03
            3800            4162     3.70794E-03     4.28742E-03
            3799            4162     3.70794E-03     4.28742E-03
            3849            4162     3.70794E-03     4.28742E-03
            4107            4328     17.7848E-03     17.6367E-03
            4108            4328     17.7848E-03     17.6367E-03
            4068            4328     17.7848E-03     17.6367E-03
            4067            4328     17.7848E-03     17.6367E-03
            4108            4329     17.7889E-03     17.7830E-03
            4068            4329     17.7889E-03     17.7830E-03
            4069            4329     17.7889E-03     17.7830E-03
            4109            4329     17.7889E-03     17.7830E-03
            4070            4330     17.9357E-03     17.8331E-03
            4110            4330     17.9357E-03     17.8331E-03
            4069            4330     17.9357E-03     17.8331E-03
            4109            4330     17.9357E-03     17.8331E-03
            4111            4331     17.9154E-03     17.6249E-03
            4071            4331     17.9154E-03     17.6249E-03
            4110            4331     17.9154E-03     17.6249E-03
            4070            4331     17.9154E-03     17.6249E-03
            4072            4332     18.1086E-03     17.9766E-03
            4111            4332     18.1086E-03     17.9766E-03
            4112            4332     18.1086E-03     17.9766E-03
            4071            4332     18.1086E-03     17.9766E-03
            4112            4333     18.6447E-03     18.4350E-03
            4073            4333     18.6447E-03     18.4350E-03
            4072            4333     18.6447E-03     18.4350E-03
            4113            4333     18.6447E-03     18.4350E-03
            4113            4334     18.8177E-03     18.5175E-03
            4114            4334     18.8177E-03     18.5175E-03
            4073            4334     18.8177E-03     18.5175E-03
            4074            4334     18.8177E-03     18.5175E-03
            4074            4335     18.9551E-03     18.7250E-03
            4114            4335     18.9551E-03     18.7250E-03
            4075            4335     18.9551E-03     18.7250E-03
            4115            4335     18.9551E-03     18.7250E-03
            4075            4336     19.0810E-03     18.9082E-03
            4076            4336     19.0810E-03     18.9082E-03
            4115            4336     19.0810E-03     18.9082E-03
            4116            4336     19.0810E-03     18.9082E-03
            4076            4337     19.2150E-03     19.1852E-03
            4077            4337     19.2150E-03     19.1852E-03
            4117            4337     19.2150E-03     19.1852E-03
            4116            4337     19.2150E-03     19.1852E-03
            4118            4338     19.4338E-03     19.4613E-03
            4117            4338     19.4338E-03     19.4613E-03
            4078            4338     19.4338E-03     19.4613E-03
            4077            4338     19.4338E-03     19.4613E-03
            4078            4339     19.6204E-03     19.6308E-03
            4118            4339     19.6204E-03     19.6308E-03
            4079            4339     19.6204E-03     19.6308E-03
            4119            4339     19.6204E-03     19.6308E-03
            4079            4340     19.5678E-03     20.0749E-03
            4080            4340     19.5678E-03     20.0749E-03
            4120            4340     19.5678E-03     20.0749E-03
            4119            4340     19.5678E-03     20.0749E-03
            4080            4341     20.3454E-03     20.1517E-03
            4120            4341     20.3454E-03     20.1517E-03
            4081            4341     20.3454E-03     20.1517E-03
            4121            4341     20.3454E-03     20.1517E-03
            4122            4342     20.2843E-03     19.6098E-03
            4121            4342     20.2843E-03     19.6098E-03
            4082            4342     20.2843E-03     19.6098E-03
            4081            4342     20.2843E-03     19.6098E-03
            4083            4343     19.5970E-03     19.8555E-03
            4123            4343     19.5970E-03     19.8555E-03
            4082            4343     19.5970E-03     19.8555E-03
            4122            4343     19.5970E-03     19.8555E-03
            4084            4344     20.2061E-03     19.9968E-03
            4123            4344     20.2061E-03     19.9968E-03
            4124            4344     20.2061E-03     19.9968E-03
            4083            4344     20.2061E-03     19.9968E-03
            4084            4345     20.7610E-03     20.0635E-03
            4125            4345     20.7610E-03     20.0635E-03
            4124            4345     20.7610E-03     20.0635E-03
            4085            4345     20.7610E-03     20.0635E-03
            4085            4346     21.0879E-03     20.6900E-03
            4126            4346     21.0879E-03     20.6900E-03
            4125            4346     21.0879E-03     20.6900E-03
            4086            4346     21.0879E-03     20.6900E-03
            4126            4347     21.4575E-03     21.1131E-03
            4086            4347     21.4575E-03     21.1131E-03
            4127            4347     21.4575E-03     21.1131E-03
            4087            4347     21.4575E-03     21.1131E-03
            4087            4348     21.8209E-03     21.5984E-03
            4127            4348     21.8209E-03     21.5984E-03
            4088            4348     21.8209E-03     21.5984E-03
            4128            4348     21.8209E-03     21.5984E-03
            4088            4349     22.0943E-03     22.1671E-03
            4129            4349     22.0943E-03     22.1671E-03
            4089            4349     22.0943E-03     22.1671E-03
            4128            4349     22.0943E-03     22.1671E-03
            4129            4350     22.4744E-03     22.5998E-03
            4089            4350     22.4744E-03     22.5998E-03
            4130            4350     22.4744E-03     22.5998E-03
            4090            4350     22.4744E-03     22.5998E-03
            4130            4351     22.7133E-03     22.8229E-03
            4090            4351     22.7133E-03     22.8229E-03
            4091            4351     22.7133E-03     22.8229E-03
            4131            4351     22.7133E-03     22.8229E-03
            4132            4352     22.4824E-03     23.5377E-03
            4092            4352     22.4824E-03     23.5377E-03
            4131            4352     22.4824E-03     23.5377E-03
            4091            4352     22.4824E-03     23.5377E-03
            4133            4353     23.8105E-03     23.4238E-03
            4093            4353     23.8105E-03     23.4238E-03
            4132            4353     23.8105E-03     23.4238E-03
            4092            4353     23.8105E-03     23.4238E-03
            4133            4354     23.5000E-03     22.4514E-03
            4134            4354     23.5000E-03     22.4514E-03
            4093            4354     23.5000E-03     22.4514E-03
            4094            4354     23.5000E-03     22.4514E-03
            4094            4355     22.0162E-03     23.0352E-03
            4095            4355     22.0162E-03     23.0352E-03
            4134            4355     22.0162E-03     23.0352E-03
            4135            4355     22.0162E-03     23.0352E-03
            4136            4356     23.4050E-03     23.1070E-03
            4095            4356     23.4050E-03     23.1070E-03
            4096            4356     23.4050E-03     23.1070E-03
            4135            4356     23.4050E-03     23.1070E-03
            4097            4357     24.3976E-03     23.3002E-03
            4096            4357     24.3976E-03     23.3002E-03
            4137            4357     24.3976E-03     23.3002E-03
            4136            4357     24.3976E-03     23.3002E-03
            4137            4358     24.7282E-03     24.4690E-03
            4098            4358     24.7282E-03     24.4690E-03
            4138            4358     24.7282E-03     24.4690E-03
            4097            4358     24.7282E-03     24.4690E-03
            4139            4359     25.2917E-03     24.9559E-03
            4138            4359     25.2917E-03     24.9559E-03
            4098            4359     25.2917E-03     24.9559E-03
            4099            4359     25.2917E-03     24.9559E-03
            4099            4360     25.6845E-03     25.7203E-03
            4140            4360     25.6845E-03     25.7203E-03
            4100            4360     25.6845E-03     25.7203E-03
            4139            4360     25.6845E-03     25.7203E-03
            4140            4361     26.1052E-03     26.3320E-03
            4141            4361     26.1052E-03     26.3320E-03
            4101            4361     26.1052E-03     26.3320E-03
            4100            4361     26.1052E-03     26.3320E-03
            4142            4362     26.3063E-03     26.5011E-03
            4101            4362     26.3063E-03     26.5011E-03
            4141            4362     26.3063E-03     26.5011E-03
            4102            4362     26.3063E-03     26.5011E-03
            4142            4363     25.8294E-03     27.3622E-03
            4103            4363     25.8294E-03     27.3622E-03
            4143            4363     25.8294E-03     27.3622E-03
            4102            4363     25.8294E-03     27.3622E-03
            4144            4364     27.5017E-03     26.9547E-03
            4104            4364     27.5017E-03     26.9547E-03
            4103            4364     27.5017E-03     26.9547E-03
            4143            4364     27.5017E-03     26.9547E-03
            4104            4365     26.8518E-03     25.5324E-03
            4144            4365     26.8518E-03     25.5324E-03
            4105            4365     26.8518E-03     25.5324E-03
            4145            4365     26.8518E-03     25.5324E-03
            4106            4366     22.9402E-03     23.6633E-03
            4105            4366     22.9402E-03     23.6633E-03
            4145            4366     22.9402E-03     23.6633E-03
            4146            4366     22.9402E-03     23.6633E-03
            4147            4367     16.4431E-03     16.2923E-03
            4148            4367     16.4431E-03     16.2923E-03
            4108            4367     16.4431E-03     16.2923E-03
            4107            4367     16.4431E-03     16.2923E-03
            4148            4368     16.5208E-03     16.5298E-03
            4108            4368     16.5208E-03     16.5298E-03
            4149            4368     16.5208E-03     16.5298E-03
            4109            4368     16.5208E-03     16.5298E-03
            4150            4369     16.8507E-03     16.6510E-03
            4149            4369     16.8507E-03     16.6510E-03
            4110            4369     16.8507E-03     16.6510E-03
            4109            4369     16.8507E-03     16.6510E-03
            4110            4370     16.8421E-03     16.6665E-03
            4111            4370     16.8421E-03     16.6665E-03
            4151            4370     16.8421E-03     16.6665E-03
            4150            4370     16.8421E-03     16.6665E-03
            4112            4371     16.8057E-03     16.8954E-03
            4152            4371     16.8057E-03     16.8954E-03
            4151            4371     16.8057E-03     16.8954E-03
            4111            4371     16.8057E-03     16.8954E-03
            4113            4372     17.3047E-03     17.1822E-03
            4153            4372     17.3047E-03     17.1822E-03
            4112            4372     17.3047E-03     17.1822E-03
            4152            4372     17.3047E-03     17.1822E-03
            4113            4373     17.6980E-03     17.6516E-03
            4153            4373     17.6980E-03     17.6516E-03
            4154            4373     17.6980E-03     17.6516E-03
            4114            4373     17.6980E-03     17.6516E-03
            4154            4374     18.1718E-03     18.2519E-03
            4114            4374     18.1718E-03     18.2519E-03
            4115            4374     18.1718E-03     18.2519E-03
            4155            4374     18.1718E-03     18.2519E-03
            4155            4375     18.7737E-03     18.8604E-03
            4156            4375     18.7737E-03     18.8604E-03
            4116            4375     18.7737E-03     18.8604E-03
            4115            4375     18.7737E-03     18.8604E-03
            4117            4376     19.3857E-03     19.5577E-03
            4157            4376     19.3857E-03     19.5577E-03
            4156            4376     19.3857E-03     19.5577E-03
            4116            4376     19.3857E-03     19.5577E-03
            4157            4377     20.2269E-03     20.1747E-03
            4158            4377     20.2269E-03     20.1747E-03
            4118            4377     20.2269E-03     20.1747E-03
            4117            4377     20.2269E-03     20.1747E-03
            4118            4378     20.9688E-03     20.7080E-03
            4158            4378     20.9688E-03     20.7080E-03
            4119            4378     20.9688E-03     20.7080E-03
            4159            4378     20.9688E-03     20.7080E-03
            4119            4379     21.3472E-03     21.9470E-03
            4159            4379     21.3472E-03     21.9470E-03
            4120            4379     21.3472E-03     21.9470E-03
            4160            4379     21.3472E-03     21.9470E-03
            4121            4380     23.2383E-03     22.1192E-03
            4120            4380     23.2383E-03     22.1192E-03
            4161            4380     23.2383E-03     22.1192E-03
            4160            4380     23.2383E-03     22.1192E-03
            4122            4381     22.9775E-03     22.1402E-03
            4161            4381     22.9775E-03     22.1402E-03
            4162            4381     22.9775E-03     22.1402E-03
            4121            4381     22.9775E-03     22.1402E-03
            4162            4382     21.0031E-03     22.5295E-03
            4122            4382     21.0031E-03     22.5295E-03
            4123            4382     21.0031E-03     22.5295E-03
            4163            4382     21.0031E-03     22.5295E-03
            4163            4383     22.3116E-03     21.9653E-03
            4164            4383     22.3116E-03     21.9653E-03
            4123            4383     22.3116E-03     21.9653E-03
            4124            4383     22.3116E-03     21.9653E-03
            4164            4384     23.5645E-03     23.0574E-03
            4165            4384     23.5645E-03     23.0574E-03
            4124            4384     23.5645E-03     23.0574E-03
            4125            4384     23.5645E-03     23.0574E-03
            4125            4385     24.0887E-03     24.6036E-03
            4165            4385     24.0887E-03     24.6036E-03
            4166            4385     24.0887E-03     24.6036E-03
            4126            4385     24.0887E-03     24.6036E-03
            4167            4386     25.3230E-03     25.3923E-03
            4127            4386     25.3230E-03     25.3923E-03
            4166            4386     25.3230E-03     25.3923E-03
            4126            4386     25.3230E-03     25.3923E-03
            4127            4387     26.4341E-03     26.3932E-03
            4128            4387     26.4341E-03     26.3932E-03
            4167            4387     26.4341E-03     26.3932E-03
            4168            4387     26.4341E-03     26.3932E-03
            4169            4388     27.3583E-03     27.4596E-03
            4128            4388     27.3583E-03     27.4596E-03
            4129            4388     27.3583E-03     27.4596E-03
            4168            4388     27.3583E-03     27.4596E-03
            4170            4389     28.6632E-03     28.2930E-03
            4169            4389     28.6632E-03     28.2930E-03
            4130            4389     28.6632E-03     28.2930E-03
            4129            4389     28.6632E-03     28.2930E-03
            4131            4390     29.6281E-03     29.0295E-03
            4171            4390     29.6281E-03     29.0295E-03
            4170            4390     29.6281E-03     29.0295E-03
            4130            4390     29.6281E-03     29.0295E-03
            4131            4391     29.8185E-03     31.0367E-03
            4132            4391     29.8185E-03     31.0367E-03
            4171            4391     29.8185E-03     31.0367E-03
            4172            4391     29.8185E-03     31.0367E-03
            4132            4392     32.8233E-03     30.7409E-03
            4172            4392     32.8233E-03     30.7409E-03
            4173            4392     32.8233E-03     30.7409E-03
            4133            4392     32.8233E-03     30.7409E-03
            4174            4393     31.8621E-03     30.4482E-03
            4133            4393     31.8621E-03     30.4482E-03
            4173            4393     31.8621E-03     30.4482E-03
            4134            4393     31.8621E-03     30.4482E-03
            4135            4394     27.9234E-03     31.4154E-03
            4175            4394     27.9234E-03     31.4154E-03
            4174            4394     27.9234E-03     31.4154E-03
            4134            4394     27.9234E-03     31.4154E-03
            4175            4395     30.9423E-03     30.1337E-03
            4135            4395     30.9423E-03     30.1337E-03
            4136            4395     30.9423E-03     30.1337E-03
            4176            4395     30.9423E-03     30.1337E-03
            4137            4396     33.1706E-03     31.8576E-03
            4177            4396     33.1706E-03     31.8576E-03
            4136            4396     33.1706E-03     31.8576E-03
            4176            4396     33.1706E-03     31.8576E-03
            4137            4397     33.2556E-03     34.3229E-03
            4177            4397     33.2556E-03     34.3229E-03
            4178            4397     33.2556E-03     34.3229E-03
            4138            4397     33.2556E-03     34.3229E-03
            4179            4398     35.0411E-03     34.9104E-03
            4178            4398     35.0411E-03     34.9104E-03
            4138            4398     35.0411E-03     34.9104E-03
            4139            4398     35.0411E-03     34.9104E-03
            4180            4399     36.2228E-03     36.3410E-03
            4139            4399     36.2228E-03     36.3410E-03
            4140            4399     36.2228E-03     36.3410E-03
            4179            4399     36.2228E-03     36.3410E-03
            4181            4400     37.6017E-03     37.3869E-03
            4180            4400     37.6017E-03     37.3869E-03
            4140            4400     37.6017E-03     37.3869E-03
            4141            4400     37.6017E-03     37.3869E-03
            4182            4401     38.6706E-03     38.0331E-03
            4181            4401     38.6706E-03     38.0331E-03
            4141            4401     38.6706E-03     38.0331E-03
            4142            4401     38.6706E-03     38.0331E-03
            4183            4402     38.5570E-03     40.4536E-03
            4142            4402     38.5570E-03     40.4536E-03
            4143            4402     38.5570E-03     40.4536E-03
            4182            4402     38.5570E-03     40.4536E-03
            4184            4403     42.2847E-03     39.5215E-03
            4183            4403     42.2847E-03     39.5215E-03
            4143            4403     42.2847E-03     39.5215E-03
            4144            4403     42.2847E-03     39.5215E-03
            4185            4404     40.5866E-03     38.7191E-03
            4184            4404     40.5866E-03     38.7191E-03
            4144            4404     40.5866E-03     38.7191E-03
            4145            4404     40.5866E-03     38.7191E-03
            4186            4405     35.4354E-03     38.5510E-03
            4185            4405     35.4354E-03     38.5510E-03
            4145            4405     35.4354E-03     38.5510E-03
            4146            4405     35.4354E-03     38.5510E-03
            4188            4406     14.2568E-03     14.1714E-03
            4147            4406     14.2568E-03     14.1714E-03
            4148            4406     14.2568E-03     14.1714E-03
            4187            4406     14.2568E-03     14.1714E-03
            4149            4407     14.3420E-03     14.5415E-03
            4188            4407     14.3420E-03     14.5415E-03
            4148            4407     14.3420E-03     14.5415E-03
            4189            4407     14.3420E-03     14.5415E-03
            4149            4408     15.1283E-03     14.7573E-03
            4189            4408     15.1283E-03     14.7573E-03
            4190            4408     15.1283E-03     14.7573E-03
            4150            4408     15.1283E-03     14.7573E-03
            4191            4409     15.3397E-03     15.1781E-03
            4150            4409     15.3397E-03     15.1781E-03
            4151            4409     15.3397E-03     15.1781E-03
            4190            4409     15.3397E-03     15.1781E-03
            4192            4410     14.9918E-03     15.4534E-03
            4191            4410     14.9918E-03     15.4534E-03
            4151            4410     14.9918E-03     15.4534E-03
            4152            4410     14.9918E-03     15.4534E-03
            4193            4411     15.5255E-03     15.6629E-03
            4192            4411     15.5255E-03     15.6629E-03
            4152            4411     15.5255E-03     15.6629E-03
            4153            4411     15.5255E-03     15.6629E-03
            4194            4412     16.2497E-03     16.6744E-03
            4153            4412     16.2497E-03     16.6744E-03
            4154            4412     16.2497E-03     16.6744E-03
            4193            4412     16.2497E-03     16.6744E-03
            4195            4413     17.2318E-03     17.7099E-03
            4194            4413     17.2318E-03     17.7099E-03
            4154            4413     17.2318E-03     17.7099E-03
            4155            4413     17.2318E-03     17.7099E-03
            4196            4414     18.4089E-03     18.6113E-03
            4156            4414     18.4089E-03     18.6113E-03
            4155            4414     18.4089E-03     18.6113E-03
            4195            4414     18.4089E-03     18.6113E-03
            4197            4415     19.5605E-03     19.7380E-03
            4156            4415     19.5605E-03     19.7380E-03
            4196            4415     19.5605E-03     19.7380E-03
            4157            4415     19.5605E-03     19.7380E-03
            4198            4416     21.0261E-03     20.8148E-03
            4157            4416     21.0261E-03     20.8148E-03
            4158            4416     21.0261E-03     20.8148E-03
            4197            4416     21.0261E-03     20.8148E-03
            4198            4417     22.3726E-03     21.8868E-03
            4158            4417     22.3726E-03     21.8868E-03
            4159            4417     22.3726E-03     21.8868E-03
            4199            4417     22.3726E-03     21.8868E-03
            4160            4418     23.3106E-03     24.1683E-03
            4199            4418     23.3106E-03     24.1683E-03
            4159            4418     23.3106E-03     24.1683E-03
            4200            4418     23.3106E-03     24.1683E-03
            4201            4419     26.8969E-03     24.6300E-03
            4160            4419     26.8969E-03     24.6300E-03
            4161            4419     26.8969E-03     24.6300E-03
            4200            4419     26.8969E-03     24.6300E-03
            4202            4420     26.6665E-03     25.7569E-03
            4201            4420     26.6665E-03     25.7569E-03
            4161            4420     26.6665E-03     25.7569E-03
            4162            4420     26.6665E-03     25.7569E-03
            4203            4421     23.3119E-03     26.9929E-03
            4163            4421     23.3119E-03     26.9929E-03
            4162            4421     23.3119E-03     26.9929E-03
            4202            4421     23.3119E-03     26.9929E-03
            4204            4422     25.9320E-03     25.7065E-03
            4203            4422     25.9320E-03     25.7065E-03
            4163            4422     25.9320E-03     25.7065E-03
            4164            4422     25.9320E-03     25.7065E-03
            4164            4423     27.9202E-03     27.4702E-03
            4204            4423     27.9202E-03     27.4702E-03
            4165            4423     27.9202E-03     27.4702E-03
            4205            4423     27.9202E-03     27.4702E-03
            4205            4424     28.1724E-03     29.5254E-03
            4165            4424     28.1724E-03     29.5254E-03
            4206            4424     28.1724E-03     29.5254E-03
            4166            4424     28.1724E-03     29.5254E-03
            4207            4425     29.9959E-03     30.1162E-03
            4206            4425     29.9959E-03     30.1162E-03
            4166            4425     29.9959E-03     30.1162E-03
            4167            4425     29.9959E-03     30.1162E-03
            4167            4426     31.5044E-03     31.3966E-03
            4208            4426     31.5044E-03     31.3966E-03
            4168            4426     31.5044E-03     31.3966E-03
            4207            4426     31.5044E-03     31.3966E-03
            4208            4427     32.8477E-03     33.0005E-03
            4169            4427     32.8477E-03     33.0005E-03
            4168            4427     32.8477E-03     33.0005E-03
            4209            4427     32.8477E-03     33.0005E-03
            4209            4428     34.9402E-03     34.3495E-03
            4169            4428     34.9402E-03     34.3495E-03
            4210            4428     34.9402E-03     34.3495E-03
            4170            4428     34.9402E-03     34.3495E-03
            4210            4429     36.6937E-03     35.7764E-03
            4211            4429     36.6937E-03     35.7764E-03
            4170            4429     36.6937E-03     35.7764E-03
            4171            4429     36.6937E-03     35.7764E-03
            4211            4430     37.5869E-03     39.3241E-03
            4212            4430     37.5869E-03     39.3241E-03
            4171            4430     37.5869E-03     39.3241E-03
            4172            4430     37.5869E-03     39.3241E-03
            4212            4431     43.0904E-03     39.3117E-03
            4173            4431     43.0904E-03     39.3117E-03
            4213            4431     43.0904E-03     39.3117E-03
            4172            4431     43.0904E-03     39.3117E-03
            4213            4432     41.8836E-03     40.3965E-03
            4173            4432     41.8836E-03     40.3965E-03
            4214            4432     41.8836E-03     40.3965E-03
            4174            4432     41.8836E-03     40.3965E-03
            4175            4433     35.5003E-03     42.6714E-03
            4215            4433     35.5003E-03     42.6714E-03
            4214            4433     35.5003E-03     42.6714E-03
            4174            4433     35.5003E-03     42.6714E-03
            4216            4434     40.7380E-03     39.9095E-03
            4176            4434     40.7380E-03     39.9095E-03
            4215            4434     40.7380E-03     39.9095E-03
            4175            4434     40.7380E-03     39.9095E-03
            4217            4435     43.9402E-03     42.1569E-03
            4177            4435     43.9402E-03     42.1569E-03
            4216            4435     43.9402E-03     42.1569E-03
            4176            4435     43.9402E-03     42.1569E-03
            4177            4436     42.9548E-03     45.0328E-03
            4218            4436     42.9548E-03     45.0328E-03
            4217            4436     42.9548E-03     45.0328E-03
            4178            4436     42.9548E-03     45.0328E-03
            4179            4437     45.2303E-03     44.8761E-03
            4219            4437     45.2303E-03     44.8761E-03
            4178            4437     45.2303E-03     44.8761E-03
            4218            4437     45.2303E-03     44.8761E-03
            4219            4438     46.6768E-03     46.6153E-03
            4220            4438     46.6768E-03     46.6153E-03
            4180            4438     46.6768E-03     46.6153E-03
            4179            4438     46.6768E-03     46.6153E-03
            4181            4439     48.6414E-03     48.0717E-03
            4220            4439     48.6414E-03     48.0717E-03
            4180            4439     48.6414E-03     48.0717E-03
            4221            4439     48.6414E-03     48.0717E-03
            4222            4440     50.5686E-03     49.3030E-03
            4182            4440     50.5686E-03     49.3030E-03
            4181            4440     50.5686E-03     49.3030E-03
            4221            4440     50.5686E-03     49.3030E-03
            4182            4441     51.2202E-03     53.6632E-03
            4223            4441     51.2202E-03     53.6632E-03
            4222            4441     51.2202E-03     53.6632E-03
            4183            4441     51.2202E-03     53.6632E-03
            4224            4442     58.0658E-03     53.0542E-03
            4184            4442     58.0658E-03     53.0542E-03
            4183            4442     58.0658E-03     53.0542E-03
            4223            4442     58.0658E-03     53.0542E-03
            4184            4443     55.9170E-03     53.8707E-03
            4225            4443     55.9170E-03     53.8707E-03
            4185            4443     55.9170E-03     53.8707E-03
            4224            4443     55.9170E-03     53.8707E-03
            4186            4444     48.5097E-03     54.5775E-03
            4226            4444     48.5097E-03     54.5775E-03
            4185            4444     48.5097E-03     54.5775E-03
            4225            4444     48.5097E-03     54.5775E-03
            4227            4445     11.1947E-03     11.2966E-03
            4228            4445     11.1947E-03     11.2966E-03
            4188            4445     11.1947E-03     11.2966E-03
            4187            4445     11.1947E-03     11.2966E-03
            4228            4446     11.4695E-03     12.0900E-03
            4229            4446     11.4695E-03     12.0900E-03
            4189            4446     11.4695E-03     12.0900E-03
            4188            4446     11.4695E-03     12.0900E-03
            4229            4447     12.9030E-03     12.2315E-03
            4190            4447     12.9030E-03     12.2315E-03
            4230            4447     12.9030E-03     12.2315E-03
            4189            4447     12.9030E-03     12.2315E-03
            4190            4448     13.2610E-03     13.1056E-03
            4231            4448     13.2610E-03     13.1056E-03
            4191            4448     13.2610E-03     13.1056E-03
            4230            4448     13.2610E-03     13.1056E-03
            4192            4449     12.8013E-03     14.1080E-03
            4231            4449     12.8013E-03     14.1080E-03
            4232            4449     12.8013E-03     14.1080E-03
            4191            4449     12.8013E-03     14.1080E-03
            4233            4450     13.9399E-03     14.3867E-03
            4192            4450     13.9399E-03     14.3867E-03
            4193            4450     13.9399E-03     14.3867E-03
            4232            4450     13.9399E-03     14.3867E-03
            4193            4451     15.0260E-03     15.6354E-03
            4194            4451     15.0260E-03     15.6354E-03
            4234            4451     15.0260E-03     15.6354E-03
            4233            4451     15.0260E-03     15.6354E-03
            4234            4452     16.1936E-03     16.7764E-03
            4194            4452     16.1936E-03     16.7764E-03
            4195            4452     16.1936E-03     16.7764E-03
            4235            4452     16.1936E-03     16.7764E-03
            4236            4453     17.8488E-03     17.8997E-03
            4196            4453     17.8488E-03     17.8997E-03
            4235            4453     17.8488E-03     17.8997E-03
            4195            4453     17.8488E-03     17.8997E-03
            4237            4454     19.4015E-03     19.7329E-03
            4197            4454     19.4015E-03     19.7329E-03
            4236            4454     19.4015E-03     19.7329E-03
            4196            4454     19.4015E-03     19.7329E-03
            4198            4455     21.5745E-03     21.5177E-03
            4197            4455     21.5745E-03     21.5177E-03
            4237            4455     21.5745E-03     21.5177E-03
            4238            4455     21.5745E-03     21.5177E-03
            4238            4456     23.5700E-03     23.3421E-03
            4239            4456     23.5700E-03     23.3421E-03
            4199            4456     23.5700E-03     23.3421E-03
            4198            4456     23.5700E-03     23.3421E-03
            4240            4457     24.9839E-03     26.8789E-03
            4199            4457     24.9839E-03     26.8789E-03
            4239            4457     24.9839E-03     26.8789E-03
            4200            4457     24.9839E-03     26.8789E-03
            4200            4458     30.3446E-03     27.3228E-03
            4241            4458     30.3446E-03     27.3228E-03
            4240            4458     30.3446E-03     27.3228E-03
            4201            4458     30.3446E-03     27.3228E-03
            4202            4459     30.3560E-03     29.7438E-03
            4201            4459     30.3560E-03     29.7438E-03
            4242            4459     30.3560E-03     29.7438E-03
            4241            4459     30.3560E-03     29.7438E-03
            4203            4460     26.0722E-03     32.8861E-03
            4202            4460     26.0722E-03     32.8861E-03
            4243            4460     26.0722E-03     32.8861E-03
            4242            4460     26.0722E-03     32.8861E-03
            4243            4461     30.3191E-03     30.4469E-03
            4204            4461     30.3191E-03     30.4469E-03
            4244            4461     30.3191E-03     30.4469E-03
            4203            4461     30.3191E-03     30.4469E-03
            4245            4462     32.5946E-03     31.6689E-03
            4205            4462     32.5946E-03     31.6689E-03
            4204            4462     32.5946E-03     31.6689E-03
            4244            4462     32.5946E-03     31.6689E-03
            4205            4463     31.8097E-03     33.7311E-03
            4206            4463     31.8097E-03     33.7311E-03
            4245            4463     31.8097E-03     33.7311E-03
            4246            4463     31.8097E-03     33.7311E-03
            4206            4464     33.9188E-03     34.1371E-03
            4207            4464     33.9188E-03     34.1371E-03
            4246            4464     33.9188E-03     34.1371E-03
            4247            4464     33.9188E-03     34.1371E-03
            4248            4465     35.6773E-03     35.9793E-03
            4208            4465     35.6773E-03     35.9793E-03
            4247            4465     35.6773E-03     35.9793E-03
            4207            4465     35.6773E-03     35.9793E-03
            4209            4466     37.2890E-03     38.3159E-03
            4208            4466     37.2890E-03     38.3159E-03
            4249            4466     37.2890E-03     38.3159E-03
            4248            4466     37.2890E-03     38.3159E-03
            4209            4467     40.1744E-03     40.3047E-03
            4210            4467     40.1744E-03     40.3047E-03
            4249            4467     40.1744E-03     40.3047E-03
            4250            4467     40.1744E-03     40.3047E-03
            4210            4468     42.5597E-03     42.3817E-03
            4211            4468     42.5597E-03     42.3817E-03
            4250            4468     42.5597E-03     42.3817E-03
            4251            4468     42.5597E-03     42.3817E-03
            4252            4469     43.9436E-03     47.3619E-03
            4211            4469     43.9436E-03     47.3619E-03
            4212            4469     43.9436E-03     47.3619E-03
            4251            4469     43.9436E-03     47.3619E-03
            4212            4470     52.0697E-03     47.1746E-03
            4213            4470     52.0697E-03     47.1746E-03
            4253            4470     52.0697E-03     47.1746E-03
            4252            4470     52.0697E-03     47.1746E-03
            4214            4471     51.1597E-03     50.1622E-03
            4213            4471     51.1597E-03     50.1622E-03
            4253            4471     51.1597E-03     50.1622E-03
            4254            4471     51.1597E-03     50.1622E-03
            4255            4472     42.9983E-03     55.3101E-03
            4214            4472     42.9983E-03     55.3101E-03
            4215            4472     42.9983E-03     55.3101E-03
            4254            4472     42.9983E-03     55.3101E-03
            4255            4473     50.5873E-03     50.2427E-03
            4256            4473     50.5873E-03     50.2427E-03
            4216            4473     50.5873E-03     50.2427E-03
            4215            4473     50.5873E-03     50.2427E-03
            4256            4474     53.8817E-03     51.1779E-03
            4216            4474     53.8817E-03     51.1779E-03
            4257            4474     53.8817E-03     51.1779E-03
            4217            4474     53.8817E-03     51.1779E-03
            4257            4475     50.8525E-03     54.0390E-03
            4258            4475     50.8525E-03     54.0390E-03
            4217            4475     50.8525E-03     54.0390E-03
            4218            4475     50.8525E-03     54.0390E-03
            4219            4476     53.3088E-03     53.2046E-03
            4258            4476     53.3088E-03     53.2046E-03
            4218            4476     53.3088E-03     53.2046E-03
            4259            4476     53.3088E-03     53.2046E-03
            4219            4477     54.7603E-03     55.6837E-03
            4259            4477     54.7603E-03     55.6837E-03
            4220            4477     54.7603E-03     55.6837E-03
            4260            4477     54.7603E-03     55.6837E-03
            4260            4478     57.2705E-03     57.7391E-03
            4221            4478     57.2705E-03     57.7391E-03
            4220            4478     57.2705E-03     57.7391E-03
            4261            4478     57.2705E-03     57.7391E-03
            4222            4479     59.9475E-03     59.4916E-03
            4221            4479     59.9475E-03     59.4916E-03
            4261            4479     59.9475E-03     59.4916E-03
            4262            4479     59.9475E-03     59.4916E-03
            4262            4480     61.1171E-03     65.6788E-03
            4222            4480     61.1171E-03     65.6788E-03
            4263            4480     61.1171E-03     65.6788E-03
            4223            4480     61.1171E-03     65.6788E-03
            4263            4481     71.4566E-03     64.9019E-03
            4224            4481     71.4566E-03     64.9019E-03
            4264            4481     71.4566E-03     64.9019E-03
            4223            4481     71.4566E-03     64.9019E-03
            4264            4482     69.7422E-03     68.3435E-03
            4225            4482     69.7422E-03     68.3435E-03
            4224            4482     69.7422E-03     68.3435E-03
            4265            4482     69.7422E-03     68.3435E-03
            4265            4483     60.0592E-03     69.9078E-03
            4225            4483     60.0592E-03     69.9078E-03
            4226            4483     60.0592E-03     69.9078E-03
            4266            4483     60.0592E-03     69.9078E-03
            4227            4484     7.52320E-03     7.72267E-03
            4228            4484     7.52320E-03     7.72267E-03
            4268            4484     7.52320E-03     7.72267E-03
            4267            4484     7.52320E-03     7.72267E-03
            4229            4485     7.94351E-03     8.64400E-03
            4268            4485     7.94351E-03     8.64400E-03
            4269            4485     7.94351E-03     8.64400E-03
            4228            4485     7.94351E-03     8.64400E-03
            4229            4486     10.5010E-03     9.28715E-03
            4270            4486     10.5010E-03     9.28715E-03
            4269            4486     10.5010E-03     9.28715E-03
            4230            4486     10.5010E-03     9.28715E-03
            4271            4487     11.2066E-03     11.4028E-03
            4230            4487     11.2066E-03     11.4028E-03
            4270            4487     11.2066E-03     11.4028E-03
            4231            4487     11.2066E-03     11.4028E-03
            4231            4488     10.8125E-03     13.1131E-03
            4272            4488     10.8125E-03     13.1131E-03
            4271            4488     10.8125E-03     13.1131E-03
            4232            4488     10.8125E-03     13.1131E-03
            4272            4489     12.7912E-03     12.9591E-03
            4233            4489     12.7912E-03     12.9591E-03
            4273            4489     12.7912E-03     12.9591E-03
            4232            4489     12.7912E-03     12.9591E-03
            4234            4490     13.6719E-03     14.0038E-03
            4273            4490     13.6719E-03     14.0038E-03
            4233            4490     13.6719E-03     14.0038E-03
            4274            4490     13.6719E-03     14.0038E-03
            4234            4491     14.8816E-03     15.4794E-03
            4235            4491     14.8816E-03     15.4794E-03
            4275            4491     14.8816E-03     15.4794E-03
            4274            4491     14.8816E-03     15.4794E-03
            4236            4492     17.1487E-03     17.3853E-03
            4276            4492     17.1487E-03     17.3853E-03
            4235            4492     17.1487E-03     17.3853E-03
            4275            4492     17.1487E-03     17.3853E-03
            4276            4493     19.2434E-03     20.1108E-03
            4236            4493     19.2434E-03     20.1108E-03
            4237            4493     19.2434E-03     20.1108E-03
            4277            4493     19.2434E-03     20.1108E-03
            4278            4494     22.1627E-03     22.7394E-03
            4237            4494     22.1627E-03     22.7394E-03
            4277            4494     22.1627E-03     22.7394E-03
            4238            4494     22.1627E-03     22.7394E-03
            4239            4495     25.0035E-03     25.2228E-03
            4279            4495     25.0035E-03     25.2228E-03
            4238            4495     25.0035E-03     25.2228E-03
            4278            4495     25.0035E-03     25.2228E-03
            4280            4496     26.7513E-03     29.9077E-03
            4239            4496     26.7513E-03     29.9077E-03
            4279            4496     26.7513E-03     29.9077E-03
            4240            4496     26.7513E-03     29.9077E-03
            4281            4497     33.6096E-03     30.8617E-03
            4240            4497     33.6096E-03     30.8617E-03
            4280            4497     33.6096E-03     30.8617E-03
            4241            4497     33.6096E-03     30.8617E-03
            4281            4498     33.9118E-03     33.8706E-03
            4242            4498     33.9118E-03     33.8706E-03
            4282            4498     33.9118E-03     33.8706E-03
            4241            4498     33.9118E-03     33.8706E-03
            4282            4499     28.8440E-03     37.6644E-03
            4243            4499     28.8440E-03     37.6644E-03
            4242            4499     28.8440E-03     37.6644E-03
            4283            4499     28.8440E-03     37.6644E-03
            4243            4500     33.8664E-03     33.8810E-03
            4283            4500     33.8664E-03     33.8810E-03
            4244            4500     33.8664E-03     33.8810E-03
            4284            4500     33.8664E-03     33.8810E-03
            4285            4501     35.4373E-03     34.4253E-03
            4284            4501     35.4373E-03     34.4253E-03
            4245            4501     35.4373E-03     34.4253E-03
            4244            4501     35.4373E-03     34.4253E-03
            4286            4502     34.0944E-03     36.7703E-03
            4285            4502     34.0944E-03     36.7703E-03
            4245            4502     34.0944E-03     36.7703E-03
            4246            4502     34.0944E-03     36.7703E-03
            4246            4503     36.8503E-03     37.7495E-03
            4247            4503     36.8503E-03     37.7495E-03
            4286            4503     36.8503E-03     37.7495E-03
            4287            4503     36.8503E-03     37.7495E-03
            4247            4504     39.1152E-03     40.4377E-03
            4248            4504     39.1152E-03     40.4377E-03
            4287            4504     39.1152E-03     40.4377E-03
            4288            4504     39.1152E-03     40.4377E-03
            4249            4505     41.1882E-03     43.3831E-03
            4288            4505     41.1882E-03     43.3831E-03
            4289            4505     41.1882E-03     43.3831E-03
            4248            4505     41.1882E-03     43.3831E-03
            4290            4506     44.6415E-03     46.0764E-03
            4250            4506     44.6415E-03     46.0764E-03
            4289            4506     44.6415E-03     46.0764E-03
            4249            4506     44.6415E-03     46.0764E-03
            4251            4507     47.7358E-03     48.4966E-03
            4250            4507     47.7358E-03     48.4966E-03
            4291            4507     47.7358E-03     48.4966E-03
            4290            4507     47.7358E-03     48.4966E-03
            4251            4508     49.0593E-03     54.5550E-03
            4252            4508     49.0593E-03     54.5550E-03
            4292            4508     49.0593E-03     54.5550E-03
            4291            4508     49.0593E-03     54.5550E-03
            4293            4509     59.0584E-03     54.7399E-03
            4292            4509     59.0584E-03     54.7399E-03
            4252            4509     59.0584E-03     54.7399E-03
            4253            4509     59.0584E-03     54.7399E-03
            4294            4510     58.7465E-03     58.5594E-03
            4254            4510     58.7465E-03     58.5594E-03
            4253            4510     58.7465E-03     58.5594E-03
            4293            4510     58.7465E-03     58.5594E-03
            4294            4511     49.3946E-03     64.9461E-03
            4254            4511     49.3946E-03     64.9461E-03
            4295            4511     49.3946E-03     64.9461E-03
            4255            4511     49.3946E-03     64.9461E-03
            4295            4512     58.1026E-03     57.9552E-03
            4255            4512     58.1026E-03     57.9552E-03
            4256            4512     58.1026E-03     57.9552E-03
            4296            4512     58.1026E-03     57.9552E-03
            4296            4513     60.2978E-03     57.7758E-03
            4257            4513     60.2978E-03     57.7758E-03
            4297            4513     60.2978E-03     57.7758E-03
            4256            4513     60.2978E-03     57.7758E-03
            4257            4514     56.0136E-03     60.9749E-03
            4297            4514     56.0136E-03     60.9749E-03
            4258            4514     56.0136E-03     60.9749E-03
            4298            4514     56.0136E-03     60.9749E-03
            4298            4515     59.5015E-03     60.5290E-03
            4259            4515     59.5015E-03     60.5290E-03
            4299            4515     59.5015E-03     60.5290E-03
            4258            4515     59.5015E-03     60.5290E-03
            4299            4516     61.1494E-03     63.9709E-03
            4259            4516     61.1494E-03     63.9709E-03
            4300            4516     61.1494E-03     63.9709E-03
            4260            4516     61.1494E-03     63.9709E-03
            4301            4517     64.2190E-03     66.7195E-03
            4300            4517     64.2190E-03     66.7195E-03
            4261            4517     64.2190E-03     66.7195E-03
            4260            4517     64.2190E-03     66.7195E-03
            4261            4518     67.7752E-03     68.7519E-03
            4301            4518     67.7752E-03     68.7519E-03
            4262            4518     67.7752E-03     68.7519E-03
            4302            4518     67.7752E-03     68.7519E-03
            4303            4519     68.6288E-03     76.1649E-03
            4263            4519     68.6288E-03     76.1649E-03
            4262            4519     68.6288E-03     76.1649E-03
            4302            4519     68.6288E-03     76.1649E-03
            4263            4520     81.4469E-03     75.7542E-03
            4303            4520     81.4469E-03     75.7542E-03
            4304            4520     81.4469E-03     75.7542E-03
            4264            4520     81.4469E-03     75.7542E-03
            4305            4521     80.7154E-03     80.4346E-03
            4265            4521     80.7154E-03     80.4346E-03
            4264            4521     80.7154E-03     80.4346E-03
            4304            4521     80.7154E-03     80.4346E-03
            4306            4522     69.0981E-03     81.5968E-03
            4266            4522     69.0981E-03     81.5968E-03
            4305            4522     69.0981E-03     81.5968E-03
            4265            4522     69.0981E-03     81.5968E-03
            4268            4523     4.36993E-03     5.10863E-03
            4307            4523     4.36993E-03     5.10863E-03
            4267            4523     4.36993E-03     5.10863E-03
            4308            4523     4.36993E-03     5.10863E-03
            4308            4524     4.90883E-03     5.54076E-03
            4268            4524     4.90883E-03     5.54076E-03
            4269            4524     4.90883E-03     5.54076E-03
            4309            4524     4.90883E-03     5.54076E-03
            4309            4525     9.17392E-03     7.86806E-03
            4269            4525     9.17392E-03     7.86806E-03
            4310            4525     9.17392E-03     7.86806E-03
            4270            4525     9.17392E-03     7.86806E-03
            4310            4526     11.9058E-03     12.2542E-03
            4270            4526     11.9058E-03     12.2542E-03
            4271            4526     11.9058E-03     12.2542E-03
            4311            4526     11.9058E-03     12.2542E-03
            4312            4527     10.1759E-03     12.1071E-03
            4272            4527     10.1759E-03     12.1071E-03
            4271            4527     10.1759E-03     12.1071E-03
            4311            4527     10.1759E-03     12.1071E-03
            4312            4528     10.0297E-03     9.41717E-03
            4272            4528     10.0297E-03     9.41717E-03
            4273            4528     10.0297E-03     9.41717E-03
            4313            4528     10.0297E-03     9.41717E-03
            4314            4529     11.7223E-03     11.5942E-03
            4273            4529     11.7223E-03     11.5942E-03
            4313            4529     11.7223E-03     11.5942E-03
            4274            4529     11.7223E-03     11.5942E-03
            4314            4530     14.2278E-03     14.4131E-03
            4315            4530     14.2278E-03     14.4131E-03
            4275            4530     14.2278E-03     14.4131E-03
            4274            4530     14.2278E-03     14.4131E-03
            4316            4531     17.2801E-03     17.4564E-03
            4315            4531     17.2801E-03     17.4564E-03
            4275            4531     17.2801E-03     17.4564E-03
            4276            4531     17.2801E-03     17.4564E-03
            4277            4532     20.2444E-03     20.7083E-03
            4276            4532     20.2444E-03     20.7083E-03
            4317            4532     20.2444E-03     20.7083E-03
            4316            4532     20.2444E-03     20.7083E-03
            4318            4533     23.4826E-03     23.9934E-03
            4317            4533     23.4826E-03     23.9934E-03
            4278            4533     23.4826E-03     23.9934E-03
            4277            4533     23.4826E-03     23.9934E-03
            4279            4534     27.0005E-03     26.8242E-03
            4278            4534     27.0005E-03     26.8242E-03
            4319            4534     27.0005E-03     26.8242E-03
            4318            4534     27.0005E-03     26.8242E-03
            4320            4535     29.2436E-03     31.7563E-03
            4280            4535     29.2436E-03     31.7563E-03
            4319            4535     29.2436E-03     31.7563E-03
            4279            4535     29.2436E-03     31.7563E-03
            4280            4536     36.1939E-03     33.9688E-03
            4281            4536     36.1939E-03     33.9688E-03
            4320            4536     36.1939E-03     33.9688E-03
            4321            4536     36.1939E-03     33.9688E-03
            4321            4537     38.5439E-03     38.1827E-03
            4282            4537     38.5439E-03     38.1827E-03
            4322            4537     38.5439E-03     38.1827E-03
            4281            4537     38.5439E-03     38.1827E-03
            4282            4538     32.4512E-03     38.9734E-03
            4323            4538     32.4512E-03     38.9734E-03
            4322            4538     32.4512E-03     38.9734E-03
            4283            4538     32.4512E-03     38.9734E-03
            4283            4539     33.9938E-03     32.7307E-03
            4323            4539     33.9938E-03     32.7307E-03
            4284            4539     33.9938E-03     32.7307E-03
            4324            4539     33.9938E-03     32.7307E-03
            4324            4540     35.8378E-03     34.4831E-03
            4325            4540     35.8378E-03     34.4831E-03
            4284            4540     35.8378E-03     34.4831E-03
            4285            4540     35.8378E-03     34.4831E-03
            4325            4541     36.2343E-03     37.9335E-03
            4286            4541     36.2343E-03     37.9335E-03
            4285            4541     36.2343E-03     37.9335E-03
            4326            4541     36.2343E-03     37.9335E-03
            4327            4542     39.7878E-03     40.0889E-03
            4286            4542     39.7878E-03     40.0889E-03
            4287            4542     39.7878E-03     40.0889E-03
            4326            4542     39.7878E-03     40.0889E-03
            4288            4543     42.6423E-03     43.4259E-03
            4328            4543     42.6423E-03     43.4259E-03
            4327            4543     42.6423E-03     43.4259E-03
            4287            4543     42.6423E-03     43.4259E-03
            4288            4544     45.4872E-03     46.6137E-03
            4289            4544     45.4872E-03     46.6137E-03
            4329            4544     45.4872E-03     46.6137E-03
            4328            4544     45.4872E-03     46.6137E-03
            4290            4545     48.8534E-03     49.8593E-03
            4329            4545     48.8534E-03     49.8593E-03
            4289            4545     48.8534E-03     49.8593E-03
            4330            4545     48.8534E-03     49.8593E-03
            4331            4546     52.5309E-03     52.4338E-03
            4291            4546     52.5309E-03     52.4338E-03
            4330            4546     52.5309E-03     52.4338E-03
            4290            4546     52.5309E-03     52.4338E-03
            4331            4547     54.1576E-03     58.3305E-03
            4292            4547     54.1576E-03     58.3305E-03
            4291            4547     54.1576E-03     58.3305E-03
            4332            4547     54.1576E-03     58.3305E-03
            4293            4548     63.4703E-03     59.8966E-03
            4333            4548     63.4703E-03     59.8966E-03
            4292            4548     63.4703E-03     59.8966E-03
            4332            4548     63.4703E-03     59.8966E-03
            4333            4549     65.7817E-03     64.8135E-03
            4293            4549     65.7817E-03     64.8135E-03
            4334            4549     65.7817E-03     64.8135E-03
            4294            4549     65.7817E-03     64.8135E-03
            4334            4550     56.4000E-03     67.9185E-03
            4335            4550     56.4000E-03     67.9185E-03
            4294            4550     56.4000E-03     67.9185E-03
            4295            4550     56.4000E-03     67.9185E-03
            4295            4551     60.7027E-03     58.8517E-03
            4335            4551     60.7027E-03     58.8517E-03
            4336            4551     60.7027E-03     58.8517E-03
            4296            4551     60.7027E-03     58.8517E-03
            4337            4552     62.5991E-03     59.9653E-03
            4297            4552     62.5991E-03     59.9653E-03
            4296            4552     62.5991E-03     59.9653E-03
            4336            4552     62.5991E-03     59.9653E-03
            4297            4553     60.7335E-03     64.0981E-03
            4337            4553     60.7335E-03     64.0981E-03
            4338            4553     60.7335E-03     64.0981E-03
            4298            4553     60.7335E-03     64.0981E-03
            4338            4554     64.9928E-03     65.2671E-03
            4298            4554     64.9928E-03     65.2671E-03
            4339            4554     64.9928E-03     65.2671E-03
            4299            4554     64.9928E-03     65.2671E-03
            4300            4555     67.4937E-03     69.1162E-03
            4339            4555     67.4937E-03     69.1162E-03
            4340            4555     67.4937E-03     69.1162E-03
            4299            4555     67.4937E-03     69.1162E-03
            4301            4556     70.7594E-03     72.4283E-03
            4340            4556     70.7594E-03     72.4283E-03
            4300            4556     70.7594E-03     72.4283E-03
            4341            4556     70.7594E-03     72.4283E-03
            4302            4557     74.8191E-03     74.7218E-03
            4342            4557     74.8191E-03     74.7218E-03
            4301            4557     74.8191E-03     74.7218E-03
            4341            4557     74.8191E-03     74.7218E-03
            4343            4558     75.9643E-03     81.6267E-03
            4342            4558     75.9643E-03     81.6267E-03
            4303            4558     75.9643E-03     81.6267E-03
            4302            4558     75.9643E-03     81.6267E-03
            4304            4559     87.4985E-03     82.7314E-03
            4303            4559     87.4985E-03     82.7314E-03
            4344            4559     87.4985E-03     82.7314E-03
            4343            4559     87.4985E-03     82.7314E-03
            4344            4560     89.9507E-03     88.4495E-03
            4304            4560     89.9507E-03     88.4495E-03
            4345            4560     89.9507E-03     88.4495E-03
            4305            4560     89.9507E-03     88.4495E-03
            4345            4561     78.2371E-03     88.2969E-03
            4305            4561     78.2371E-03     88.2969E-03
            4306            4561     78.2371E-03     88.2969E-03
            4346            4561     78.2371E-03     88.2969E-03
            5283            5395     27.4320E-03     27.8195E-03
            5290            5395     27.4320E-03     27.8195E-03
            5289            5395     27.4320E-03     27.8195E-03
            5284            5395     27.4320E-03     27.8195E-03
            5290            5396     28.4344E-03     27.4152E-03
            5284            5396     28.4344E-03     27.4152E-03
            5291            5396     28.4344E-03     27.4152E-03
            5285            5396     28.4344E-03     27.4152E-03
            5292            5397     27.3171E-03     29.3208E-03
            5291            5397     27.3171E-03     29.3208E-03
            5286            5397     27.3171E-03     29.3208E-03
            5285            5397     27.3171E-03     29.3208E-03
            5287            5398     29.6676E-03     28.5374E-03
            5292            5398     29.6676E-03     28.5374E-03
            5286            5398     29.6676E-03     28.5374E-03
            5293            5398     29.6676E-03     28.5374E-03
            5288            5399     28.8572E-03     27.3850E-03
            5287            5399     28.8572E-03     27.3850E-03
            5293            5399     28.8572E-03     27.3850E-03
            5294            5399     28.8572E-03     27.3850E-03
            5295            5400     41.7194E-03     40.4224E-03
            5290            5400     41.7194E-03     40.4224E-03
            5296            5400     41.7194E-03     40.4224E-03
            5289            5400     41.7194E-03     40.4224E-03
            5296            5401     44.4252E-03     42.0847E-03
            5297            5401     44.4252E-03     42.0847E-03
            5291            5401     44.4252E-03     42.0847E-03
            5290            5401     44.4252E-03     42.0847E-03
            5297            5402     42.0924E-03     46.6057E-03
            5292            5402     42.0924E-03     46.6057E-03
            5291            5402     42.0924E-03     46.6057E-03
            5298            5402     42.0924E-03     46.6057E-03
            5298            5403     46.8932E-03     44.1896E-03
            5293            5403     46.8932E-03     44.1896E-03
            5292            5403     46.8932E-03     44.1896E-03
            5299            5403     46.8932E-03     44.1896E-03
            5293            5404     44.7625E-03     43.3651E-03
            5300            5404     44.7625E-03     43.3651E-03
            5294            5404     44.7625E-03     43.3651E-03
            5299            5404     44.7625E-03     43.3651E-03
            5301            5405     56.3827E-03     54.1864E-03
            5296            5405     56.3827E-03     54.1864E-03
            5295            5405     56.3827E-03     54.1864E-03
            5302            5405     56.3827E-03     54.1864E-03
            5296            5406     60.9365E-03     56.9714E-03
            5297            5406     60.9365E-03     56.9714E-03
            5302            5406     60.9365E-03     56.9714E-03
            5303            5406     60.9365E-03     56.9714E-03
            5298            5407     57.6532E-03     63.4803E-03
            5304            5407     57.6532E-03     63.4803E-03
            5303            5407     57.6532E-03     63.4803E-03
            5297            5407     57.6532E-03     63.4803E-03
            5299            5408     65.2235E-03     59.6253E-03
            5298            5408     65.2235E-03     59.6253E-03
            5305            5408     65.2235E-03     59.6253E-03
            5304            5408     65.2235E-03     59.6253E-03
            5300            5409     61.7728E-03     59.4550E-03
            5305            5409     61.7728E-03     59.4550E-03
            5306            5409     61.7728E-03     59.4550E-03
            5299            5409     61.7728E-03     59.4550E-03
            5301            5410     69.7100E-03     67.4921E-03
            5302            5410     69.7100E-03     67.4921E-03
            5308            5410     69.7100E-03     67.4921E-03
            5307            5410     69.7100E-03     67.4921E-03
            5302            5411     74.8688E-03     68.7993E-03
            5308            5411     74.8688E-03     68.7993E-03
            5303            5411     74.8688E-03     68.7993E-03
            5309            5411     74.8688E-03     68.7993E-03
            5303            5412     69.3776E-03     76.7986E-03
            5310            5412     69.3776E-03     76.7986E-03
            5304            5412     69.3776E-03     76.7986E-03
            5309            5412     69.3776E-03     76.7986E-03
            5304            5413     80.3386E-03     71.3223E-03
            5311            5413     80.3386E-03     71.3223E-03
            5310            5413     80.3386E-03     71.3223E-03
            5305            5413     80.3386E-03     71.3223E-03
            5311            5414     76.7427E-03     74.1270E-03
            5306            5414     76.7427E-03     74.1270E-03
            5305            5414     76.7427E-03     74.1270E-03
            5312            5414     76.7427E-03     74.1270E-03
            5313            5415     80.1016E-03     78.6703E-03
            5314            5415     80.1016E-03     78.6703E-03
            5308            5415     80.1016E-03     78.6703E-03
            5307            5415     80.1016E-03     78.6703E-03
            5308            5416     84.1837E-03     78.1475E-03
            5315            5416     84.1837E-03     78.1475E-03
            5314            5416     84.1837E-03     78.1475E-03
            5309            5416     84.1837E-03     78.1475E-03
            5315            5417     76.2054E-03     87.3481E-03
            5309            5417     76.2054E-03     87.3481E-03
            5310            5417     76.2054E-03     87.3481E-03
            5316            5417     76.2054E-03     87.3481E-03
            5317            5418     90.9210E-03     82.1678E-03
            5316            5418     90.9210E-03     82.1678E-03
            5311            5418     90.9210E-03     82.1678E-03
            5310            5418     90.9210E-03     82.1678E-03
            5312            5419     88.5598E-03     87.5616E-03
            5317            5419     88.5598E-03     87.5616E-03
            5311            5419     88.5598E-03     87.5616E-03
            5318            5419     88.5598E-03     87.5616E-03
            5314            5420     84.9830E-03     82.7247E-03
            5320            5420     84.9830E-03     82.7247E-03
            5313            5420     84.9830E-03     82.7247E-03
            5319            5420     84.9830E-03     82.7247E-03
            5314            5421     88.6157E-03     82.9311E-03
            5315            5421     88.6157E-03     82.9311E-03
            5320            5421     88.6157E-03     82.9311E-03
            5321            5421     88.6157E-03     82.9311E-03
            5316            5422     83.1702E-03     92.3499E-03
            5321            5422     83.1702E-03     92.3499E-03
            5315            5422     83.1702E-03     92.3499E-03
            5322            5422     83.1702E-03     92.3499E-03
            5323            5423     97.5351E-03     90.2204E-03
            5316            5423     97.5351E-03     90.2204E-03
            5322            5423     97.5351E-03     90.2204E-03
            5317            5423     97.5351E-03     90.2204E-03
            5323            5424     99.0649E-03     97.5514E-03
            5317            5424     99.0649E-03     97.5514E-03
            5318            5424     99.0649E-03     97.5514E-03
            5324            5424     99.0649E-03     97.5514E-03
            6568            6525     20.7672E-15     20.7269E-15
            6574            6525     20.7672E-15     20.7269E-15
            6573            6525     20.7672E-15     20.7269E-15
            6567            6525     20.7672E-15     20.7269E-15
            6569            6526     19.6495E-15     19.1810E-15
            6574            6526     19.6495E-15     19.1810E-15
            6575            6526     19.6495E-15     19.1810E-15
            6568            6526     19.6495E-15     19.1810E-15
            6576            6527     13.5872E-15     15.0120E-15
            6575            6527     13.5872E-15     15.0120E-15
            6570            6527     13.5872E-15     15.0120E-15
            6569            6527     13.5872E-15     15.0120E-15
            6571            6528     12.2938E-15     13.2814E-15
            6576            6528     12.2938E-15     13.2814E-15
            6577            6528     12.2938E-15     13.2814E-15
            6570            6528     12.2938E-15     13.2814E-15
            6577            6529     21.2846E-15     21.8978E-15
            6578            6529     21.2846E-15     21.8978E-15
            6572            6529     21.2846E-15     21.8978E-15
            6571            6529     21.2846E-15     21.8978E-15
            6574            6530     28.4309E-15     28.4256E-15
            6579            6530     28.4309E-15     28.4256E-15
            6580            6530     28.4309E-15     28.4256E-15
            6573            6530     28.4309E-15     28.4256E-15
            6574            6531     27.2970E-15     26.4017E-15
            6581            6531     27.2970E-15     26.4017E-15
            6575            6531     27.2970E-15     26.4017E-15
            6580            6531     27.2970E-15     26.4017E-15
            6576            6532     21.7893E-15     19.9658E-15
            6575            6532     21.7893E-15     19.9658E-15
            6582            6532     21.7893E-15     19.9658E-15
            6581            6532     21.7893E-15     19.9658E-15
            6576            6533     15.7540E-15     14.5311E-15
            6577            6533     15.7540E-15     14.5311E-15
            6582            6533     15.7540E-15     14.5311E-15
            6583            6533     15.7540E-15     14.5311E-15
            6578            6534     17.5730E-15     18.9140E-15
            6577            6534     17.5730E-15     18.9140E-15
            6584            6534     17.5730E-15     18.9140E-15
            6583            6534     17.5730E-15     18.9140E-15
            6585            6535     22.0117E-15     21.3644E-15
            6580            6535     22.0117E-15     21.3644E-15
            6586            6535     22.0117E-15     21.3644E-15
            6579            6535     22.0117E-15     21.3644E-15
            6586            6536     19.3796E-15     16.2039E-15
            6580            6536     19.3796E-15     16.2039E-15
            6581            6536     19.3796E-15     16.2039E-15
            6587            6536     19.3796E-15     16.2039E-15
            6588            6537     19.4050E-15     14.3055E-15
            6581            6537     19.4050E-15     14.3055E-15
            6587            6537     19.4050E-15     14.3055E-15
            6582            6537     19.4050E-15     14.3055E-15
            6583            6538     19.9387E-15     18.8340E-15
            6582            6538     19.9387E-15     18.8340E-15
            6588            6538     19.9387E-15     18.8340E-15
            6589            6538     19.9387E-15     18.8340E-15
            6589            6539     17.0100E-15     19.0198E-15
            6590            6539     17.0100E-15     19.0198E-15
            6583            6539     17.0100E-15     19.0198E-15
            6584            6539     17.0100E-15     19.0198E-15
            6591            6540     17.3929E-15     14.8577E-15
            6586            6540     17.3929E-15     14.8577E-15
            6592            6540     17.3929E-15     14.8577E-15
            6585            6540     17.3929E-15     14.8577E-15
            6592            6541     22.7416E-15     21.4627E-15
            6587            6541     22.7416E-15     21.4627E-15
            6586            6541     22.7416E-15     21.4627E-15
            6593            6541     22.7416E-15     21.4627E-15
            6594            6542     24.6965E-15     20.9670E-15
            6588            6542     24.6965E-15     20.9670E-15
            6593            6542     24.6965E-15     20.9670E-15
            6587            6542     24.6965E-15     20.9670E-15
            6589            6543     15.4912E-15     12.7981E-15
            6594            6543     15.4912E-15     12.7981E-15
            6595            6543     15.4912E-15     12.7981E-15
            6588            6543     15.4912E-15     12.7981E-15
            6595            6544     16.3081E-15     16.0049E-15
            6596            6544     16.3081E-15     16.0049E-15
            6589            6544     16.3081E-15     16.0049E-15
            6590            6544     16.3081E-15     16.0049E-15
            6598            6545     16.6254E-15     15.2459E-15
            6597            6545     16.6254E-15     15.2459E-15
            6592            6545     16.6254E-15     15.2459E-15
            6591            6545     16.6254E-15     15.2459E-15
            6593            6546     26.3087E-15     27.8954E-15
            6599            6546     26.3087E-15     27.8954E-15
            6592            6546     26.3087E-15     27.8954E-15
            6598            6546     26.3087E-15     27.8954E-15
            6599            6547     32.3750E-15     30.1183E-15
            6593            6547     32.3750E-15     30.1183E-15
            6594            6547     32.3750E-15     30.1183E-15
            6600            6547     32.3750E-15     30.1183E-15
            6600            6548     14.0190E-15     11.0744E-15
            6594            6548     14.0190E-15     11.0744E-15
            6601            6548     14.0190E-15     11.0744E-15
            6595            6548     14.0190E-15     11.0744E-15
            6595            6549     12.8143E-15     11.4117E-15
            6601            6549     12.8143E-15     11.4117E-15
            6596            6549     12.8143E-15     11.4117E-15
            6602            6549     12.8143E-15     11.4117E-15
            6597            6550     22.2455E-15     21.4446E-15
            6603            6550     22.2455E-15     21.4446E-15
            6598            6550     22.2455E-15     21.4446E-15
            6604            6550     22.2455E-15     21.4446E-15
            6605            6551     20.0890E-15     20.8009E-15
            6599            6551     20.0890E-15     20.8009E-15
            6598            6551     20.0890E-15     20.8009E-15
            6604            6551     20.0890E-15     20.8009E-15
            6600            6552     28.1060E-15     27.1995E-15
            6605            6552     28.1060E-15     27.1995E-15
            6599            6552     28.1060E-15     27.1995E-15
            6606            6552     28.1060E-15     27.1995E-15
            6600            6553     22.1753E-15     22.6115E-15
            6601            6553     22.1753E-15     22.6115E-15
            6607            6553     22.1753E-15     22.6115E-15
            6606            6553     22.1753E-15     22.6115E-15
            6607            6554     14.4899E-15     15.0619E-15
            6602            6554     14.4899E-15     15.0619E-15
            6601            6554     14.4899E-15     15.0619E-15
            6608            6554     14.4899E-15     15.0619E-15


  Minimum                            4.07508E-15     3.84761E-15
      At Element                            1784            1784
            Node                              18              18

  Maximum                            104.305E-03     112.254E-03
      At Element                            5324            5324
            Node                             629              22

           Total                         205.433         208.229


Field Output reported at element nodes for region: A320-1.Region_4
   Computation algorithm: EXTRAPOLATE_COMPUTE_AVERAGE
   Averaged at nodes
   Averaging regions: ODB_REGIONS

   Element Label      Node Label         S.Mises         S.Mises
                                          @Loc 1          @Loc 2
-----------------------------------------------------------------
            5049              13     1.35429E-03     2.55901E-03
            5739              13     1.35429E-03     2.55901E-03
            5829              14     32.5320E-15     31.3032E-15
            2510              16     2.11108E-03     2.55365E-03
             785              16     2.11108E-03     2.55365E-03
            2493              17     1.60021E-03     2.55063E-03
             802              17     1.60021E-03     2.55063E-03
             856              18     34.1802E-15     33.5363E-15
             839              19     27.4912E-15     15.8265E-15
            3392              20     3.72182E-03     5.03602E-03
            2402              20     3.72182E-03     5.03602E-03
            3375              21     83.9939E-03     86.8711E-03
            2385              21     83.9939E-03     86.8711E-03
            5175              22     94.5932E-03     100.497E-03
            2475              22     94.5932E-03     100.497E-03
            5192              23     2.77720E-03     4.30860E-03
            2492              23     2.77720E-03     4.30860E-03
            4364              24     6.45917E-03     8.10552E-03
            5282              24     6.45917E-03     8.10552E-03
            5265              25     78.0159E-03     78.6797E-03
            4347              25     78.0159E-03     78.6797E-03
            5066              26     2.34619E-03     2.71731E-03
            5756              26     2.34619E-03     2.71731E-03
            5846              28     10.9842E-15     13.0017E-15
            5739             194     16.5911E-15     17.7804E-15
            5757             194     16.5911E-15     17.7804E-15
            5775             195     20.9215E-15     21.0889E-15
            5757             195     20.9215E-15     21.0889E-15
            5793             196     19.9907E-15     19.5150E-15
            5775             196     19.9907E-15     19.5150E-15
            5811             197     22.5546E-15     22.3851E-15
            5793             197     22.5546E-15     22.3851E-15
            5829             198     25.4009E-15     24.6219E-15
            5811             198     25.4009E-15     24.6219E-15
            2510             289     2.24384E-03     2.50072E-03
             786             289     2.24384E-03     2.50072E-03
             785             289     2.24384E-03     2.50072E-03
            2509             289     2.24384E-03     2.50072E-03
             786             290     2.40964E-03     2.40018E-03
            2508             290     2.40964E-03     2.40018E-03
             787             290     2.40964E-03     2.40018E-03
            2509             290     2.40964E-03     2.40018E-03
            2508             291     2.47955E-03     2.37648E-03
            2507             291     2.47955E-03     2.37648E-03
             788             291     2.47955E-03     2.37648E-03
             787             291     2.47955E-03     2.37648E-03
             788             292     2.54447E-03     2.40067E-03
             789             292     2.54447E-03     2.40067E-03
            2507             292     2.54447E-03     2.40067E-03
            2506             292     2.54447E-03     2.40067E-03
            2505             293     2.60871E-03     2.42427E-03
             790             293     2.60871E-03     2.42427E-03
             789             293     2.60871E-03     2.42427E-03
            2506             293     2.60871E-03     2.42427E-03
             791             294     2.67943E-03     2.46293E-03
            2505             294     2.67943E-03     2.46293E-03
             790             294     2.67943E-03     2.46293E-03
            2504             294     2.67943E-03     2.46293E-03
             792             295     2.75245E-03     2.50603E-03
             791             295     2.75245E-03     2.50603E-03
            2503             295     2.75245E-03     2.50603E-03
            2504             295     2.75245E-03     2.50603E-03
            2502             296     2.82840E-03     2.55218E-03
            2503             296     2.82840E-03     2.55218E-03
             792             296     2.82840E-03     2.55218E-03
             793             296     2.82840E-03     2.55218E-03
            2501             297     2.90277E-03     2.60076E-03
             793             297     2.90277E-03     2.60076E-03
             794             297     2.90277E-03     2.60076E-03
            2502             297     2.90277E-03     2.60076E-03
             795             298     2.97001E-03     2.63956E-03
            2500             298     2.97001E-03     2.63956E-03
             794             298     2.97001E-03     2.63956E-03
            2501             298     2.97001E-03     2.63956E-03
            2499             299     3.01949E-03     2.66366E-03
             795             299     3.01949E-03     2.66366E-03
             796             299     3.01949E-03     2.66366E-03
            2500             299     3.01949E-03     2.66366E-03
             796             300     3.03615E-03     2.65101E-03
             797             300     3.03615E-03     2.65101E-03
            2499             300     3.03615E-03     2.65101E-03
            2498             300     3.03615E-03     2.65101E-03
             797             301     2.97820E-03     2.56218E-03
             798             301     2.97820E-03     2.56218E-03
            2497             301     2.97820E-03     2.56218E-03
            2498             301     2.97820E-03     2.56218E-03
             798             302     2.82975E-03     2.36769E-03
            2497             302     2.82975E-03     2.36769E-03
            2496             302     2.82975E-03     2.36769E-03
             799             302     2.82975E-03     2.36769E-03
            2496             303     2.44221E-03     1.91979E-03
            2495             303     2.44221E-03     1.91979E-03
             800             303     2.44221E-03     1.91979E-03
             799             303     2.44221E-03     1.91979E-03
            2494             304     1.82880E-03     1.21195E-03
             800             304     1.82880E-03     1.21195E-03
             801             304     1.82880E-03     1.21195E-03
            2495             304     1.82880E-03     1.21195E-03
            2493             305     1.55509E-03     1.68444E-03
             801             305     1.55509E-03     1.68444E-03
             802             305     1.55509E-03     1.68444E-03
            2494             305     1.55509E-03     1.68444E-03
             820             306     17.6854E-15     17.7113E-15
             802             306     17.6854E-15     17.7113E-15
             838             307     18.1933E-15     18.8372E-15
             820             307     18.1933E-15     18.8372E-15
             838             308     23.0129E-15     23.0584E-15
             856             308     23.0129E-15     23.0584E-15
             856             309     30.5053E-15     30.0259E-15
             855             309     30.5053E-15     30.0259E-15
             855             310     24.1073E-15     23.5556E-15
             854             310     24.1073E-15     23.5556E-15
             853             311     17.8095E-15     18.5717E-15
             854             311     17.8095E-15     18.5717E-15
             852             312     13.6905E-15     13.8009E-15
             853             312     13.6905E-15     13.8009E-15
             852             313     12.1071E-15     12.9590E-15
             851             313     12.1071E-15     12.9590E-15
             850             314     16.4715E-15     19.6059E-15
             851             314     16.4715E-15     19.6059E-15
             849             315     22.2475E-15     24.3740E-15
             850             315     22.2475E-15     24.3740E-15
             849             316     21.2062E-15     23.2753E-15
             848             316     21.2062E-15     23.2753E-15
             848             317     18.0473E-15     21.0099E-15
             847             317     18.0473E-15     21.0099E-15
             846             318     24.6601E-15     24.7901E-15
             847             318     24.6601E-15     24.7901E-15
             845             319     29.0699E-15     31.5025E-15
             846             319     29.0699E-15     31.5025E-15
             845             320     12.8287E-15     25.4188E-15
             844             320     12.8287E-15     25.4188E-15
             843             321     8.61789E-15     26.9197E-15
             844             321     8.61789E-15     26.9197E-15
             843             322     25.2869E-15     40.2727E-15
             842             322     25.2869E-15     40.2727E-15
             842             323     23.0446E-15     35.8846E-15
             841             323     23.0446E-15     35.8846E-15
             840             324     12.4367E-15     32.1517E-15
             841             324     12.4367E-15     32.1517E-15
             839             325     20.0746E-15     26.3051E-15
             840             325     20.0746E-15     26.3051E-15
             821             326     27.0843E-15     20.1880E-15
             839             326     27.0843E-15     20.1880E-15
             803             327     20.2022E-15     14.8515E-15
             821             327     20.2022E-15     14.8515E-15
             803             328     32.0773E-15     20.2910E-15
             785             328     32.0773E-15     20.2910E-15
            3374             363     4.60490E-03     6.58089E-03
            3392             363     4.60490E-03     6.58089E-03
            3356             364     2.68806E-03     4.56528E-03
            3374             364     2.68806E-03     4.56528E-03
            3356             365     1.93094E-03     3.29264E-03
            3338             365     1.93094E-03     3.29264E-03
            3320             366     2.83974E-03     4.11044E-03
            3338             366     2.83974E-03     4.11044E-03
            3320             367     4.96402E-03     5.39760E-03
            3302             367     4.96402E-03     5.39760E-03
            3284             368     7.05259E-03     7.56541E-03
            3302             368     7.05259E-03     7.56541E-03
            3266             369     9.19203E-03     9.48784E-03
            3284             369     9.19203E-03     9.48784E-03
            3266             370     11.6684E-03     12.3373E-03
            3248             370     11.6684E-03     12.3373E-03
            3230             371     13.1930E-03     15.7146E-03
            3248             371     13.1930E-03     15.7146E-03
            3212             372     8.62435E-03     10.6631E-03
            3230             372     8.62435E-03     10.6631E-03
            3194             373     2.83912E-03     4.31991E-03
            3212             373     2.83912E-03     4.31991E-03
            3194             374     1.59422E-03     3.13364E-03
            3176             374     1.59422E-03     3.13364E-03
            3176             375     1.58028E-03     2.55392E-03
            3158             375     1.58028E-03     2.55392E-03
            3140             376     2.76784E-03     3.32648E-03
            3158             376     2.76784E-03     3.32648E-03
            3140             377     4.25484E-03     4.56465E-03
            3122             377     4.25484E-03     4.56465E-03
            3122             378     5.80154E-03     5.83867E-03
            3104             378     5.80154E-03     5.83867E-03
            3086             379     7.29375E-03     7.55464E-03
            3104             379     7.29375E-03     7.55464E-03
            3068             380     8.83915E-03     8.94428E-03
            3086             380     8.83915E-03     8.94428E-03
            3068             381     10.6564E-03     11.1298E-03
            3050             381     10.6564E-03     11.1298E-03
            3032             382     11.6694E-03     13.7852E-03
            3050             382     11.6694E-03     13.7852E-03
            3014             383     6.54983E-03     8.21972E-03
            3032             383     6.54983E-03     8.21972E-03
            3014             384     931.248E-06     1.91062E-03
            2996             384     931.248E-06     1.91062E-03
            2978             385     1.15091E-03     1.96039E-03
            2996             385     1.15091E-03     1.96039E-03
            2978             386     2.27337E-03     2.44647E-03
            2960             386     2.27337E-03     2.44647E-03
            2960             387     3.38116E-03     3.33741E-03
            2942             387     3.38116E-03     3.33741E-03
            2924             388     4.42768E-03     4.38192E-03
            2942             388     4.42768E-03     4.38192E-03
            2906             389     5.49782E-03     5.31813E-03
            2924             389     5.49782E-03     5.31813E-03
            2906             390     6.51611E-03     6.53515E-03
            2888             390     6.51611E-03     6.53515E-03
            2870             391     7.55200E-03     7.49576E-03
            2888             391     7.55200E-03     7.49576E-03
            2870             392     8.79641E-03     9.03538E-03
            2852             392     8.79641E-03     9.03538E-03
            2834             393     9.37002E-03     10.9713E-03
            2852             393     9.37002E-03     10.9713E-03
            2816             394     5.36091E-03     6.72547E-03
            2834             394     5.36091E-03     6.72547E-03
            2816             395     1.90632E-03     2.14543E-03
            2798             395     1.90632E-03     2.14543E-03
            2780             396     2.77345E-03     2.59624E-03
            2798             396     2.77345E-03     2.59624E-03
            2762             397     3.42048E-03     3.19624E-03
            2780             397     3.42048E-03     3.19624E-03
            2744             398     4.06781E-03     3.76520E-03
            2762             398     4.06781E-03     3.76520E-03
            2726             399     4.63652E-03     4.36408E-03
            2744             399     4.63652E-03     4.36408E-03
            2726             400     5.21096E-03     4.88771E-03
            2708             400     5.21096E-03     4.88771E-03
            2690             401     5.74856E-03     5.56832E-03
            2708             401     5.74856E-03     5.56832E-03
            2672             402     6.27095E-03     6.07857E-03
            2690             402     6.27095E-03     6.07857E-03
            2654             403     6.94041E-03     6.96168E-03
            2672             403     6.94041E-03     6.96168E-03
            2636             404     7.07268E-03     8.17076E-03
            2654             404     7.07268E-03     8.17076E-03
            2636             405     4.98714E-03     6.13169E-03
            2618             405     4.98714E-03     6.13169E-03
            2618             406     3.49876E-03     3.79971E-03
            2600             406     3.49876E-03     3.79971E-03
            2582             407     4.04468E-03     3.63118E-03
            2600             407     4.04468E-03     3.63118E-03
            2582             408     4.24005E-03     3.79731E-03
            2564             408     4.24005E-03     3.79731E-03
            2546             409     4.44239E-03     3.98652E-03
            2564             409     4.44239E-03     3.98652E-03
            2528             410     4.66894E-03     4.32440E-03
            2546             410     4.66894E-03     4.32440E-03
            2510             411     4.48406E-03     4.96977E-03
            2528             411     4.48406E-03     4.96977E-03
            3357             440     87.9024E-03     88.3088E-03
            3375             440     87.9024E-03     88.3088E-03
            3339             441     86.2086E-03     86.1723E-03
            3357             441     86.2086E-03     86.1723E-03
            3321             442     83.7266E-03     85.2651E-03
            3339             442     83.7266E-03     85.2651E-03
            3303             443     82.0037E-03     82.4729E-03
            3321             443     82.0037E-03     82.4729E-03
            3285             444     79.4990E-03     80.6185E-03
            3303             444     79.4990E-03     80.6185E-03
            3267             445     77.4562E-03     77.8741E-03
            3285             445     77.4562E-03     77.8741E-03
            3249             446     74.6394E-03     75.5988E-03
            3267             446     74.6394E-03     75.5988E-03
            3231             447     71.6676E-03     71.6994E-03
            3249             447     71.6676E-03     71.6994E-03
            3231             448     68.0450E-03     67.0658E-03
            3213             448     68.0450E-03     67.0658E-03
            3195             449     68.1098E-03     70.0609E-03
            3213             449     68.1098E-03     70.0609E-03
            3195             450     70.8798E-03     71.3437E-03
            3177             450     70.8798E-03     71.3437E-03
            3159             451     69.0139E-03     68.9972E-03
            3177             451     69.0139E-03     68.9972E-03
            3141             452     66.5439E-03     67.7515E-03
            3159             452     66.5439E-03     67.7515E-03
            3123             453     64.6766E-03     65.1224E-03
            3141             453     64.6766E-03     65.1224E-03
            3105             454     62.4125E-03     63.1721E-03
            3123             454     62.4125E-03     63.1721E-03
            3087             455     60.3302E-03     60.8448E-03
            3105             455     60.3302E-03     60.8448E-03
            3087             456     57.9539E-03     58.3913E-03
            3069             456     57.9539E-03     58.3913E-03
            3069             457     55.4437E-03     55.9384E-03
            3051             457     55.4437E-03     55.9384E-03
            3051             458     52.4637E-03     52.5262E-03
            3033             458     52.4637E-03     52.5262E-03
            3015             459     49.1215E-03     48.1667E-03
            3033             459     49.1215E-03     48.1667E-03
            2997             460     49.4908E-03     50.9302E-03
            3015             460     49.4908E-03     50.9302E-03
            2979             461     51.8731E-03     52.4180E-03
            2997             461     51.8731E-03     52.4180E-03
            2961             462     49.8115E-03     49.7668E-03
            2979             462     49.8115E-03     49.7668E-03
            2943             463     47.2745E-03     48.1952E-03
            2961             463     47.2745E-03     48.1952E-03
            2943             464     45.3188E-03     45.6113E-03
            2925             464     45.3188E-03     45.6113E-03
            2925             465     43.0482E-03     43.5926E-03
            2907             465     43.0482E-03     43.5926E-03
            2889             466     40.9763E-03     41.2760E-03
            2907             466     40.9763E-03     41.2760E-03
            2889             467     38.6292E-03     38.9113E-03
            2871             467     38.6292E-03     38.9113E-03
            2853             468     36.2289E-03     36.4341E-03
            2871             468     36.2289E-03     36.4341E-03
            2853             469     33.3426E-03     33.3665E-03
            2835             469     33.3426E-03     33.3665E-03
            2817             470     30.2019E-03     29.3413E-03
            2835             470     30.2019E-03     29.3413E-03
            2817             471     30.8901E-03     31.8427E-03
            2799             471     30.8901E-03     31.8427E-03
            2781             472     32.9369E-03     33.5619E-03
            2799             472     32.9369E-03     33.5619E-03
            2763             473     30.7152E-03     30.6290E-03
            2781             473     30.7152E-03     30.6290E-03
            2745             474     28.1376E-03     28.7589E-03
            2763             474     28.1376E-03     28.7589E-03
            2745             475     26.1222E-03     26.2511E-03
            2727             475     26.1222E-03     26.2511E-03
            2709             476     23.8782E-03     24.1955E-03
            2727             476     23.8782E-03     24.1955E-03
            2709             477     21.8541E-03     21.9280E-03
            2691             477     21.8541E-03     21.9280E-03
            2691             478     19.5874E-03     19.6959E-03
            2673             478     19.5874E-03     19.6959E-03
            2655             479     17.3538E-03     17.2515E-03
            2673             479     17.3538E-03     17.2515E-03
            2637             480     14.6699E-03     14.5945E-03
            2655             480     14.6699E-03     14.5945E-03
            2619             481     11.7650E-03     11.1151E-03
            2637             481     11.7650E-03     11.1151E-03
            2601             482     12.2142E-03     12.7805E-03
            2619             482     12.2142E-03     12.7805E-03
            2601             483     13.3121E-03     13.9833E-03
            2583             483     13.3121E-03     13.9833E-03
            2583             484     10.8924E-03     10.6607E-03
            2565             484     10.8924E-03     10.6607E-03
            2565             485     8.22366E-03     8.44778E-03
            2547             485     8.22366E-03     8.44778E-03
            2547             486     6.21825E-03     5.93544E-03
            2529             486     6.21825E-03     5.93544E-03
            2511             487     4.39721E-03     4.07676E-03
            2529             487     4.39721E-03     4.07676E-03
            2493             488     3.41529E-03     4.21817E-03
            2511             488     3.41529E-03     4.21817E-03
            2403             520     81.8169E-03     83.1345E-03
            2385             520     81.8169E-03     83.1345E-03
            2421             521     85.9057E-03     84.9762E-03
            2403             521     85.9057E-03     84.9762E-03
            2421             522     89.1648E-03     90.2983E-03
            2439             522     89.1648E-03     90.2983E-03
            2457             523     92.5839E-03     93.0911E-03
            2439             523     92.5839E-03     93.0911E-03
            2457             524     94.8607E-03     95.5314E-03
            2475             524     94.8607E-03     95.5314E-03
            3375             531     79.3906E-03     81.5988E-03
            2386             531     79.3906E-03     81.5988E-03
            2385             531     79.3906E-03     81.5988E-03
            3376             531     79.3906E-03     81.5988E-03
            3376             532     72.1449E-03     73.4057E-03
            2387             532     72.1449E-03     73.4057E-03
            2386             532     72.1449E-03     73.4057E-03
            3377             532     72.1449E-03     73.4057E-03
            2388             533     66.8033E-03     67.9271E-03
            3377             533     66.8033E-03     67.9271E-03
            2387             533     66.8033E-03     67.9271E-03
            3378             533     66.8033E-03     67.9271E-03
            2388             534     61.8140E-03     63.0260E-03
            3378             534     61.8140E-03     63.0260E-03
            2389             534     61.8140E-03     63.0260E-03
            3379             534     61.8140E-03     63.0260E-03
            2389             535     57.1724E-03     58.4550E-03
            2390             535     57.1724E-03     58.4550E-03
            3379             535     57.1724E-03     58.4550E-03
            3380             535     57.1724E-03     58.4550E-03
            2391             536     52.6245E-03     54.0298E-03
            2390             536     52.6245E-03     54.0298E-03
            3381             536     52.6245E-03     54.0298E-03
            3380             536     52.6245E-03     54.0298E-03
            3382             537     48.1880E-03     49.6643E-03
            2391             537     48.1880E-03     49.6643E-03
            2392             537     48.1880E-03     49.6643E-03
            3381             537     48.1880E-03     49.6643E-03
            3383             538     43.7717E-03     45.3239E-03
            2393             538     43.7717E-03     45.3239E-03
            2392             538     43.7717E-03     45.3239E-03
            3382             538     43.7717E-03     45.3239E-03
            2394             539     39.3910E-03     40.9818E-03
            2393             539     39.3910E-03     40.9818E-03
            3383             539     39.3910E-03     40.9818E-03
            3384             539     39.3910E-03     40.9818E-03
            3384             540     35.0109E-03     36.6332E-03
            2394             540     35.0109E-03     36.6332E-03
            3385             540     35.0109E-03     36.6332E-03
            2395             540     35.0109E-03     36.6332E-03
            3385             541     30.6447E-03     32.2725E-03
            3386             541     30.6447E-03     32.2725E-03
            2396             541     30.6447E-03     32.2725E-03
            2395             541     30.6447E-03     32.2725E-03
            3387             542     26.2863E-03     27.9022E-03
            2396             542     26.2863E-03     27.9022E-03
            3386             542     26.2863E-03     27.9022E-03
            2397             542     26.2863E-03     27.9022E-03
            2398             543     21.9508E-03     23.5252E-03
            3387             543     21.9508E-03     23.5252E-03
            3388             543     21.9508E-03     23.5252E-03
            2397             543     21.9508E-03     23.5252E-03
            3388             544     17.6586E-03     19.1532E-03
            2398             544     17.6586E-03     19.1532E-03
            3389             544     17.6586E-03     19.1532E-03
            2399             544     17.6586E-03     19.1532E-03
            3389             545     13.4477E-03     14.8044E-03
            3390             545     13.4477E-03     14.8044E-03
            2400             545     13.4477E-03     14.8044E-03
            2399             545     13.4477E-03     14.8044E-03
            3391             546     9.40077E-03     10.5696E-03
            3390             546     9.40077E-03     10.5696E-03
            2401             546     9.40077E-03     10.5696E-03
            2400             546     9.40077E-03     10.5696E-03
            2401             547     5.58095E-03     6.76793E-03
            3392             547     5.58095E-03     6.76793E-03
            2402             547     5.58095E-03     6.76793E-03
            3391             547     5.58095E-03     6.76793E-03
            2420             548     5.48052E-03     6.93699E-03
            2402             548     5.48052E-03     6.93699E-03
            2438             549     8.27013E-03     9.99456E-03
            2420             549     8.27013E-03     9.99456E-03
            2456             550     6.00330E-03     6.79967E-03
            2438             550     6.00330E-03     6.79967E-03
            2456             551     3.11961E-03     4.43236E-03
            2474             551     3.11961E-03     4.43236E-03
            2474             552     2.11586E-03     4.33932E-03
            2492             552     2.11586E-03     4.33932E-03
            2491             553     4.85297E-03     6.80432E-03
            5192             553     4.85297E-03     6.80432E-03
            5191             553     4.85297E-03     6.80432E-03
            2492             553     4.85297E-03     6.80432E-03
            2491             554     9.30546E-03     11.9050E-03
            2490             554     9.30546E-03     11.9050E-03
            5190             554     9.30546E-03     11.9050E-03
            5191             554     9.30546E-03     11.9050E-03
            5189             555     14.1760E-03     17.0756E-03
            2490             555     14.1760E-03     17.0756E-03
            2489             555     14.1760E-03     17.0756E-03
            5190             555     14.1760E-03     17.0756E-03
            2488             556     19.1903E-03     22.1929E-03
            5189             556     19.1903E-03     22.1929E-03
            5188             556     19.1903E-03     22.1929E-03
            2489             556     19.1903E-03     22.1929E-03
            2487             557     24.2689E-03     27.2793E-03
            5188             557     24.2689E-03     27.2793E-03
            5187             557     24.2689E-03     27.2793E-03
            2488             557     24.2689E-03     27.2793E-03
            2487             558     29.3592E-03     32.3534E-03
            2486             558     29.3592E-03     32.3534E-03
            5187             558     29.3592E-03     32.3534E-03
            5186             558     29.3592E-03     32.3534E-03
            5186             559     34.4490E-03     37.4264E-03
            2486             559     34.4490E-03     37.4264E-03
            2485             559     34.4490E-03     37.4264E-03
            5185             559     34.4490E-03     37.4264E-03
            5185             560     39.5060E-03     42.4866E-03
            5184             560     39.5060E-03     42.4866E-03
            2485             560     39.5060E-03     42.4866E-03
            2484             560     39.5060E-03     42.4866E-03
            2483             561     44.5547E-03     47.5228E-03
            2484             561     44.5547E-03     47.5228E-03
            5183             561     44.5547E-03     47.5228E-03
            5184             561     44.5547E-03     47.5228E-03
            2482             562     49.5376E-03     52.5221E-03
            2483             562     49.5376E-03     52.5221E-03
            5183             562     49.5376E-03     52.5221E-03
            5182             562     49.5376E-03     52.5221E-03
            2482             563     54.5080E-03     57.4625E-03
            5182             563     54.5080E-03     57.4625E-03
            2481             563     54.5080E-03     57.4625E-03
            5181             563     54.5080E-03     57.4625E-03
            2480             564     59.3558E-03     62.3257E-03
            5180             564     59.3558E-03     62.3257E-03
            5181             564     59.3558E-03     62.3257E-03
            2481             564     59.3558E-03     62.3257E-03
            2480             565     64.2391E-03     67.0869E-03
            5179             565     64.2391E-03     67.0869E-03
            2479             565     64.2391E-03     67.0869E-03
            5180             565     64.2391E-03     67.0869E-03
            2479             566     68.9513E-03     71.7591E-03
            5179             566     68.9513E-03     71.7591E-03
            2478             566     68.9513E-03     71.7591E-03
            5178             566     68.9513E-03     71.7591E-03
            2477             567     74.0286E-03     76.5450E-03
            2478             567     74.0286E-03     76.5450E-03
            5177             567     74.0286E-03     76.5450E-03
            5178             567     74.0286E-03     76.5450E-03
            2477             568     79.1873E-03     81.7442E-03
            2476             568     79.1873E-03     81.7442E-03
            5177             568     79.1873E-03     81.7442E-03
            5176             568     79.1873E-03     81.7442E-03
            2476             569     88.0008E-03     92.4891E-03
            5175             569     88.0008E-03     92.4891E-03
            2475             569     88.0008E-03     92.4891E-03
            5176             569     88.0008E-03     92.4891E-03
            5264             604     10.4626E-03     12.5488E-03
            5282             604     10.4626E-03     12.5488E-03
            5264             605     8.37364E-03     8.97208E-03
            5246             605     8.37364E-03     8.97208E-03
            5246             606     5.51097E-03     5.76619E-03
            5228             606     5.51097E-03     5.76619E-03
            5210             607     2.70021E-03     4.76526E-03
            5228             607     2.70021E-03     4.76526E-03
            5210             608     2.16618E-03     4.25550E-03
            5192             608     2.16618E-03     4.25550E-03
            5265             625     81.7542E-03     81.1056E-03
            5247             625     81.7542E-03     81.1056E-03
            5247             626     86.3810E-03     86.2770E-03
            5229             626     86.3810E-03     86.2770E-03
            5229             627     89.5476E-03     91.8617E-03
            5211             627     89.5476E-03     91.8617E-03
            5193             628     93.4378E-03     93.1856E-03
            5211             628     93.4378E-03     93.1856E-03
            5175             629     95.7088E-03     96.7392E-03
            5193             629     95.7088E-03     96.7392E-03
            4365             636     80.2949E-03     83.4208E-03
            4347             636     80.2949E-03     83.4208E-03
            4365             637     84.1538E-03     84.7520E-03
            4383             637     84.1538E-03     84.7520E-03
            4401             638     81.8480E-03     81.7856E-03
            4383             638     81.8480E-03     81.7856E-03
            4401             639     78.7999E-03     80.2498E-03
            4419             639     78.7999E-03     80.2498E-03
            4419             640     76.5152E-03     77.0411E-03
            4437             640     76.5152E-03     77.0411E-03
            4437             641     73.7397E-03     74.6439E-03
            4455             641     73.7397E-03     74.6439E-03
            4455             642     71.1967E-03     71.8017E-03
            4473             642     71.1967E-03     71.8017E-03
            4491             643     68.3000E-03     68.8140E-03
            4473             643     68.3000E-03     68.8140E-03
            4509             644     65.2321E-03     65.8017E-03
            4491             644     65.2321E-03     65.8017E-03
            4509             645     61.5940E-03     61.6424E-03
            4527             645     61.5940E-03     61.6424E-03
            4545             646     57.5475E-03     56.3578E-03
            4527             646     57.5475E-03     56.3578E-03
            4545             647     58.2077E-03     59.9643E-03
            4563             647     58.2077E-03     59.9643E-03
            4563             648     61.2925E-03     62.0121E-03
            4581             648     61.2925E-03     62.0121E-03
            4599             649     58.7944E-03     58.6999E-03
            4581             649     58.7944E-03     58.6999E-03
            4617             650     55.6948E-03     56.8175E-03
            4599             650     55.6948E-03     56.8175E-03
            4635             651     53.3463E-03     53.6806E-03
            4617             651     53.3463E-03     53.6806E-03
            4635             652     50.5909E-03     51.2793E-03
            4653             652     50.5909E-03     51.2793E-03
            4671             653     48.1829E-03     48.5093E-03
            4653             653     48.1829E-03     48.5093E-03
            4671             654     45.4211E-03     45.8507E-03
            4689             654     45.4211E-03     45.8507E-03
            4689             655     42.7119E-03     42.8853E-03
            4707             655     42.7119E-03     42.8853E-03
            4707             656     39.7335E-03     39.9496E-03
            4725             656     39.7335E-03     39.9496E-03
            4743             657     36.2978E-03     36.2383E-03
            4725             657     36.2978E-03     36.2383E-03
            4743             658     32.5240E-03     31.4690E-03
            4761             658     32.5240E-03     31.4690E-03
            4761             659     33.4878E-03     34.5650E-03
            4779             659     33.4878E-03     34.5650E-03
            4779             660     35.9615E-03     36.7702E-03
            4797             660     35.9615E-03     36.7702E-03
            4797             661     33.2288E-03     33.0915E-03
            4815             661     33.2288E-03     33.0915E-03
            4815             662     30.0651E-03     30.7566E-03
            4833             662     30.0651E-03     30.7566E-03
            4851             663     27.6031E-03     27.7186E-03
            4833             663     27.6031E-03     27.7186E-03
            4869             664     24.8801E-03     25.2104E-03
            4851             664     24.8801E-03     25.2104E-03
            4869             665     22.4405E-03     22.4743E-03
            4887             665     22.4405E-03     22.4743E-03
            4887             666     19.7254E-03     19.8067E-03
            4905             666     19.7254E-03     19.8067E-03
            4905             667     17.0741E-03     16.8693E-03
            4923             667     17.0741E-03     16.8693E-03
            4923             668     13.9360E-03     13.7753E-03
            4941             668     13.9360E-03     13.7753E-03
            4941             669     10.5304E-03     9.94060E-03
            4959             669     10.5304E-03     9.94060E-03
            4977             670     10.6539E-03     11.4687E-03
            4959             670     10.6539E-03     11.4687E-03
            4977             671     11.2341E-03     12.1415E-03
            4995             671     11.2341E-03     12.1415E-03
            4995             672     8.08417E-03     7.56069E-03
            5013             672     8.08417E-03     7.56069E-03
            5031             673     4.66602E-03     4.57075E-03
            5013             673     4.66602E-03     4.57075E-03
            5049             674     2.99700E-03     4.08740E-03
            5031             674     2.99700E-03     4.08740E-03
            5266             675     76.4072E-03     76.7989E-03
            4347             675     76.4072E-03     76.7989E-03
            4348             675     76.4072E-03     76.7989E-03
            5265             675     76.4072E-03     76.7989E-03
            5266             676     73.2356E-03     73.2357E-03
            5267             676     73.2356E-03     73.2357E-03
            4348             676     73.2356E-03     73.2357E-03
            4349             676     73.2356E-03     73.2357E-03
            4349             677     69.5874E-03     69.6676E-03
            4350             677     69.5874E-03     69.6676E-03
            5268             677     69.5874E-03     69.6676E-03
            5267             677     69.5874E-03     69.6676E-03
            4351             678     65.4581E-03     65.6908E-03
            5269             678     65.4581E-03     65.6908E-03
            4350             678     65.4581E-03     65.6908E-03
            5268             678     65.4581E-03     65.6908E-03
            5270             679     61.1925E-03     61.4797E-03
            4351             679     61.1925E-03     61.4797E-03
            4352             679     61.1925E-03     61.4797E-03
            5269             679     61.1925E-03     61.4797E-03
            4353             680     56.7566E-03     57.0953E-03
            5271             680     56.7566E-03     57.0953E-03
            5270             680     56.7566E-03     57.0953E-03
            4352             680     56.7566E-03     57.0953E-03
            5272             681     52.2724E-03     52.6198E-03
            5271             681     52.2724E-03     52.6198E-03
            4353             681     52.2724E-03     52.6198E-03
            4354             681     52.2724E-03     52.6198E-03
            4354             682     47.7368E-03     48.1010E-03
            5273             682     47.7368E-03     48.1010E-03
            5272             682     47.7368E-03     48.1010E-03
            4355             682     47.7368E-03     48.1010E-03
            4355             683     43.1803E-03     43.5370E-03
            5273             683     43.1803E-03     43.5370E-03
            5274             683     43.1803E-03     43.5370E-03
            4356             683     43.1803E-03     43.5370E-03
            5275             684     38.6072E-03     38.9744E-03
            5274             684     38.6072E-03     38.9744E-03
            4356             684     38.6072E-03     38.9744E-03
            4357             684     38.6072E-03     38.9744E-03
            5276             685     34.0389E-03     34.4061E-03
            5275             685     34.0389E-03     34.4061E-03
            4358             685     34.0389E-03     34.4061E-03
            4357             685     34.0389E-03     34.4061E-03
            4358             686     29.4873E-03     29.8690E-03
            5277             686     29.4873E-03     29.8690E-03
            4359             686     29.4873E-03     29.8690E-03
            5276             686     29.4873E-03     29.8690E-03
            4360             687     24.9799E-03     25.3728E-03
            5278             687     24.9799E-03     25.3728E-03
            5277             687     24.9799E-03     25.3728E-03
            4359             687     24.9799E-03     25.3728E-03
            5278             688     20.5568E-03     20.9666E-03
            4360             688     20.5568E-03     20.9666E-03
            5279             688     20.5568E-03     20.9666E-03
            4361             688     20.5568E-03     20.9666E-03
            5279             689     16.2794E-03     16.6845E-03
            5280             689     16.2794E-03     16.6845E-03
            4362             689     16.2794E-03     16.6845E-03
            4361             689     16.2794E-03     16.6845E-03
            4362             690     12.2637E-03     12.7375E-03
            5280             690     12.2637E-03     12.7375E-03
            5281             690     12.2637E-03     12.7375E-03
            4363             690     12.2637E-03     12.7375E-03
            5281             691     8.40147E-03     9.49659E-03
            5282             691     8.40147E-03     9.49659E-03
            4364             691     8.40147E-03     9.49659E-03
            4363             691     8.40147E-03     9.49659E-03
            4382             692     2.87508E-03     4.01137E-03
            4364             692     2.87508E-03     4.01137E-03
            4400             693     3.08607E-03     4.85093E-03
            4382             693     3.08607E-03     4.85093E-03
            4418             694     1.75287E-03     3.60196E-03
            4400             694     1.75287E-03     3.60196E-03
            4436             695     1.99063E-03     3.06935E-03
            4418             695     1.99063E-03     3.06935E-03
            4436             696     3.50316E-03     4.06426E-03
            4454             696     3.50316E-03     4.06426E-03
            4472             697     5.26261E-03     5.57309E-03
            4454             697     5.26261E-03     5.57309E-03
            4490             698     7.09303E-03     7.09587E-03
            4472             698     7.09303E-03     7.09587E-03
            4508             699     8.84900E-03     9.12985E-03
            4490             699     8.84900E-03     9.12985E-03
            4526             700     10.6688E-03     10.7690E-03
            4508             700     10.6688E-03     10.7690E-03
            4544             701     12.7920E-03     13.3616E-03
            4526             701     12.7920E-03     13.3616E-03
            4562             702     13.9450E-03     16.4888E-03
            4544             702     13.9450E-03     16.4888E-03
            4580             703     7.64166E-03     9.63859E-03
            4562             703     7.64166E-03     9.63859E-03
            4598             704     1.05553E-03     2.03315E-03
            4580             704     1.05553E-03     2.03315E-03
            4598             705     1.56550E-03     2.29596E-03
            4616             705     1.56550E-03     2.29596E-03
            4616             706     2.88420E-03     2.98526E-03
            4634             706     2.88420E-03     2.98526E-03
            4652             707     4.06383E-03     4.02215E-03
            4634             707     4.06383E-03     4.02215E-03
            4670             708     5.24545E-03     5.06259E-03
            4652             708     5.24545E-03     5.06259E-03
            4670             709     6.31844E-03     6.18681E-03
            4688             709     6.31844E-03     6.18681E-03
            4688             710     7.43043E-03     7.19261E-03
            4706             710     7.43043E-03     7.19261E-03
            4724             711     8.49351E-03     8.49509E-03
            4706             711     8.49351E-03     8.49509E-03
            4742             712     9.58221E-03     9.50936E-03
            4724             712     9.58221E-03     9.50936E-03
            4742             713     10.9329E-03     11.2216E-03
            4760             713     10.9329E-03     11.2216E-03
            4778             714     11.4617E-03     13.4235E-03
            4760             714     11.4617E-03     13.4235E-03
            4778             715     6.81551E-03     8.52377E-03
            4796             715     6.81551E-03     8.52377E-03
            4796             716     2.88991E-03     3.20721E-03
            4814             716     2.88991E-03     3.20721E-03
            4814             717     3.85592E-03     3.59229E-03
            4832             717     3.85592E-03     3.59229E-03
            4832             718     4.50924E-03     4.18770E-03
            4850             718     4.50924E-03     4.18770E-03
            4850             719     5.18113E-03     4.77703E-03
            4868             719     5.18113E-03     4.77703E-03
            4868             720     5.76354E-03     5.38322E-03
            4886             720     5.76354E-03     5.38322E-03
            4904             721     6.35052E-03     5.92251E-03
            4886             721     6.35052E-03     5.92251E-03
            4904             722     6.89486E-03     6.62896E-03
            4922             722     6.89486E-03     6.62896E-03
            4940             723     7.41617E-03     7.14574E-03
            4922             723     7.41617E-03     7.14574E-03
            4958             724     8.09458E-03     8.08275E-03
            4940             724     8.09458E-03     8.08275E-03
            4958             725     8.14229E-03     9.39175E-03
            4976             725     8.14229E-03     9.39175E-03
            4976             726     5.94426E-03     7.19910E-03
            4994             726     5.94426E-03     7.19910E-03
            4994             727     4.51679E-03     4.77596E-03
            5012             727     4.51679E-03     4.77596E-03
            5012             728     5.12633E-03     4.38870E-03
            5030             728     5.12633E-03     4.38870E-03
            5030             729     5.31408E-03     4.61992E-03
            5048             729     5.31408E-03     4.61992E-03
            5066             730     5.04104E-03     5.38800E-03
            5048             730     5.04104E-03     5.38800E-03
            5066             731     2.49374E-03     2.69918E-03
            5065             731     2.49374E-03     2.69918E-03
            5755             731     2.49374E-03     2.69918E-03
            5756             731     2.49374E-03     2.69918E-03
            5754             732     2.66752E-03     2.61569E-03
            5065             732     2.66752E-03     2.61569E-03
            5064             732     2.66752E-03     2.61569E-03
            5755             732     2.66752E-03     2.61569E-03
            5063             733     2.73220E-03     2.57491E-03
            5064             733     2.73220E-03     2.57491E-03
            5753             733     2.73220E-03     2.57491E-03
            5754             733     2.73220E-03     2.57491E-03
            5753             734     2.79426E-03     2.59647E-03
            5063             734     2.79426E-03     2.59647E-03
            5062             734     2.79426E-03     2.59647E-03
            5752             734     2.79426E-03     2.59647E-03
            5061             735     2.84856E-03     2.60483E-03
            5751             735     2.84856E-03     2.60483E-03
            5752             735     2.84856E-03     2.60483E-03
            5062             735     2.84856E-03     2.60483E-03
            5060             736     2.91280E-03     2.62404E-03
            5751             736     2.91280E-03     2.62404E-03
            5750             736     2.91280E-03     2.62404E-03
            5061             736     2.91280E-03     2.62404E-03
            5749             737     2.97948E-03     2.64960E-03
            5059             737     2.97948E-03     2.64960E-03
            5060             737     2.97948E-03     2.64960E-03
            5750             737     2.97948E-03     2.64960E-03
            5748             738     3.05147E-03     2.67968E-03
            5749             738     3.05147E-03     2.67968E-03
            5058             738     3.05147E-03     2.67968E-03
            5059             738     3.05147E-03     2.67968E-03
            5747             739     3.12511E-03     2.71837E-03
            5748             739     3.12511E-03     2.71837E-03
            5058             739     3.12511E-03     2.71837E-03
            5057             739     3.12511E-03     2.71837E-03
            5747             740     3.20190E-03     2.75544E-03
            5056             740     3.20190E-03     2.75544E-03
            5057             740     3.20190E-03     2.75544E-03
            5746             740     3.20190E-03     2.75544E-03
            5746             741     3.27733E-03     2.80067E-03
            5745             741     3.27733E-03     2.80067E-03
            5055             741     3.27733E-03     2.80067E-03
            5056             741     3.27733E-03     2.80067E-03
            5744             742     3.34571E-03     2.82879E-03
            5055             742     3.34571E-03     2.82879E-03
            5054             742     3.34571E-03     2.82879E-03
            5745             742     3.34571E-03     2.82879E-03
            5053             743     3.39165E-03     2.83882E-03
            5743             743     3.39165E-03     2.83882E-03
            5054             743     3.39165E-03     2.83882E-03
            5744             743     3.39165E-03     2.83882E-03
            5053             744     3.36560E-03     2.77842E-03
            5052             744     3.36560E-03     2.77842E-03
            5742             744     3.36560E-03     2.77842E-03
            5743             744     3.36560E-03     2.77842E-03
            5741             745     3.08506E-03     2.45447E-03
            5742             745     3.08506E-03     2.45447E-03
            5051             745     3.08506E-03     2.45447E-03
            5052             745     3.08506E-03     2.45447E-03
            5050             746     2.54564E-03     1.82370E-03
            5051             746     2.54564E-03     1.82370E-03
            5741             746     2.54564E-03     1.82370E-03
            5740             746     2.54564E-03     1.82370E-03
            5739             747     1.80201E-03     1.99955E-03
            5049             747     1.80201E-03     1.99955E-03
            5740             747     1.80201E-03     1.99955E-03
            5050             747     1.80201E-03     1.99955E-03
            5846             787     8.67319E-15     9.91478E-15
            5828             787     8.67319E-15     9.91478E-15
            5810             788     21.8341E-15     21.3875E-15
            5828             788     21.8341E-15     21.3875E-15
            5792             789     25.7459E-15     25.3187E-15
            5810             789     25.7459E-15     25.3187E-15
            5774             790     10.4749E-15     11.0824E-15
            5792             790     10.4749E-15     11.0824E-15
            5774             791     13.5585E-15     15.3862E-15
            5756             791     13.5585E-15     15.3862E-15
            5846             808     18.6451E-15     18.5783E-15
            5845             808     18.6451E-15     18.5783E-15
            5844             809     28.4273E-15     24.9084E-15
            5845             809     28.4273E-15     24.9084E-15
            5843             810     24.5662E-15     24.6113E-15
            5844             810     24.5662E-15     24.6113E-15
            5842             811     17.7691E-15     23.7130E-15
            5843             811     17.7691E-15     23.7130E-15
            5841             812     21.8716E-15     24.6211E-15
            5842             812     21.8716E-15     24.6211E-15
            5840             813     19.5756E-15     17.7730E-15
            5841             813     19.5756E-15     17.7730E-15
            5840             814     15.3698E-15     13.3225E-15
            5839             814     15.3698E-15     13.3225E-15
            5838             815     17.2039E-15     18.8708E-15
            5839             815     17.2039E-15     18.8708E-15
            5838             816     10.5956E-15     16.6395E-15
            5837             816     10.5956E-15     16.6395E-15
            5836             817     9.47252E-15     13.9975E-15
            5837             817     9.47252E-15     13.9975E-15
            5835             818     14.9713E-15     15.9091E-15
            5836             818     14.9713E-15     15.9091E-15
            5834             819     32.5171E-15     34.3115E-15
            5835             819     32.5171E-15     34.3115E-15
            5834             820     42.9041E-15     49.1972E-15
            5833             820     42.9041E-15     49.1972E-15
            5832             821     23.4731E-15     30.7418E-15
            5833             821     23.4731E-15     30.7418E-15
            5831             822     22.9761E-15     22.6292E-15
            5832             822     22.9761E-15     22.6292E-15
            5830             823     28.6423E-15     22.4009E-15
            5831             823     28.6423E-15     22.4009E-15
            5829             824     26.9393E-15     23.3611E-15
            5830             824     26.9393E-15     23.3611E-15
             786            1467     29.2945E-15     20.5417E-15
             804            1467     29.2945E-15     20.5417E-15
             785            1467     29.2945E-15     20.5417E-15
             803            1467     29.2945E-15     20.5417E-15
             804            1468     22.1401E-15     22.8874E-15
             787            1468     22.1401E-15     22.8874E-15
             805            1468     22.1401E-15     22.8874E-15
             786            1468     22.1401E-15     22.8874E-15
             788            1469     19.8609E-15     20.7872E-15
             806            1469     19.8609E-15     20.7872E-15
             805            1469     19.8609E-15     20.7872E-15
             787            1469     19.8609E-15     20.7872E-15
             788            1470     19.6790E-15     19.9749E-15
             806            1470     19.6790E-15     19.9749E-15
             807            1470     19.6790E-15     19.9749E-15
             789            1470     19.6790E-15     19.9749E-15
             790            1471     11.5834E-15     16.9208E-15
             789            1471     11.5834E-15     16.9208E-15
             808            1471     11.5834E-15     16.9208E-15
             807            1471     11.5834E-15     16.9208E-15
             808            1472     16.8664E-15     17.0593E-15
             790            1472     16.8664E-15     17.0593E-15
             809            1472     16.8664E-15     17.0593E-15
             791            1472     16.8664E-15     17.0593E-15
             792            1473     23.1957E-15     18.7166E-15
             791            1473     23.1957E-15     18.7166E-15
             809            1473     23.1957E-15     18.7166E-15
             810            1473     23.1957E-15     18.7166E-15
             811            1474     15.9226E-15     14.0711E-15
             792            1474     15.9226E-15     14.0711E-15
             810            1474     15.9226E-15     14.0711E-15
             793            1474     15.9226E-15     14.0711E-15
             794            1475     17.2241E-15     18.2751E-15
             812            1475     17.2241E-15     18.2751E-15
             793            1475     17.2241E-15     18.2751E-15
             811            1475     17.2241E-15     18.2751E-15
             813            1476     24.7126E-15     26.6779E-15
             794            1476     24.7126E-15     26.6779E-15
             795            1476     24.7126E-15     26.6779E-15
             812            1476     24.7126E-15     26.6779E-15
             796            1477     21.1337E-15     21.9604E-15
             813            1477     21.1337E-15     21.9604E-15
             814            1477     21.1337E-15     21.9604E-15
             795            1477     21.1337E-15     21.9604E-15
             797            1478     16.1223E-15     16.1938E-15
             814            1478     16.1223E-15     16.1938E-15
             815            1478     16.1223E-15     16.1938E-15
             796            1478     16.1223E-15     16.1938E-15
             815            1479     14.8200E-15     16.3485E-15
             797            1479     14.8200E-15     16.3485E-15
             816            1479     14.8200E-15     16.3485E-15
             798            1479     14.8200E-15     16.3485E-15
             799            1480     13.3501E-15     13.8171E-15
             816            1480     13.3501E-15     13.8171E-15
             817            1480     13.3501E-15     13.8171E-15
             798            1480     13.3501E-15     13.8171E-15
             818            1481     18.9678E-15     18.4277E-15
             817            1481     18.9678E-15     18.4277E-15
             800            1481     18.9678E-15     18.4277E-15
             799            1481     18.9678E-15     18.4277E-15
             800            1482     15.0837E-15     15.2508E-15
             801            1482     15.0837E-15     15.2508E-15
             818            1482     15.0837E-15     15.2508E-15
             819            1482     15.0837E-15     15.2508E-15
             819            1483     12.6781E-15     12.9555E-15
             801            1483     12.6781E-15     12.9555E-15
             820            1483     12.6781E-15     12.9555E-15
             802            1483     12.6781E-15     12.9555E-15
             804            1484     25.2925E-15     22.3612E-15
             822            1484     25.2925E-15     22.3612E-15
             821            1484     25.2925E-15     22.3612E-15
             803            1484     25.2925E-15     22.3612E-15
             805            1485     24.3835E-15     31.2492E-15
             804            1485     24.3835E-15     31.2492E-15
             823            1485     24.3835E-15     31.2492E-15
             822            1485     24.3835E-15     31.2492E-15
             823            1486     19.1343E-15     26.0205E-15
             824            1486     19.1343E-15     26.0205E-15
             805            1486     19.1343E-15     26.0205E-15
             806            1486     19.1343E-15     26.0205E-15
             806            1487     24.4901E-15     24.2550E-15
             807            1487     24.4901E-15     24.2550E-15
             824            1487     24.4901E-15     24.2550E-15
             825            1487     24.4901E-15     24.2550E-15
             825            1488     18.3046E-15     20.6189E-15
             826            1488     18.3046E-15     20.6189E-15
             807            1488     18.3046E-15     20.6189E-15
             808            1488     18.3046E-15     20.6189E-15
             809            1489     12.7651E-15     16.7456E-15
             827            1489     12.7651E-15     16.7456E-15
             808            1489     12.7651E-15     16.7456E-15
             826            1489     12.7651E-15     16.7456E-15
             827            1490     22.2984E-15     21.2661E-15
             828            1490     22.2984E-15     21.2661E-15
             809            1490     22.2984E-15     21.2661E-15
             810            1490     22.2984E-15     21.2661E-15
             810            1491     21.2885E-15     17.9932E-15
             829            1491     21.2885E-15     17.9932E-15
             828            1491     21.2885E-15     17.9932E-15
             811            1491     21.2885E-15     17.9932E-15
             830            1492     15.2070E-15     12.6383E-15
             811            1492     15.2070E-15     12.6383E-15
             829            1492     15.2070E-15     12.6383E-15
             812            1492     15.2070E-15     12.6383E-15
             831            1493     16.3872E-15     15.7876E-15
             830            1493     16.3872E-15     15.7876E-15
             813            1493     16.3872E-15     15.7876E-15
             812            1493     16.3872E-15     15.7876E-15
             813            1494     16.3229E-15     17.3942E-15
             832            1494     16.3229E-15     17.3942E-15
             814            1494     16.3229E-15     17.3942E-15
             831            1494     16.3229E-15     17.3942E-15
             815            1495     21.6673E-15     22.0192E-15
             833            1495     21.6673E-15     22.0192E-15
             832            1495     21.6673E-15     22.0192E-15
             814            1495     21.6673E-15     22.0192E-15
             815            1496     18.8839E-15     20.3840E-15
             816            1496     18.8839E-15     20.3840E-15
             834            1496     18.8839E-15     20.3840E-15
             833            1496     18.8839E-15     20.3840E-15
             835            1497     12.1574E-15     11.8699E-15
             816            1497     12.1574E-15     11.8699E-15
             834            1497     12.1574E-15     11.8699E-15
             817            1497     12.1574E-15     11.8699E-15
             835            1498     23.9177E-15     22.8069E-15
             817            1498     23.9177E-15     22.8069E-15
             818            1498     23.9177E-15     22.8069E-15
             836            1498     23.9177E-15     22.8069E-15
             837            1499     27.9947E-15     28.0512E-15
             836            1499     27.9947E-15     28.0512E-15
             819            1499     27.9947E-15     28.0512E-15
             818            1499     27.9947E-15     28.0512E-15
             819            1500     20.9703E-15     21.3252E-15
             838            1500     20.9703E-15     21.3252E-15
             837            1500     20.9703E-15     21.3252E-15
             820            1500     20.9703E-15     21.3252E-15
             821            1501     23.2314E-15     25.8685E-15
             839            1501     23.2314E-15     25.8685E-15
             840            1501     23.2314E-15     25.8685E-15
             822            1501     23.2314E-15     25.8685E-15
             840            1502     18.1487E-15     33.0961E-15
             822            1502     18.1487E-15     33.0961E-15
             841            1502     18.1487E-15     33.0961E-15
             823            1502     18.1487E-15     33.0961E-15
             842            1503     24.3162E-15     34.0330E-15
             841            1503     24.3162E-15     34.0330E-15
             824            1503     24.3162E-15     34.0330E-15
             823            1503     24.3162E-15     34.0330E-15
             842            1504     27.8587E-15     33.0561E-15
             824            1504     27.8587E-15     33.0561E-15
             843            1504     27.8587E-15     33.0561E-15
             825            1504     27.8587E-15     33.0561E-15
             844            1505     14.8427E-15     24.4641E-15
             826            1505     14.8427E-15     24.4641E-15
             825            1505     14.8427E-15     24.4641E-15
             843            1505     14.8427E-15     24.4641E-15
             844            1506     12.7270E-15     21.9449E-15
             826            1506     12.7270E-15     21.9449E-15
             827            1506     12.7270E-15     21.9449E-15
             845            1506     12.7270E-15     21.9449E-15
             846            1507     26.0010E-15     27.0152E-15
             845            1507     26.0010E-15     27.0152E-15
             828            1507     26.0010E-15     27.0152E-15
             827            1507     26.0010E-15     27.0152E-15
             829            1508     24.5947E-15     22.1033E-15
             846            1508     24.5947E-15     22.1033E-15
             847            1508     24.5947E-15     22.1033E-15
             828            1508     24.5947E-15     22.1033E-15
             829            1509     18.4305E-15     18.9614E-15
             847            1509     18.4305E-15     18.9614E-15
             848            1509     18.4305E-15     18.9614E-15
             830            1509     18.4305E-15     18.9614E-15
             830            1510     18.5674E-15     19.8713E-15
             831            1510     18.5674E-15     19.8713E-15
             849            1510     18.5674E-15     19.8713E-15
             848            1510     18.5674E-15     19.8713E-15
             849            1511     17.2092E-15     18.9065E-15
             850            1511     17.2092E-15     18.9065E-15
             832            1511     17.2092E-15     18.9065E-15
             831            1511     17.2092E-15     18.9065E-15
             833            1512     20.1457E-15     21.9103E-15
             850            1512     20.1457E-15     21.9103E-15
             851            1512     20.1457E-15     21.9103E-15
             832            1512     20.1457E-15     21.9103E-15
             834            1513     16.0631E-15     16.8126E-15
             852            1513     16.0631E-15     16.8126E-15
             851            1513     16.0631E-15     16.8126E-15
             833            1513     16.0631E-15     16.8126E-15
             853            1514     13.4857E-15     12.7591E-15
             852            1514     13.4857E-15     12.7591E-15
             834            1514     13.4857E-15     12.7591E-15
             835            1514     13.4857E-15     12.7591E-15
             835            1515     23.8933E-15     23.7160E-15
             854            1515     23.8933E-15     23.7160E-15
             853            1515     23.8933E-15     23.7160E-15
             836            1515     23.8933E-15     23.7160E-15
             836            1516     30.7587E-15     30.7302E-15
             854            1516     30.7587E-15     30.7302E-15
             855            1516     30.7587E-15     30.7302E-15
             837            1516     30.7587E-15     30.7302E-15
             837            1517     27.3478E-15     27.3171E-15
             855            1517     27.3478E-15     27.3171E-15
             838            1517     27.3478E-15     27.3171E-15
             856            1517     27.3478E-15     27.3171E-15
            2386            2866     80.0113E-03     80.8295E-03
            2403            2866     80.0113E-03     80.8295E-03
            2385            2866     80.0113E-03     80.8295E-03
            2404            2866     80.0113E-03     80.8295E-03
            2404            2867     76.4628E-03     76.7167E-03
            2386            2867     76.4628E-03     76.7167E-03
            2387            2867     76.4628E-03     76.7167E-03
            2405            2867     76.4628E-03     76.7167E-03
            2406            2868     72.4374E-03     72.7712E-03
            2387            2868     72.4374E-03     72.7712E-03
            2388            2868     72.4374E-03     72.7712E-03
            2405            2868     72.4374E-03     72.7712E-03
            2406            2869     67.9991E-03     68.4245E-03
            2389            2869     67.9991E-03     68.4245E-03
            2407            2869     67.9991E-03     68.4245E-03
            2388            2869     67.9991E-03     68.4245E-03
            2408            2870     63.4245E-03     63.8466E-03
            2390            2870     63.4245E-03     63.8466E-03
            2389            2870     63.4245E-03     63.8466E-03
            2407            2870     63.4245E-03     63.8466E-03
            2409            2871     58.7038E-03     59.1738E-03
            2391            2871     58.7038E-03     59.1738E-03
            2408            2871     58.7038E-03     59.1738E-03
            2390            2871     58.7038E-03     59.1738E-03
            2409            2872     53.9846E-03     54.4492E-03
            2410            2872     53.9846E-03     54.4492E-03
            2392            2872     53.9846E-03     54.4492E-03
            2391            2872     53.9846E-03     54.4492E-03
            2393            2873     49.1994E-03     49.6659E-03
            2410            2873     49.1994E-03     49.6659E-03
            2411            2873     49.1994E-03     49.6659E-03
            2392            2873     49.1994E-03     49.6659E-03
            2411            2874     44.4127E-03     44.8798E-03
            2393            2874     44.4127E-03     44.8798E-03
            2412            2874     44.4127E-03     44.8798E-03
            2394            2874     44.4127E-03     44.8798E-03
            2394            2875     39.6048E-03     40.0699E-03
            2413            2875     39.6048E-03     40.0699E-03
            2395            2875     39.6048E-03     40.0699E-03
            2412            2875     39.6048E-03     40.0699E-03
            2413            2876     34.8068E-03     35.2759E-03
            2396            2876     34.8068E-03     35.2759E-03
            2395            2876     34.8068E-03     35.2759E-03
            2414            2876     34.8068E-03     35.2759E-03
            2396            2877     30.0181E-03     30.4905E-03
            2414            2877     30.0181E-03     30.4905E-03
            2415            2877     30.0181E-03     30.4905E-03
            2397            2877     30.0181E-03     30.4905E-03
            2397            2878     25.2637E-03     25.7487E-03
            2415            2878     25.2637E-03     25.7487E-03
            2416            2878     25.2637E-03     25.7487E-03
            2398            2878     25.2637E-03     25.7487E-03
            2417            2879     20.5648E-03     21.0671E-03
            2398            2879     20.5648E-03     21.0671E-03
            2416            2879     20.5648E-03     21.0671E-03
            2399            2879     20.5648E-03     21.0671E-03
            2417            2880     15.9882E-03     16.4954E-03
            2399            2880     15.9882E-03     16.4954E-03
            2400            2880     15.9882E-03     16.4954E-03
            2418            2880     15.9882E-03     16.4954E-03
            2418            2881     11.6383E-03     12.1703E-03
            2400            2881     11.6383E-03     12.1703E-03
            2419            2881     11.6383E-03     12.1703E-03
            2401            2881     11.6383E-03     12.1703E-03
            2420            2882     7.51040E-03     8.51811E-03
            2402            2882     7.51040E-03     8.51811E-03
            2401            2882     7.51040E-03     8.51811E-03
            2419            2882     7.51040E-03     8.51811E-03
            2403            2883     84.3818E-03     84.1436E-03
            2404            2883     84.3818E-03     84.1436E-03
            2421            2883     84.3818E-03     84.1436E-03
            2422            2883     84.3818E-03     84.1436E-03
            2405            2884     80.8671E-03     81.1888E-03
            2422            2884     80.8671E-03     81.1888E-03
            2404            2884     80.8671E-03     81.1888E-03
            2423            2884     80.8671E-03     81.1888E-03
            2406            2885     76.7985E-03     76.8359E-03
            2405            2885     76.7985E-03     76.8359E-03
            2424            2885     76.7985E-03     76.8359E-03
            2423            2885     76.7985E-03     76.8359E-03
            2406            2886     72.1194E-03     72.1764E-03
            2424            2886     72.1194E-03     72.1764E-03
            2407            2886     72.1194E-03     72.1764E-03
            2425            2886     72.1194E-03     72.1764E-03
            2425            2887     67.1659E-03     67.3122E-03
            2407            2887     67.1659E-03     67.3122E-03
            2408            2887     67.1659E-03     67.3122E-03
            2426            2887     67.1659E-03     67.3122E-03
            2408            2888     62.2629E-03     62.3772E-03
            2427            2888     62.2629E-03     62.3772E-03
            2426            2888     62.2629E-03     62.3772E-03
            2409            2888     62.2629E-03     62.3772E-03
            2409            2889     57.2507E-03     57.3949E-03
            2427            2889     57.2507E-03     57.3949E-03
            2428            2889     57.2507E-03     57.3949E-03
            2410            2889     57.2507E-03     57.3949E-03
            2411            2890     52.2544E-03     52.3868E-03
            2410            2890     52.2544E-03     52.3868E-03
            2428            2890     52.2544E-03     52.3868E-03
            2429            2890     52.2544E-03     52.3868E-03
            2429            2891     47.2172E-03     47.3542E-03
            2430            2891     47.2172E-03     47.3542E-03
            2412            2891     47.2172E-03     47.3542E-03
            2411            2891     47.2172E-03     47.3542E-03
            2431            2892     42.1903E-03     42.3245E-03
            2413            2892     42.1903E-03     42.3245E-03
            2412            2892     42.1903E-03     42.3245E-03
            2430            2892     42.1903E-03     42.3245E-03
            2414            2893     37.1658E-03     37.2997E-03
            2413            2893     37.1658E-03     37.2997E-03
            2432            2893     37.1658E-03     37.2997E-03
            2431            2893     37.1658E-03     37.2997E-03
            2433            2894     32.1728E-03     32.3091E-03
            2432            2894     32.1728E-03     32.3091E-03
            2414            2894     32.1728E-03     32.3091E-03
            2415            2894     32.1728E-03     32.3091E-03
            2415            2895     27.2312E-03     27.3662E-03
            2416            2895     27.2312E-03     27.3662E-03
            2434            2895     27.2312E-03     27.3662E-03
            2433            2895     27.2312E-03     27.3662E-03
            2417            2896     22.3902E-03     22.5247E-03
            2416            2896     22.3902E-03     22.5247E-03
            2434            2896     22.3902E-03     22.5247E-03
            2435            2896     22.3902E-03     22.5247E-03
            2417            2897     17.7076E-03     17.8766E-03
            2418            2897     17.7076E-03     17.8766E-03
            2435            2897     17.7076E-03     17.8766E-03
            2436            2897     17.7076E-03     17.8766E-03
            2418            2898     13.3819E-03     13.6889E-03
            2419            2898     13.3819E-03     13.6889E-03
            2437            2898     13.3819E-03     13.6889E-03
            2436            2898     13.3819E-03     13.6889E-03
            2438            2899     9.80825E-03     10.8784E-03
            2419            2899     9.80825E-03     10.8784E-03
            2420            2899     9.80825E-03     10.8784E-03
            2437            2899     9.80825E-03     10.8784E-03
            2439            2900     87.8916E-03     88.9503E-03
            2422            2900     87.8916E-03     88.9503E-03
            2421            2900     87.8916E-03     88.9503E-03
            2440            2900     87.8916E-03     88.9503E-03
            2423            2901     83.8904E-03     84.8764E-03
            2422            2901     83.8904E-03     84.8764E-03
            2440            2901     83.8904E-03     84.8764E-03
            2441            2901     83.8904E-03     84.8764E-03
            2424            2902     78.1807E-03     79.2551E-03
            2441            2902     78.1807E-03     79.2551E-03
            2423            2902     78.1807E-03     79.2551E-03
            2442            2902     78.1807E-03     79.2551E-03
            2424            2903     72.6226E-03     73.6595E-03
            2443            2903     72.6226E-03     73.6595E-03
            2442            2903     72.6226E-03     73.6595E-03
            2425            2903     72.6226E-03     73.6595E-03
            2426            2904     67.3627E-03     68.3020E-03
            2444            2904     67.3627E-03     68.3020E-03
            2443            2904     67.3627E-03     68.3020E-03
            2425            2904     67.3627E-03     68.3020E-03
            2444            2905     62.0934E-03     63.0288E-03
            2427            2905     62.0934E-03     63.0288E-03
            2445            2905     62.0934E-03     63.0288E-03
            2426            2905     62.0934E-03     63.0288E-03
            2428            2906     56.8983E-03     57.8167E-03
            2445            2906     56.8983E-03     57.8167E-03
            2446            2906     56.8983E-03     57.8167E-03
            2427            2906     56.8983E-03     57.8167E-03
            2446            2907     51.7119E-03     52.6367E-03
            2429            2907     51.7119E-03     52.6367E-03
            2447            2907     51.7119E-03     52.6367E-03
            2428            2907     51.7119E-03     52.6367E-03
            2430            2908     46.5520E-03     47.4744E-03
            2448            2908     46.5520E-03     47.4744E-03
            2447            2908     46.5520E-03     47.4744E-03
            2429            2908     46.5520E-03     47.4744E-03
            2431            2909     41.4022E-03     42.3250E-03
            2448            2909     41.4022E-03     42.3250E-03
            2430            2909     41.4022E-03     42.3250E-03
            2449            2909     41.4022E-03     42.3250E-03
            2450            2910     36.2705E-03     37.1893E-03
            2449            2910     36.2705E-03     37.1893E-03
            2432            2910     36.2705E-03     37.1893E-03
            2431            2910     36.2705E-03     37.1893E-03
            2451            2911     31.1629E-03     32.0673E-03
            2433            2911     31.1629E-03     32.0673E-03
            2432            2911     31.1629E-03     32.0673E-03
            2450            2911     31.1629E-03     32.0673E-03
            2433            2912     26.0845E-03     26.9702E-03
            2452            2912     26.0845E-03     26.9702E-03
            2451            2912     26.0845E-03     26.9702E-03
            2434            2912     26.0845E-03     26.9702E-03
            2434            2913     21.0671E-03     21.9153E-03
            2453            2913     21.0671E-03     21.9153E-03
            2452            2913     21.0671E-03     21.9153E-03
            2435            2913     21.0671E-03     21.9153E-03
            2454            2914     16.1180E-03     16.9668E-03
            2436            2914     16.1180E-03     16.9668E-03
            2435            2914     16.1180E-03     16.9668E-03
            2453            2914     16.1180E-03     16.9668E-03
            2436            2915     11.2516E-03     12.4958E-03
            2454            2915     11.2516E-03     12.4958E-03
            2455            2915     11.2516E-03     12.4958E-03
            2437            2915     11.2516E-03     12.4958E-03
            2438            2916     7.42777E-03     8.62900E-03
            2456            2916     7.42777E-03     8.62900E-03
            2437            2916     7.42777E-03     8.62900E-03
            2455            2916     7.42777E-03     8.62900E-03
            2457            2917     90.2947E-03     91.2302E-03
            2439            2917     90.2947E-03     91.2302E-03
            2458            2917     90.2947E-03     91.2302E-03
            2440            2917     90.2947E-03     91.2302E-03
            2441            2918     84.3219E-03     85.9434E-03
            2440            2918     84.3219E-03     85.9434E-03
            2458            2918     84.3219E-03     85.9434E-03
            2459            2918     84.3219E-03     85.9434E-03
            2441            2919     77.7068E-03     79.6323E-03
            2460            2919     77.7068E-03     79.6323E-03
            2442            2919     77.7068E-03     79.6323E-03
            2459            2919     77.7068E-03     79.6323E-03
            2443            2920     72.1660E-03     74.0058E-03
            2442            2920     72.1660E-03     74.0058E-03
            2460            2920     72.1660E-03     74.0058E-03
            2461            2920     72.1660E-03     74.0058E-03
            2444            2921     66.8636E-03     68.5908E-03
            2443            2921     66.8636E-03     68.5908E-03
            2462            2921     66.8636E-03     68.5908E-03
            2461            2921     66.8636E-03     68.5908E-03
            2444            2922     61.5733E-03     63.3028E-03
            2462            2922     61.5733E-03     63.3028E-03
            2463            2922     61.5733E-03     63.3028E-03
            2445            2922     61.5733E-03     63.3028E-03
            2464            2923     56.3487E-03     58.0622E-03
            2446            2923     56.3487E-03     58.0622E-03
            2463            2923     56.3487E-03     58.0622E-03
            2445            2923     56.3487E-03     58.0622E-03
            2464            2924     51.1268E-03     52.8449E-03
            2446            2924     51.1268E-03     52.8449E-03
            2447            2924     51.1268E-03     52.8449E-03
            2465            2924     51.1268E-03     52.8449E-03
            2466            2925     45.9299E-03     47.6493E-03
            2448            2925     45.9299E-03     47.6493E-03
            2465            2925     45.9299E-03     47.6493E-03
            2447            2925     45.9299E-03     47.6493E-03
            2466            2926     40.7388E-03     42.4576E-03
            2448            2926     40.7388E-03     42.4576E-03
            2449            2926     40.7388E-03     42.4576E-03
            2467            2926     40.7388E-03     42.4576E-03
            2467            2927     35.5596E-03     37.2779E-03
            2468            2927     35.5596E-03     37.2779E-03
            2450            2927     35.5596E-03     37.2779E-03
            2449            2927     35.5596E-03     37.2779E-03
            2450            2928     30.3900E-03     32.0974E-03
            2451            2928     30.3900E-03     32.0974E-03
            2468            2928     30.3900E-03     32.0974E-03
            2469            2928     30.3900E-03     32.0974E-03
            2469            2929     25.2378E-03     26.9265E-03
            2451            2929     25.2378E-03     26.9265E-03
            2470            2929     25.2378E-03     26.9265E-03
            2452            2929     25.2378E-03     26.9265E-03
            2471            2930     20.0997E-03     21.7595E-03
            2470            2930     20.0997E-03     21.7595E-03
            2453            2930     20.0997E-03     21.7595E-03
            2452            2930     20.0997E-03     21.7595E-03
            2472            2931     14.9791E-03     16.6503E-03
            2453            2931     14.9791E-03     16.6503E-03
            2454            2931     14.9791E-03     16.6503E-03
            2471            2931     14.9791E-03     16.6503E-03
            2454            2932     9.91402E-03     11.7201E-03
            2473            2932     9.91402E-03     11.7201E-03
            2472            2932     9.91402E-03     11.7201E-03
            2455            2932     9.91402E-03     11.7201E-03
            2456            2933     5.26199E-03     6.87380E-03
            2473            2933     5.26199E-03     6.87380E-03
            2474            2933     5.26199E-03     6.87380E-03
            2455            2933     5.26199E-03     6.87380E-03
            2476            2934     89.9230E-03     91.5600E-03
            2458            2934     89.9230E-03     91.5600E-03
            2475            2934     89.9230E-03     91.5600E-03
            2457            2934     89.9230E-03     91.5600E-03
            2458            2935     81.5827E-03     84.1656E-03
            2476            2935     81.5827E-03     84.1656E-03
            2477            2935     81.5827E-03     84.1656E-03
            2459            2935     81.5827E-03     84.1656E-03
            2460            2936     75.8472E-03     78.2841E-03
            2459            2936     75.8472E-03     78.2841E-03
            2477            2936     75.8472E-03     78.2841E-03
            2478            2936     75.8472E-03     78.2841E-03
            2479            2937     70.8097E-03     73.2526E-03
            2460            2937     70.8097E-03     73.2526E-03
            2461            2937     70.8097E-03     73.2526E-03
            2478            2937     70.8097E-03     73.2526E-03
            2462            2938     65.6991E-03     68.2188E-03
            2480            2938     65.6991E-03     68.2188E-03
            2461            2938     65.6991E-03     68.2188E-03
            2479            2938     65.6991E-03     68.2188E-03
            2480            2939     60.6968E-03     63.1930E-03
            2463            2939     60.6968E-03     63.1930E-03
            2481            2939     60.6968E-03     63.1930E-03
            2462            2939     60.6968E-03     63.1930E-03
            2463            2940     55.5874E-03     58.1072E-03
            2482            2940     55.5874E-03     58.1072E-03
            2481            2940     55.5874E-03     58.1072E-03
            2464            2940     55.5874E-03     58.1072E-03
            2483            2941     50.4891E-03     53.0020E-03
            2465            2941     50.4891E-03     53.0020E-03
            2482            2941     50.4891E-03     53.0020E-03
            2464            2941     50.4891E-03     53.0020E-03
            2465            2942     45.3464E-03     47.8609E-03
            2466            2942     45.3464E-03     47.8609E-03
            2484            2942     45.3464E-03     47.8609E-03
            2483            2942     45.3464E-03     47.8609E-03
            2466            2943     40.2015E-03     42.7165E-03
            2467            2943     40.2015E-03     42.7165E-03
            2485            2943     40.2015E-03     42.7165E-03
            2484            2943     40.2015E-03     42.7165E-03
            2467            2944     35.0412E-03     37.5545E-03
            2486            2944     35.0412E-03     37.5545E-03
            2468            2944     35.0412E-03     37.5545E-03
            2485            2944     35.0412E-03     37.5545E-03
            2487            2945     29.8763E-03     32.3966E-03
            2486            2945     29.8763E-03     32.3966E-03
            2468            2945     29.8763E-03     32.3966E-03
            2469            2945     29.8763E-03     32.3966E-03
            2488            2946     24.7132E-03     27.2315E-03
            2470            2946     24.7132E-03     27.2315E-03
            2469            2946     24.7132E-03     27.2315E-03
            2487            2946     24.7132E-03     27.2315E-03
            2470            2947     19.5538E-03     22.0703E-03
            2489            2947     19.5538E-03     22.0703E-03
            2488            2947     19.5538E-03     22.0703E-03
            2471            2947     19.5538E-03     22.0703E-03
            2489            2948     14.4118E-03     16.9292E-03
            2490            2948     14.4118E-03     16.9292E-03
            2471            2948     14.4118E-03     16.9292E-03
            2472            2948     14.4118E-03     16.9292E-03
            2472            2949     9.43105E-03     11.6737E-03
            2491            2949     9.43105E-03     11.6737E-03
            2490            2949     9.43105E-03     11.6737E-03
            2473            2949     9.43105E-03     11.6737E-03
            2473            2950     4.56001E-03     6.65937E-03
            2474            2950     4.56001E-03     6.65937E-03
            2492            2950     4.56001E-03     6.65937E-03
            2491            2950     4.56001E-03     6.65937E-03
            2493            2951     3.16784E-03     3.16060E-03
            2512            2951     3.16784E-03     3.16060E-03
            2494            2951     3.16784E-03     3.16060E-03
            2511            2951     3.16784E-03     3.16060E-03
            2512            2952     3.89497E-03     3.05139E-03
            2494            2952     3.89497E-03     3.05139E-03
            2495            2952     3.89497E-03     3.05139E-03
            2513            2952     3.89497E-03     3.05139E-03
            2496            2953     5.28966E-03     4.46784E-03
            2513            2953     5.28966E-03     4.46784E-03
            2495            2953     5.28966E-03     4.46784E-03
            2514            2953     5.28966E-03     4.46784E-03
            2497            2954     5.88359E-03     5.14579E-03
            2496            2954     5.88359E-03     5.14579E-03
            2515            2954     5.88359E-03     5.14579E-03
            2514            2954     5.88359E-03     5.14579E-03
            2498            2955     6.09906E-03     5.41836E-03
            2515            2955     6.09906E-03     5.41836E-03
            2516            2955     6.09906E-03     5.41836E-03
            2497            2955     6.09906E-03     5.41836E-03
            2498            2956     6.10755E-03     5.47069E-03
            2499            2956     6.10755E-03     5.47069E-03
            2517            2956     6.10755E-03     5.47069E-03
            2516            2956     6.10755E-03     5.47069E-03
            2499            2957     6.00910E-03     5.42032E-03
            2518            2957     6.00910E-03     5.42032E-03
            2517            2957     6.00910E-03     5.42032E-03
            2500            2957     6.00910E-03     5.42032E-03
            2519            2958     5.86794E-03     5.32051E-03
            2518            2958     5.86794E-03     5.32051E-03
            2501            2958     5.86794E-03     5.32051E-03
            2500            2958     5.86794E-03     5.32051E-03
            2502            2959     5.70632E-03     5.20275E-03
            2520            2959     5.70632E-03     5.20275E-03
            2501            2959     5.70632E-03     5.20275E-03
            2519            2959     5.70632E-03     5.20275E-03
            2520            2960     5.54218E-03     5.08331E-03
            2503            2960     5.54218E-03     5.08331E-03
            2521            2960     5.54218E-03     5.08331E-03
            2502            2960     5.54218E-03     5.08331E-03
            2521            2961     5.38150E-03     4.96930E-03
            2522            2961     5.38150E-03     4.96930E-03
            2503            2961     5.38150E-03     4.96930E-03
            2504            2961     5.38150E-03     4.96930E-03
            2504            2962     5.23061E-03     4.86907E-03
            2523            2962     5.23061E-03     4.86907E-03
            2522            2962     5.23061E-03     4.86907E-03
            2505            2962     5.23061E-03     4.86907E-03
            2524            2963     5.08921E-03     4.78230E-03
            2506            2963     5.08921E-03     4.78230E-03
            2523            2963     5.08921E-03     4.78230E-03
            2505            2963     5.08921E-03     4.78230E-03
            2507            2964     4.95917E-03     4.72019E-03
            2506            2964     4.95917E-03     4.72019E-03
            2524            2964     4.95917E-03     4.72019E-03
            2525            2964     4.95917E-03     4.72019E-03
            2526            2965     4.82930E-03     4.68735E-03
            2508            2965     4.82930E-03     4.68735E-03
            2507            2965     4.82930E-03     4.68735E-03
            2525            2965     4.82930E-03     4.68735E-03
            2508            2966     4.67282E-03     4.73930E-03
            2527            2966     4.67282E-03     4.73930E-03
            2526            2966     4.67282E-03     4.73930E-03
            2509            2966     4.67282E-03     4.73930E-03
            2527            2967     4.53653E-03     4.88541E-03
            2528            2967     4.53653E-03     4.88541E-03
            2510            2967     4.53653E-03     4.88541E-03
            2509            2967     4.53653E-03     4.88541E-03
            2530            2968     3.89098E-03     3.70800E-03
            2511            2968     3.89098E-03     3.70800E-03
            2512            2968     3.89098E-03     3.70800E-03
            2529            2968     3.89098E-03     3.70800E-03
            2530            2969     4.46204E-03     4.27323E-03
            2512            2969     4.46204E-03     4.27323E-03
            2513            2969     4.46204E-03     4.27323E-03
            2531            2969     4.46204E-03     4.27323E-03
            2531            2970     5.85179E-03     5.50724E-03
            2513            2970     5.85179E-03     5.50724E-03
            2514            2970     5.85179E-03     5.50724E-03
            2532            2970     5.85179E-03     5.50724E-03
            2515            2971     6.27356E-03     5.90106E-03
            2533            2971     6.27356E-03     5.90106E-03
            2532            2971     6.27356E-03     5.90106E-03
            2514            2971     6.27356E-03     5.90106E-03
            2516            2972     6.31136E-03     5.93298E-03
            2534            2972     6.31136E-03     5.93298E-03
            2533            2972     6.31136E-03     5.93298E-03
            2515            2972     6.31136E-03     5.93298E-03
            2516            2973     6.14472E-03     5.78876E-03
            2535            2973     6.14472E-03     5.78876E-03
            2517            2973     6.14472E-03     5.78876E-03
            2534            2973     6.14472E-03     5.78876E-03
            2517            2974     5.93881E-03     5.60346E-03
            2518            2974     5.93881E-03     5.60346E-03
            2536            2974     5.93881E-03     5.60346E-03
            2535            2974     5.93881E-03     5.60346E-03
            2518            2975     5.71838E-03     5.40521E-03
            2519            2975     5.71838E-03     5.40521E-03
            2536            2975     5.71838E-03     5.40521E-03
            2537            2975     5.71838E-03     5.40521E-03
            2519            2976     5.50962E-03     5.21949E-03
            2520            2976     5.50962E-03     5.21949E-03
            2537            2976     5.50962E-03     5.21949E-03
            2538            2976     5.50962E-03     5.21949E-03
            2539            2977     5.31499E-03     5.04896E-03
            2520            2977     5.31499E-03     5.04896E-03
            2521            2977     5.31499E-03     5.04896E-03
            2538            2977     5.31499E-03     5.04896E-03
            2522            2978     5.13735E-03     4.89791E-03
            2539            2978     5.13735E-03     4.89791E-03
            2521            2978     5.13735E-03     4.89791E-03
            2540            2978     5.13735E-03     4.89791E-03
            2522            2979     4.97683E-03     4.76563E-03
            2540            2979     4.97683E-03     4.76563E-03
            2541            2979     4.97683E-03     4.76563E-03
            2523            2979     4.97683E-03     4.76563E-03
            2524            2980     4.83310E-03     4.65872E-03
            2523            2980     4.83310E-03     4.65872E-03
            2542            2980     4.83310E-03     4.65872E-03
            2541            2980     4.83310E-03     4.65872E-03
            2525            2981     4.71091E-03     4.57065E-03
            2524            2981     4.71091E-03     4.57065E-03
            2543            2981     4.71091E-03     4.57065E-03
            2542            2981     4.71091E-03     4.57065E-03
            2543            2982     4.58702E-03     4.52996E-03
            2544            2982     4.58702E-03     4.52996E-03
            2526            2982     4.58702E-03     4.52996E-03
            2525            2982     4.58702E-03     4.52996E-03
            2526            2983     4.50932E-03     4.53319E-03
            2545            2983     4.50932E-03     4.53319E-03
            2544            2983     4.50932E-03     4.53319E-03
            2527            2983     4.50932E-03     4.53319E-03
            2528            2984     4.58380E-03     4.42949E-03
            2546            2984     4.58380E-03     4.42949E-03
            2545            2984     4.58380E-03     4.42949E-03
            2527            2984     4.58380E-03     4.42949E-03
            2530            2985     5.55216E-03     5.50244E-03
            2548            2985     5.55216E-03     5.50244E-03
            2547            2985     5.55216E-03     5.50244E-03
            2529            2985     5.55216E-03     5.50244E-03
            2548            2986     5.35669E-03     5.54078E-03
            2549            2986     5.35669E-03     5.54078E-03
            2531            2986     5.35669E-03     5.54078E-03
            2530            2986     5.35669E-03     5.54078E-03
            2549            2987     6.18563E-03     6.24912E-03
            2531            2987     6.18563E-03     6.24912E-03
            2550            2987     6.18563E-03     6.24912E-03
            2532            2987     6.18563E-03     6.24912E-03
            2533            2988     6.48386E-03     6.42568E-03
            2551            2988     6.48386E-03     6.42568E-03
            2532            2988     6.48386E-03     6.42568E-03
            2550            2988     6.48386E-03     6.42568E-03
            2551            2989     6.32695E-03     6.26176E-03
            2534            2989     6.32695E-03     6.26176E-03
            2552            2989     6.32695E-03     6.26176E-03
            2533            2989     6.32695E-03     6.26176E-03
            2534            2990     6.08658E-03     6.01401E-03
            2535            2990     6.08658E-03     6.01401E-03
            2552            2990     6.08658E-03     6.01401E-03
            2553            2990     6.08658E-03     6.01401E-03
            2553            2991     5.80521E-03     5.73475E-03
            2554            2991     5.80521E-03     5.73475E-03
            2535            2991     5.80521E-03     5.73475E-03
            2536            2991     5.80521E-03     5.73475E-03
            2537            2992     5.54149E-03     5.47509E-03
            2555            2992     5.54149E-03     5.47509E-03
            2536            2992     5.54149E-03     5.47509E-03
            2554            2992     5.54149E-03     5.47509E-03
            2556            2993     5.30030E-03     5.23794E-03
            2538            2993     5.30030E-03     5.23794E-03
            2537            2993     5.30030E-03     5.23794E-03
            2555            2993     5.30030E-03     5.23794E-03
            2556            2994     5.08453E-03     5.02726E-03
            2539            2994     5.08453E-03     5.02726E-03
            2538            2994     5.08453E-03     5.02726E-03
            2557            2994     5.08453E-03     5.02726E-03
            2558            2995     4.89370E-03     4.84206E-03
            2557            2995     4.89370E-03     4.84206E-03
            2539            2995     4.89370E-03     4.84206E-03
            2540            2995     4.89370E-03     4.84206E-03
            2558            2996     4.72560E-03     4.68205E-03
            2559            2996     4.72560E-03     4.68205E-03
            2541            2996     4.72560E-03     4.68205E-03
            2540            2996     4.72560E-03     4.68205E-03
            2559            2997     4.58262E-03     4.54733E-03
            2542            2997     4.58262E-03     4.54733E-03
            2560            2997     4.58262E-03     4.54733E-03
            2541            2997     4.58262E-03     4.54733E-03
            2543            2998     4.46423E-03     4.44027E-03
            2560            2998     4.46423E-03     4.44027E-03
            2561            2998     4.46423E-03     4.44027E-03
            2542            2998     4.46423E-03     4.44027E-03
            2543            2999     4.39769E-03     4.34455E-03
            2544            2999     4.39769E-03     4.34455E-03
            2562            2999     4.39769E-03     4.34455E-03
            2561            2999     4.39769E-03     4.34455E-03
            2544            3000     4.40800E-03     4.20661E-03
            2563            3000     4.40800E-03     4.20661E-03
            2545            3000     4.40800E-03     4.20661E-03
            2562            3000     4.40800E-03     4.20661E-03
            2546            3001     4.43706E-03     4.05276E-03
            2564            3001     4.43706E-03     4.05276E-03
            2545            3001     4.43706E-03     4.05276E-03
            2563            3001     4.43706E-03     4.05276E-03
            2547            3002     7.49352E-03     7.67531E-03
            2566            3002     7.49352E-03     7.67531E-03
            2548            3002     7.49352E-03     7.67531E-03
            2565            3002     7.49352E-03     7.67531E-03
            2567            3003     6.68425E-03     6.88983E-03
            2566            3003     6.68425E-03     6.88983E-03
            2548            3003     6.68425E-03     6.88983E-03
            2549            3003     6.68425E-03     6.88983E-03
            2567            3004     6.54144E-03     6.80949E-03
            2550            3004     6.54144E-03     6.80949E-03
            2568            3004     6.54144E-03     6.80949E-03
            2549            3004     6.54144E-03     6.80949E-03
            2568            3005     6.38645E-03     6.63917E-03
            2551            3005     6.38645E-03     6.63917E-03
            2550            3005     6.38645E-03     6.63917E-03
            2569            3005     6.38645E-03     6.63917E-03
            2570            3006     6.15847E-03     6.38473E-03
            2552            3006     6.15847E-03     6.38473E-03
            2551            3006     6.15847E-03     6.38473E-03
            2569            3006     6.15847E-03     6.38473E-03
            2570            3007     5.87039E-03     6.07714E-03
            2552            3007     5.87039E-03     6.07714E-03
            2571            3007     5.87039E-03     6.07714E-03
            2553            3007     5.87039E-03     6.07714E-03
            2572            3008     5.57918E-03     5.77600E-03
            2554            3008     5.57918E-03     5.77600E-03
            2571            3008     5.57918E-03     5.77600E-03
            2553            3008     5.57918E-03     5.77600E-03
            2554            3009     5.30771E-03     5.49311E-03
            2572            3009     5.30771E-03     5.49311E-03
            2555            3009     5.30771E-03     5.49311E-03
            2573            3009     5.30771E-03     5.49311E-03
            2556            3010     5.05933E-03     5.23418E-03
            2574            3010     5.05933E-03     5.23418E-03
            2555            3010     5.05933E-03     5.23418E-03
            2573            3010     5.05933E-03     5.23418E-03
            2556            3011     4.83833E-03     5.00098E-03
            2557            3011     4.83833E-03     5.00098E-03
            2574            3011     4.83833E-03     5.00098E-03
            2575            3011     4.83833E-03     5.00098E-03
            2575            3012     4.64188E-03     4.79096E-03
            2557            3012     4.64188E-03     4.79096E-03
            2576            3012     4.64188E-03     4.79096E-03
            2558            3012     4.64188E-03     4.79096E-03
            2577            3013     4.47281E-03     4.60720E-03
            2558            3013     4.47281E-03     4.60720E-03
            2559            3013     4.47281E-03     4.60720E-03
            2576            3013     4.47281E-03     4.60720E-03
            2560            3014     4.33076E-03     4.44607E-03
            2578            3014     4.33076E-03     4.44607E-03
            2559            3014     4.33076E-03     4.44607E-03
            2577            3014     4.33076E-03     4.44607E-03
            2561            3015     4.22061E-03     4.31359E-03
            2560            3015     4.22061E-03     4.31359E-03
            2579            3015     4.22061E-03     4.31359E-03
            2578            3015     4.22061E-03     4.31359E-03
            2579            3016     4.17396E-03     4.17796E-03
            2580            3016     4.17396E-03     4.17796E-03
            2562            3016     4.17396E-03     4.17796E-03
            2561            3016     4.17396E-03     4.17796E-03
            2581            3017     4.19720E-03     3.99743E-03
            2580            3017     4.19720E-03     3.99743E-03
            2563            3017     4.19720E-03     3.99743E-03
            2562            3017     4.19720E-03     3.99743E-03
            2582            3018     4.23106E-03     3.84629E-03
            2563            3018     4.23106E-03     3.84629E-03
            2581            3018     4.23106E-03     3.84629E-03
            2564            3018     4.23106E-03     3.84629E-03
            2583            3019     9.71144E-03     9.69304E-03
            2565            3019     9.71144E-03     9.69304E-03
            2566            3019     9.71144E-03     9.69304E-03
            2584            3019     9.71144E-03     9.69304E-03
            2584            3020     7.72521E-03     8.05578E-03
            2567            3020     7.72521E-03     8.05578E-03
            2566            3020     7.72521E-03     8.05578E-03
            2585            3020     7.72521E-03     8.05578E-03
            2585            3021     6.57922E-03     7.10000E-03
            2586            3021     6.57922E-03     7.10000E-03
            2568            3021     6.57922E-03     7.10000E-03
            2567            3021     6.57922E-03     7.10000E-03
            2569            3022     6.10778E-03     6.65910E-03
            2568            3022     6.10778E-03     6.65910E-03
            2587            3022     6.10778E-03     6.65910E-03
            2586            3022     6.10778E-03     6.65910E-03
            2569            3023     5.82046E-03     6.33199E-03
            2570            3023     5.82046E-03     6.33199E-03
            2588            3023     5.82046E-03     6.33199E-03
            2587            3023     5.82046E-03     6.33199E-03
            2571            3024     5.53446E-03     6.02358E-03
            2588            3024     5.53446E-03     6.02358E-03
            2570            3024     5.53446E-03     6.02358E-03
            2589            3024     5.53446E-03     6.02358E-03
            2571            3025     5.27383E-03     5.73989E-03
            2590            3025     5.27383E-03     5.73989E-03
            2572            3025     5.27383E-03     5.73989E-03
            2589            3025     5.27383E-03     5.73989E-03
            2591            3026     5.02055E-03     5.46439E-03
            2572            3026     5.02055E-03     5.46439E-03
            2590            3026     5.02055E-03     5.46439E-03
            2573            3026     5.02055E-03     5.46439E-03
            2573            3027     4.78656E-03     5.20732E-03
            2592            3027     4.78656E-03     5.20732E-03
            2574            3027     4.78656E-03     5.20732E-03
            2591            3027     4.78656E-03     5.20732E-03
            2574            3028     4.57096E-03     4.96357E-03
            2593            3028     4.57096E-03     4.96357E-03
            2592            3028     4.57096E-03     4.96357E-03
            2575            3028     4.57096E-03     4.96357E-03
            2576            3029     4.37919E-03     4.74023E-03
            2575            3029     4.37919E-03     4.74023E-03
            2594            3029     4.37919E-03     4.74023E-03
            2593            3029     4.37919E-03     4.74023E-03
            2576            3030     4.21196E-03     4.53421E-03
            2594            3030     4.21196E-03     4.53421E-03
            2595            3030     4.21196E-03     4.53421E-03
            2577            3030     4.21196E-03     4.53421E-03
            2596            3031     4.07379E-03     4.35349E-03
            2577            3031     4.07379E-03     4.35349E-03
            2578            3031     4.07379E-03     4.35349E-03
            2595            3031     4.07379E-03     4.35349E-03
            2597            3032     3.97154E-03     4.18707E-03
            2596            3032     3.97154E-03     4.18707E-03
            2579            3032     3.97154E-03     4.18707E-03
            2578            3032     3.97154E-03     4.18707E-03
            2580            3033     3.89044E-03     4.05228E-03
            2579            3033     3.89044E-03     4.05228E-03
            2597            3033     3.89044E-03     4.05228E-03
            2598            3033     3.89044E-03     4.05228E-03
            2599            3034     3.87022E-03     3.94003E-03
            2598            3034     3.87022E-03     3.94003E-03
            2580            3034     3.87022E-03     3.94003E-03
            2581            3034     3.87022E-03     3.94003E-03
            2581            3035     3.96631E-03     3.75540E-03
            2599            3035     3.96631E-03     3.75540E-03
            2582            3035     3.96631E-03     3.75540E-03
            2600            3035     3.96631E-03     3.75540E-03
            2584            3036     11.0454E-03     11.8462E-03
            2601            3036     11.0454E-03     11.8462E-03
            2602            3036     11.0454E-03     11.8462E-03
            2583            3036     11.0454E-03     11.8462E-03
            2602            3037     7.71124E-03     8.64378E-03
            2603            3037     7.71124E-03     8.64378E-03
            2584            3037     7.71124E-03     8.64378E-03
            2585            3037     7.71124E-03     8.64378E-03
            2585            3038     6.32110E-03     7.22736E-03
            2603            3038     6.32110E-03     7.22736E-03
            2586            3038     6.32110E-03     7.22736E-03
            2604            3038     6.32110E-03     7.22736E-03
            2587            3039     5.76425E-03     6.61550E-03
            2604            3039     5.76425E-03     6.61550E-03
            2605            3039     5.76425E-03     6.61550E-03
            2586            3039     5.76425E-03     6.61550E-03
            2605            3040     5.40941E-03     6.22636E-03
            2587            3040     5.40941E-03     6.22636E-03
            2588            3040     5.40941E-03     6.22636E-03
            2606            3040     5.40941E-03     6.22636E-03
            2607            3041     5.16834E-03     5.94791E-03
            2606            3041     5.16834E-03     5.94791E-03
            2589            3041     5.16834E-03     5.94791E-03
            2588            3041     5.16834E-03     5.94791E-03
            2589            3042     4.93266E-03     5.67859E-03
            2590            3042     4.93266E-03     5.67859E-03
            2608            3042     4.93266E-03     5.67859E-03
            2607            3042     4.93266E-03     5.67859E-03
            2608            3043     4.70914E-03     5.42375E-03
            2609            3043     4.70914E-03     5.42375E-03
            2590            3043     4.70914E-03     5.42375E-03
            2591            3043     4.70914E-03     5.42375E-03
            2609            3044     4.49162E-03     5.16790E-03
            2591            3044     4.49162E-03     5.16790E-03
            2592            3044     4.49162E-03     5.16790E-03
            2610            3044     4.49162E-03     5.16790E-03
            2593            3045     4.28728E-03     4.92294E-03
            2610            3045     4.28728E-03     4.92294E-03
            2592            3045     4.28728E-03     4.92294E-03
            2611            3045     4.28728E-03     4.92294E-03
            2594            3046     4.10250E-03     4.68644E-03
            2611            3046     4.10250E-03     4.68644E-03
            2593            3046     4.10250E-03     4.68644E-03
            2612            3046     4.10250E-03     4.68644E-03
            2595            3047     3.94179E-03     4.46687E-03
            2613            3047     3.94179E-03     4.46687E-03
            2612            3047     3.94179E-03     4.46687E-03
            2594            3047     3.94179E-03     4.46687E-03
            2595            3048     3.80880E-03     4.26168E-03
            2613            3048     3.80880E-03     4.26168E-03
            2614            3048     3.80880E-03     4.26168E-03
            2596            3048     3.80880E-03     4.26168E-03
            2597            3049     3.70585E-03     4.07829E-03
            2596            3049     3.70585E-03     4.07829E-03
            2614            3049     3.70585E-03     4.07829E-03
            2615            3049     3.70585E-03     4.07829E-03
            2598            3050     3.62328E-03     3.92334E-03
            2597            3050     3.62328E-03     3.92334E-03
            2615            3050     3.62328E-03     3.92334E-03
            2616            3050     3.62328E-03     3.92334E-03
            2598            3051     3.54451E-03     3.83346E-03
            2617            3051     3.54451E-03     3.83346E-03
            2616            3051     3.54451E-03     3.83346E-03
            2599            3051     3.54451E-03     3.83346E-03
            2617            3052     3.50311E-03     3.80611E-03
            2618            3052     3.50311E-03     3.80611E-03
            2600            3052     3.50311E-03     3.80611E-03
            2599            3052     3.50311E-03     3.80611E-03
            2620            3053     11.4718E-03     11.7765E-03
            2619            3053     11.4718E-03     11.7765E-03
            2601            3053     11.4718E-03     11.7765E-03
            2602            3053     11.4718E-03     11.7765E-03
            2621            3054     10.5502E-03     10.5447E-03
            2603            3054     10.5502E-03     10.5447E-03
            2620            3054     10.5502E-03     10.5447E-03
            2602            3054     10.5502E-03     10.5447E-03
            2621            3055     10.2682E-03     10.2450E-03
            2603            3055     10.2682E-03     10.2450E-03
            2604            3055     10.2682E-03     10.2450E-03
            2622            3055     10.2682E-03     10.2450E-03
            2605            3056     10.0493E-03     10.0755E-03
            2604            3056     10.0493E-03     10.0755E-03
            2622            3056     10.0493E-03     10.0755E-03
            2623            3056     10.0493E-03     10.0755E-03
            2605            3057     9.81499E-03     9.87925E-03
            2606            3057     9.81499E-03     9.87925E-03
            2624            3057     9.81499E-03     9.87925E-03
            2623            3057     9.81499E-03     9.87925E-03
            2607            3058     9.53432E-03     9.63098E-03
            2624            3058     9.53432E-03     9.63098E-03
            2606            3058     9.53432E-03     9.63098E-03
            2625            3058     9.53432E-03     9.63098E-03
            2608            3059     9.18377E-03     9.30043E-03
            2625            3059     9.18377E-03     9.30043E-03
            2626            3059     9.18377E-03     9.30043E-03
            2607            3059     9.18377E-03     9.30043E-03
            2627            3060     8.78919E-03     8.91946E-03
            2609            3060     8.78919E-03     8.91946E-03
            2626            3060     8.78919E-03     8.91946E-03
            2608            3060     8.78919E-03     8.91946E-03
            2610            3061     8.36093E-03     8.49538E-03
            2627            3061     8.36093E-03     8.49538E-03
            2628            3061     8.36093E-03     8.49538E-03
            2609            3061     8.36093E-03     8.49538E-03
            2610            3062     7.92223E-03     8.05508E-03
            2628            3062     7.92223E-03     8.05508E-03
            2629            3062     7.92223E-03     8.05508E-03
            2611            3062     7.92223E-03     8.05508E-03
            2611            3063     7.48583E-03     7.60933E-03
            2629            3063     7.48583E-03     7.60933E-03
            2630            3063     7.48583E-03     7.60933E-03
            2612            3063     7.48583E-03     7.60933E-03
            2613            3064     7.07047E-03     7.17926E-03
            2630            3064     7.07047E-03     7.17926E-03
            2631            3064     7.07047E-03     7.17926E-03
            2612            3064     7.07047E-03     7.17926E-03
            2613            3065     6.68403E-03     6.76909E-03
            2614            3065     6.68403E-03     6.76909E-03
            2631            3065     6.68403E-03     6.76909E-03
            2632            3065     6.68403E-03     6.76909E-03
            2633            3066     6.34197E-03     6.41498E-03
            2614            3066     6.34197E-03     6.41498E-03
            2632            3066     6.34197E-03     6.41498E-03
            2615            3066     6.34197E-03     6.41498E-03
            2615            3067     6.04055E-03     6.09978E-03
            2633            3067     6.04055E-03     6.09978E-03
            2634            3067     6.04055E-03     6.09978E-03
            2616            3067     6.04055E-03     6.09978E-03
            2617            3068     5.77047E-03     5.94128E-03
            2634            3068     5.77047E-03     5.94128E-03
            2635            3068     5.77047E-03     5.94128E-03
            2616            3068     5.77047E-03     5.94128E-03
            2635            3069     5.31869E-03     6.04260E-03
            2636            3069     5.31869E-03     6.04260E-03
            2618            3069     5.31869E-03     6.04260E-03
            2617            3069     5.31869E-03     6.04260E-03
            2638            3070     12.6101E-03     11.8985E-03
            2637            3070     12.6101E-03     11.8985E-03
            2619            3070     12.6101E-03     11.8985E-03
            2620            3070     12.6101E-03     11.8985E-03
            2639            3071     14.1001E-03     13.2898E-03
            2620            3071     14.1001E-03     13.2898E-03
            2621            3071     14.1001E-03     13.2898E-03
            2638            3071     14.1001E-03     13.2898E-03
            2621            3072     14.9042E-03     14.0919E-03
            2640            3072     14.9042E-03     14.0919E-03
            2622            3072     14.9042E-03     14.0919E-03
            2639            3072     14.9042E-03     14.0919E-03
            2640            3073     15.0480E-03     14.3051E-03
            2641            3073     15.0480E-03     14.3051E-03
            2622            3073     15.0480E-03     14.3051E-03
            2623            3073     15.0480E-03     14.3051E-03
            2624            3074     14.8589E-03     14.1814E-03
            2641            3074     14.8589E-03     14.1814E-03
            2642            3074     14.8589E-03     14.1814E-03
            2623            3074     14.8589E-03     14.1814E-03
            2642            3075     14.4268E-03     13.8149E-03
            2625            3075     14.4268E-03     13.8149E-03
            2624            3075     14.4268E-03     13.8149E-03
            2643            3075     14.4268E-03     13.8149E-03
            2644            3076     13.8494E-03     13.2935E-03
            2626            3076     13.8494E-03     13.2935E-03
            2625            3076     13.8494E-03     13.2935E-03
            2643            3076     13.8494E-03     13.2935E-03
            2645            3077     13.1728E-03     12.6632E-03
            2626            3077     13.1728E-03     12.6632E-03
            2644            3077     13.1728E-03     12.6632E-03
            2627            3077     13.1728E-03     12.6632E-03
            2645            3078     12.4388E-03     11.9723E-03
            2628            3078     12.4388E-03     11.9723E-03
            2627            3078     12.4388E-03     11.9723E-03
            2646            3078     12.4388E-03     11.9723E-03
            2646            3079     11.6795E-03     11.2486E-03
            2647            3079     11.6795E-03     11.2486E-03
            2629            3079     11.6795E-03     11.2486E-03
            2628            3079     11.6795E-03     11.2486E-03
            2630            3080     10.9165E-03     10.5237E-03
            2648            3080     10.9165E-03     10.5237E-03
            2647            3080     10.9165E-03     10.5237E-03
            2629            3080     10.9165E-03     10.5237E-03
            2631            3081     10.1765E-03     9.82121E-03
            2630            3081     10.1765E-03     9.82121E-03
            2649            3081     10.1765E-03     9.82121E-03
            2648            3081     10.1765E-03     9.82121E-03
            2650            3082     9.47203E-03     9.16936E-03
            2649            3082     9.47203E-03     9.16936E-03
            2632            3082     9.47203E-03     9.16936E-03
            2631            3082     9.47203E-03     9.16936E-03
            2651            3083     8.82695E-03     8.60214E-03
            2650            3083     8.82695E-03     8.60214E-03
            2633            3083     8.82695E-03     8.60214E-03
            2632            3083     8.82695E-03     8.60214E-03
            2651            3084     8.23731E-03     8.15581E-03
            2652            3084     8.23731E-03     8.15581E-03
            2633            3084     8.23731E-03     8.15581E-03
            2634            3084     8.23731E-03     8.15581E-03
            2634            3085     7.67783E-03     7.96046E-03
            2653            3085     7.67783E-03     7.96046E-03
            2635            3085     7.67783E-03     7.96046E-03
            2652            3085     7.67783E-03     7.96046E-03
            2636            3086     7.23990E-03     8.06193E-03
            2635            3086     7.23990E-03     8.06193E-03
            2653            3086     7.23990E-03     8.06193E-03
            2654            3086     7.23990E-03     8.06193E-03
            2638            3087     14.6269E-03     14.6285E-03
            2656            3087     14.6269E-03     14.6285E-03
            2655            3087     14.6269E-03     14.6285E-03
            2637            3087     14.6269E-03     14.6285E-03
            2638            3088     15.1683E-03     15.1333E-03
            2656            3088     15.1683E-03     15.1333E-03
            2639            3088     15.1683E-03     15.1333E-03
            2657            3088     15.1683E-03     15.1333E-03
            2640            3089     15.9157E-03     15.6998E-03
            2658            3089     15.9157E-03     15.6998E-03
            2657            3089     15.9157E-03     15.6998E-03
            2639            3089     15.9157E-03     15.6998E-03
            2659            3090     15.9951E-03     15.6826E-03
            2640            3090     15.9951E-03     15.6826E-03
            2641            3090     15.9951E-03     15.6826E-03
            2658            3090     15.9951E-03     15.6826E-03
            2642            3091     15.6597E-03     15.3150E-03
            2641            3091     15.6597E-03     15.3150E-03
            2659            3091     15.6597E-03     15.3150E-03
            2660            3091     15.6597E-03     15.3150E-03
            2642            3092     15.0622E-03     14.7111E-03
            2661            3092     15.0622E-03     14.7111E-03
            2660            3092     15.0622E-03     14.7111E-03
            2643            3092     15.0622E-03     14.7111E-03
            2644            3093     14.3032E-03     13.9605E-03
            2662            3093     14.3032E-03     13.9605E-03
            2661            3093     14.3032E-03     13.9605E-03
            2643            3093     14.3032E-03     13.9605E-03
            2662            3094     13.4518E-03     13.1258E-03
            2663            3094     13.4518E-03     13.1258E-03
            2644            3094     13.4518E-03     13.1258E-03
            2645            3094     13.4518E-03     13.1258E-03
            2663            3095     12.5567E-03     12.2480E-03
            2664            3095     12.5567E-03     12.2480E-03
            2646            3095     12.5567E-03     12.2480E-03
            2645            3095     12.5567E-03     12.2480E-03
            2665            3096     11.6471E-03     11.3608E-03
            2646            3096     11.6471E-03     11.3608E-03
            2664            3096     11.6471E-03     11.3608E-03
            2647            3096     11.6471E-03     11.3608E-03
            2647            3097     10.7501E-03     10.4900E-03
            2666            3097     10.7501E-03     10.4900E-03
            2665            3097     10.7501E-03     10.4900E-03
            2648            3097     10.7501E-03     10.4900E-03
            2667            3098     9.88278E-03     9.65971E-03
            2666            3098     9.88278E-03     9.65971E-03
            2649            3098     9.88278E-03     9.65971E-03
            2648            3098     9.88278E-03     9.65971E-03
            2668            3099     9.06043E-03     8.90165E-03
            2649            3099     9.06043E-03     8.90165E-03
            2667            3099     9.06043E-03     8.90165E-03
            2650            3099     9.06043E-03     8.90165E-03
            2650            3100     8.30254E-03     8.24524E-03
            2668            3100     8.30254E-03     8.24524E-03
            2669            3100     8.30254E-03     8.24524E-03
            2651            3100     8.30254E-03     8.24524E-03
            2669            3101     7.60446E-03     7.75683E-03
            2670            3101     7.60446E-03     7.75683E-03
            2651            3101     7.60446E-03     7.75683E-03
            2652            3101     7.60446E-03     7.75683E-03
            2652            3102     7.04798E-03     7.47881E-03
            2670            3102     7.04798E-03     7.47881E-03
            2653            3102     7.04798E-03     7.47881E-03
            2671            3102     7.04798E-03     7.47881E-03
            2653            3103     6.88601E-03     7.17506E-03
            2654            3103     6.88601E-03     7.17506E-03
            2671            3103     6.88601E-03     7.17506E-03
            2672            3103     6.88601E-03     7.17506E-03
            2674            3104     16.9550E-03     17.0359E-03
            2655            3104     16.9550E-03     17.0359E-03
            2656            3104     16.9550E-03     17.0359E-03
            2673            3104     16.9550E-03     17.0359E-03
            2675            3105     16.6602E-03     16.9197E-03
            2657            3105     16.6602E-03     16.9197E-03
            2656            3105     16.6602E-03     16.9197E-03
            2674            3105     16.6602E-03     16.9197E-03
            2676            3106     16.8568E-03     17.0304E-03
            2657            3106     16.8568E-03     17.0304E-03
            2658            3106     16.8568E-03     17.0304E-03
            2675            3106     16.8568E-03     17.0304E-03
            2659            3107     16.7746E-03     16.8237E-03
            2677            3107     16.7746E-03     16.8237E-03
            2676            3107     16.7746E-03     16.8237E-03
            2658            3107     16.7746E-03     16.8237E-03
            2659            3108     16.2942E-03     16.2567E-03
            2678            3108     16.2942E-03     16.2567E-03
            2677            3108     16.2942E-03     16.2567E-03
            2660            3108     16.2942E-03     16.2567E-03
            2678            3109     15.5567E-03     15.4671E-03
            2679            3109     15.5567E-03     15.4671E-03
            2660            3109     15.5567E-03     15.4671E-03
            2661            3109     15.5567E-03     15.4671E-03
            2680            3110     14.6530E-03     14.5395E-03
            2662            3110     14.6530E-03     14.5395E-03
            2679            3110     14.6530E-03     14.5395E-03
            2661            3110     14.6530E-03     14.5395E-03
            2663            3111     13.6671E-03     13.5403E-03
            2662            3111     13.6671E-03     13.5403E-03
            2680            3111     13.6671E-03     13.5403E-03
            2681            3111     13.6671E-03     13.5403E-03
            2663            3112     12.6399E-03     12.5134E-03
            2664            3112     12.6399E-03     12.5134E-03
            2681            3112     12.6399E-03     12.5134E-03
            2682            3112     12.6399E-03     12.5134E-03
            2664            3113     11.6112E-03     11.4910E-03
            2665            3113     11.6112E-03     11.4910E-03
            2683            3113     11.6112E-03     11.4910E-03
            2682            3113     11.6112E-03     11.4910E-03
            2684            3114     10.5999E-03     10.4959E-03
            2683            3114     10.5999E-03     10.4959E-03
            2666            3114     10.5999E-03     10.4959E-03
            2665            3114     10.5999E-03     10.4959E-03
            2684            3115     9.62461E-03     9.55311E-03
            2667            3115     9.62461E-03     9.55311E-03
            2666            3115     9.62461E-03     9.55311E-03
            2685            3115     9.62461E-03     9.55311E-03
            2685            3116     8.70510E-03     8.68693E-03
            2667            3116     8.70510E-03     8.68693E-03
            2686            3116     8.70510E-03     8.68693E-03
            2668            3116     8.70510E-03     8.68693E-03
            2668            3117     7.85500E-03     7.93005E-03
            2669            3117     7.85500E-03     7.93005E-03
            2686            3117     7.85500E-03     7.93005E-03
            2687            3117     7.85500E-03     7.93005E-03
            2669            3118     7.12358E-03     7.32372E-03
            2670            3118     7.12358E-03     7.32372E-03
            2688            3118     7.12358E-03     7.32372E-03
            2687            3118     7.12358E-03     7.32372E-03
            2688            3119     6.63661E-03     6.78631E-03
            2670            3119     6.63661E-03     6.78631E-03
            2689            3119     6.63661E-03     6.78631E-03
            2671            3119     6.63661E-03     6.78631E-03
            2690            3120     6.37086E-03     6.29400E-03
            2672            3120     6.37086E-03     6.29400E-03
            2671            3120     6.37086E-03     6.29400E-03
            2689            3120     6.37086E-03     6.29400E-03
            2691            3121     19.0737E-03     19.2434E-03
            2674            3121     19.0737E-03     19.2434E-03
            2673            3121     19.0737E-03     19.2434E-03
            2692            3121     19.0737E-03     19.2434E-03
            2693            3122     18.3141E-03     18.6164E-03
            2674            3122     18.3141E-03     18.6164E-03
            2675            3122     18.3141E-03     18.6164E-03
            2692            3122     18.3141E-03     18.6164E-03
            2694            3123     17.8875E-03     18.2487E-03
            2676            3123     17.8875E-03     18.2487E-03
            2693            3123     17.8875E-03     18.2487E-03
            2675            3123     17.8875E-03     18.2487E-03
            2695            3124     17.4517E-03     17.7404E-03
            2694            3124     17.4517E-03     17.7404E-03
            2676            3124     17.4517E-03     17.7404E-03
            2677            3124     17.4517E-03     17.7404E-03
            2696            3125     16.7743E-03     16.9805E-03
            2678            3125     16.7743E-03     16.9805E-03
            2695            3125     16.7743E-03     16.9805E-03
            2677            3125     16.7743E-03     16.9805E-03
            2678            3126     15.8775E-03     16.0244E-03
            2697            3126     15.8775E-03     16.0244E-03
            2696            3126     15.8775E-03     16.0244E-03
            2679            3126     15.8775E-03     16.0244E-03
            2680            3127     14.8553E-03     14.9551E-03
            2698            3127     14.8553E-03     14.9551E-03
            2697            3127     14.8553E-03     14.9551E-03
            2679            3127     14.8553E-03     14.9551E-03
            2680            3128     13.7551E-03     13.8308E-03
            2699            3128     13.7551E-03     13.8308E-03
            2681            3128     13.7551E-03     13.8308E-03
            2698            3128     13.7551E-03     13.8308E-03
            2700            3129     12.6354E-03     12.6945E-03
            2681            3129     12.6354E-03     12.6945E-03
            2682            3129     12.6354E-03     12.6945E-03
            2699            3129     12.6354E-03     12.6945E-03
            2701            3130     11.5155E-03     11.5701E-03
            2683            3130     11.5155E-03     11.5701E-03
            2700            3130     11.5155E-03     11.5701E-03
            2682            3130     11.5155E-03     11.5701E-03
            2701            3131     10.4209E-03     10.4807E-03
            2702            3131     10.4209E-03     10.4807E-03
            2683            3131     10.4209E-03     10.4807E-03
            2684            3131     10.4209E-03     10.4807E-03
            2702            3132     9.36669E-03     9.44381E-03
            2685            3132     9.36669E-03     9.44381E-03
            2703            3132     9.36669E-03     9.44381E-03
            2684            3132     9.36669E-03     9.44381E-03
            2704            3133     8.37169E-03     8.47961E-03
            2703            3133     8.37169E-03     8.47961E-03
            2686            3133     8.37169E-03     8.47961E-03
            2685            3133     8.37169E-03     8.47961E-03
            2705            3134     7.46595E-03     7.61633E-03
            2687            3134     7.46595E-03     7.61633E-03
            2704            3134     7.46595E-03     7.61633E-03
            2686            3134     7.46595E-03     7.61633E-03
            2706            3135     6.71603E-03     6.84586E-03
            2688            3135     6.71603E-03     6.84586E-03
            2705            3135     6.71603E-03     6.84586E-03
            2687            3135     6.71603E-03     6.84586E-03
            2688            3136     6.15835E-03     6.17603E-03
            2707            3136     6.15835E-03     6.17603E-03
            2689            3136     6.15835E-03     6.17603E-03
            2706            3136     6.15835E-03     6.17603E-03
            2707            3137     5.83809E-03     5.72189E-03
            2689            3137     5.83809E-03     5.72189E-03
            2708            3137     5.83809E-03     5.72189E-03
            2690            3137     5.83809E-03     5.72189E-03
            2709            3138     21.0980E-03     21.3016E-03
            2691            3138     21.0980E-03     21.3016E-03
            2692            3138     21.0980E-03     21.3016E-03
            2710            3138     21.0980E-03     21.3016E-03
            2692            3139     19.8570E-03     20.2308E-03
            2711            3139     19.8570E-03     20.2308E-03
            2693            3139     19.8570E-03     20.2308E-03
            2710            3139     19.8570E-03     20.2308E-03
            2711            3140     18.9589E-03     19.3807E-03
            2694            3140     18.9589E-03     19.3807E-03
            2693            3140     18.9589E-03     19.3807E-03
            2712            3140     18.9589E-03     19.3807E-03
            2695            3141     18.0737E-03     18.5061E-03
            2712            3141     18.0737E-03     18.5061E-03
            2694            3141     18.0737E-03     18.5061E-03
            2713            3141     18.0737E-03     18.5061E-03
            2714            3142     17.1106E-03     17.5021E-03
            2695            3142     17.1106E-03     17.5021E-03
            2696            3142     17.1106E-03     17.5021E-03
            2713            3142     17.1106E-03     17.5021E-03
            2715            3143     16.0411E-03     16.3752E-03
            2697            3143     16.0411E-03     16.3752E-03
            2696            3143     16.0411E-03     16.3752E-03
            2714            3143     16.0411E-03     16.3752E-03
            2698            3144     14.8842E-03     15.1820E-03
            2716            3144     14.8842E-03     15.1820E-03
            2715            3144     14.8842E-03     15.1820E-03
            2697            3144     14.8842E-03     15.1820E-03
            2698            3145     13.7043E-03     13.9673E-03
            2717            3145     13.7043E-03     13.9673E-03
            2716            3145     13.7043E-03     13.9673E-03
            2699            3145     13.7043E-03     13.9673E-03
            2700            3146     12.5113E-03     12.7528E-03
            2699            3146     12.5113E-03     12.7528E-03
            2718            3146     12.5113E-03     12.7528E-03
            2717            3146     12.5113E-03     12.7528E-03
            2700            3147     11.3348E-03     11.5619E-03
            2718            3147     11.3348E-03     11.5619E-03
            2701            3147     11.3348E-03     11.5619E-03
            2719            3147     11.3348E-03     11.5619E-03
            2719            3148     10.1844E-03     10.4053E-03
            2701            3148     10.1844E-03     10.4053E-03
            2702            3148     10.1844E-03     10.4053E-03
            2720            3148     10.1844E-03     10.4053E-03
            2702            3149     9.07797E-03     9.29721E-03
            2703            3149     9.07797E-03     9.29721E-03
            2721            3149     9.07797E-03     9.29721E-03
            2720            3149     9.07797E-03     9.29721E-03
            2704            3150     8.03351E-03     8.25318E-03
            2721            3150     8.03351E-03     8.25318E-03
            2722            3150     8.03351E-03     8.25318E-03
            2703            3150     8.03351E-03     8.25318E-03
            2705            3151     7.08896E-03     7.28384E-03
            2722            3151     7.08896E-03     7.28384E-03
            2704            3151     7.08896E-03     7.28384E-03
            2723            3151     7.08896E-03     7.28384E-03
            2706            3152     6.28411E-03     6.40340E-03
            2705            3152     6.28411E-03     6.40340E-03
            2724            3152     6.28411E-03     6.40340E-03
            2723            3152     6.28411E-03     6.40340E-03
            2724            3153     5.67710E-03     5.67265E-03
            2706            3153     5.67710E-03     5.67265E-03
            2707            3153     5.67710E-03     5.67265E-03
            2725            3153     5.67710E-03     5.67265E-03
            2708            3154     5.32227E-03     5.12165E-03
            2707            3154     5.32227E-03     5.12165E-03
            2726            3154     5.32227E-03     5.12165E-03
            2725            3154     5.32227E-03     5.12165E-03
            2710            3155     22.9985E-03     23.3056E-03
            2727            3155     22.9985E-03     23.3056E-03
            2728            3155     22.9985E-03     23.3056E-03
            2709            3155     22.9985E-03     23.3056E-03
            2729            3156     21.3664E-03     21.7372E-03
            2711            3156     21.3664E-03     21.7372E-03
            2710            3156     21.3664E-03     21.7372E-03
            2728            3156     21.3664E-03     21.7372E-03
            2712            3157     19.9198E-03     20.4135E-03
            2730            3157     19.9198E-03     20.4135E-03
            2711            3157     19.9198E-03     20.4135E-03
            2729            3157     19.9198E-03     20.4135E-03
            2731            3158     18.6019E-03     19.1280E-03
            2713            3158     18.6019E-03     19.1280E-03
            2712            3158     18.6019E-03     19.1280E-03
            2730            3158     18.6019E-03     19.1280E-03
            2731            3159     17.3125E-03     17.8262E-03
            2732            3159     17.3125E-03     17.8262E-03
            2713            3159     17.3125E-03     17.8262E-03
            2714            3159     17.3125E-03     17.8262E-03
            2732            3160     16.0215E-03     16.5217E-03
            2733            3160     16.0215E-03     16.5217E-03
            2714            3160     16.0215E-03     16.5217E-03
            2715            3160     16.0215E-03     16.5217E-03
            2715            3161     14.7613E-03     15.2275E-03
            2734            3161     14.7613E-03     15.2275E-03
            2716            3161     14.7613E-03     15.2275E-03
            2733            3161     14.7613E-03     15.2275E-03
            2716            3162     13.5050E-03     13.9431E-03
            2735            3162     13.5050E-03     13.9431E-03
            2734            3162     13.5050E-03     13.9431E-03
            2717            3162     13.5050E-03     13.9431E-03
            2717            3163     12.2713E-03     12.6852E-03
            2718            3163     12.2713E-03     12.6852E-03
            2735            3163     12.2713E-03     12.6852E-03
            2736            3163     12.2713E-03     12.6852E-03
            2737            3164     11.0595E-03     11.4535E-03
            2736            3164     11.0595E-03     11.4535E-03
            2718            3164     11.0595E-03     11.4535E-03
            2719            3164     11.0595E-03     11.4535E-03
            2738            3165     9.87976E-03     10.2572E-03
            2737            3165     9.87976E-03     10.2572E-03
            2719            3165     9.87976E-03     10.2572E-03
            2720            3165     9.87976E-03     10.2572E-03
            2720            3166     8.74171E-03     9.10189E-03
            2721            3166     8.74171E-03     9.10189E-03
            2739            3166     8.74171E-03     9.10189E-03
            2738            3166     8.74171E-03     9.10189E-03
            2721            3167     7.66709E-03     7.99598E-03
            2740            3167     7.66709E-03     7.99598E-03
            2722            3167     7.66709E-03     7.99598E-03
            2739            3167     7.66709E-03     7.99598E-03
            2740            3168     6.68260E-03     6.94902E-03
            2723            3168     6.68260E-03     6.94902E-03
            2722            3168     6.68260E-03     6.94902E-03
            2741            3168     6.68260E-03     6.94902E-03
            2723            3169     5.83230E-03     5.99731E-03
            2741            3169     5.83230E-03     5.99731E-03
            2742            3169     5.83230E-03     5.99731E-03
            2724            3169     5.83230E-03     5.99731E-03
            2724            3170     5.17854E-03     5.17221E-03
            2742            3170     5.17854E-03     5.17221E-03
            2743            3170     5.17854E-03     5.17221E-03
            2725            3170     5.17854E-03     5.17221E-03
            2744            3171     4.77201E-03     4.57812E-03
            2726            3171     4.77201E-03     4.57812E-03
            2725            3171     4.77201E-03     4.57812E-03
            2743            3171     4.77201E-03     4.57812E-03
            2728            3172     24.9435E-03     25.2214E-03
            2745            3172     24.9435E-03     25.2214E-03
            2746            3172     24.9435E-03     25.2214E-03
            2727            3172     24.9435E-03     25.2214E-03
            2746            3173     22.7173E-03     23.1918E-03
            2747            3173     22.7173E-03     23.1918E-03
            2728            3173     22.7173E-03     23.1918E-03
            2729            3173     22.7173E-03     23.1918E-03
            2748            3174     20.7557E-03     21.2851E-03
            2747            3174     20.7557E-03     21.2851E-03
            2730            3174     20.7557E-03     21.2851E-03
            2729            3174     20.7557E-03     21.2851E-03
            2730            3175     18.9419E-03     19.5270E-03
            2748            3175     18.9419E-03     19.5270E-03
            2749            3175     18.9419E-03     19.5270E-03
            2731            3175     18.9419E-03     19.5270E-03
            2731            3176     17.2941E-03     17.9350E-03
            2750            3176     17.2941E-03     17.9350E-03
            2749            3176     17.2941E-03     17.9350E-03
            2732            3176     17.2941E-03     17.9350E-03
            2751            3177     15.8460E-03     16.4826E-03
            2750            3177     15.8460E-03     16.4826E-03
            2732            3177     15.8460E-03     16.4826E-03
            2733            3177     15.8460E-03     16.4826E-03
            2751            3178     14.4824E-03     15.1024E-03
            2733            3178     14.4824E-03     15.1024E-03
            2752            3178     14.4824E-03     15.1024E-03
            2734            3178     14.4824E-03     15.1024E-03
            2752            3179     13.1838E-03     13.7836E-03
            2753            3179     13.1838E-03     13.7836E-03
            2735            3179     13.1838E-03     13.7836E-03
            2734            3179     13.1838E-03     13.7836E-03
            2753            3180     11.9261E-03     12.5030E-03
            2754            3180     11.9261E-03     12.5030E-03
            2736            3180     11.9261E-03     12.5030E-03
            2735            3180     11.9261E-03     12.5030E-03
            2754            3181     10.7009E-03     11.2580E-03
            2736            3181     10.7009E-03     11.2580E-03
            2755            3181     10.7009E-03     11.2580E-03
            2737            3181     10.7009E-03     11.2580E-03
            2755            3182     9.50881E-03     10.0436E-03
            2738            3182     9.50881E-03     10.0436E-03
            2737            3182     9.50881E-03     10.0436E-03
            2756            3182     9.50881E-03     10.0436E-03
            2756            3183     8.35604E-03     8.86166E-03
            2757            3183     8.35604E-03     8.86166E-03
            2739            3183     8.35604E-03     8.86166E-03
            2738            3183     8.35604E-03     8.86166E-03
            2739            3184     7.25694E-03     7.71633E-03
            2758            3184     7.25694E-03     7.71633E-03
            2757            3184     7.25694E-03     7.71633E-03
            2740            3184     7.25694E-03     7.71633E-03
            2741            3185     6.24059E-03     6.62167E-03
            2758            3185     6.24059E-03     6.62167E-03
            2740            3185     6.24059E-03     6.62167E-03
            2759            3185     6.24059E-03     6.62167E-03
            2742            3186     5.35118E-03     5.59357E-03
            2759            3186     5.35118E-03     5.59357E-03
            2760            3186     5.35118E-03     5.59357E-03
            2741            3186     5.35118E-03     5.59357E-03
            2742            3187     4.64112E-03     4.70339E-03
            2760            3187     4.64112E-03     4.70339E-03
            2743            3187     4.64112E-03     4.70339E-03
            2761            3187     4.64112E-03     4.70339E-03
            2761            3188     4.20401E-03     4.03752E-03
            2744            3188     4.20401E-03     4.03752E-03
            2762            3188     4.20401E-03     4.03752E-03
            2743            3188     4.20401E-03     4.03752E-03
            2746            3189     26.7602E-03     27.2693E-03
            2745            3189     26.7602E-03     27.2693E-03
            2764            3189     26.7602E-03     27.2693E-03
            2763            3189     26.7602E-03     27.2693E-03
            2764            3190     24.0044E-03     24.4243E-03
            2747            3190     24.0044E-03     24.4243E-03
            2746            3190     24.0044E-03     24.4243E-03
            2765            3190     24.0044E-03     24.4243E-03
            2748            3191     21.2633E-03     21.8176E-03
            2747            3191     21.2633E-03     21.8176E-03
            2765            3191     21.2633E-03     21.8176E-03
            2766            3191     21.2633E-03     21.8176E-03
            2749            3192     18.9033E-03     19.6177E-03
            2748            3192     18.9033E-03     19.6177E-03
            2766            3192     18.9033E-03     19.6177E-03
            2767            3192     18.9033E-03     19.6177E-03
            2750            3193     17.0784E-03     17.8362E-03
            2767            3193     17.0784E-03     17.8362E-03
            2749            3193     17.0784E-03     17.8362E-03
            2768            3193     17.0784E-03     17.8362E-03
            2751            3194     15.5035E-03     16.2686E-03
            2750            3194     15.5035E-03     16.2686E-03
            2768            3194     15.5035E-03     16.2686E-03
            2769            3194     15.5035E-03     16.2686E-03
            2769            3195     14.0877E-03     14.8523E-03
            2770            3195     14.0877E-03     14.8523E-03
            2751            3195     14.0877E-03     14.8523E-03
            2752            3195     14.0877E-03     14.8523E-03
            2770            3196     12.7701E-03     13.5197E-03
            2753            3196     12.7701E-03     13.5197E-03
            2771            3196     12.7701E-03     13.5197E-03
            2752            3196     12.7701E-03     13.5197E-03
            2754            3197     11.5054E-03     12.2427E-03
            2771            3197     11.5054E-03     12.2427E-03
            2772            3197     11.5054E-03     12.2427E-03
            2753            3197     11.5054E-03     12.2427E-03
            2772            3198     10.2822E-03     11.0013E-03
            2755            3198     10.2822E-03     11.0013E-03
            2754            3198     10.2822E-03     11.0013E-03
            2773            3198     10.2822E-03     11.0013E-03
            2755            3199     9.08794E-03     9.78621E-03
            2773            3199     9.08794E-03     9.78621E-03
            2756            3199     9.08794E-03     9.78621E-03
            2774            3199     9.08794E-03     9.78621E-03
            2756            3200     7.92791E-03     8.59458E-03
            2774            3200     7.92791E-03     8.59458E-03
            2757            3200     7.92791E-03     8.59458E-03
            2775            3200     7.92791E-03     8.59458E-03
            2775            3201     6.81148E-03     7.42902E-03
            2776            3201     6.81148E-03     7.42902E-03
            2758            3201     6.81148E-03     7.42902E-03
            2757            3201     6.81148E-03     7.42902E-03
            2759            3202     5.76167E-03     6.29838E-03
            2777            3202     5.76167E-03     6.29838E-03
            2776            3202     5.76167E-03     6.29838E-03
            2758            3202     5.76167E-03     6.29838E-03
            2760            3203     4.82343E-03     5.22479E-03
            2777            3203     4.82343E-03     5.22479E-03
            2778            3203     4.82343E-03     5.22479E-03
            2759            3203     4.82343E-03     5.22479E-03
            2779            3204     4.07622E-03     4.24593E-03
            2760            3204     4.07622E-03     4.24593E-03
            2778            3204     4.07622E-03     4.24593E-03
            2761            3204     4.07622E-03     4.24593E-03
            2779            3205     3.59041E-03     3.49002E-03
            2762            3205     3.59041E-03     3.49002E-03
            2761            3205     3.59041E-03     3.49002E-03
            2780            3205     3.59041E-03     3.49002E-03
            2763            3206     28.7909E-03     28.8801E-03
            2764            3206     28.7909E-03     28.8801E-03
            2782            3206     28.7909E-03     28.8801E-03
            2781            3206     28.7909E-03     28.8801E-03
            2765            3207     24.6659E-03     25.1460E-03
            2764            3207     24.6659E-03     25.1460E-03
            2783            3207     24.6659E-03     25.1460E-03
            2782            3207     24.6659E-03     25.1460E-03
            2783            3208     21.0364E-03     21.8157E-03
            2784            3208     21.0364E-03     21.8157E-03
            2765            3208     21.0364E-03     21.8157E-03
            2766            3208     21.0364E-03     21.8157E-03
            2766            3209     18.5837E-03     19.4383E-03
            2785            3209     18.5837E-03     19.4383E-03
            2767            3209     18.5837E-03     19.4383E-03
            2784            3209     18.5837E-03     19.4383E-03
            2786            3210     16.6707E-03     17.5430E-03
            2785            3210     16.6707E-03     17.5430E-03
            2768            3210     16.6707E-03     17.5430E-03
            2767            3210     16.6707E-03     17.5430E-03
            2768            3211     15.0525E-03     15.9461E-03
            2786            3211     15.0525E-03     15.9461E-03
            2769            3211     15.0525E-03     15.9461E-03
            2787            3211     15.0525E-03     15.9461E-03
            2770            3212     13.6316E-03     14.5268E-03
            2769            3212     13.6316E-03     14.5268E-03
            2788            3212     13.6316E-03     14.5268E-03
            2787            3212     13.6316E-03     14.5268E-03
            2771            3213     12.3073E-03     13.2067E-03
            2789            3213     12.3073E-03     13.2067E-03
            2788            3213     12.3073E-03     13.2067E-03
            2770            3213     12.3073E-03     13.2067E-03
            2789            3214     11.0527E-03     11.9482E-03
            2771            3214     11.0527E-03     11.9482E-03
            2790            3214     11.0527E-03     11.9482E-03
            2772            3214     11.0527E-03     11.9482E-03
            2791            3215     9.83289E-03     10.7214E-03
            2773            3215     9.83289E-03     10.7214E-03
            2772            3215     9.83289E-03     10.7214E-03
            2790            3215     9.83289E-03     10.7214E-03
            2774            3216     8.64345E-03     9.51648E-03
            2773            3216     8.64345E-03     9.51648E-03
            2792            3216     8.64345E-03     9.51648E-03
            2791            3216     8.64345E-03     9.51648E-03
            2774            3217     7.47785E-03     8.32553E-03
            2792            3217     7.47785E-03     8.32553E-03
            2775            3217     7.47785E-03     8.32553E-03
            2793            3217     7.47785E-03     8.32553E-03
            2776            3218     6.34576E-03     7.15025E-03
            2793            3218     6.34576E-03     7.15025E-03
            2794            3218     6.34576E-03     7.15025E-03
            2775            3218     6.34576E-03     7.15025E-03
            2776            3219     5.26182E-03     5.99732E-03
            2777            3219     5.26182E-03     5.99732E-03
            2794            3219     5.26182E-03     5.99732E-03
            2795            3219     5.26182E-03     5.99732E-03
            2778            3220     4.26245E-03     4.88850E-03
            2795            3220     4.26245E-03     4.88850E-03
            2777            3220     4.26245E-03     4.88850E-03
            2796            3220     4.26245E-03     4.88850E-03
            2778            3221     3.43275E-03     3.85349E-03
            2796            3221     3.43275E-03     3.85349E-03
            2797            3221     3.43275E-03     3.85349E-03
            2779            3221     3.43275E-03     3.85349E-03
            2798            3222     2.92510E-03     2.97836E-03
            2779            3222     2.92510E-03     2.97836E-03
            2797            3222     2.92510E-03     2.97836E-03
            2780            3222     2.92510E-03     2.97836E-03
            2799            3223     29.5146E-03     30.3746E-03
            2781            3223     29.5146E-03     30.3746E-03
            2782            3223     29.5146E-03     30.3746E-03
            2800            3223     29.5146E-03     30.3746E-03
            2783            3224     23.9012E-03     24.9644E-03
            2782            3224     23.9012E-03     24.9644E-03
            2800            3224     23.9012E-03     24.9644E-03
            2801            3224     23.9012E-03     24.9644E-03
            2784            3225     20.4511E-03     21.4469E-03
            2802            3225     20.4511E-03     21.4469E-03
            2801            3225     20.4511E-03     21.4469E-03
            2783            3225     20.4511E-03     21.4469E-03
            2785            3226     18.1008E-03     19.0655E-03
            2802            3226     18.1008E-03     19.0655E-03
            2803            3226     18.1008E-03     19.0655E-03
            2784            3226     18.1008E-03     19.0655E-03
            2786            3227     16.1847E-03     17.1641E-03
            2804            3227     16.1847E-03     17.1641E-03
            2803            3227     16.1847E-03     17.1641E-03
            2785            3227     16.1847E-03     17.1641E-03
            2787            3228     14.5986E-03     15.5994E-03
            2786            3228     14.5986E-03     15.5994E-03
            2805            3228     14.5986E-03     15.5994E-03
            2804            3228     14.5986E-03     15.5994E-03
            2806            3229     13.1704E-03     14.1970E-03
            2788            3229     13.1704E-03     14.1970E-03
            2787            3229     13.1704E-03     14.1970E-03
            2805            3229     13.1704E-03     14.1970E-03
            2806            3230     11.8587E-03     12.9068E-03
            2788            3230     11.8587E-03     12.9068E-03
            2789            3230     11.8587E-03     12.9068E-03
            2807            3230     11.8587E-03     12.9068E-03
            2789            3231     10.6045E-03     11.6666E-03
            2807            3231     10.6045E-03     11.6666E-03
            2808            3231     10.6045E-03     11.6666E-03
            2790            3231     10.6045E-03     11.6666E-03
            2808            3232     9.39196E-03     10.4607E-03
            2791            3232     9.39196E-03     10.4607E-03
            2790            3232     9.39196E-03     10.4607E-03
            2809            3232     9.39196E-03     10.4607E-03
            2810            3233     8.20202E-03     9.26690E-03
            2792            3233     8.20202E-03     9.26690E-03
            2809            3233     8.20202E-03     9.26690E-03
            2791            3233     8.20202E-03     9.26690E-03
            2811            3234     7.03354E-03     8.08249E-03
            2793            3234     7.03354E-03     8.08249E-03
            2792            3234     7.03354E-03     8.08249E-03
            2810            3234     7.03354E-03     8.08249E-03
            2812            3235     5.88447E-03     6.90361E-03
            2811            3235     5.88447E-03     6.90361E-03
            2793            3235     5.88447E-03     6.90361E-03
            2794            3235     5.88447E-03     6.90361E-03
            2794            3236     4.76823E-03     5.73626E-03
            2812            3236     4.76823E-03     5.73626E-03
            2813            3236     4.76823E-03     5.73626E-03
            2795            3236     4.76823E-03     5.73626E-03
            2814            3237     3.70424E-03     4.59381E-03
            2813            3237     3.70424E-03     4.59381E-03
            2796            3237     3.70424E-03     4.59381E-03
            2795            3237     3.70424E-03     4.59381E-03
            2796            3238     2.75606E-03     3.52011E-03
            2814            3238     2.75606E-03     3.52011E-03
            2797            3238     2.75606E-03     3.52011E-03
            2815            3238     2.75606E-03     3.52011E-03
            2798            3239     2.11474E-03     2.57574E-03
            2797            3239     2.11474E-03     2.57574E-03
            2815            3239     2.11474E-03     2.57574E-03
            2816            3239     2.11474E-03     2.57574E-03
            2817            3240     29.1328E-03     29.6790E-03
            2818            3240     29.1328E-03     29.6790E-03
            2800            3240     29.1328E-03     29.6790E-03
            2799            3240     29.1328E-03     29.6790E-03
            2800            3241     26.5386E-03     26.5368E-03
            2818            3241     26.5386E-03     26.5368E-03
            2801            3241     26.5386E-03     26.5368E-03
            2819            3241     26.5386E-03     26.5368E-03
            2801            3242     24.7981E-03     24.7522E-03
            2820            3242     24.7981E-03     24.7522E-03
            2802            3242     24.7981E-03     24.7522E-03
            2819            3242     24.7981E-03     24.7522E-03
            2803            3243     23.1701E-03     23.2141E-03
            2802            3243     23.1701E-03     23.2141E-03
            2820            3243     23.1701E-03     23.2141E-03
            2821            3243     23.1701E-03     23.2141E-03
            2804            3244     21.6788E-03     21.7990E-03
            2822            3244     21.6788E-03     21.7990E-03
            2821            3244     21.6788E-03     21.7990E-03
            2803            3244     21.6788E-03     21.7990E-03
            2822            3245     20.2109E-03     20.4327E-03
            2804            3245     20.2109E-03     20.4327E-03
            2805            3245     20.2109E-03     20.4327E-03
            2823            3245     20.2109E-03     20.4327E-03
            2824            3246     18.7732E-03     19.0624E-03
            2823            3246     18.7732E-03     19.0624E-03
            2805            3246     18.7732E-03     19.0624E-03
            2806            3246     18.7732E-03     19.0624E-03
            2825            3247     17.3351E-03     17.6906E-03
            2806            3247     17.3351E-03     17.6906E-03
            2807            3247     17.3351E-03     17.6906E-03
            2824            3247     17.3351E-03     17.6906E-03
            2807            3248     15.9056E-03     16.3015E-03
            2826            3248     15.9056E-03     16.3015E-03
            2808            3248     15.9056E-03     16.3015E-03
            2825            3248     15.9056E-03     16.3015E-03
            2826            3249     14.4801E-03     14.9090E-03
            2808            3249     14.4801E-03     14.9090E-03
            2827            3249     14.4801E-03     14.9090E-03
            2809            3249     14.4801E-03     14.9090E-03
            2810            3250     13.0737E-03     13.5169E-03
            2809            3250     13.0737E-03     13.5169E-03
            2828            3250     13.0737E-03     13.5169E-03
            2827            3250     13.0737E-03     13.5169E-03
            2811            3251     11.6944E-03     12.1426E-03
            2828            3251     11.6944E-03     12.1426E-03
            2810            3251     11.6944E-03     12.1426E-03
            2829            3251     11.6944E-03     12.1426E-03
            2812            3252     10.3659E-03     10.8008E-03
            2811            3252     10.3659E-03     10.8008E-03
            2830            3252     10.3659E-03     10.8008E-03
            2829            3252     10.3659E-03     10.8008E-03
            2813            3253     9.10628E-03     9.52855E-03
            2830            3253     9.10628E-03     9.52855E-03
            2831            3253     9.10628E-03     9.52855E-03
            2812            3253     9.10628E-03     9.52855E-03
            2813            3254     7.94802E-03     8.34614E-03
            2814            3254     7.94802E-03     8.34614E-03
            2831            3254     7.94802E-03     8.34614E-03
            2832            3254     7.94802E-03     8.34614E-03
            2815            3255     6.92268E-03     7.39154E-03
            2833            3255     6.92268E-03     7.39154E-03
            2832            3255     6.92268E-03     7.39154E-03
            2814            3255     6.92268E-03     7.39154E-03
            2834            3256     5.90784E-03     6.87188E-03
            2816            3256     5.90784E-03     6.87188E-03
            2833            3256     5.90784E-03     6.87188E-03
            2815            3256     5.90784E-03     6.87188E-03
            2817            3257     30.5278E-03     29.7565E-03
            2818            3257     30.5278E-03     29.7565E-03
            2836            3257     30.5278E-03     29.7565E-03
            2835            3257     30.5278E-03     29.7565E-03
            2837            3258     30.7702E-03     30.0608E-03
            2818            3258     30.7702E-03     30.0608E-03
            2819            3258     30.7702E-03     30.0608E-03
            2836            3258     30.7702E-03     30.0608E-03
            2838            3259     30.2957E-03     29.5861E-03
            2819            3259     30.2957E-03     29.5861E-03
            2820            3259     30.2957E-03     29.5861E-03
            2837            3259     30.2957E-03     29.5861E-03
            2820            3260     29.3246E-03     28.6946E-03
            2838            3260     29.3246E-03     28.6946E-03
            2839            3260     29.3246E-03     28.6946E-03
            2821            3260     29.3246E-03     28.6946E-03
            2839            3261     28.0557E-03     27.5138E-03
            2840            3261     28.0557E-03     27.5138E-03
            2821            3261     28.0557E-03     27.5138E-03
            2822            3261     28.0557E-03     27.5138E-03
            2822            3262     26.5841E-03     26.1300E-03
            2841            3262     26.5841E-03     26.1300E-03
            2823            3262     26.5841E-03     26.1300E-03
            2840            3262     26.5841E-03     26.1300E-03
            2823            3263     24.9790E-03     24.6015E-03
            2842            3263     24.9790E-03     24.6015E-03
            2841            3263     24.9790E-03     24.6015E-03
            2824            3263     24.9790E-03     24.6015E-03
            2843            3264     23.2894E-03     22.9710E-03
            2824            3264     23.2894E-03     22.9710E-03
            2842            3264     23.2894E-03     22.9710E-03
            2825            3264     23.2894E-03     22.9710E-03
            2843            3265     21.5498E-03     21.2817E-03
            2844            3265     21.5498E-03     21.2817E-03
            2826            3265     21.5498E-03     21.2817E-03
            2825            3265     21.5498E-03     21.2817E-03
            2827            3266     19.7978E-03     19.5623E-03
            2844            3266     19.7978E-03     19.5623E-03
            2845            3266     19.7978E-03     19.5623E-03
            2826            3266     19.7978E-03     19.5623E-03
            2827            3267     18.0562E-03     17.8482E-03
            2846            3267     18.0562E-03     17.8482E-03
            2845            3267     18.0562E-03     17.8482E-03
            2828            3267     18.0562E-03     17.8482E-03
            2846            3268     16.3633E-03     16.1708E-03
            2828            3268     16.3633E-03     16.1708E-03
            2847            3268     16.3633E-03     16.1708E-03
            2829            3268     16.3633E-03     16.1708E-03
            2847            3269     14.7422E-03     14.5720E-03
            2829            3269     14.7422E-03     14.5720E-03
            2848            3269     14.7422E-03     14.5720E-03
            2830            3269     14.7422E-03     14.5720E-03
            2849            3270     13.2418E-03     13.1130E-03
            2831            3270     13.2418E-03     13.1130E-03
            2848            3270     13.2418E-03     13.1130E-03
            2830            3270     13.2418E-03     13.1130E-03
            2849            3271     11.8798E-03     11.8729E-03
            2831            3271     11.8798E-03     11.8729E-03
            2832            3271     11.8798E-03     11.8729E-03
            2850            3271     11.8798E-03     11.8729E-03
            2850            3272     10.6600E-03     11.0798E-03
            2832            3272     10.6600E-03     11.0798E-03
            2851            3272     10.6600E-03     11.0798E-03
            2833            3272     10.6600E-03     11.0798E-03
            2852            3273     9.73087E-03     10.9060E-03
            2833            3273     9.73087E-03     10.9060E-03
            2851            3273     9.73087E-03     10.9060E-03
            2834            3273     9.73087E-03     10.9060E-03
            2836            3274     33.0601E-03     33.1934E-03
            2854            3274     33.0601E-03     33.1934E-03
            2835            3274     33.0601E-03     33.1934E-03
            2853            3274     33.0601E-03     33.1934E-03
            2837            3275     32.5987E-03     32.7757E-03
            2855            3275     32.5987E-03     32.7757E-03
            2854            3275     32.5987E-03     32.7757E-03
            2836            3275     32.5987E-03     32.7757E-03
            2856            3276     31.9393E-03     31.9911E-03
            2838            3276     31.9393E-03     31.9911E-03
            2855            3276     31.9393E-03     31.9911E-03
            2837            3276     31.9393E-03     31.9911E-03
            2856            3277     30.7885E-03     30.7312E-03
            2839            3277     30.7885E-03     30.7312E-03
            2857            3277     30.7885E-03     30.7312E-03
            2838            3277     30.7885E-03     30.7312E-03
            2840            3278     29.2909E-03     29.1887E-03
            2839            3278     29.2909E-03     29.1887E-03
            2858            3278     29.2909E-03     29.1887E-03
            2857            3278     29.2909E-03     29.1887E-03
            2859            3279     27.5722E-03     27.4593E-03
            2840            3279     27.5722E-03     27.4593E-03
            2841            3279     27.5722E-03     27.4593E-03
            2858            3279     27.5722E-03     27.4593E-03
            2860            3280     25.7175E-03     25.6071E-03
            2842            3280     25.7175E-03     25.6071E-03
            2841            3280     25.7175E-03     25.6071E-03
            2859            3280     25.7175E-03     25.6071E-03
            2861            3281     23.7820E-03     23.6873E-03
            2843            3281     23.7820E-03     23.6873E-03
            2860            3281     23.7820E-03     23.6873E-03
            2842            3281     23.7820E-03     23.6873E-03
            2861            3282     21.8146E-03     21.7319E-03
            2843            3282     21.8146E-03     21.7319E-03
            2862            3282     21.8146E-03     21.7319E-03
            2844            3282     21.8146E-03     21.7319E-03
            2863            3283     19.8402E-03     19.7739E-03
            2845            3283     19.8402E-03     19.7739E-03
            2862            3283     19.8402E-03     19.7739E-03
            2844            3283     19.8402E-03     19.7739E-03
            2845            3284     17.8901E-03     17.8391E-03
            2864            3284     17.8901E-03     17.8391E-03
            2846            3284     17.8901E-03     17.8391E-03
            2863            3284     17.8901E-03     17.8391E-03
            2847            3285     15.9848E-03     15.9574E-03
            2865            3285     15.9848E-03     15.9574E-03
            2864            3285     15.9848E-03     15.9574E-03
            2846            3285     15.9848E-03     15.9574E-03
            2866            3286     14.1503E-03     14.1726E-03
            2865            3286     14.1503E-03     14.1726E-03
            2847            3286     14.1503E-03     14.1726E-03
            2848            3286     14.1503E-03     14.1726E-03
            2849            3287     12.4219E-03     12.5416E-03
            2848            3287     12.4219E-03     12.5416E-03
            2867            3287     12.4219E-03     12.5416E-03
            2866            3287     12.4219E-03     12.5416E-03
            2850            3288     10.8207E-03     11.1831E-03
            2849            3288     10.8207E-03     11.1831E-03
            2868            3288     10.8207E-03     11.1831E-03
            2867            3288     10.8207E-03     11.1831E-03
            2869            3289     9.48493E-03     10.2435E-03
            2850            3289     9.48493E-03     10.2435E-03
            2851            3289     9.48493E-03     10.2435E-03
            2868            3289     9.48493E-03     10.2435E-03
            2870            3290     8.85928E-03     9.46392E-03
            2852            3290     8.85928E-03     9.46392E-03
            2851            3290     8.85928E-03     9.46392E-03
            2869            3290     8.85928E-03     9.46392E-03
            2871            3291     35.5726E-03     35.9660E-03
            2853            3291     35.5726E-03     35.9660E-03
            2854            3291     35.5726E-03     35.9660E-03
            2872            3291     35.5726E-03     35.9660E-03
            2873            3292     34.4649E-03     35.0304E-03
            2854            3292     34.4649E-03     35.0304E-03
            2872            3292     34.4649E-03     35.0304E-03
            2855            3292     34.4649E-03     35.0304E-03
            2873            3293     33.4098E-03     33.9047E-03
            2856            3293     33.4098E-03     33.9047E-03
            2855            3293     33.4098E-03     33.9047E-03
            2874            3293     33.4098E-03     33.9047E-03
            2856            3294     32.0088E-03     32.4003E-03
            2857            3294     32.0088E-03     32.4003E-03
            2874            3294     32.0088E-03     32.4003E-03
            2875            3294     32.0088E-03     32.4003E-03
            2875            3295     30.3023E-03     30.5857E-03
            2876            3295     30.3023E-03     30.5857E-03
            2858            3295     30.3023E-03     30.5857E-03
            2857            3295     30.3023E-03     30.5857E-03
            2859            3296     28.3728E-03     28.5865E-03
            2876            3296     28.3728E-03     28.5865E-03
            2858            3296     28.3728E-03     28.5865E-03
            2877            3296     28.3728E-03     28.5865E-03
            2878            3297     26.3109E-03     26.4844E-03
            2860            3297     26.3109E-03     26.4844E-03
            2859            3297     26.3109E-03     26.4844E-03
            2877            3297     26.3109E-03     26.4844E-03
            2861            3298     24.1849E-03     24.3298E-03
            2860            3298     24.1849E-03     24.3298E-03
            2879            3298     24.1849E-03     24.3298E-03
            2878            3298     24.1849E-03     24.3298E-03
            2879            3299     22.0290E-03     22.1640E-03
            2862            3299     22.0290E-03     22.1640E-03
            2880            3299     22.0290E-03     22.1640E-03
            2861            3299     22.0290E-03     22.1640E-03
            2880            3300     19.8804E-03     20.0113E-03
            2862            3300     19.8804E-03     20.0113E-03
            2881            3300     19.8804E-03     20.0113E-03
            2863            3300     19.8804E-03     20.0113E-03
            2863            3301     17.7549E-03     17.8954E-03
            2864            3301     17.7549E-03     17.8954E-03
            2881            3301     17.7549E-03     17.8954E-03
            2882            3301     17.7549E-03     17.8954E-03
            2882            3302     15.6734E-03     15.8415E-03
            2865            3302     15.6734E-03     15.8415E-03
            2864            3302     15.6734E-03     15.8415E-03
            2883            3302     15.6734E-03     15.8415E-03
            2883            3303     13.6590E-03     13.8861E-03
            2865            3303     13.6590E-03     13.8861E-03
            2866            3303     13.6590E-03     13.8861E-03
            2884            3303     13.6590E-03     13.8861E-03
            2866            3304     11.7400E-03     12.0799E-03
            2884            3304     11.7400E-03     12.0799E-03
            2867            3304     11.7400E-03     12.0799E-03
            2885            3304     11.7400E-03     12.0799E-03
            2867            3305     9.99180E-03     10.5212E-03
            2885            3305     9.99180E-03     10.5212E-03
            2868            3305     9.99180E-03     10.5212E-03
            2886            3305     9.99180E-03     10.5212E-03
            2886            3306     8.65170E-03     9.16213E-03
            2887            3306     8.65170E-03     9.16213E-03
            2869            3306     8.65170E-03     9.16213E-03
            2868            3306     8.65170E-03     9.16213E-03
            2870            3307     7.83709E-03     7.99925E-03
            2887            3307     7.83709E-03     7.99925E-03
            2888            3307     7.83709E-03     7.99925E-03
            2869            3307     7.83709E-03     7.99925E-03
            2872            3308     37.8427E-03     38.2595E-03
            2889            3308     37.8427E-03     38.2595E-03
            2890            3308     37.8427E-03     38.2595E-03
            2871            3308     37.8427E-03     38.2595E-03
            2890            3309     36.2887E-03     36.9405E-03
            2873            3309     36.2887E-03     36.9405E-03
            2872            3309     36.2887E-03     36.9405E-03
            2891            3309     36.2887E-03     36.9405E-03
            2892            3310     34.7256E-03     35.4578E-03
            2891            3310     34.7256E-03     35.4578E-03
            2874            3310     34.7256E-03     35.4578E-03
            2873            3310     34.7256E-03     35.4578E-03
            2875            3311     33.0151E-03     33.6750E-03
            2874            3311     33.0151E-03     33.6750E-03
            2893            3311     33.0151E-03     33.6750E-03
            2892            3311     33.0151E-03     33.6750E-03
            2876            3312     31.0529E-03     31.6301E-03
            2894            3312     31.0529E-03     31.6301E-03
            2893            3312     31.0529E-03     31.6301E-03
            2875            3312     31.0529E-03     31.6301E-03
            2877            3313     28.9209E-03     29.4162E-03
            2876            3313     28.9209E-03     29.4162E-03
            2895            3313     28.9209E-03     29.4162E-03
            2894            3313     28.9209E-03     29.4162E-03
            2878            3314     26.6904E-03     27.1175E-03
            2896            3314     26.6904E-03     27.1175E-03
            2877            3314     26.6904E-03     27.1175E-03
            2895            3314     26.6904E-03     27.1175E-03
            2879            3315     24.4071E-03     24.7915E-03
            2897            3315     24.4071E-03     24.7915E-03
            2878            3315     24.4071E-03     24.7915E-03
            2896            3315     24.4071E-03     24.7915E-03
            2879            3316     22.1189E-03     22.4709E-03
            2897            3316     22.1189E-03     22.4709E-03
            2898            3316     22.1189E-03     22.4709E-03
            2880            3316     22.1189E-03     22.4709E-03
            2898            3317     19.8380E-03     20.1764E-03
            2881            3317     19.8380E-03     20.1764E-03
            2880            3317     19.8380E-03     20.1764E-03
            2899            3317     19.8380E-03     20.1764E-03
            2900            3318     17.5858E-03     17.9253E-03
            2881            3318     17.5858E-03     17.9253E-03
            2899            3318     17.5858E-03     17.9253E-03
            2882            3318     17.5858E-03     17.9253E-03
            2901            3319     15.3734E-03     15.7373E-03
            2882            3319     15.3734E-03     15.7373E-03
            2883            3319     15.3734E-03     15.7373E-03
            2900            3319     15.3734E-03     15.7373E-03
            2883            3320     13.2220E-03     13.6335E-03
            2901            3320     13.2220E-03     13.6335E-03
            2902            3320     13.2220E-03     13.6335E-03
            2884            3320     13.2220E-03     13.6335E-03
            2884            3321     11.1655E-03     11.6629E-03
            2885            3321     11.1655E-03     11.6629E-03
            2902            3321     11.1655E-03     11.6629E-03
            2903            3321     11.1655E-03     11.6629E-03
            2903            3322     9.31539E-03     9.83867E-03
            2886            3322     9.31539E-03     9.83867E-03
            2885            3322     9.31539E-03     9.83867E-03
            2904            3322     9.31539E-03     9.83867E-03
            2905            3323     7.80093E-03     8.19203E-03
            2887            3323     7.80093E-03     8.19203E-03
            2886            3323     7.80093E-03     8.19203E-03
            2904            3323     7.80093E-03     8.19203E-03
            2887            3324     6.82863E-03     6.98180E-03
            2888            3324     6.82863E-03     6.98180E-03
            2906            3324     6.82863E-03     6.98180E-03
            2905            3324     6.82863E-03     6.98180E-03
            2908            3325     39.9302E-03     40.4018E-03
            2889            3325     39.9302E-03     40.4018E-03
            2907            3325     39.9302E-03     40.4018E-03
            2890            3325     39.9302E-03     40.4018E-03
            2909            3326     37.9150E-03     38.6259E-03
            2908            3326     37.9150E-03     38.6259E-03
            2891            3326     37.9150E-03     38.6259E-03
            2890            3326     37.9150E-03     38.6259E-03
            2910            3327     35.9247E-03     36.7284E-03
            2891            3327     35.9247E-03     36.7284E-03
            2892            3327     35.9247E-03     36.7284E-03
            2909            3327     35.9247E-03     36.7284E-03
            2910            3328     33.7900E-03     34.6188E-03
            2892            3328     33.7900E-03     34.6188E-03
            2911            3328     33.7900E-03     34.6188E-03
            2893            3328     33.7900E-03     34.6188E-03
            2894            3329     31.5410E-03     32.3206E-03
            2912            3329     31.5410E-03     32.3206E-03
            2911            3329     31.5410E-03     32.3206E-03
            2893            3329     31.5410E-03     32.3206E-03
            2913            3330     29.2018E-03     29.9095E-03
            2895            3330     29.2018E-03     29.9095E-03
            2912            3330     29.2018E-03     29.9095E-03
            2894            3330     29.2018E-03     29.9095E-03
            2913            3331     26.8109E-03     27.4609E-03
            2896            3331     26.8109E-03     27.4609E-03
            2895            3331     26.8109E-03     27.4609E-03
            2914            3331     26.8109E-03     27.4609E-03
            2896            3332     24.4222E-03     25.0173E-03
            2914            3332     24.4222E-03     25.0173E-03
            2897            3332     24.4222E-03     25.0173E-03
            2915            3332     24.4222E-03     25.0173E-03
            2916            3333     22.0370E-03     22.5955E-03
            2898            3333     22.0370E-03     22.5955E-03
            2915            3333     22.0370E-03     22.5955E-03
            2897            3333     22.0370E-03     22.5955E-03
            2917            3334     19.6759E-03     20.2113E-03
            2898            3334     19.6759E-03     20.2113E-03
            2899            3334     19.6759E-03     20.2113E-03
            2916            3334     19.6759E-03     20.2113E-03
            2918            3335     17.3411E-03     17.8712E-03
            2899            3335     17.3411E-03     17.8712E-03
            2900            3335     17.3411E-03     17.8712E-03
            2917            3335     17.3411E-03     17.8712E-03
            2901            3336     15.0447E-03     15.5853E-03
            2900            3336     15.0447E-03     15.5853E-03
            2919            3336     15.0447E-03     15.5853E-03
            2918            3336     15.0447E-03     15.5853E-03
            2902            3337     12.7995E-03     13.3718E-03
            2920            3337     12.7995E-03     13.3718E-03
            2919            3337     12.7995E-03     13.3718E-03
            2901            3337     12.7995E-03     13.3718E-03
            2921            3338     10.6513E-03     11.2433E-03
            2903            3338     10.6513E-03     11.2433E-03
            2902            3338     10.6513E-03     11.2433E-03
            2920            3338     10.6513E-03     11.2433E-03
            2921            3339     8.66541E-03     9.22029E-03
            2904            3339     8.66541E-03     9.22029E-03
            2903            3339     8.66541E-03     9.22029E-03
            2922            3339     8.66541E-03     9.22029E-03
            2922            3340     6.98840E-03     7.41532E-03
            2904            3340     6.98840E-03     7.41532E-03
            2923            3340     6.98840E-03     7.41532E-03
            2905            3340     6.98840E-03     7.41532E-03
            2905            3341     5.87664E-03     5.95349E-03
            2924            3341     5.87664E-03     5.95349E-03
            2923            3341     5.87664E-03     5.95349E-03
            2906            3341     5.87664E-03     5.95349E-03
            2925            3342     41.8578E-03     42.4323E-03
            2907            3342     41.8578E-03     42.4323E-03
            2926            3342     41.8578E-03     42.4323E-03
            2908            3342     41.8578E-03     42.4323E-03
            2908            3343     39.4282E-03     40.1351E-03
            2927            3343     39.4282E-03     40.1351E-03
            2909            3343     39.4282E-03     40.1351E-03
            2926            3343     39.4282E-03     40.1351E-03
            2928            3344     36.8884E-03     37.7649E-03
            2909            3344     36.8884E-03     37.7649E-03
            2910            3344     36.8884E-03     37.7649E-03
            2927            3344     36.8884E-03     37.7649E-03
            2910            3345     34.3241E-03     35.2481E-03
            2929            3345     34.3241E-03     35.2481E-03
            2911            3345     34.3241E-03     35.2481E-03
            2928            3345     34.3241E-03     35.2481E-03
            2911            3346     31.7467E-03     32.6515E-03
            2930            3346     31.7467E-03     32.6515E-03
            2929            3346     31.7467E-03     32.6515E-03
            2912            3346     31.7467E-03     32.6515E-03
            2931            3347     29.1814E-03     30.0604E-03
            2930            3347     29.1814E-03     30.0604E-03
            2912            3347     29.1814E-03     30.0604E-03
            2913            3347     29.1814E-03     30.0604E-03
            2932            3348     26.6826E-03     27.5080E-03
            2913            3348     26.6826E-03     27.5080E-03
            2914            3348     26.6826E-03     27.5080E-03
            2931            3348     26.6826E-03     27.5080E-03
            2914            3349     24.2125E-03     24.9918E-03
            2933            3349     24.2125E-03     24.9918E-03
            2932            3349     24.2125E-03     24.9918E-03
            2915            3349     24.2125E-03     24.9918E-03
            2915            3350     21.7816E-03     22.5236E-03
            2934            3350     21.7816E-03     22.5236E-03
            2933            3350     21.7816E-03     22.5236E-03
            2916            3350     21.7816E-03     22.5236E-03
            2934            3351     19.3790E-03     20.0948E-03
            2917            3351     19.3790E-03     20.0948E-03
            2935            3351     19.3790E-03     20.0948E-03
            2916            3351     19.3790E-03     20.0948E-03
            2935            3352     17.0062E-03     17.7092E-03
            2917            3352     17.0062E-03     17.7092E-03
            2918            3352     17.0062E-03     17.7092E-03
            2936            3352     17.0062E-03     17.7092E-03
            2936            3353     14.6650E-03     15.3665E-03
            2918            3353     14.6650E-03     15.3665E-03
            2937            3353     14.6650E-03     15.3665E-03
            2919            3353     14.6650E-03     15.3665E-03
            2920            3354     12.3690E-03     13.0733E-03
            2937            3354     12.3690E-03     13.0733E-03
            2938            3354     12.3690E-03     13.0733E-03
            2919            3354     12.3690E-03     13.0733E-03
            2939            3355     10.1425E-03     10.8352E-03
            2920            3355     10.1425E-03     10.8352E-03
            2921            3355     10.1425E-03     10.8352E-03
            2938            3355     10.1425E-03     10.8352E-03
            2940            3356     8.04599E-03     8.68768E-03
            2922            3356     8.04599E-03     8.68768E-03
            2939            3356     8.04599E-03     8.68768E-03
            2921            3356     8.04599E-03     8.68768E-03
            2923            3357     6.20880E-03     6.68103E-03
            2940            3357     6.20880E-03     6.68103E-03
            2922            3357     6.20880E-03     6.68103E-03
            2941            3357     6.20880E-03     6.68103E-03
            2924            3358     4.90106E-03     5.04971E-03
            2941            3358     4.90106E-03     5.04971E-03
            2942            3358     4.90106E-03     5.04971E-03
            2923            3358     4.90106E-03     5.04971E-03
            2926            3359     43.7972E-03     44.3157E-03
            2944            3359     43.7972E-03     44.3157E-03
            2943            3359     43.7972E-03     44.3157E-03
            2925            3359     43.7972E-03     44.3157E-03
            2944            3360     40.7006E-03     41.5242E-03
            2926            3360     40.7006E-03     41.5242E-03
            2945            3360     40.7006E-03     41.5242E-03
            2927            3360     40.7006E-03     41.5242E-03
            2927            3361     37.6046E-03     38.5071E-03
            2945            3361     37.6046E-03     38.5071E-03
            2928            3361     37.6046E-03     38.5071E-03
            2946            3361     37.6046E-03     38.5071E-03
            2947            3362     34.5224E-03     35.4830E-03
            2946            3362     34.5224E-03     35.4830E-03
            2928            3362     34.5224E-03     35.4830E-03
            2929            3362     34.5224E-03     35.4830E-03
            2948            3363     31.5830E-03     32.6043E-03
            2947            3363     31.5830E-03     32.6043E-03
            2929            3363     31.5830E-03     32.6043E-03
            2930            3363     31.5830E-03     32.6043E-03
            2931            3364     28.8875E-03     29.8876E-03
            2949            3364     28.8875E-03     29.8876E-03
            2948            3364     28.8875E-03     29.8876E-03
            2930            3364     28.8875E-03     29.8876E-03
            2950            3365     26.3018E-03     27.2699E-03
            2932            3365     26.3018E-03     27.2699E-03
            2949            3365     26.3018E-03     27.2699E-03
            2931            3365     26.3018E-03     27.2699E-03
            2950            3366     23.8066E-03     24.7417E-03
            2951            3366     23.8066E-03     24.7417E-03
            2933            3366     23.8066E-03     24.7417E-03
            2932            3366     23.8066E-03     24.7417E-03
            2933            3367     21.3654E-03     22.2678E-03
            2934            3367     21.3654E-03     22.2678E-03
            2952            3367     21.3654E-03     22.2678E-03
            2951            3367     21.3654E-03     22.2678E-03
            2934            3368     18.9605E-03     19.8411E-03
            2952            3368     18.9605E-03     19.8411E-03
            2935            3368     18.9605E-03     19.8411E-03
            2953            3368     18.9605E-03     19.8411E-03
            2936            3369     16.5848E-03     17.4476E-03
            2953            3369     16.5848E-03     17.4476E-03
            2935            3369     16.5848E-03     17.4476E-03
            2954            3369     16.5848E-03     17.4476E-03
            2936            3370     14.2345E-03     15.0856E-03
            2937            3370     14.2345E-03     15.0856E-03
            2954            3370     14.2345E-03     15.0856E-03
            2955            3370     14.2345E-03     15.0856E-03
            2938            3371     11.9161E-03     12.7491E-03
            2937            3371     11.9161E-03     12.7491E-03
            2956            3371     11.9161E-03     12.7491E-03
            2955            3371     11.9161E-03     12.7491E-03
            2938            3372     9.64238E-03     10.4515E-03
            2957            3372     9.64238E-03     10.4515E-03
            2939            3372     9.64238E-03     10.4515E-03
            2956            3372     9.64238E-03     10.4515E-03
            2958            3373     7.45448E-03     8.20336E-03
            2940            3373     7.45448E-03     8.20336E-03
            2957            3373     7.45448E-03     8.20336E-03
            2939            3373     7.45448E-03     8.20336E-03
            2940            3374     5.45592E-03     6.05712E-03
            2958            3374     5.45592E-03     6.05712E-03
            2959            3374     5.45592E-03     6.05712E-03
            2941            3374     5.45592E-03     6.05712E-03
            2960            3375     3.95295E-03     4.18137E-03
            2941            3375     3.95295E-03     4.18137E-03
            2942            3375     3.95295E-03     4.18137E-03
            2959            3375     3.95295E-03     4.18137E-03
            2943            3376     45.5180E-03     46.3326E-03
            2944            3376     45.5180E-03     46.3326E-03
            2961            3376     45.5180E-03     46.3326E-03
            2962            3376     45.5180E-03     46.3326E-03
            2962            3377     41.8251E-03     42.5488E-03
            2944            3377     41.8251E-03     42.5488E-03
            2963            3377     41.8251E-03     42.5488E-03
            2945            3377     41.8251E-03     42.5488E-03
            2963            3378     37.8378E-03     38.7158E-03
            2945            3378     37.8378E-03     38.7158E-03
            2964            3378     37.8378E-03     38.7158E-03
            2946            3378     37.8378E-03     38.7158E-03
            2964            3379     34.1636E-03     35.2281E-03
            2965            3379     34.1636E-03     35.2281E-03
            2946            3379     34.1636E-03     35.2281E-03
            2947            3379     34.1636E-03     35.2281E-03
            2965            3380     31.1013E-03     32.1963E-03
            2947            3380     31.1013E-03     32.1963E-03
            2948            3380     31.1013E-03     32.1963E-03
            2966            3380     31.1013E-03     32.1963E-03
            2948            3381     28.3169E-03     29.4098E-03
            2966            3381     28.3169E-03     29.4098E-03
            2949            3381     28.3169E-03     29.4098E-03
            2967            3381     28.3169E-03     29.4098E-03
            2950            3382     25.7229E-03     26.8078E-03
            2967            3382     25.7229E-03     26.8078E-03
            2968            3382     25.7229E-03     26.8078E-03
            2949            3382     25.7229E-03     26.8078E-03
            2968            3383     23.2443E-03     24.3076E-03
            2951            3383     23.2443E-03     24.3076E-03
            2969            3383     23.2443E-03     24.3076E-03
            2950            3383     23.2443E-03     24.3076E-03
            2951            3384     20.8266E-03     21.8772E-03
            2969            3384     20.8266E-03     21.8772E-03
            2952            3384     20.8266E-03     21.8772E-03
            2970            3384     20.8266E-03     21.8772E-03
            2970            3385     18.4523E-03     19.4861E-03
            2971            3385     18.4523E-03     19.4861E-03
            2952            3385     18.4523E-03     19.4861E-03
            2953            3385     18.4523E-03     19.4861E-03
            2972            3386     16.1003E-03     17.1212E-03
            2971            3386     16.1003E-03     17.1212E-03
            2953            3386     16.1003E-03     17.1212E-03
            2954            3386     16.1003E-03     17.1212E-03
            2955            3387     13.7691E-03     14.7703E-03
            2972            3387     13.7691E-03     14.7703E-03
            2973            3387     13.7691E-03     14.7703E-03
            2954            3387     13.7691E-03     14.7703E-03
            2974            3388     11.4547E-03     12.4327E-03
            2955            3388     11.4547E-03     12.4327E-03
            2973            3388     11.4547E-03     12.4327E-03
            2956            3388     11.4547E-03     12.4327E-03
            2975            3389     9.16893E-03     10.1010E-03
            2974            3389     9.16893E-03     10.1010E-03
            2957            3389     9.16893E-03     10.1010E-03
            2956            3389     9.16893E-03     10.1010E-03
            2976            3390     6.92006E-03     7.79657E-03
            2958            3390     6.92006E-03     7.79657E-03
            2975            3390     6.92006E-03     7.79657E-03
            2957            3390     6.92006E-03     7.79657E-03
            2959            3391     4.76954E-03     5.55605E-03
            2976            3391     4.76954E-03     5.55605E-03
            2958            3391     4.76954E-03     5.55605E-03
            2977            3391     4.76954E-03     5.55605E-03
            2978            3392     3.00208E-03     3.44840E-03
            2959            3392     3.00208E-03     3.44840E-03
            2960            3392     3.00208E-03     3.44840E-03
            2977            3392     3.00208E-03     3.44840E-03
            2961            3393     47.4413E-03     47.6320E-03
            2962            3393     47.4413E-03     47.6320E-03
            2979            3393     47.4413E-03     47.6320E-03
            2980            3393     47.4413E-03     47.6320E-03
            2962            3394     42.1144E-03     42.8046E-03
            2980            3394     42.1144E-03     42.8046E-03
            2981            3394     42.1144E-03     42.8046E-03
            2963            3394     42.1144E-03     42.8046E-03
            2981            3395     37.0888E-03     38.1384E-03
            2982            3395     37.0888E-03     38.1384E-03
            2964            3395     37.0888E-03     38.1384E-03
            2963            3395     37.0888E-03     38.1384E-03
            2964            3396     33.4064E-03     34.5279E-03
            2982            3396     33.4064E-03     34.5279E-03
            2983            3396     33.4064E-03     34.5279E-03
            2965            3396     33.4064E-03     34.5279E-03
            2983            3397     30.3195E-03     31.4558E-03
            2984            3397     30.3195E-03     31.4558E-03
            2966            3397     30.3195E-03     31.4558E-03
            2965            3397     30.3195E-03     31.4558E-03
            2966            3398     27.5606E-03     28.7243E-03
            2984            3398     27.5606E-03     28.7243E-03
            2985            3398     27.5606E-03     28.7243E-03
            2967            3398     27.5606E-03     28.7243E-03
            2967            3399     25.0211E-03     26.1914E-03
            2985            3399     25.0211E-03     26.1914E-03
            2986            3399     25.0211E-03     26.1914E-03
            2968            3399     25.0211E-03     26.1914E-03
            2986            3400     22.5856E-03     23.7706E-03
            2987            3400     22.5856E-03     23.7706E-03
            2969            3400     22.5856E-03     23.7706E-03
            2968            3400     22.5856E-03     23.7706E-03
            2969            3401     20.2256E-03     21.4146E-03
            2970            3401     20.2256E-03     21.4146E-03
            2988            3401     20.2256E-03     21.4146E-03
            2987            3401     20.2256E-03     21.4146E-03
            2970            3402     17.8972E-03     19.0895E-03
            2988            3402     17.8972E-03     19.0895E-03
            2971            3402     17.8972E-03     19.0895E-03
            2989            3402     17.8972E-03     19.0895E-03
            2971            3403     15.5940E-03     16.7791E-03
            2990            3403     15.5940E-03     16.7791E-03
            2989            3403     15.5940E-03     16.7791E-03
            2972            3403     15.5940E-03     16.7791E-03
            2973            3404     13.3011E-03     14.4713E-03
            2972            3404     13.3011E-03     14.4713E-03
            2990            3404     13.3011E-03     14.4713E-03
            2991            3404     13.3011E-03     14.4713E-03
            2992            3405     11.0211E-03     12.1585E-03
            2974            3405     11.0211E-03     12.1585E-03
            2973            3405     11.0211E-03     12.1585E-03
            2991            3405     11.0211E-03     12.1585E-03
            2974            3406     8.75028E-03     9.84037E-03
            2992            3406     8.75028E-03     9.84037E-03
            2975            3406     8.75028E-03     9.84037E-03
            2993            3406     8.75028E-03     9.84037E-03
            2975            3407     6.50234E-03     7.50978E-03
            2994            3407     6.50234E-03     7.50978E-03
            2993            3407     6.50234E-03     7.50978E-03
            2976            3407     6.50234E-03     7.50978E-03
            2976            3408     4.27295E-03     5.20228E-03
            2995            3408     4.27295E-03     5.20228E-03
            2994            3408     4.27295E-03     5.20228E-03
            2977            3408     4.27295E-03     5.20228E-03
            2996            3409     2.15624E-03     3.01486E-03
            2978            3409     2.15624E-03     3.01486E-03
            2995            3409     2.15624E-03     3.01486E-03
            2977            3409     2.15624E-03     3.01486E-03
            2979            3410     47.6823E-03     48.5564E-03
            2998            3410     47.6823E-03     48.5564E-03
            2997            3410     47.6823E-03     48.5564E-03
            2980            3410     47.6823E-03     48.5564E-03
            2999            3411     40.5802E-03     41.7514E-03
            2998            3411     40.5802E-03     41.7514E-03
            2981            3411     40.5802E-03     41.7514E-03
            2980            3411     40.5802E-03     41.7514E-03
            2981            3412     35.8650E-03     36.9659E-03
            3000            3412     35.8650E-03     36.9659E-03
            2999            3412     35.8650E-03     36.9659E-03
            2982            3412     35.8650E-03     36.9659E-03
            2982            3413     32.4032E-03     33.4933E-03
            2983            3413     32.4032E-03     33.4933E-03
            3000            3413     32.4032E-03     33.4933E-03
            3001            3413     32.4032E-03     33.4933E-03
            2983            3414     29.3998E-03     30.5386E-03
            3001            3414     29.3998E-03     30.5386E-03
            3002            3414     29.3998E-03     30.5386E-03
            2984            3414     29.3998E-03     30.5386E-03
            3003            3415     26.7577E-03     27.9524E-03
            2984            3415     26.7577E-03     27.9524E-03
            3002            3415     26.7577E-03     27.9524E-03
            2985            3415     26.7577E-03     27.9524E-03
            2986            3416     24.2770E-03     25.5311E-03
            3003            3416     24.2770E-03     25.5311E-03
            3004            3416     24.2770E-03     25.5311E-03
            2985            3416     24.2770E-03     25.5311E-03
            2986            3417     21.9199E-03     23.2229E-03
            3005            3417     21.9199E-03     23.2229E-03
            2987            3417     21.9199E-03     23.2229E-03
            3004            3417     21.9199E-03     23.2229E-03
            2987            3418     19.6177E-03     20.9584E-03
            3005            3418     19.6177E-03     20.9584E-03
            3006            3418     19.6177E-03     20.9584E-03
            2988            3418     19.6177E-03     20.9584E-03
            3006            3419     17.3566E-03     18.7202E-03
            2989            3419     17.3566E-03     18.7202E-03
            3007            3419     17.3566E-03     18.7202E-03
            2988            3419     17.3566E-03     18.7202E-03
            2990            3420     15.1119E-03     16.4833E-03
            2989            3420     15.1119E-03     16.4833E-03
            3008            3420     15.1119E-03     16.4833E-03
            3007            3420     15.1119E-03     16.4833E-03
            3008            3421     12.8823E-03     14.2422E-03
            2991            3421     12.8823E-03     14.2422E-03
            3009            3421     12.8823E-03     14.2422E-03
            2990            3421     12.8823E-03     14.2422E-03
            3010            3422     10.6597E-03     11.9876E-03
            2991            3422     10.6597E-03     11.9876E-03
            2992            3422     10.6597E-03     11.9876E-03
            3009            3422     10.6597E-03     11.9876E-03
            2993            3423     8.45234E-03     9.71779E-03
            3010            3423     8.45234E-03     9.71779E-03
            3011            3423     8.45234E-03     9.71779E-03
            2992            3423     8.45234E-03     9.71779E-03
            3011            3424     6.25988E-03     7.42905E-03
            3012            3424     6.25988E-03     7.42905E-03
            2993            3424     6.25988E-03     7.42905E-03
            2994            3424     6.25988E-03     7.42905E-03
            2995            3425     4.11560E-03     5.12296E-03
            3013            3425     4.11560E-03     5.12296E-03
            2994            3425     4.11560E-03     5.12296E-03
            3012            3425     4.11560E-03     5.12296E-03
            3014            3426     1.99673E-03     2.93709E-03
            2996            3426     1.99673E-03     2.93709E-03
            3013            3426     1.99673E-03     2.93709E-03
            2995            3426     1.99673E-03     2.93709E-03
            3015            3427     46.7973E-03     47.6152E-03
            3016            3427     46.7973E-03     47.6152E-03
            2997            3427     46.7973E-03     47.6152E-03
            2998            3427     46.7973E-03     47.6152E-03
            2998            3428     42.7492E-03     42.7363E-03
            3017            3428     42.7492E-03     42.7363E-03
            3016            3428     42.7492E-03     42.7363E-03
            2999            3428     42.7492E-03     42.7363E-03
            3000            3429     39.9001E-03     39.8394E-03
            3017            3429     39.9001E-03     39.8394E-03
            3018            3429     39.9001E-03     39.8394E-03
            2999            3429     39.9001E-03     39.8394E-03
            3000            3430     37.2070E-03     37.2910E-03
            3019            3430     37.2070E-03     37.2910E-03
            3001            3430     37.2070E-03     37.2910E-03
            3018            3430     37.2070E-03     37.2910E-03
            3001            3431     34.7120E-03     34.9190E-03
            3002            3431     34.7120E-03     34.9190E-03
            3019            3431     34.7120E-03     34.9190E-03
            3020            3431     34.7120E-03     34.9190E-03
            3002            3432     32.2416E-03     32.6108E-03
            3003            3432     32.2416E-03     32.6108E-03
            3020            3432     32.2416E-03     32.6108E-03
            3021            3432     32.2416E-03     32.6108E-03
            3003            3433     29.8203E-03     30.2958E-03
            3022            3433     29.8203E-03     30.2958E-03
            3004            3433     29.8203E-03     30.2958E-03
            3021            3433     29.8203E-03     30.2958E-03
            3004            3434     27.3940E-03     27.9747E-03
            3023            3434     27.3940E-03     27.9747E-03
            3022            3434     27.3940E-03     27.9747E-03
            3005            3434     27.3940E-03     27.9747E-03
            3005            3435     24.9839E-03     25.6271E-03
            3024            3435     24.9839E-03     25.6271E-03
            3006            3435     24.9839E-03     25.6271E-03
            3023            3435     24.9839E-03     25.6271E-03
            3007            3436     22.5755E-03     23.2682E-03
            3024            3436     22.5755E-03     23.2682E-03
            3006            3436     22.5755E-03     23.2682E-03
            3025            3436     22.5755E-03     23.2682E-03
            3007            3437     20.1933E-03     20.9041E-03
            3008            3437     20.1933E-03     20.9041E-03
            3026            3437     20.1933E-03     20.9041E-03
            3025            3437     20.1933E-03     20.9041E-03
            3008            3438     17.8433E-03     18.5521E-03
            3026            3438     17.8433E-03     18.5521E-03
            3009            3438     17.8433E-03     18.5521E-03
            3027            3438     17.8433E-03     18.5521E-03
            3010            3439     15.5605E-03     16.2358E-03
            3028            3439     15.5605E-03     16.2358E-03
            3009            3439     15.5605E-03     16.2358E-03
            3027            3439     15.5605E-03     16.2358E-03
            3029            3440     13.3695E-03     13.9926E-03
            3010            3440     13.3695E-03     13.9926E-03
            3011            3440     13.3695E-03     13.9926E-03
            3028            3440     13.3695E-03     13.9926E-03
            3012            3441     11.3177E-03     11.8612E-03
            3029            3441     11.3177E-03     11.8612E-03
            3030            3441     11.3177E-03     11.8612E-03
            3011            3441     11.3177E-03     11.8612E-03
            3013            3442     9.44522E-03     10.0003E-03
            3012            3442     9.44522E-03     10.0003E-03
            3030            3442     9.44522E-03     10.0003E-03
            3031            3442     9.44522E-03     10.0003E-03
            3013            3443     7.56052E-03     8.70360E-03
            3031            3443     7.56052E-03     8.70360E-03
            3032            3443     7.56052E-03     8.70360E-03
            3014            3443     7.56052E-03     8.70360E-03
            3033            3444     48.6873E-03     47.9234E-03
            3034            3444     48.6873E-03     47.9234E-03
            3016            3444     48.6873E-03     47.9234E-03
            3015            3444     48.6873E-03     47.9234E-03
            3035            3445     47.4544E-03     46.8512E-03
            3016            3445     47.4544E-03     46.8512E-03
            3034            3445     47.4544E-03     46.8512E-03
            3017            3445     47.4544E-03     46.8512E-03
            3017            3446     45.7306E-03     45.1200E-03
            3036            3446     45.7306E-03     45.1200E-03
            3018            3446     45.7306E-03     45.1200E-03
            3035            3446     45.7306E-03     45.1200E-03
            3018            3447     43.6769E-03     43.1608E-03
            3036            3447     43.6769E-03     43.1608E-03
            3019            3447     43.6769E-03     43.1608E-03
            3037            3447     43.6769E-03     43.1608E-03
            3038            3448     41.3588E-03     40.9596E-03
            3037            3448     41.3588E-03     40.9596E-03
            3019            3448     41.3588E-03     40.9596E-03
            3020            3448     41.3588E-03     40.9596E-03
            3038            3449     38.8752E-03     38.5926E-03
            3020            3449     38.8752E-03     38.5926E-03
            3021            3449     38.8752E-03     38.5926E-03
            3039            3449     38.8752E-03     38.5926E-03
            3039            3450     36.2659E-03     36.0867E-03
            3040            3450     36.2659E-03     36.0867E-03
            3021            3450     36.2659E-03     36.0867E-03
            3022            3450     36.2659E-03     36.0867E-03
            3041            3451     33.5829E-03     33.4826E-03
            3023            3451     33.5829E-03     33.4826E-03
            3022            3451     33.5829E-03     33.4826E-03
            3040            3451     33.5829E-03     33.4826E-03
            3042            3452     30.8530E-03     30.8170E-03
            3023            3452     30.8530E-03     30.8170E-03
            3041            3452     30.8530E-03     30.8170E-03
            3024            3452     30.8530E-03     30.8170E-03
            3025            3453     28.1188E-03     28.1200E-03
            3024            3453     28.1188E-03     28.1200E-03
            3042            3453     28.1188E-03     28.1200E-03
            3043            3453     28.1188E-03     28.1200E-03
            3025            3454     25.4029E-03     25.4289E-03
            3043            3454     25.4029E-03     25.4289E-03
            3044            3454     25.4029E-03     25.4289E-03
            3026            3454     25.4029E-03     25.4289E-03
            3027            3455     22.7534E-03     22.7808E-03
            3045            3455     22.7534E-03     22.7808E-03
            3044            3455     22.7534E-03     22.7808E-03
            3026            3455     22.7534E-03     22.7808E-03
            3045            3456     20.2013E-03     20.2272E-03
            3027            3456     20.2013E-03     20.2272E-03
            3046            3456     20.2013E-03     20.2272E-03
            3028            3456     20.2013E-03     20.2272E-03
            3029            3457     17.8172E-03     17.8506E-03
            3028            3457     17.8172E-03     17.8506E-03
            3046            3457     17.8172E-03     17.8506E-03
            3047            3457     17.8172E-03     17.8506E-03
            3030            3458     15.6403E-03     15.7680E-03
            3047            3458     15.6403E-03     15.7680E-03
            3029            3458     15.6403E-03     15.7680E-03
            3048            3458     15.6403E-03     15.7680E-03
            3048            3459     13.7089E-03     14.3076E-03
            3049            3459     13.7089E-03     14.3076E-03
            3031            3459     13.7089E-03     14.3076E-03
            3030            3459     13.7089E-03     14.3076E-03
            3050            3460     12.2430E-03     13.7914E-03
            3031            3460     12.2430E-03     13.7914E-03
            3032            3460     12.2430E-03     13.7914E-03
            3049            3460     12.2430E-03     13.7914E-03
            3034            3461     51.7244E-03     51.9572E-03
            3033            3461     51.7244E-03     51.9572E-03
            3051            3461     51.7244E-03     51.9572E-03
            3052            3461     51.7244E-03     51.9572E-03
            3052            3462     50.0566E-03     50.4415E-03
            3035            3462     50.0566E-03     50.4415E-03
            3034            3462     50.0566E-03     50.4415E-03
            3053            3462     50.0566E-03     50.4415E-03
            3053            3463     48.0239E-03     48.3400E-03
            3054            3463     48.0239E-03     48.3400E-03
            3036            3463     48.0239E-03     48.3400E-03
            3035            3463     48.0239E-03     48.3400E-03
            3036            3464     45.6829E-03     45.8812E-03
            3054            3464     45.6829E-03     45.8812E-03
            3055            3464     45.6829E-03     45.8812E-03
            3037            3464     45.6829E-03     45.8812E-03
            3055            3465     43.0565E-03     43.2013E-03
            3056            3465     43.0565E-03     43.2013E-03
            3038            3465     43.0565E-03     43.2013E-03
            3037            3465     43.0565E-03     43.2013E-03
            3038            3466     40.2419E-03     40.3766E-03
            3056            3466     40.2419E-03     40.3766E-03
            3039            3466     40.2419E-03     40.3766E-03
            3057            3466     40.2419E-03     40.3766E-03
            3058            3467     37.3133E-03     37.4497E-03
            3039            3467     37.3133E-03     37.4497E-03
            3057            3467     37.3133E-03     37.4497E-03
            3040            3467     37.3133E-03     37.4497E-03
            3059            3468     34.3121E-03     34.4679E-03
            3041            3468     34.3121E-03     34.4679E-03
            3058            3468     34.3121E-03     34.4679E-03
            3040            3468     34.3121E-03     34.4679E-03
            3042            3469     31.2885E-03     31.4562E-03
            3059            3469     31.2885E-03     31.4562E-03
            3041            3469     31.2885E-03     31.4562E-03
            3060            3469     31.2885E-03     31.4562E-03
            3043            3470     28.2623E-03     28.4464E-03
            3042            3470     28.2623E-03     28.4464E-03
            3060            3470     28.2623E-03     28.4464E-03
            3061            3470     28.2623E-03     28.4464E-03
            3044            3471     25.2684E-03     25.4633E-03
            3062            3471     25.2684E-03     25.4633E-03
            3061            3471     25.2684E-03     25.4633E-03
            3043            3471     25.2684E-03     25.4633E-03
            3063            3472     22.3283E-03     22.5400E-03
            3062            3472     22.3283E-03     22.5400E-03
            3044            3472     22.3283E-03     22.5400E-03
            3045            3472     22.3283E-03     22.5400E-03
            3064            3473     19.4749E-03     19.7275E-03
            3045            3473     19.4749E-03     19.7275E-03
            3046            3473     19.4749E-03     19.7275E-03
            3063            3473     19.4749E-03     19.7275E-03
            3046            3474     16.7541E-03     17.1018E-03
            3064            3474     16.7541E-03     17.1018E-03
            3047            3474     16.7541E-03     17.1018E-03
            3065            3474     16.7541E-03     17.1018E-03
            3065            3475     14.2068E-03     14.8241E-03
            3047            3475     14.2068E-03     14.8241E-03
            3048            3475     14.2068E-03     14.8241E-03
            3066            3475     14.2068E-03     14.8241E-03
            3066            3476     12.0243E-03     13.1451E-03
            3067            3476     12.0243E-03     13.1451E-03
            3048            3476     12.0243E-03     13.1451E-03
            3049            3476     12.0243E-03     13.1451E-03
            3050            3477     10.8657E-03     11.8093E-03
            3067            3477     10.8657E-03     11.8093E-03
            3068            3477     10.8657E-03     11.8093E-03
            3049            3477     10.8657E-03     11.8093E-03
            3070            3478     54.3735E-03     55.0665E-03
            3052            3478     54.3735E-03     55.0665E-03
            3069            3478     54.3735E-03     55.0665E-03
            3051            3478     54.3735E-03     55.0665E-03
            3053            3479     52.2944E-03     53.1635E-03
            3070            3479     52.2944E-03     53.1635E-03
            3052            3479     52.2944E-03     53.1635E-03
            3071            3479     52.2944E-03     53.1635E-03
            3053            3480     50.0177E-03     50.8346E-03
            3054            3480     50.0177E-03     50.8346E-03
            3071            3480     50.0177E-03     50.8346E-03
            3072            3480     50.0177E-03     50.8346E-03
            3073            3481     47.3523E-03     48.0872E-03
            3055            3481     47.3523E-03     48.0872E-03
            3054            3481     47.3523E-03     48.0872E-03
            3072            3481     47.3523E-03     48.0872E-03
            3055            3482     44.4614E-03     45.0698E-03
            3074            3482     44.4614E-03     45.0698E-03
            3073            3482     44.4614E-03     45.0698E-03
            3056            3482     44.4614E-03     45.0698E-03
            3056            3483     41.3716E-03     41.8944E-03
            3074            3483     41.3716E-03     41.8944E-03
            3075            3483     41.3716E-03     41.8944E-03
            3057            3483     41.3716E-03     41.8944E-03
            3058            3484     38.1740E-03     38.6439E-03
            3076            3484     38.1740E-03     38.6439E-03
            3075            3484     38.1740E-03     38.6439E-03
            3057            3484     38.1740E-03     38.6439E-03
            3076            3485     34.9275E-03     35.3563E-03
            3058            3485     34.9275E-03     35.3563E-03
            3077            3485     34.9275E-03     35.3563E-03
            3059            3485     34.9275E-03     35.3563E-03
            3060            3486     31.6595E-03     32.0716E-03
            3078            3486     31.6595E-03     32.0716E-03
            3059            3486     31.6595E-03     32.0716E-03
            3077            3486     31.6595E-03     32.0716E-03
            3079            3487     28.4065E-03     28.8081E-03
            3061            3487     28.4065E-03     28.8081E-03
            3060            3487     28.4065E-03     28.8081E-03
            3078            3487     28.4065E-03     28.8081E-03
            3079            3488     25.1805E-03     25.5892E-03
            3080            3488     25.1805E-03     25.5892E-03
            3062            3488     25.1805E-03     25.5892E-03
            3061            3488     25.1805E-03     25.5892E-03
            3063            3489     22.0031E-03     22.4388E-03
            3080            3489     22.0031E-03     22.4388E-03
            3062            3489     22.0031E-03     22.4388E-03
            3081            3489     22.0031E-03     22.4388E-03
            3064            3490     18.8971E-03     19.4005E-03
            3063            3490     18.8971E-03     19.4005E-03
            3082            3490     18.8971E-03     19.4005E-03
            3081            3490     18.8971E-03     19.4005E-03
            3083            3491     15.8971E-03     16.5333E-03
            3064            3491     15.8971E-03     16.5333E-03
            3065            3491     15.8971E-03     16.5333E-03
            3082            3491     15.8971E-03     16.5333E-03
            3083            3492     13.0914E-03     13.9794E-03
            3066            3492     13.0914E-03     13.9794E-03
            3065            3492     13.0914E-03     13.9794E-03
            3084            3492     13.0914E-03     13.9794E-03
            3066            3493     10.8150E-03     11.7203E-03
            3085            3493     10.8150E-03     11.7203E-03
            3084            3493     10.8150E-03     11.7203E-03
            3067            3493     10.8150E-03     11.7203E-03
            3086            3494     9.35381E-03     9.78771E-03
            3067            3494     9.35381E-03     9.78771E-03
            3068            3494     9.35381E-03     9.78771E-03
            3085            3494     9.35381E-03     9.78771E-03
            3088            3495     56.7695E-03     57.4203E-03
            3070            3495     56.7695E-03     57.4203E-03
            3087            3495     56.7695E-03     57.4203E-03
            3069            3495     56.7695E-03     57.4203E-03
            3071            3496     54.2835E-03     55.2831E-03
            3089            3496     54.2835E-03     55.2831E-03
            3088            3496     54.2835E-03     55.2831E-03
            3070            3496     54.2835E-03     55.2831E-03
            3071            3497     51.6032E-03     52.7116E-03
            3072            3497     51.6032E-03     52.7116E-03
            3089            3497     51.6032E-03     52.7116E-03
            3090            3497     51.6032E-03     52.7116E-03
            3072            3498     48.6818E-03     49.7172E-03
            3091            3498     48.6818E-03     49.7172E-03
            3090            3498     48.6818E-03     49.7172E-03
            3073            3498     48.6818E-03     49.7172E-03
            3091            3499     45.4888E-03     46.4402E-03
            3073            3499     45.4888E-03     46.4402E-03
            3074            3499     45.4888E-03     46.4402E-03
            3092            3499     45.4888E-03     46.4402E-03
            3093            3500     42.1608E-03     43.0082E-03
            3074            3500     42.1608E-03     43.0082E-03
            3092            3500     42.1608E-03     43.0082E-03
            3075            3500     42.1608E-03     43.0082E-03
            3076            3501     38.7504E-03     39.5087E-03
            3075            3501     38.7504E-03     39.5087E-03
            3094            3501     38.7504E-03     39.5087E-03
            3093            3501     38.7504E-03     39.5087E-03
            3076            3502     35.3055E-03     36.0039E-03
            3077            3502     35.3055E-03     36.0039E-03
            3094            3502     35.3055E-03     36.0039E-03
            3095            3502     35.3055E-03     36.0039E-03
            3077            3503     31.8678E-03     32.5195E-03
            3096            3503     31.8678E-03     32.5195E-03
            3078            3503     31.8678E-03     32.5195E-03
            3095            3503     31.8678E-03     32.5195E-03
            3078            3504     28.4440E-03     29.0747E-03
            3096            3504     28.4440E-03     29.0747E-03
            3097            3504     28.4440E-03     29.0747E-03
            3079            3504     28.4440E-03     29.0747E-03
            3079            3505     25.0527E-03     25.6823E-03
            3098            3505     25.0527E-03     25.6823E-03
            3080            3505     25.0527E-03     25.6823E-03
            3097            3505     25.0527E-03     25.6823E-03
            3080            3506     21.7003E-03     22.3624E-03
            3081            3506     21.7003E-03     22.3624E-03
            3098            3506     21.7003E-03     22.3624E-03
            3099            3506     21.7003E-03     22.3624E-03
            3081            3507     18.4069E-03     19.1336E-03
            3099            3507     18.4069E-03     19.1336E-03
            3082            3507     18.4069E-03     19.1336E-03
            3100            3507     18.4069E-03     19.1336E-03
            3083            3508     15.2013E-03     16.0561E-03
            3100            3508     15.2013E-03     16.0561E-03
            3101            3508     15.2013E-03     16.0561E-03
            3082            3508     15.2013E-03     16.0561E-03
            3084            3509     12.2186E-03     13.1502E-03
            3101            3509     12.2186E-03     13.1502E-03
            3102            3509     12.2186E-03     13.1502E-03
            3083            3509     12.2186E-03     13.1502E-03
            3102            3510     9.65215E-03     10.4539E-03
            3084            3510     9.65215E-03     10.4539E-03
            3103            3510     9.65215E-03     10.4539E-03
            3085            3510     9.65215E-03     10.4539E-03
            3086            3511     7.89541E-03     8.36605E-03
            3104            3511     7.89541E-03     8.36605E-03
            3085            3511     7.89541E-03     8.36605E-03
            3103            3511     7.89541E-03     8.36605E-03
            3106            3512     58.8948E-03     59.6249E-03
            3088            3512     58.8948E-03     59.6249E-03
            3087            3512     58.8948E-03     59.6249E-03
            3105            3512     58.8948E-03     59.6249E-03
            3089            3513     55.9919E-03     57.0376E-03
            3106            3513     55.9919E-03     57.0376E-03
            3088            3513     55.9919E-03     57.0376E-03
            3107            3513     55.9919E-03     57.0376E-03
            3108            3514     52.9223E-03     54.1128E-03
            3090            3514     52.9223E-03     54.1128E-03
            3089            3514     52.9223E-03     54.1128E-03
            3107            3514     52.9223E-03     54.1128E-03
            3091            3515     49.6001E-03     50.8313E-03
            3108            3515     49.6001E-03     50.8313E-03
            3090            3515     49.6001E-03     50.8313E-03
            3109            3515     49.6001E-03     50.8313E-03
            3092            3516     46.1277E-03     47.2986E-03
            3109            3516     46.1277E-03     47.2986E-03
            3110            3516     46.1277E-03     47.2986E-03
            3091            3516     46.1277E-03     47.2986E-03
            3092            3517     42.5660E-03     43.6476E-03
            3093            3517     42.5660E-03     43.6476E-03
            3111            3517     42.5660E-03     43.6476E-03
            3110            3517     42.5660E-03     43.6476E-03
            3112            3518     38.9745E-03     39.9756E-03
            3093            3518     38.9745E-03     39.9756E-03
            3111            3518     38.9745E-03     39.9756E-03
            3094            3518     38.9745E-03     39.9756E-03
            3112            3519     35.4025E-03     36.3278E-03
            3094            3519     35.4025E-03     36.3278E-03
            3095            3519     35.4025E-03     36.3278E-03
            3113            3519     35.4025E-03     36.3278E-03
            3095            3520     31.8469E-03     32.7204E-03
            3114            3520     31.8469E-03     32.7204E-03
            3113            3520     31.8469E-03     32.7204E-03
            3096            3520     31.8469E-03     32.7204E-03
            3096            3521     28.3233E-03     29.1646E-03
            3097            3521     28.3233E-03     29.1646E-03
            3114            3521     28.3233E-03     29.1646E-03
            3115            3521     28.3233E-03     29.1646E-03
            3115            3522     24.8279E-03     25.6642E-03
            3097            3522     24.8279E-03     25.6642E-03
            3098            3522     24.8279E-03     25.6642E-03
            3116            3522     24.8279E-03     25.6642E-03
            3117            3523     21.3680E-03     22.2257E-03
            3099            3523     21.3680E-03     22.2257E-03
            3098            3523     21.3680E-03     22.2257E-03
            3116            3523     21.3680E-03     22.2257E-03
            3118            3524     17.9495E-03     18.8669E-03
            3117            3524     17.9495E-03     18.8669E-03
            3100            3524     17.9495E-03     18.8669E-03
            3099            3524     17.9495E-03     18.8669E-03
            3119            3525     14.6164E-03     15.5958E-03
            3101            3525     14.6164E-03     15.5958E-03
            3100            3525     14.6164E-03     15.5958E-03
            3118            3525     14.6164E-03     15.5958E-03
            3101            3526     11.4348E-03     12.4267E-03
            3120            3526     11.4348E-03     12.4267E-03
            3102            3526     11.4348E-03     12.4267E-03
            3119            3526     11.4348E-03     12.4267E-03
            3121            3527     8.59274E-03     9.48971E-03
            3103            3527     8.59274E-03     9.48971E-03
            3102            3527     8.59274E-03     9.48971E-03
            3120            3527     8.59274E-03     9.48971E-03
            3121            3528     6.54833E-03     6.97186E-03
            3122            3528     6.54833E-03     6.97186E-03
            3103            3528     6.54833E-03     6.97186E-03
            3104            3528     6.54833E-03     6.97186E-03
            3124            3529     60.8283E-03     61.6612E-03
            3105            3529     60.8283E-03     61.6612E-03
            3106            3529     60.8283E-03     61.6612E-03
            3123            3529     60.8283E-03     61.6612E-03
            3124            3530     57.5059E-03     58.5473E-03
            3106            3530     57.5059E-03     58.5473E-03
            3125            3530     57.5059E-03     58.5473E-03
            3107            3530     57.5059E-03     58.5473E-03
            3107            3531     53.8866E-03     55.1500E-03
            3108            3531     53.8866E-03     55.1500E-03
            3125            3531     53.8866E-03     55.1500E-03
            3126            3531     53.8866E-03     55.1500E-03
            3109            3532     50.1354E-03     51.4621E-03
            3108            3532     50.1354E-03     51.4621E-03
            3126            3532     50.1354E-03     51.4621E-03
            3127            3532     50.1354E-03     51.4621E-03
            3127            3533     46.3343E-03     47.6310E-03
            3109            3533     46.3343E-03     47.6310E-03
            3110            3533     46.3343E-03     47.6310E-03
            3128            3533     46.3343E-03     47.6310E-03
            3111            3534     42.5453E-03     43.7995E-03
            3110            3534     42.5453E-03     43.7995E-03
            3129            3534     42.5453E-03     43.7995E-03
            3128            3534     42.5453E-03     43.7995E-03
            3112            3535     38.8449E-03     40.0231E-03
            3129            3535     38.8449E-03     40.0231E-03
            3111            3535     38.8449E-03     40.0231E-03
            3130            3535     38.8449E-03     40.0231E-03
            3131            3536     35.1904E-03     36.3020E-03
            3112            3536     35.1904E-03     36.3020E-03
            3130            3536     35.1904E-03     36.3020E-03
            3113            3536     35.1904E-03     36.3020E-03
            3131            3537     31.5880E-03     32.6475E-03
            3113            3537     31.5880E-03     32.6475E-03
            3114            3537     31.5880E-03     32.6475E-03
            3132            3537     31.5880E-03     32.6475E-03
            3115            3538     28.0211E-03     29.0461E-03
            3132            3538     28.0211E-03     29.0461E-03
            3133            3538     28.0211E-03     29.0461E-03
            3114            3538     28.0211E-03     29.0461E-03
            3134            3539     24.4853E-03     25.4988E-03
            3116            3539     24.4853E-03     25.4988E-03
            3115            3539     24.4853E-03     25.4988E-03
            3133            3539     24.4853E-03     25.4988E-03
            3116            3540     20.9766E-03     22.0008E-03
            3134            3540     20.9766E-03     22.0008E-03
            3135            3540     20.9766E-03     22.0008E-03
            3117            3540     20.9766E-03     22.0008E-03
            3135            3541     17.5004E-03     18.5568E-03
            3118            3541     17.5004E-03     18.5568E-03
            3136            3541     17.5004E-03     18.5568E-03
            3117            3541     17.5004E-03     18.5568E-03
            3136            3542     14.0736E-03     15.1649E-03
            3118            3542     14.0736E-03     15.1649E-03
            3119            3542     14.0736E-03     15.1649E-03
            3137            3542     14.0736E-03     15.1649E-03
            3120            3543     10.7468E-03     11.8475E-03
            3137            3543     10.7468E-03     11.8475E-03
            3138            3543     10.7468E-03     11.8475E-03
            3119            3543     10.7468E-03     11.8475E-03
            3138            3544     7.64950E-03     8.64279E-03
            3139            3544     7.64950E-03     8.64279E-03
            3121            3544     7.64950E-03     8.64279E-03
            3120            3544     7.64950E-03     8.64279E-03
            3122            3545     5.21687E-03     5.81795E-03
            3121            3545     5.21687E-03     5.81795E-03
            3140            3545     5.21687E-03     5.81795E-03
            3139            3545     5.21687E-03     5.81795E-03
            3141            3546     62.7421E-03     63.4932E-03
            3142            3546     62.7421E-03     63.4932E-03
            3123            3546     62.7421E-03     63.4932E-03
            3124            3546     62.7421E-03     63.4932E-03
            3125            3547     58.6972E-03     59.8684E-03
            3142            3547     58.6972E-03     59.8684E-03
            3124            3547     58.6972E-03     59.8684E-03
            3143            3547     58.6972E-03     59.8684E-03
            3143            3548     54.4846E-03     55.7637E-03
            3144            3548     54.4846E-03     55.7637E-03
            3125            3548     54.4846E-03     55.7637E-03
            3126            3548     54.4846E-03     55.7637E-03
            3126            3549     50.1928E-03     51.5299E-03
            3127            3549     50.1928E-03     51.5299E-03
            3145            3549     50.1928E-03     51.5299E-03
            3144            3549     50.1928E-03     51.5299E-03
            3128            3550     46.0211E-03     47.4188E-03
            3146            3550     46.0211E-03     47.4188E-03
            3127            3550     46.0211E-03     47.4188E-03
            3145            3550     46.0211E-03     47.4188E-03
            3129            3551     42.1269E-03     43.4825E-03
            3128            3551     42.1269E-03     43.4825E-03
            3146            3551     42.1269E-03     43.4825E-03
            3147            3551     42.1269E-03     43.4825E-03
            3129            3552     38.3582E-03     39.6623E-03
            3130            3552     38.3582E-03     39.6623E-03
            3147            3552     38.3582E-03     39.6623E-03
            3148            3552     38.3582E-03     39.6623E-03
            3131            3553     34.6982E-03     35.9535E-03
            3130            3553     34.6982E-03     35.9535E-03
            3148            3553     34.6982E-03     35.9535E-03
            3149            3553     34.6982E-03     35.9535E-03
            3149            3554     31.1038E-03     32.3135E-03
            3131            3554     31.1038E-03     32.3135E-03
            3150            3554     31.1038E-03     32.3135E-03
            3132            3554     31.1038E-03     32.3135E-03
            3150            3555     27.5513E-03     28.7338E-03
            3151            3555     27.5513E-03     28.7338E-03
            3133            3555     27.5513E-03     28.7338E-03
            3132            3555     27.5513E-03     28.7338E-03
            3134            3556     24.0294E-03     25.1944E-03
            3152            3556     24.0294E-03     25.1944E-03
            3151            3556     24.0294E-03     25.1944E-03
            3133            3556     24.0294E-03     25.1944E-03
            3152            3557     20.5274E-03     21.6924E-03
            3153            3557     20.5274E-03     21.6924E-03
            3135            3557     20.5274E-03     21.6924E-03
            3134            3557     20.5274E-03     21.6924E-03
            3153            3558     17.0463E-03     18.2152E-03
            3135            3558     17.0463E-03     18.2152E-03
            3136            3558     17.0463E-03     18.2152E-03
            3154            3558     17.0463E-03     18.2152E-03
            3155            3559     13.5820E-03     14.7776E-03
            3137            3559     13.5820E-03     14.7776E-03
            3136            3559     13.5820E-03     14.7776E-03
            3154            3559     13.5820E-03     14.7776E-03
            3155            3560     10.1612E-03     11.3781E-03
            3137            3560     10.1612E-03     11.3781E-03
            3156            3560     10.1612E-03     11.3781E-03
            3138            3560     10.1612E-03     11.3781E-03
            3156            3561     6.86022E-03     8.01729E-03
            3157            3561     6.86022E-03     8.01729E-03
            3138            3561     6.86022E-03     8.01729E-03
            3139            3561     6.86022E-03     8.01729E-03
            3157            3562     4.01153E-03     4.84070E-03
            3140            3562     4.01153E-03     4.84070E-03
            3158            3562     4.01153E-03     4.84070E-03
            3139            3562     4.01153E-03     4.84070E-03
            3142            3563     64.3480E-03     65.4604E-03
            3159            3563     64.3480E-03     65.4604E-03
            3141            3563     64.3480E-03     65.4604E-03
            3160            3563     64.3480E-03     65.4604E-03
            3142            3564     59.6579E-03     60.6848E-03
            3160            3564     59.6579E-03     60.6848E-03
            3143            3564     59.6579E-03     60.6848E-03
            3161            3564     59.6579E-03     60.6848E-03
            3162            3565     54.4503E-03     55.6508E-03
            3143            3565     54.4503E-03     55.6508E-03
            3161            3565     54.4503E-03     55.6508E-03
            3144            3565     54.4503E-03     55.6508E-03
            3144            3566     49.5127E-03     50.9224E-03
            3162            3566     49.5127E-03     50.9224E-03
            3163            3566     49.5127E-03     50.9224E-03
            3145            3566     49.5127E-03     50.9224E-03
            3146            3567     45.2637E-03     46.6873E-03
            3163            3567     45.2637E-03     46.6873E-03
            3164            3567     45.2637E-03     46.6873E-03
            3145            3567     45.2637E-03     46.6873E-03
            3147            3568     41.3150E-03     42.7226E-03
            3165            3568     41.3150E-03     42.7226E-03
            3146            3568     41.3150E-03     42.7226E-03
            3164            3568     41.3150E-03     42.7226E-03
            3166            3569     37.5809E-03     38.9698E-03
            3147            3569     37.5809E-03     38.9698E-03
            3165            3569     37.5809E-03     38.9698E-03
            3148            3569     37.5809E-03     38.9698E-03
            3148            3570     33.9768E-03     35.3337E-03
            3167            3570     33.9768E-03     35.3337E-03
            3166            3570     33.9768E-03     35.3337E-03
            3149            3570     33.9768E-03     35.3337E-03
            3167            3571     30.4411E-03     31.7810E-03
            3168            3571     30.4411E-03     31.7810E-03
            3149            3571     30.4411E-03     31.7810E-03
            3150            3571     30.4411E-03     31.7810E-03
            3168            3572     26.9546E-03     28.2743E-03
            3169            3572     26.9546E-03     28.2743E-03
            3150            3572     26.9546E-03     28.2743E-03
            3151            3572     26.9546E-03     28.2743E-03
            3151            3573     23.4904E-03     24.7988E-03
            3170            3573     23.4904E-03     24.7988E-03
            3169            3573     23.4904E-03     24.7988E-03
            3152            3573     23.4904E-03     24.7988E-03
            3153            3574     20.0448E-03     21.3382E-03
            3171            3574     20.0448E-03     21.3382E-03
            3170            3574     20.0448E-03     21.3382E-03
            3152            3574     20.0448E-03     21.3382E-03
            3153            3575     16.6063E-03     17.8929E-03
            3171            3575     16.6063E-03     17.8929E-03
            3172            3575     16.6063E-03     17.8929E-03
            3154            3575     16.6063E-03     17.8929E-03
            3154            3576     13.1794E-03     14.4491E-03
            3172            3576     13.1794E-03     14.4491E-03
            3173            3576     13.1794E-03     14.4491E-03
            3155            3576     13.1794E-03     14.4491E-03
            3173            3577     9.74008E-03     11.0415E-03
            3155            3577     9.74008E-03     11.0415E-03
            3156            3577     9.74008E-03     11.0415E-03
            3174            3577     9.74008E-03     11.0415E-03
            3174            3578     6.31176E-03     7.69193E-03
            3156            3578     6.31176E-03     7.69193E-03
            3175            3578     6.31176E-03     7.69193E-03
            3157            3578     6.31176E-03     7.69193E-03
            3157            3579     3.09414E-03     4.28724E-03
            3158            3579     3.09414E-03     4.28724E-03
            3175            3579     3.09414E-03     4.28724E-03
            3176            3579     3.09414E-03     4.28724E-03
            3178            3580     66.1473E-03     66.4319E-03
            3177            3580     66.1473E-03     66.4319E-03
            3159            3580     66.1473E-03     66.4319E-03
            3160            3580     66.1473E-03     66.4319E-03
            3160            3581     59.5760E-03     60.4737E-03
            3178            3581     59.5760E-03     60.4737E-03
            3161            3581     59.5760E-03     60.4737E-03
            3179            3581     59.5760E-03     60.4737E-03
            3161            3582     53.1794E-03     54.4939E-03
            3162            3582     53.1794E-03     54.4939E-03
            3180            3582     53.1794E-03     54.4939E-03
            3179            3582     53.1794E-03     54.4939E-03
            3162            3583     48.3072E-03     49.6866E-03
            3180            3583     48.3072E-03     49.6866E-03
            3181            3583     48.3072E-03     49.6866E-03
            3163            3583     48.3072E-03     49.6866E-03
            3164            3584     44.0889E-03     45.4769E-03
            3181            3584     44.0889E-03     45.4769E-03
            3182            3584     44.0889E-03     45.4769E-03
            3163            3584     44.0889E-03     45.4769E-03
            3182            3585     40.2297E-03     41.6483E-03
            3183            3585     40.2297E-03     41.6483E-03
            3164            3585     40.2297E-03     41.6483E-03
            3165            3585     40.2297E-03     41.6483E-03
            3165            3586     36.6113E-03     38.0379E-03
            3166            3586     36.6113E-03     38.0379E-03
            3184            3586     36.6113E-03     38.0379E-03
            3183            3586     36.6113E-03     38.0379E-03
            3167            3587     33.1038E-03     34.5517E-03
            3166            3587     33.1038E-03     34.5517E-03
            3184            3587     33.1038E-03     34.5517E-03
            3185            3587     33.1038E-03     34.5517E-03
            3168            3588     29.6796E-03     31.1348E-03
            3167            3588     29.6796E-03     31.1348E-03
            3185            3588     29.6796E-03     31.1348E-03
            3186            3588     29.6796E-03     31.1348E-03
            3187            3589     26.2886E-03     27.7511E-03
            3169            3589     26.2886E-03     27.7511E-03
            3186            3589     26.2886E-03     27.7511E-03
            3168            3589     26.2886E-03     27.7511E-03
            3188            3590     22.9258E-03     24.3818E-03
            3187            3590     22.9258E-03     24.3818E-03
            3169            3590     22.9258E-03     24.3818E-03
            3170            3590     22.9258E-03     24.3818E-03
            3188            3591     19.5736E-03     21.0146E-03
            3170            3591     19.5736E-03     21.0146E-03
            3189            3591     19.5736E-03     21.0146E-03
            3171            3591     19.5736E-03     21.0146E-03
            3189            3592     16.2350E-03     17.6418E-03
            3190            3592     16.2350E-03     17.6418E-03
            3172            3592     16.2350E-03     17.6418E-03
            3171            3592     16.2350E-03     17.6418E-03
            3190            3593     12.9027E-03     14.2681E-03
            3191            3593     12.9027E-03     14.2681E-03
            3172            3593     12.9027E-03     14.2681E-03
            3173            3593     12.9027E-03     14.2681E-03
            3174            3594     9.58471E-03     10.8946E-03
            3173            3594     9.58471E-03     10.8946E-03
            3191            3594     9.58471E-03     10.8946E-03
            3192            3594     9.58471E-03     10.8946E-03
            3174            3595     6.23098E-03     7.63213E-03
            3175            3595     6.23098E-03     7.63213E-03
            3193            3595     6.23098E-03     7.63213E-03
            3192            3595     6.23098E-03     7.63213E-03
            3194            3596     3.06478E-03     4.59804E-03
            3175            3596     3.06478E-03     4.59804E-03
            3176            3596     3.06478E-03     4.59804E-03
            3193            3596     3.06478E-03     4.59804E-03
            3178            3597     65.8854E-03     66.7751E-03
            3195            3597     65.8854E-03     66.7751E-03
            3177            3597     65.8854E-03     66.7751E-03
            3196            3597     65.8854E-03     66.7751E-03
            3179            3598     57.2663E-03     58.5448E-03
            3197            3598     57.2663E-03     58.5448E-03
            3178            3598     57.2663E-03     58.5448E-03
            3196            3598     57.2663E-03     58.5448E-03
            3198            3599     51.3047E-03     52.5050E-03
            3180            3599     51.3047E-03     52.5050E-03
            3179            3599     51.3047E-03     52.5050E-03
            3197            3599     51.3047E-03     52.5050E-03
            3181            3600     46.7610E-03     47.9675E-03
            3198            3600     46.7610E-03     47.9675E-03
            3199            3600     46.7610E-03     47.9675E-03
            3180            3600     46.7610E-03     47.9675E-03
            3199            3601     42.7068E-03     43.9934E-03
            3182            3601     42.7068E-03     43.9934E-03
            3200            3601     42.7068E-03     43.9934E-03
            3181            3601     42.7068E-03     43.9934E-03
            3201            3602     39.0491E-03     40.4232E-03
            3200            3602     39.0491E-03     40.4232E-03
            3183            3602     39.0491E-03     40.4232E-03
            3182            3602     39.0491E-03     40.4232E-03
            3202            3603     35.5587E-03     37.0222E-03
            3184            3603     35.5587E-03     37.0222E-03
            3183            3603     35.5587E-03     37.0222E-03
            3201            3603     35.5587E-03     37.0222E-03
            3202            3604     32.2008E-03     33.7363E-03
            3203            3604     32.2008E-03     33.7363E-03
            3185            3604     32.2008E-03     33.7363E-03
            3184            3604     32.2008E-03     33.7363E-03
            3185            3605     28.8983E-03     30.4896E-03
            3204            3605     28.8983E-03     30.4896E-03
            3203            3605     28.8983E-03     30.4896E-03
            3186            3605     28.8983E-03     30.4896E-03
            3186            3606     25.6414E-03     27.2649E-03
            3187            3606     25.6414E-03     27.2649E-03
            3205            3606     25.6414E-03     27.2649E-03
            3204            3606     25.6414E-03     27.2649E-03
            3188            3607     22.4033E-03     24.0375E-03
            3187            3607     22.4033E-03     24.0375E-03
            3206            3607     22.4033E-03     24.0375E-03
            3205            3607     22.4033E-03     24.0375E-03
            3189            3608     19.1890E-03     20.8040E-03
            3206            3608     19.1890E-03     20.8040E-03
            3188            3608     19.1890E-03     20.8040E-03
            3207            3608     19.1890E-03     20.8040E-03
            3208            3609     15.9938E-03     17.5582E-03
            3189            3609     15.9938E-03     17.5582E-03
            3190            3609     15.9938E-03     17.5582E-03
            3207            3609     15.9938E-03     17.5582E-03
            3209            3610     12.8399E-03     14.3084E-03
            3208            3610     12.8399E-03     14.3084E-03
            3191            3610     12.8399E-03     14.3084E-03
            3190            3610     12.8399E-03     14.3084E-03
            3191            3611     9.74291E-03     11.0690E-03
            3192            3611     9.74291E-03     11.0690E-03
            3209            3611     9.74291E-03     11.0690E-03
            3210            3611     9.74291E-03     11.0690E-03
            3210            3612     6.78009E-03     7.92645E-03
            3193            3612     6.78009E-03     7.92645E-03
            3211            3612     6.78009E-03     7.92645E-03
            3192            3612     6.78009E-03     7.92645E-03
            3193            3613     4.09319E-03     5.35761E-03
            3212            3613     4.09319E-03     5.35761E-03
            3211            3613     4.09319E-03     5.35761E-03
            3194            3613     4.09319E-03     5.35761E-03
            3196            3614     64.4680E-03     65.5859E-03
            3195            3614     64.4680E-03     65.5859E-03
            3214            3614     64.4680E-03     65.5859E-03
            3213            3614     64.4680E-03     65.5859E-03
            3197            3615     58.9893E-03     58.9802E-03
            3215            3615     58.9893E-03     58.9802E-03
            3214            3615     58.9893E-03     58.9802E-03
            3196            3615     58.9893E-03     58.9802E-03
            3197            3616     55.0689E-03     55.0045E-03
            3216            3616     55.0689E-03     55.0045E-03
            3215            3616     55.0689E-03     55.0045E-03
            3198            3616     55.0689E-03     55.0045E-03
            3198            3617     51.3224E-03     51.4672E-03
            3199            3617     51.3224E-03     51.4672E-03
            3217            3617     51.3224E-03     51.4672E-03
            3216            3617     51.3224E-03     51.4672E-03
            3200            3618     47.8450E-03     48.1565E-03
            3217            3618     47.8450E-03     48.1565E-03
            3199            3618     47.8450E-03     48.1565E-03
            3218            3618     47.8450E-03     48.1565E-03
            3218            3619     44.3726E-03     44.9035E-03
            3219            3619     44.3726E-03     44.9035E-03
            3200            3619     44.3726E-03     44.9035E-03
            3201            3619     44.3726E-03     44.9035E-03
            3202            3620     40.9757E-03     41.6454E-03
            3220            3620     40.9757E-03     41.6454E-03
            3219            3620     40.9757E-03     41.6454E-03
            3201            3620     40.9757E-03     41.6454E-03
            3221            3621     37.5593E-03     38.3634E-03
            3202            3621     37.5593E-03     38.3634E-03
            3220            3621     37.5593E-03     38.3634E-03
            3203            3621     37.5593E-03     38.3634E-03
            3204            3622     34.1684E-03     35.0497E-03
            3203            3622     34.1684E-03     35.0497E-03
            3222            3622     34.1684E-03     35.0497E-03
            3221            3622     34.1684E-03     35.0497E-03
            3222            3623     30.7757E-03     31.7158E-03
            3204            3623     30.7757E-03     31.7158E-03
            3205            3623     30.7757E-03     31.7158E-03
            3223            3623     30.7757E-03     31.7158E-03
            3224            3624     27.4147E-03     28.3717E-03
            3223            3624     27.4147E-03     28.3717E-03
            3205            3624     27.4147E-03     28.3717E-03
            3206            3624     27.4147E-03     28.3717E-03
            3224            3625     24.0968E-03     25.0427E-03
            3207            3625     24.0968E-03     25.0427E-03
            3225            3625     24.0968E-03     25.0427E-03
            3206            3625     24.0968E-03     25.0427E-03
            3225            3626     20.8639E-03     21.7518E-03
            3226            3626     20.8639E-03     21.7518E-03
            3208            3626     20.8639E-03     21.7518E-03
            3207            3626     20.8639E-03     21.7518E-03
            3208            3627     17.7673E-03     18.5587E-03
            3226            3627     17.7673E-03     18.5587E-03
            3227            3627     17.7673E-03     18.5587E-03
            3209            3627     17.7673E-03     18.5587E-03
            3227            3628     14.8815E-03     15.5160E-03
            3210            3628     14.8815E-03     15.5160E-03
            3209            3628     14.8815E-03     15.5160E-03
            3228            3628     14.8815E-03     15.5160E-03
            3210            3629     12.3189E-03     12.8815E-03
            3228            3629     12.3189E-03     12.8815E-03
            3229            3629     12.3189E-03     12.8815E-03
            3211            3629     12.3189E-03     12.8815E-03
            3212            3630     9.88325E-03     11.1937E-03
            3211            3630     9.88325E-03     11.1937E-03
            3230            3630     9.88325E-03     11.1937E-03
            3229            3630     9.88325E-03     11.1937E-03
            3214            3631     66.8696E-03     66.1415E-03
            3213            3631     66.8696E-03     66.1415E-03
            3232            3631     66.8696E-03     66.1415E-03
            3231            3631     66.8696E-03     66.1415E-03
            3214            3632     64.1851E-03     63.7104E-03
            3233            3632     64.1851E-03     63.7104E-03
            3232            3632     64.1851E-03     63.7104E-03
            3215            3632     64.1851E-03     63.7104E-03
            3215            3633     61.2404E-03     60.7774E-03
            3216            3633     61.2404E-03     60.7774E-03
            3233            3633     61.2404E-03     60.7774E-03
            3234            3633     61.2404E-03     60.7774E-03
            3235            3634     58.1148E-03     57.7462E-03
            3217            3634     58.1148E-03     57.7462E-03
            3234            3634     58.1148E-03     57.7462E-03
            3216            3634     58.1148E-03     57.7462E-03
            3217            3635     54.7117E-03     54.5040E-03
            3235            3635     54.7117E-03     54.5040E-03
            3236            3635     54.7117E-03     54.5040E-03
            3218            3635     54.7117E-03     54.5040E-03
            3218            3636     51.1860E-03     51.1137E-03
            3236            3636     51.1860E-03     51.1137E-03
            3219            3636     51.1860E-03     51.1137E-03
            3237            3636     51.1860E-03     51.1137E-03
            3238            3637     47.5256E-03     47.5746E-03
            3219            3637     47.5256E-03     47.5746E-03
            3237            3637     47.5256E-03     47.5746E-03
            3220            3637     47.5256E-03     47.5746E-03
            3220            3638     43.8030E-03     43.9462E-03
            3238            3638     43.8030E-03     43.9462E-03
            3221            3638     43.8030E-03     43.9462E-03
            3239            3638     43.8030E-03     43.9462E-03
            3240            3639     40.0377E-03     40.2447E-03
            3222            3639     40.0377E-03     40.2447E-03
            3239            3639     40.0377E-03     40.2447E-03
            3221            3639     40.0377E-03     40.2447E-03
            3223            3640     36.2690E-03     36.5187E-03
            3241            3640     36.2690E-03     36.5187E-03
            3222            3640     36.2690E-03     36.5187E-03
            3240            3640     36.2690E-03     36.5187E-03
            3241            3641     32.5273E-03     32.7932E-03
            3242            3641     32.5273E-03     32.7932E-03
            3224            3641     32.5273E-03     32.7932E-03
            3223            3641     32.5273E-03     32.7932E-03
            3242            3642     28.8559E-03     29.1170E-03
            3243            3642     28.8559E-03     29.1170E-03
            3224            3642     28.8559E-03     29.1170E-03
            3225            3642     28.8559E-03     29.1170E-03
            3244            3643     25.3014E-03     25.5404E-03
            3225            3643     25.3014E-03     25.5404E-03
            3243            3643     25.3014E-03     25.5404E-03
            3226            3643     25.3014E-03     25.5404E-03
            3226            3644     21.9431E-03     22.1599E-03
            3244            3644     21.9431E-03     22.1599E-03
            3227            3644     21.9431E-03     22.1599E-03
            3245            3644     21.9431E-03     22.1599E-03
            3245            3645     18.8517E-03     19.1282E-03
            3228            3645     18.8517E-03     19.1282E-03
            3227            3645     18.8517E-03     19.1282E-03
            3246            3645     18.8517E-03     19.1282E-03
            3247            3646     16.1124E-03     16.8501E-03
            3228            3646     16.1124E-03     16.8501E-03
            3229            3646     16.1124E-03     16.8501E-03
            3246            3646     16.1124E-03     16.8501E-03
            3247            3647     14.0227E-03     15.8483E-03
            3230            3647     14.0227E-03     15.8483E-03
            3229            3647     14.0227E-03     15.8483E-03
            3248            3647     14.0227E-03     15.8483E-03
            3232            3648     70.4163E-03     70.7651E-03
            3249            3648     70.4163E-03     70.7651E-03
            3250            3648     70.4163E-03     70.7651E-03
            3231            3648     70.4163E-03     70.7651E-03
            3251            3649     67.5144E-03     68.1709E-03
            3250            3649     67.5144E-03     68.1709E-03
            3232            3649     67.5144E-03     68.1709E-03
            3233            3649     67.5144E-03     68.1709E-03
            3251            3650     64.1178E-03     64.7299E-03
            3233            3650     64.1178E-03     64.7299E-03
            3234            3650     64.1178E-03     64.7299E-03
            3252            3650     64.1178E-03     64.7299E-03
            3252            3651     60.5326E-03     61.0434E-03
            3235            3651     60.5326E-03     61.0434E-03
            3253            3651     60.5326E-03     61.0434E-03
            3234            3651     60.5326E-03     61.0434E-03
            3253            3652     56.7362E-03     57.1664E-03
            3236            3652     56.7362E-03     57.1664E-03
            3235            3652     56.7362E-03     57.1664E-03
            3254            3652     56.7362E-03     57.1664E-03
            3236            3653     52.7651E-03     53.1840E-03
            3254            3653     52.7651E-03     53.1840E-03
            3255            3653     52.7651E-03     53.1840E-03
            3237            3653     52.7651E-03     53.1840E-03
            3237            3654     48.7109E-03     49.1297E-03
            3238            3654     48.7109E-03     49.1297E-03
            3255            3654     48.7109E-03     49.1297E-03
            3256            3654     48.7109E-03     49.1297E-03
            3256            3655     44.6063E-03     45.0358E-03
            3238            3655     44.6063E-03     45.0358E-03
            3257            3655     44.6063E-03     45.0358E-03
            3239            3655     44.6063E-03     45.0358E-03
            3240            3656     40.4888E-03     40.9328E-03
            3257            3656     40.4888E-03     40.9328E-03
            3258            3656     40.4888E-03     40.9328E-03
            3239            3656     40.4888E-03     40.9328E-03
            3258            3657     36.3871E-03     36.8379E-03
            3240            3657     36.3871E-03     36.8379E-03
            3241            3657     36.3871E-03     36.8379E-03
            3259            3657     36.3871E-03     36.8379E-03
            3241            3658     32.3188E-03     32.7784E-03
            3242            3658     32.3188E-03     32.7784E-03
            3259            3658     32.3188E-03     32.7784E-03
            3260            3658     32.3188E-03     32.7784E-03
            3243            3659     28.3155E-03     28.7793E-03
            3261            3659     28.3155E-03     28.7793E-03
            3242            3659     28.3155E-03     28.7793E-03
            3260            3659     28.3155E-03     28.7793E-03
            3243            3660     24.3994E-03     24.8957E-03
            3244            3660     24.3994E-03     24.8957E-03
            3262            3660     24.3994E-03     24.8957E-03
            3261            3660     24.3994E-03     24.8957E-03
            3263            3661     20.6319E-03     21.2092E-03
            3245            3661     20.6319E-03     21.2092E-03
            3262            3661     20.6319E-03     21.2092E-03
            3244            3661     20.6319E-03     21.2092E-03
            3245            3662     17.0586E-03     17.9046E-03
            3263            3662     17.0586E-03     17.9046E-03
            3246            3662     17.0586E-03     17.9046E-03
            3264            3662     17.0586E-03     17.9046E-03
            3246            3663     13.9141E-03     15.3451E-03
            3264            3663     13.9141E-03     15.3451E-03
            3265            3663     13.9141E-03     15.3451E-03
            3247            3663     13.9141E-03     15.3451E-03
            3265            3664     12.0884E-03     13.3212E-03
            3247            3664     12.0884E-03     13.3212E-03
            3248            3664     12.0884E-03     13.3212E-03
            3266            3664     12.0884E-03     13.3212E-03
            3249            3665     73.1736E-03     74.2428E-03
            3268            3665     73.1736E-03     74.2428E-03
            3267            3665     73.1736E-03     74.2428E-03
            3250            3665     73.1736E-03     74.2428E-03
            3250            3666     70.0824E-03     71.2894E-03
            3268            3666     70.0824E-03     71.2894E-03
            3251            3666     70.0824E-03     71.2894E-03
            3269            3666     70.0824E-03     71.2894E-03
            3269            3667     66.4811E-03     67.7105E-03
            3270            3667     66.4811E-03     67.7105E-03
            3252            3667     66.4811E-03     67.7105E-03
            3251            3667     66.4811E-03     67.7105E-03
            3270            3668     62.4986E-03     63.6236E-03
            3271            3668     62.4986E-03     63.6236E-03
            3253            3668     62.4986E-03     63.6236E-03
            3252            3668     62.4986E-03     63.6236E-03
            3271            3669     58.3323E-03     59.3147E-03
            3254            3669     58.3323E-03     59.3147E-03
            3272            3669     58.3323E-03     59.3147E-03
            3253            3669     58.3323E-03     59.3147E-03
            3255            3670     54.0129E-03     54.8889E-03
            3254            3670     54.0129E-03     54.8889E-03
            3272            3670     54.0129E-03     54.8889E-03
            3273            3670     54.0129E-03     54.8889E-03
            3256            3671     49.6393E-03     50.4332E-03
            3255            3671     49.6393E-03     50.4332E-03
            3273            3671     49.6393E-03     50.4332E-03
            3274            3671     49.6393E-03     50.4332E-03
            3274            3672     45.2369E-03     45.9835E-03
            3275            3672     45.2369E-03     45.9835E-03
            3257            3672     45.2369E-03     45.9835E-03
            3256            3672     45.2369E-03     45.9835E-03
            3258            3673     40.8536E-03     41.5648E-03
            3276            3673     40.8536E-03     41.5648E-03
            3275            3673     40.8536E-03     41.5648E-03
            3257            3673     40.8536E-03     41.5648E-03
            3258            3674     36.4896E-03     37.1861E-03
            3276            3674     36.4896E-03     37.1861E-03
            3277            3674     36.4896E-03     37.1861E-03
            3259            3674     36.4896E-03     37.1861E-03
            3278            3675     32.1693E-03     32.8622E-03
            3277            3675     32.1693E-03     32.8622E-03
            3260            3675     32.1693E-03     32.8622E-03
            3259            3675     32.1693E-03     32.8622E-03
            3261            3676     27.8934E-03     28.6113E-03
            3278            3676     27.8934E-03     28.6113E-03
            3279            3676     27.8934E-03     28.6113E-03
            3260            3676     27.8934E-03     28.6113E-03
            3280            3677     23.6900E-03     24.4709E-03
            3279            3677     23.6900E-03     24.4709E-03
            3261            3677     23.6900E-03     24.4709E-03
            3262            3677     23.6900E-03     24.4709E-03
            3262            3678     19.5790E-03     20.5038E-03
            3263            3678     19.5790E-03     20.5038E-03
            3280            3678     19.5790E-03     20.5038E-03
            3281            3678     19.5790E-03     20.5038E-03
            3264            3679     15.6553E-03     16.8721E-03
            3282            3679     15.6553E-03     16.8721E-03
            3263            3679     15.6553E-03     16.8721E-03
            3281            3679     15.6553E-03     16.8721E-03
            3282            3680     12.3044E-03     13.5872E-03
            3283            3680     12.3044E-03     13.5872E-03
            3265            3680     12.3044E-03     13.5872E-03
            3264            3680     12.3044E-03     13.5872E-03
            3283            3681     10.0184E-03     10.7459E-03
            3265            3681     10.0184E-03     10.7459E-03
            3266            3681     10.0184E-03     10.7459E-03
            3284            3681     10.0184E-03     10.7459E-03
            3285            3682     75.7045E-03     76.6014E-03
            3286            3682     75.7045E-03     76.6014E-03
            3267            3682     75.7045E-03     76.6014E-03
            3268            3682     75.7045E-03     76.6014E-03
            3269            3683     72.0734E-03     73.5637E-03
            3286            3683     72.0734E-03     73.5637E-03
            3287            3683     72.0734E-03     73.5637E-03
            3268            3683     72.0734E-03     73.5637E-03
            3270            3684     68.1968E-03     69.7355E-03
            3269            3684     68.1968E-03     69.7355E-03
            3287            3684     68.1968E-03     69.7355E-03
            3288            3684     68.1968E-03     69.7355E-03
            3271            3685     63.9023E-03     65.3909E-03
            3270            3685     63.9023E-03     65.3909E-03
            3289            3685     63.9023E-03     65.3909E-03
            3288            3685     63.9023E-03     65.3909E-03
            3289            3686     59.3716E-03     60.7558E-03
            3272            3686     59.3716E-03     60.7558E-03
            3290            3686     59.3716E-03     60.7558E-03
            3271            3686     59.3716E-03     60.7558E-03
            3291            3687     54.7881E-03     56.0185E-03
            3272            3687     54.7881E-03     56.0185E-03
            3290            3687     54.7881E-03     56.0185E-03
            3273            3687     54.7881E-03     56.0185E-03
            3291            3688     50.1544E-03     51.2853E-03
            3292            3688     50.1544E-03     51.2853E-03
            3273            3688     50.1544E-03     51.2853E-03
            3274            3688     50.1544E-03     51.2853E-03
            3274            3689     45.5655E-03     46.6025E-03
            3275            3689     45.5655E-03     46.6025E-03
            3292            3689     45.5655E-03     46.6025E-03
            3293            3689     45.5655E-03     46.6025E-03
            3293            3690     40.9921E-03     41.9727E-03
            3276            3690     40.9921E-03     41.9727E-03
            3275            3690     40.9921E-03     41.9727E-03
            3294            3690     40.9921E-03     41.9727E-03
            3276            3691     36.4640E-03     37.4088E-03
            3294            3691     36.4640E-03     37.4088E-03
            3277            3691     36.4640E-03     37.4088E-03
            3295            3691     36.4640E-03     37.4088E-03
            3277            3692     31.9668E-03     32.9052E-03
            3278            3692     31.9668E-03     32.9052E-03
            3296            3692     31.9668E-03     32.9052E-03
            3295            3692     31.9668E-03     32.9052E-03
            3278            3693     27.5103E-03     28.4788E-03
            3279            3693     27.5103E-03     28.4788E-03
            3296            3693     27.5103E-03     28.4788E-03
            3297            3693     27.5103E-03     28.4788E-03
            3280            3694     23.0975E-03     24.1424E-03
            3297            3694     23.0975E-03     24.1424E-03
            3279            3694     23.0975E-03     24.1424E-03
            3298            3694     23.0975E-03     24.1424E-03
            3280            3695     18.7513E-03     19.9447E-03
            3298            3695     18.7513E-03     19.9447E-03
            3281            3695     18.7513E-03     19.9447E-03
            3299            3695     18.7513E-03     19.9447E-03
            3299            3696     14.5829E-03     15.9206E-03
            3300            3696     14.5829E-03     15.9206E-03
            3281            3696     14.5829E-03     15.9206E-03
            3282            3696     14.5829E-03     15.9206E-03
            3283            3697     10.8311E-03     12.0744E-03
            3300            3697     10.8311E-03     12.0744E-03
            3282            3697     10.8311E-03     12.0744E-03
            3301            3697     10.8311E-03     12.0744E-03
            3301            3698     8.07383E-03     8.88304E-03
            3302            3698     8.07383E-03     8.88304E-03
            3284            3698     8.07383E-03     8.88304E-03
            3283            3698     8.07383E-03     8.88304E-03
            3286            3699     77.6928E-03     78.8583E-03
            3285            3699     77.6928E-03     78.8583E-03
            3304            3699     77.6928E-03     78.8583E-03
            3303            3699     77.6928E-03     78.8583E-03
            3305            3700     73.8046E-03     75.2053E-03
            3304            3700     73.8046E-03     75.2053E-03
            3286            3700     73.8046E-03     75.2053E-03
            3287            3700     73.8046E-03     75.2053E-03
            3287            3701     69.3442E-03     71.0516E-03
            3306            3701     69.3442E-03     71.0516E-03
            3288            3701     69.3442E-03     71.0516E-03
            3305            3701     69.3442E-03     71.0516E-03
            3306            3702     64.6473E-03     66.3533E-03
            3288            3702     64.6473E-03     66.3533E-03
            3307            3702     64.6473E-03     66.3533E-03
            3289            3702     64.6473E-03     66.3533E-03
            3307            3703     59.8261E-03     61.4192E-03
            3308            3703     59.8261E-03     61.4192E-03
            3289            3703     59.8261E-03     61.4192E-03
            3290            3703     59.8261E-03     61.4192E-03
            3291            3704     54.9668E-03     56.4749E-03
            3308            3704     54.9668E-03     56.4749E-03
            3309            3704     54.9668E-03     56.4749E-03
            3290            3704     54.9668E-03     56.4749E-03
            3309            3705     50.2203E-03     51.5973E-03
            3292            3705     50.2203E-03     51.5973E-03
            3310            3705     50.2203E-03     51.5973E-03
            3291            3705     50.2203E-03     51.5973E-03
            3293            3706     45.5032E-03     46.7919E-03
            3310            3706     45.5032E-03     46.7919E-03
            3311            3706     45.5032E-03     46.7919E-03
            3292            3706     45.5032E-03     46.7919E-03
            3312            3707     40.8544E-03     42.0713E-03
            3293            3707     40.8544E-03     42.0713E-03
            3294            3707     40.8544E-03     42.0713E-03
            3311            3707     40.8544E-03     42.0713E-03
            3294            3708     36.2378E-03     37.4139E-03
            3295            3708     36.2378E-03     37.4139E-03
            3313            3708     36.2378E-03     37.4139E-03
            3312            3708     36.2378E-03     37.4139E-03
            3313            3709     31.6585E-03     32.8247E-03
            3296            3709     31.6585E-03     32.8247E-03
            3314            3709     31.6585E-03     32.8247E-03
            3295            3709     31.6585E-03     32.8247E-03
            3315            3710     27.1061E-03     28.2936E-03
            3296            3710     27.1061E-03     28.2936E-03
            3297            3710     27.1061E-03     28.2936E-03
            3314            3710     27.1061E-03     28.2936E-03
            3298            3711     22.5758E-03     23.8365E-03
            3316            3711     22.5758E-03     23.8365E-03
            3315            3711     22.5758E-03     23.8365E-03
            3297            3711     22.5758E-03     23.8365E-03
            3317            3712     18.0941E-03     19.4653E-03
            3316            3712     18.0941E-03     19.4653E-03
            3298            3712     18.0941E-03     19.4653E-03
            3299            3712     18.0941E-03     19.4653E-03
            3317            3713     13.7197E-03     15.1428E-03
            3299            3713     13.7197E-03     15.1428E-03
            3318            3713     13.7197E-03     15.1428E-03
            3300            3713     13.7197E-03     15.1428E-03
            3301            3714     9.57246E-03     11.0173E-03
            3319            3714     9.57246E-03     11.0173E-03
            3300            3714     9.57246E-03     11.0173E-03
            3318            3714     9.57246E-03     11.0173E-03
            3302            3715     6.27212E-03     7.22165E-03
            3301            3715     6.27212E-03     7.22165E-03
            3319            3715     6.27212E-03     7.22165E-03
            3320            3715     6.27212E-03     7.22165E-03
            3303            3716     79.7450E-03     80.7128E-03
            3304            3716     79.7450E-03     80.7128E-03
            3322            3716     79.7450E-03     80.7128E-03
            3321            3716     79.7450E-03     80.7128E-03
            3323            3717     74.9950E-03     76.5958E-03
            3304            3717     74.9950E-03     76.5958E-03
            3305            3717     74.9950E-03     76.5958E-03
            3322            3717     74.9950E-03     76.5958E-03
            3323            3718     69.9808E-03     71.6763E-03
            3306            3718     69.9808E-03     71.6763E-03
            3305            3718     69.9808E-03     71.6763E-03
            3324            3718     69.9808E-03     71.6763E-03
            3324            3719     64.7254E-03     66.4660E-03
            3306            3719     64.7254E-03     66.4660E-03
            3325            3719     64.7254E-03     66.4660E-03
            3307            3719     64.7254E-03     66.4660E-03
            3326            3720     59.5323E-03     61.2865E-03
            3307            3720     59.5323E-03     61.2865E-03
            3308            3720     59.5323E-03     61.2865E-03
            3325            3720     59.5323E-03     61.2865E-03
            3309            3721     54.6094E-03     56.2571E-03
            3326            3721     54.6094E-03     56.2571E-03
            3327            3721     54.6094E-03     56.2571E-03
            3308            3721     54.6094E-03     56.2571E-03
            3327            3722     49.7828E-03     51.3438E-03
            3310            3722     49.7828E-03     51.3438E-03
            3309            3722     49.7828E-03     51.3438E-03
            3328            3722     49.7828E-03     51.3438E-03
            3310            3723     45.0736E-03     46.5500E-03
            3329            3723     45.0736E-03     46.5500E-03
            3311            3723     45.0736E-03     46.5500E-03
            3328            3723     45.0736E-03     46.5500E-03
            3311            3724     40.4172E-03     41.8336E-03
            3330            3724     40.4172E-03     41.8336E-03
            3312            3724     40.4172E-03     41.8336E-03
            3329            3724     40.4172E-03     41.8336E-03
            3312            3725     35.8079E-03     37.1873E-03
            3330            3725     35.8079E-03     37.1873E-03
            3331            3725     35.8079E-03     37.1873E-03
            3313            3725     35.8079E-03     37.1873E-03
            3331            3726     31.2249E-03     32.5886E-03
            3332            3726     31.2249E-03     32.5886E-03
            3313            3726     31.2249E-03     32.5886E-03
            3314            3726     31.2249E-03     32.5886E-03
            3332            3727     26.6588E-03     28.0372E-03
            3314            3727     26.6588E-03     28.0372E-03
            3315            3727     26.6588E-03     28.0372E-03
            3333            3727     26.6588E-03     28.0372E-03
            3333            3728     22.1096E-03     23.5266E-03
            3316            3728     22.1096E-03     23.5266E-03
            3334            3728     22.1096E-03     23.5266E-03
            3315            3728     22.1096E-03     23.5266E-03
            3317            3729     17.5694E-03     19.0533E-03
            3334            3729     17.5694E-03     19.0533E-03
            3316            3729     17.5694E-03     19.0533E-03
            3335            3729     17.5694E-03     19.0533E-03
            3317            3730     13.0523E-03     14.6569E-03
            3336            3730     13.0523E-03     14.6569E-03
            3318            3730     13.0523E-03     14.6569E-03
            3335            3730     13.0523E-03     14.6569E-03
            3336            3731     8.67215E-03     10.2438E-03
            3337            3731     8.67215E-03     10.2438E-03
            3319            3731     8.67215E-03     10.2438E-03
            3318            3731     8.67215E-03     10.2438E-03
            3320            3732     4.68839E-03     6.05708E-03
            3338            3732     4.68839E-03     6.05708E-03
            3319            3732     4.68839E-03     6.05708E-03
            3337            3732     4.68839E-03     6.05708E-03
            3339            3733     81.2694E-03     82.6942E-03
            3340            3733     81.2694E-03     82.6942E-03
            3322            3733     81.2694E-03     82.6942E-03
            3321            3733     81.2694E-03     82.6942E-03
            3322            3734     75.9071E-03     77.2651E-03
            3341            3734     75.9071E-03     77.2651E-03
            3340            3734     75.9071E-03     77.2651E-03
            3323            3734     75.9071E-03     77.2651E-03
            3323            3735     69.7733E-03     71.3653E-03
            3341            3735     69.7733E-03     71.3653E-03
            3342            3735     69.7733E-03     71.3653E-03
            3324            3735     69.7733E-03     71.3653E-03
            3343            3736     63.8592E-03     65.6494E-03
            3324            3736     63.8592E-03     65.6494E-03
            3325            3736     63.8592E-03     65.6494E-03
            3342            3736     63.8592E-03     65.6494E-03
            3325            3737     58.6347E-03     60.4052E-03
            3344            3737     58.6347E-03     60.4052E-03
            3326            3737     58.6347E-03     60.4052E-03
            3343            3737     58.6347E-03     60.4052E-03
            3345            3738     53.6862E-03     55.4035E-03
            3344            3738     53.6862E-03     55.4035E-03
            3327            3738     53.6862E-03     55.4035E-03
            3326            3738     53.6862E-03     55.4035E-03
            3328            3739     48.9408E-03     50.6055E-03
            3345            3739     48.9408E-03     50.6055E-03
            3346            3739     48.9408E-03     50.6055E-03
            3327            3739     48.9408E-03     50.6055E-03
            3328            3740     44.3051E-03     45.9204E-03
            3329            3740     44.3051E-03     45.9204E-03
            3347            3740     44.3051E-03     45.9204E-03
            3346            3740     44.3051E-03     45.9204E-03
            3348            3741     39.7337E-03     41.3167E-03
            3330            3741     39.7337E-03     41.3167E-03
            3329            3741     39.7337E-03     41.3167E-03
            3347            3741     39.7337E-03     41.3167E-03
            3349            3742     35.2010E-03     36.7603E-03
            3330            3742     35.2010E-03     36.7603E-03
            3348            3742     35.2010E-03     36.7603E-03
            3331            3742     35.2010E-03     36.7603E-03
            3349            3743     30.6885E-03     32.2362E-03
            3331            3743     30.6885E-03     32.2362E-03
            3332            3743     30.6885E-03     32.2362E-03
            3350            3743     30.6885E-03     32.2362E-03
            3351            3744     26.1892E-03     27.7338E-03
            3350            3744     26.1892E-03     27.7338E-03
            3333            3744     26.1892E-03     27.7338E-03
            3332            3744     26.1892E-03     27.7338E-03
            3334            3745     21.6955E-03     23.2461E-03
            3351            3745     21.6955E-03     23.2461E-03
            3352            3745     21.6955E-03     23.2461E-03
            3333            3745     21.6955E-03     23.2461E-03
            3334            3746     17.2030E-03     18.7781E-03
            3352            3746     17.2030E-03     18.7781E-03
            3335            3746     17.2030E-03     18.7781E-03
            3353            3746     17.2030E-03     18.7781E-03
            3336            3747     12.6930E-03     14.3528E-03
            3354            3747     12.6930E-03     14.3528E-03
            3353            3747     12.6930E-03     14.3528E-03
            3335            3747     12.6930E-03     14.3528E-03
            3337            3748     8.16275E-03     10.0214E-03
            3336            3748     8.16275E-03     10.0214E-03
            3354            3748     8.16275E-03     10.0214E-03
            3355            3748     8.16275E-03     10.0214E-03
            3356            3749     3.91351E-03     5.58894E-03
            3355            3749     3.91351E-03     5.58894E-03
            3337            3749     3.91351E-03     5.58894E-03
            3338            3749     3.91351E-03     5.58894E-03
            3357            3750     82.9914E-03     83.3767E-03
            3358            3750     82.9914E-03     83.3767E-03
            3340            3750     82.9914E-03     83.3767E-03
            3339            3750     82.9914E-03     83.3767E-03
            3341            3751     75.5190E-03     76.6722E-03
            3340            3751     75.5190E-03     76.6722E-03
            3358            3751     75.5190E-03     76.6722E-03
            3359            3751     75.5190E-03     76.6722E-03
            3360            3752     68.0990E-03     69.7217E-03
            3359            3752     68.0990E-03     69.7217E-03
            3342            3752     68.0990E-03     69.7217E-03
            3341            3752     68.0990E-03     69.7217E-03
            3361            3753     62.2995E-03     63.9961E-03
            3342            3753     62.2995E-03     63.9961E-03
            3360            3753     62.2995E-03     63.9961E-03
            3343            3753     62.2995E-03     63.9961E-03
            3343            3754     57.1672E-03     58.8520E-03
            3361            3754     57.1672E-03     58.8520E-03
            3362            3754     57.1672E-03     58.8520E-03
            3344            3754     57.1672E-03     58.8520E-03
            3345            3755     52.3673E-03     54.0782E-03
            3362            3755     52.3673E-03     54.0782E-03
            3363            3755     52.3673E-03     54.0782E-03
            3344            3755     52.3673E-03     54.0782E-03
            3364            3756     47.7909E-03     49.5023E-03
            3363            3756     47.7909E-03     49.5023E-03
            3346            3756     47.7909E-03     49.5023E-03
            3345            3756     47.7909E-03     49.5023E-03
            3346            3757     43.3039E-03     45.0314E-03
            3365            3757     43.3039E-03     45.0314E-03
            3347            3757     43.3039E-03     45.0314E-03
            3364            3757     43.3039E-03     45.0314E-03
            3365            3758     38.8838E-03     40.6182E-03
            3366            3758     38.8838E-03     40.6182E-03
            3348            3758     38.8838E-03     40.6182E-03
            3347            3758     38.8838E-03     40.6182E-03
            3366            3759     34.4871E-03     36.2261E-03
            3349            3759     34.4871E-03     36.2261E-03
            3367            3759     34.4871E-03     36.2261E-03
            3348            3759     34.4871E-03     36.2261E-03
            3367            3760     30.1099E-03     31.8454E-03
            3350            3760     30.1099E-03     31.8454E-03
            3368            3760     30.1099E-03     31.8454E-03
            3349            3760     30.1099E-03     31.8454E-03
            3350            3761     25.7425E-03     27.4606E-03
            3351            3761     25.7425E-03     27.4606E-03
            3368            3761     25.7425E-03     27.4606E-03
            3369            3761     25.7425E-03     27.4606E-03
            3352            3762     21.3850E-03     23.0772E-03
            3351            3762     21.3850E-03     23.0772E-03
            3369            3762     21.3850E-03     23.0772E-03
            3370            3762     21.3850E-03     23.0772E-03
            3352            3763     17.0445E-03     18.6954E-03
            3371            3763     17.0445E-03     18.6954E-03
            3353            3763     17.0445E-03     18.6954E-03
            3370            3763     17.0445E-03     18.6954E-03
            3353            3764     12.7178E-03     14.3404E-03
            3354            3764     12.7178E-03     14.3404E-03
            3372            3764     12.7178E-03     14.3404E-03
            3371            3764     12.7178E-03     14.3404E-03
            3373            3765     8.37225E-03     10.1944E-03
            3354            3765     8.37225E-03     10.1944E-03
            3355            3765     8.37225E-03     10.1944E-03
            3372            3765     8.37225E-03     10.1944E-03
            3373            3766     4.43944E-03     6.38926E-03
            3355            3766     4.43944E-03     6.38926E-03
            3356            3766     4.43944E-03     6.38926E-03
            3374            3766     4.43944E-03     6.38926E-03
            3376            3767     82.3124E-03     83.2189E-03
            3357            3767     82.3124E-03     83.2189E-03
            3375            3767     82.3124E-03     83.2189E-03
            3358            3767     82.3124E-03     83.2189E-03
            3358            3768     72.5555E-03     73.9562E-03
            3377            3768     72.5555E-03     73.9562E-03
            3359            3768     72.5555E-03     73.9562E-03
            3376            3768     72.5555E-03     73.9562E-03
            3378            3769     65.6615E-03     67.0156E-03
            3360            3769     65.6615E-03     67.0156E-03
            3377            3769     65.6615E-03     67.0156E-03
            3359            3769     65.6615E-03     67.0156E-03
            3379            3770     60.2891E-03     61.6794E-03
            3360            3770     60.2891E-03     61.6794E-03
            3361            3770     60.2891E-03     61.6794E-03
            3378            3770     60.2891E-03     61.6794E-03
            3361            3771     55.3776E-03     56.8994E-03
            3362            3771     55.3776E-03     56.8994E-03
            3379            3771     55.3776E-03     56.8994E-03
            3380            3771     55.3776E-03     56.8994E-03
            3362            3772     50.8631E-03     52.5022E-03
            3381            3772     50.8631E-03     52.5022E-03
            3380            3772     50.8631E-03     52.5022E-03
            3363            3772     50.8631E-03     52.5022E-03
            3382            3773     46.4800E-03     48.2347E-03
            3381            3773     46.4800E-03     48.2347E-03
            3363            3773     46.4800E-03     48.2347E-03
            3364            3773     46.4800E-03     48.2347E-03
            3364            3774     42.2121E-03     44.0543E-03
            3382            3774     42.2121E-03     44.0543E-03
            3383            3774     42.2121E-03     44.0543E-03
            3365            3774     42.2121E-03     44.0543E-03
            3365            3775     37.9766E-03     39.8815E-03
            3383            3775     37.9766E-03     39.8815E-03
            3384            3775     37.9766E-03     39.8815E-03
            3366            3775     37.9766E-03     39.8815E-03
            3367            3776     33.7723E-03     35.7149E-03
            3385            3776     33.7723E-03     35.7149E-03
            3366            3776     33.7723E-03     35.7149E-03
            3384            3776     33.7723E-03     35.7149E-03
            3386            3777     29.5778E-03     31.5282E-03
            3385            3777     29.5778E-03     31.5282E-03
            3367            3777     29.5778E-03     31.5282E-03
            3368            3777     29.5778E-03     31.5282E-03
            3368            3778     25.4031E-03     27.3319E-03
            3369            3778     25.4031E-03     27.3319E-03
            3386            3778     25.4031E-03     27.3319E-03
            3387            3778     25.4031E-03     27.3319E-03
            3370            3779     21.2578E-03     23.1197E-03
            3388            3779     21.2578E-03     23.1197E-03
            3369            3779     21.2578E-03     23.1197E-03
            3387            3779     21.2578E-03     23.1197E-03
            3389            3780     17.1694E-03     18.9141E-03
            3371            3780     17.1694E-03     18.9141E-03
            3370            3780     17.1694E-03     18.9141E-03
            3388            3780     17.1694E-03     18.9141E-03
            3390            3781     13.1843E-03     14.7533E-03
            3371            3781     13.1843E-03     14.7533E-03
            3389            3781     13.1843E-03     14.7533E-03
            3372            3781     13.1843E-03     14.7533E-03
            3372            3782     9.41093E-03     10.7836E-03
            3373            3782     9.41093E-03     10.7836E-03
            3391            3782     9.41093E-03     10.7836E-03
            3390            3782     9.41093E-03     10.7836E-03
            3374            3783     6.10115E-03     7.73016E-03
            3373            3783     6.10115E-03     7.73016E-03
            3391            3783     6.10115E-03     7.73016E-03
            3392            3783     6.10115E-03     7.73016E-03
            4348            4562     75.4807E-03     77.8920E-03
            4366            4562     75.4807E-03     77.8920E-03
            4365            4562     75.4807E-03     77.8920E-03
            4347            4562     75.4807E-03     77.8920E-03
            4366            4563     68.0145E-03     69.4079E-03
            4367            4563     68.0145E-03     69.4079E-03
            4349            4563     68.0145E-03     69.4079E-03
            4348            4563     68.0145E-03     69.4079E-03
            4349            4564     62.6983E-03     63.9059E-03
            4350            4564     62.6983E-03     63.9059E-03
            4368            4564     62.6983E-03     63.9059E-03
            4367            4564     62.6983E-03     63.9059E-03
            4369            4565     57.8075E-03     59.0669E-03
            4368            4565     57.8075E-03     59.0669E-03
            4351            4565     57.8075E-03     59.0669E-03
            4350            4565     57.8075E-03     59.0669E-03
            4352            4566     53.3220E-03     54.6256E-03
            4351            4566     53.3220E-03     54.6256E-03
            4370            4566     53.3220E-03     54.6256E-03
            4369            4566     53.3220E-03     54.6256E-03
            4352            4567     48.9726E-03     50.3830E-03
            4370            4567     48.9726E-03     50.3830E-03
            4371            4567     48.9726E-03     50.3830E-03
            4353            4567     48.9726E-03     50.3830E-03
            4353            4568     44.7609E-03     46.2343E-03
            4371            4568     44.7609E-03     46.2343E-03
            4354            4568     44.7609E-03     46.2343E-03
            4372            4568     44.7609E-03     46.2343E-03
            4355            4569     40.5941E-03     42.1407E-03
            4373            4569     40.5941E-03     42.1407E-03
            4372            4569     40.5941E-03     42.1407E-03
            4354            4569     40.5941E-03     42.1407E-03
            4355            4570     36.4763E-03     38.0621E-03
            4374            4570     36.4763E-03     38.0621E-03
            4373            4570     36.4763E-03     38.0621E-03
            4356            4570     36.4763E-03     38.0621E-03
            4356            4571     32.3713E-03     33.9900E-03
            4375            4571     32.3713E-03     33.9900E-03
            4374            4571     32.3713E-03     33.9900E-03
            4357            4571     32.3713E-03     33.9900E-03
            4357            4572     28.2858E-03     29.9122E-03
            4376            4572     28.2858E-03     29.9122E-03
            4358            4572     28.2858E-03     29.9122E-03
            4375            4572     28.2858E-03     29.9122E-03
            4358            4573     24.2084E-03     25.8260E-03
            4377            4573     24.2084E-03     25.8260E-03
            4376            4573     24.2084E-03     25.8260E-03
            4359            4573     24.2084E-03     25.8260E-03
            4378            4574     20.1515E-03     21.7331E-03
            4377            4574     20.1515E-03     21.7331E-03
            4359            4574     20.1515E-03     21.7331E-03
            4360            4574     20.1515E-03     21.7331E-03
            4379            4575     16.1215E-03     17.6326E-03
            4378            4575     16.1215E-03     17.6326E-03
            4360            4575     16.1215E-03     17.6326E-03
            4361            4575     16.1215E-03     17.6326E-03
            4362            4576     12.1500E-03     13.5417E-03
            4380            4576     12.1500E-03     13.5417E-03
            4361            4576     12.1500E-03     13.5417E-03
            4379            4576     12.1500E-03     13.5417E-03
            4380            4577     8.29699E-03     9.50336E-03
            4363            4577     8.29699E-03     9.50336E-03
            4381            4577     8.29699E-03     9.50336E-03
            4362            4577     8.29699E-03     9.50336E-03
            4364            4578     4.64620E-03     5.75963E-03
            4382            4578     4.64620E-03     5.75963E-03
            4381            4578     4.64620E-03     5.75963E-03
            4363            4578     4.64620E-03     5.75963E-03
            4383            4579     78.0975E-03     79.2113E-03
            4365            4579     78.0975E-03     79.2113E-03
            4384            4579     78.0975E-03     79.2113E-03
            4366            4579     78.0975E-03     79.2113E-03
            4385            4580     67.7112E-03     69.2894E-03
            4367            4580     67.7112E-03     69.2894E-03
            4384            4580     67.7112E-03     69.2894E-03
            4366            4580     67.7112E-03     69.2894E-03
            4386            4581     60.6136E-03     62.0903E-03
            4385            4581     60.6136E-03     62.0903E-03
            4368            4581     60.6136E-03     62.0903E-03
            4367            4581     60.6136E-03     62.0903E-03
            4386            4582     55.2292E-03     56.7154E-03
            4369            4582     55.2292E-03     56.7154E-03
            4368            4582     55.2292E-03     56.7154E-03
            4387            4582     55.2292E-03     56.7154E-03
            4387            4583     50.4328E-03     52.0176E-03
            4369            4583     50.4328E-03     52.0176E-03
            4370            4583     50.4328E-03     52.0176E-03
            4388            4583     50.4328E-03     52.0176E-03
            4370            4584     46.1133E-03     47.8038E-03
            4371            4584     46.1133E-03     47.8038E-03
            4389            4584     46.1133E-03     47.8038E-03
            4388            4584     46.1133E-03     47.8038E-03
            4390            4585     41.9905E-03     43.7885E-03
            4371            4585     41.9905E-03     43.7885E-03
            4372            4585     41.9905E-03     43.7885E-03
            4389            4585     41.9905E-03     43.7885E-03
            4372            4586     38.0245E-03     39.9079E-03
            4373            4586     38.0245E-03     39.9079E-03
            4391            4586     38.0245E-03     39.9079E-03
            4390            4586     38.0245E-03     39.9079E-03
            4391            4587     34.1209E-03     36.0703E-03
            4373            4587     34.1209E-03     36.0703E-03
            4374            4587     34.1209E-03     36.0703E-03
            4392            4587     34.1209E-03     36.0703E-03
            4375            4588     30.2690E-03     32.2565E-03
            4374            4588     30.2690E-03     32.2565E-03
            4392            4588     30.2690E-03     32.2565E-03
            4393            4588     30.2690E-03     32.2565E-03
            4394            4589     26.4360E-03     28.4363E-03
            4376            4589     26.4360E-03     28.4363E-03
            4375            4589     26.4360E-03     28.4363E-03
            4393            4589     26.4360E-03     28.4363E-03
            4376            4590     22.6283E-03     24.6065E-03
            4395            4590     22.6283E-03     24.6065E-03
            4394            4590     22.6283E-03     24.6065E-03
            4377            4590     22.6283E-03     24.6065E-03
            4377            4591     18.8394E-03     20.7586E-03
            4395            4591     18.8394E-03     20.7586E-03
            4396            4591     18.8394E-03     20.7586E-03
            4378            4591     18.8394E-03     20.7586E-03
            4397            4592     15.0949E-03     16.9008E-03
            4379            4592     15.0949E-03     16.9008E-03
            4396            4592     15.0949E-03     16.9008E-03
            4378            4592     15.0949E-03     16.9008E-03
            4380            4593     11.4111E-03     13.0461E-03
            4398            4593     11.4111E-03     13.0461E-03
            4379            4593     11.4111E-03     13.0461E-03
            4397            4593     11.4111E-03     13.0461E-03
            4380            4594     7.87588E-03     9.27977E-03
            4399            4594     7.87588E-03     9.27977E-03
            4398            4594     7.87588E-03     9.27977E-03
            4381            4594     7.87588E-03     9.27977E-03
            4399            4595     4.62429E-03     6.14238E-03
            4382            4595     4.62429E-03     6.14238E-03
            4381            4595     4.62429E-03     6.14238E-03
            4400            4595     4.62429E-03     6.14238E-03
            4401            4596     78.3728E-03     78.6891E-03
            4384            4596     78.3728E-03     78.6891E-03
            4402            4596     78.3728E-03     78.6891E-03
            4383            4596     78.3728E-03     78.6891E-03
            4403            4597     70.4342E-03     71.5184E-03
            4402            4597     70.4342E-03     71.5184E-03
            4385            4597     70.4342E-03     71.5184E-03
            4384            4597     70.4342E-03     71.5184E-03
            4404            4598     62.7810E-03     64.3773E-03
            4386            4598     62.7810E-03     64.3773E-03
            4403            4598     62.7810E-03     64.3773E-03
            4385            4598     62.7810E-03     64.3773E-03
            4405            4599     57.0128E-03     58.6856E-03
            4387            4599     57.0128E-03     58.6856E-03
            4386            4599     57.0128E-03     58.6856E-03
            4404            4599     57.0128E-03     58.6856E-03
            4387            4600     52.0293E-03     53.7151E-03
            4406            4600     52.0293E-03     53.7151E-03
            4405            4600     52.0293E-03     53.7151E-03
            4388            4600     52.0293E-03     53.7151E-03
            4406            4601     47.4782E-03     49.2018E-03
            4388            4601     47.4782E-03     49.2018E-03
            4389            4601     47.4782E-03     49.2018E-03
            4407            4601     47.4782E-03     49.2018E-03
            4408            4602     43.2122E-03     44.9463E-03
            4407            4602     43.2122E-03     44.9463E-03
            4390            4602     43.2122E-03     44.9463E-03
            4389            4602     43.2122E-03     44.9463E-03
            4391            4603     39.0755E-03     40.8357E-03
            4408            4603     39.0755E-03     40.8357E-03
            4390            4603     39.0755E-03     40.8357E-03
            4409            4603     39.0755E-03     40.8357E-03
            4410            4604     35.0352E-03     36.8045E-03
            4409            4604     35.0352E-03     36.8045E-03
            4391            4604     35.0352E-03     36.8045E-03
            4392            4604     35.0352E-03     36.8045E-03
            4393            4605     31.0313E-03     32.8099E-03
            4410            4605     31.0313E-03     32.8099E-03
            4392            4605     31.0313E-03     32.8099E-03
            4411            4605     31.0313E-03     32.8099E-03
            4393            4606     27.0589E-03     28.8299E-03
            4411            4606     27.0589E-03     28.8299E-03
            4394            4606     27.0589E-03     28.8299E-03
            4412            4606     27.0589E-03     28.8299E-03
            4394            4607     23.0970E-03     24.8503E-03
            4413            4607     23.0970E-03     24.8503E-03
            4412            4607     23.0970E-03     24.8503E-03
            4395            4607     23.0970E-03     24.8503E-03
            4395            4608     19.1502E-03     20.8615E-03
            4396            4608     19.1502E-03     20.8615E-03
            4414            4608     19.1502E-03     20.8615E-03
            4413            4608     19.1502E-03     20.8615E-03
            4396            4609     15.2098E-03     16.8681E-03
            4397            4609     15.2098E-03     16.8681E-03
            4414            4609     15.2098E-03     16.8681E-03
            4415            4609     15.2098E-03     16.8681E-03
            4397            4610     11.2868E-03     12.8675E-03
            4398            4610     11.2868E-03     12.8675E-03
            4416            4610     11.2868E-03     12.8675E-03
            4415            4610     11.2868E-03     12.8675E-03
            4398            4611     7.32154E-03     8.98012E-03
            4416            4611     7.32154E-03     8.98012E-03
            4399            4611     7.32154E-03     8.98012E-03
            4417            4611     7.32154E-03     8.98012E-03
            4399            4612     3.53463E-03     5.35244E-03
            4400            4612     3.53463E-03     5.35244E-03
            4418            4612     3.53463E-03     5.35244E-03
            4417            4612     3.53463E-03     5.35244E-03
            4420            4613     76.1664E-03     77.4897E-03
            4419            4613     76.1664E-03     77.4897E-03
            4401            4613     76.1664E-03     77.4897E-03
            4402            4613     76.1664E-03     77.4897E-03
            4421            4614     70.5279E-03     71.7443E-03
            4420            4614     70.5279E-03     71.7443E-03
            4402            4614     70.5279E-03     71.7443E-03
            4403            4614     70.5279E-03     71.7443E-03
            4404            4615     64.2800E-03     65.7227E-03
            4403            4615     64.2800E-03     65.7227E-03
            4421            4615     64.2800E-03     65.7227E-03
            4422            4615     64.2800E-03     65.7227E-03
            4423            4616     58.4118E-03     60.1108E-03
            4405            4616     58.4118E-03     60.1108E-03
            4422            4616     58.4118E-03     60.1108E-03
            4404            4616     58.4118E-03     60.1108E-03
            4423            4617     53.3957E-03     55.1085E-03
            4424            4617     53.3957E-03     55.1085E-03
            4405            4617     53.3957E-03     55.1085E-03
            4406            4617     53.3957E-03     55.1085E-03
            4406            4618     48.7389E-03     50.4332E-03
            4424            4618     48.7389E-03     50.4332E-03
            4407            4618     48.7389E-03     50.4332E-03
            4425            4618     48.7389E-03     50.4332E-03
            4426            4619     44.3405E-03     46.0115E-03
            4407            4619     44.3405E-03     46.0115E-03
            4408            4619     44.3405E-03     46.0115E-03
            4425            4619     44.3405E-03     46.0115E-03
            4426            4620     40.0936E-03     41.7271E-03
            4427            4620     40.0936E-03     41.7271E-03
            4408            4620     40.0936E-03     41.7271E-03
            4409            4620     40.0936E-03     41.7271E-03
            4427            4621     35.9262E-03     37.5398E-03
            4428            4621     35.9262E-03     37.5398E-03
            4409            4621     35.9262E-03     37.5398E-03
            4410            4621     35.9262E-03     37.5398E-03
            4410            4622     31.8150E-03     33.4049E-03
            4428            4622     31.8150E-03     33.4049E-03
            4429            4622     31.8150E-03     33.4049E-03
            4411            4622     31.8150E-03     33.4049E-03
            4412            4623     27.7287E-03     29.3055E-03
            4429            4623     27.7287E-03     29.3055E-03
            4430            4623     27.7287E-03     29.3055E-03
            4411            4623     27.7287E-03     29.3055E-03
            4430            4624     23.6639E-03     25.2220E-03
            4431            4624     23.6639E-03     25.2220E-03
            4412            4624     23.6639E-03     25.2220E-03
            4413            4624     23.6639E-03     25.2220E-03
            4414            4625     19.6078E-03     21.1553E-03
            4413            4625     19.6078E-03     21.1553E-03
            4431            4625     19.6078E-03     21.1553E-03
            4432            4625     19.6078E-03     21.1553E-03
            4432            4626     15.5679E-03     17.0887E-03
            4433            4626     15.5679E-03     17.0887E-03
            4415            4626     15.5679E-03     17.0887E-03
            4414            4626     15.5679E-03     17.0887E-03
            4415            4627     11.5187E-03     13.0608E-03
            4416            4627     11.5187E-03     13.0608E-03
            4433            4627     11.5187E-03     13.0608E-03
            4434            4627     11.5187E-03     13.0608E-03
            4416            4628     7.48879E-03     9.10459E-03
            4417            4628     7.48879E-03     9.10459E-03
            4434            4628     7.48879E-03     9.10459E-03
            4435            4628     7.48879E-03     9.10459E-03
            4436            4629     3.73902E-03     5.10139E-03
            4435            4629     3.73902E-03     5.10139E-03
            4418            4629     3.73902E-03     5.10139E-03
            4417            4629     3.73902E-03     5.10139E-03
            4438            4630     74.1967E-03     75.0943E-03
            4437            4630     74.1967E-03     75.0943E-03
            4419            4630     74.1967E-03     75.0943E-03
            4420            4630     74.1967E-03     75.0943E-03
            4421            4631     69.3549E-03     70.7576E-03
            4438            4631     69.3549E-03     70.7576E-03
            4439            4631     69.3549E-03     70.7576E-03
            4420            4631     69.3549E-03     70.7576E-03
            4440            4632     64.3246E-03     65.8524E-03
            4422            4632     64.3246E-03     65.8524E-03
            4439            4632     64.3246E-03     65.8524E-03
            4421            4632     64.3246E-03     65.8524E-03
            4441            4633     59.2185E-03     60.8191E-03
            4422            4633     59.2185E-03     60.8191E-03
            4440            4633     59.2185E-03     60.8191E-03
            4423            4633     59.2185E-03     60.8191E-03
            4424            4634     54.2839E-03     55.9556E-03
            4441            4634     54.2839E-03     55.9556E-03
            4442            4634     54.2839E-03     55.9556E-03
            4423            4634     54.2839E-03     55.9556E-03
            4425            4635     49.6931E-03     51.3099E-03
            4424            4635     49.6931E-03     51.3099E-03
            4442            4635     49.6931E-03     51.3099E-03
            4443            4635     49.6931E-03     51.3099E-03
            4444            4636     45.2518E-03     46.8063E-03
            4426            4636     45.2518E-03     46.8063E-03
            4443            4636     45.2518E-03     46.8063E-03
            4425            4636     45.2518E-03     46.8063E-03
            4445            4637     40.9411E-03     42.4363E-03
            4426            4637     40.9411E-03     42.4363E-03
            4444            4637     40.9411E-03     42.4363E-03
            4427            4637     40.9411E-03     42.4363E-03
            4428            4638     36.7062E-03     38.1475E-03
            4445            4638     36.7062E-03     38.1475E-03
            4427            4638     36.7062E-03     38.1475E-03
            4446            4638     36.7062E-03     38.1475E-03
            4428            4639     32.5205E-03     33.9296E-03
            4446            4639     32.5205E-03     33.9296E-03
            4447            4639     32.5205E-03     33.9296E-03
            4429            4639     32.5205E-03     33.9296E-03
            4447            4640     28.3705E-03     29.7583E-03
            4448            4640     28.3705E-03     29.7583E-03
            4429            4640     28.3705E-03     29.7583E-03
            4430            4640     28.3705E-03     29.7583E-03
            4430            4641     24.2444E-03     25.6312E-03
            4448            4641     24.2444E-03     25.6312E-03
            4449            4641     24.2444E-03     25.6312E-03
            4431            4641     24.2444E-03     25.6312E-03
            4431            4642     20.1447E-03     21.5332E-03
            4450            4642     20.1447E-03     21.5332E-03
            4432            4642     20.1447E-03     21.5332E-03
            4449            4642     20.1447E-03     21.5332E-03
            4451            4643     16.0689E-03     17.4822E-03
            4433            4643     16.0689E-03     17.4822E-03
            4450            4643     16.0689E-03     17.4822E-03
            4432            4643     16.0689E-03     17.4822E-03
            4433            4644     12.0511E-03     13.4797E-03
            4452            4644     12.0511E-03     13.4797E-03
            4451            4644     12.0511E-03     13.4797E-03
            4434            4644     12.0511E-03     13.4797E-03
            4453            4645     8.19135E-03     9.53300E-03
            4435            4645     8.19135E-03     9.53300E-03
            4452            4645     8.19135E-03     9.53300E-03
            4434            4645     8.19135E-03     9.53300E-03
            4453            4646     4.91239E-03     5.82427E-03
            4454            4646     4.91239E-03     5.82427E-03
            4436            4646     4.91239E-03     5.82427E-03
            4435            4646     4.91239E-03     5.82427E-03
            4456            4647     71.8549E-03     72.8494E-03
            4438            4647     71.8549E-03     72.8494E-03
            4437            4647     71.8549E-03     72.8494E-03
            4455            4647     71.8549E-03     72.8494E-03
            4456            4648     67.9038E-03     69.1527E-03
            4439            4648     67.9038E-03     69.1527E-03
            4457            4648     67.9038E-03     69.1527E-03
            4438            4648     67.9038E-03     69.1527E-03
            4439            4649     63.6055E-03     65.1183E-03
            4457            4649     63.6055E-03     65.1183E-03
            4440            4649     63.6055E-03     65.1183E-03
            4458            4649     63.6055E-03     65.1183E-03
            4458            4650     59.1609E-03     60.7403E-03
            4440            4650     59.1609E-03     60.7403E-03
            4441            4650     59.1609E-03     60.7403E-03
            4459            4650     59.1609E-03     60.7403E-03
            4459            4651     54.6657E-03     56.2038E-03
            4441            4651     54.6657E-03     56.2038E-03
            4442            4651     54.6657E-03     56.2038E-03
            4460            4651     54.6657E-03     56.2038E-03
            4460            4652     50.1949E-03     51.6784E-03
            4442            4652     50.1949E-03     51.6784E-03
            4461            4652     50.1949E-03     51.6784E-03
            4443            4652     50.1949E-03     51.6784E-03
            4443            4653     45.8343E-03     47.2237E-03
            4462            4653     45.8343E-03     47.2237E-03
            4444            4653     45.8343E-03     47.2237E-03
            4461            4653     45.8343E-03     47.2237E-03
            4444            4654     41.5279E-03     42.8376E-03
            4445            4654     41.5279E-03     42.8376E-03
            4462            4654     41.5279E-03     42.8376E-03
            4463            4654     41.5279E-03     42.8376E-03
            4445            4655     37.2847E-03     38.5319E-03
            4464            4655     37.2847E-03     38.5319E-03
            4446            4655     37.2847E-03     38.5319E-03
            4463            4655     37.2847E-03     38.5319E-03
            4446            4656     33.0832E-03     34.2894E-03
            4464            4656     33.0832E-03     34.2894E-03
            4447            4656     33.0832E-03     34.2894E-03
            4465            4656     33.0832E-03     34.2894E-03
            4465            4657     28.9197E-03     30.1114E-03
            4466            4657     28.9197E-03     30.1114E-03
            4447            4657     28.9197E-03     30.1114E-03
            4448            4657     28.9197E-03     30.1114E-03
            4467            4658     24.7892E-03     25.9922E-03
            4448            4658     24.7892E-03     25.9922E-03
            4466            4658     24.7892E-03     25.9922E-03
            4449            4658     24.7892E-03     25.9922E-03
            4449            4659     20.6996E-03     21.9389E-03
            4450            4659     20.6996E-03     21.9389E-03
            4468            4659     20.6996E-03     21.9389E-03
            4467            4659     20.6996E-03     21.9389E-03
            4468            4660     16.6726E-03     17.9499E-03
            4469            4660     16.6726E-03     17.9499E-03
            4451            4660     16.6726E-03     17.9499E-03
            4450            4660     16.6726E-03     17.9499E-03
            4470            4661     12.7726E-03     14.0553E-03
            4452            4661     12.7726E-03     14.0553E-03
            4469            4661     12.7726E-03     14.0553E-03
            4451            4661     12.7726E-03     14.0553E-03
            4453            4662     9.16288E-03     10.3031E-03
            4470            4662     9.16288E-03     10.3031E-03
            4452            4662     9.16288E-03     10.3031E-03
            4471            4662     9.16288E-03     10.3031E-03
            4453            4663     6.35969E-03     7.01944E-03
            4454            4663     6.35969E-03     7.01944E-03
            4471            4663     6.35969E-03     7.01944E-03
            4472            4663     6.35969E-03     7.01944E-03
            4456            4664     69.4951E-03     70.3656E-03
            4473            4664     69.4951E-03     70.3656E-03
            4474            4664     69.4951E-03     70.3656E-03
            4455            4664     69.4951E-03     70.3656E-03
            4474            4665     66.0660E-03     67.3197E-03
            4475            4665     66.0660E-03     67.3197E-03
            4456            4665     66.0660E-03     67.3197E-03
            4457            4665     66.0660E-03     67.3197E-03
            4457            4666     62.4513E-03     63.8705E-03
            4476            4666     62.4513E-03     63.8705E-03
            4458            4666     62.4513E-03     63.8705E-03
            4475            4666     62.4513E-03     63.8705E-03
            4459            4667     58.5356E-03     59.9927E-03
            4458            4667     58.5356E-03     59.9927E-03
            4477            4667     58.5356E-03     59.9927E-03
            4476            4667     58.5356E-03     59.9927E-03
            4478            4668     54.4412E-03     55.8167E-03
            4459            4668     54.4412E-03     55.8167E-03
            4460            4668     54.4412E-03     55.8167E-03
            4477            4668     54.4412E-03     55.8167E-03
            4461            4669     50.2403E-03     51.5045E-03
            4478            4669     50.2403E-03     51.5045E-03
            4479            4669     50.2403E-03     51.5045E-03
            4460            4669     50.2403E-03     51.5045E-03
            4480            4670     46.0059E-03     47.1721E-03
            4461            4670     46.0059E-03     47.1721E-03
            4479            4670     46.0059E-03     47.1721E-03
            4462            4670     46.0059E-03     47.1721E-03
            4462            4671     41.7963E-03     42.8715E-03
            4481            4671     41.7963E-03     42.8715E-03
            4480            4671     41.7963E-03     42.8715E-03
            4463            4671     41.7963E-03     42.8715E-03
            4463            4672     37.6069E-03     38.6206E-03
            4481            4672     37.6069E-03     38.6206E-03
            4482            4672     37.6069E-03     38.6206E-03
            4464            4672     37.6069E-03     38.6206E-03
            4483            4673     33.4571E-03     34.4324E-03
            4482            4673     33.4571E-03     34.4324E-03
            4465            4673     33.4571E-03     34.4324E-03
            4464            4673     33.4571E-03     34.4324E-03
            4466            4674     29.3420E-03     30.3109E-03
            4484            4674     29.3420E-03     30.3109E-03
            4483            4674     29.3420E-03     30.3109E-03
            4465            4674     29.3420E-03     30.3109E-03
            4466            4675     25.2715E-03     26.2641E-03
            4485            4675     25.2715E-03     26.2641E-03
            4484            4675     25.2715E-03     26.2641E-03
            4467            4675     25.2715E-03     26.2641E-03
            4467            4676     21.2522E-03     22.3143E-03
            4485            4676     21.2522E-03     22.3143E-03
            4486            4676     21.2522E-03     22.3143E-03
            4468            4676     21.2522E-03     22.3143E-03
            4487            4677     17.3383E-03     18.4745E-03
            4468            4677     17.3383E-03     18.4745E-03
            4486            4677     17.3383E-03     18.4745E-03
            4469            4677     17.3383E-03     18.4745E-03
            4469            4678     13.6130E-03     14.7607E-03
            4487            4678     13.6130E-03     14.7607E-03
            4470            4678     13.6130E-03     14.7607E-03
            4488            4678     13.6130E-03     14.7607E-03
            4489            4679     10.3028E-03     11.3308E-03
            4470            4679     10.3028E-03     11.3308E-03
            4471            4679     10.3028E-03     11.3308E-03
            4488            4679     10.3028E-03     11.3308E-03
            4490            4680     7.94521E-03     8.40749E-03
            4471            4680     7.94521E-03     8.40749E-03
            4489            4680     7.94521E-03     8.40749E-03
            4472            4680     7.94521E-03     8.40749E-03
            4473            4681     66.9083E-03     67.6819E-03
            4491            4681     66.9083E-03     67.6819E-03
            4492            4681     66.9083E-03     67.6819E-03
            4474            4681     66.9083E-03     67.6819E-03
            4492            4682     64.0010E-03     65.1918E-03
            4475            4682     64.0010E-03     65.1918E-03
            4474            4682     64.0010E-03     65.1918E-03
            4493            4682     64.0010E-03     65.1918E-03
            4476            4683     60.8788E-03     62.1871E-03
            4493            4683     60.8788E-03     62.1871E-03
            4475            4683     60.8788E-03     62.1871E-03
            4494            4683     60.8788E-03     62.1871E-03
            4477            4684     57.4625E-03     58.6715E-03
            4476            4684     57.4625E-03     58.6715E-03
            4494            4684     57.4625E-03     58.6715E-03
            4495            4684     57.4625E-03     58.6715E-03
            4478            4685     53.7109E-03     54.8118E-03
            4477            4685     53.7109E-03     54.8118E-03
            4496            4685     53.7109E-03     54.8118E-03
            4495            4685     53.7109E-03     54.8118E-03
            4497            4686     49.7913E-03     50.7638E-03
            4478            4686     49.7913E-03     50.7638E-03
            4496            4686     49.7913E-03     50.7638E-03
            4479            4686     49.7913E-03     50.7638E-03
            4479            4687     45.7706E-03     46.6369E-03
            4498            4687     45.7706E-03     46.6369E-03
            4497            4687     45.7706E-03     46.6369E-03
            4480            4687     45.7706E-03     46.6369E-03
            4480            4688     41.7096E-03     42.5052E-03
            4498            4688     41.7096E-03     42.5052E-03
            4499            4688     41.7096E-03     42.5052E-03
            4481            4688     41.7096E-03     42.5052E-03
            4499            4689     37.6584E-03     38.3993E-03
            4482            4689     37.6584E-03     38.3993E-03
            4500            4689     37.6584E-03     38.3993E-03
            4481            4689     37.6584E-03     38.3993E-03
            4483            4690     33.6255E-03     34.3419E-03
            4500            4690     33.6255E-03     34.3419E-03
            4482            4690     33.6255E-03     34.3419E-03
            4501            4690     33.6255E-03     34.3419E-03
            4484            4691     29.6335E-03     30.3478E-03
            4483            4691     29.6335E-03     30.3478E-03
            4501            4691     29.6335E-03     30.3478E-03
            4502            4691     29.6335E-03     30.3478E-03
            4485            4692     25.6899E-03     26.4417E-03
            4484            4692     25.6899E-03     26.4417E-03
            4503            4692     25.6899E-03     26.4417E-03
            4502            4692     25.6899E-03     26.4417E-03
            4503            4693     21.8195E-03     22.6466E-03
            4504            4693     21.8195E-03     22.6466E-03
            4486            4693     21.8195E-03     22.6466E-03
            4485            4693     21.8195E-03     22.6466E-03
            4504            4694     18.0564E-03     19.0361E-03
            4487            4694     18.0564E-03     19.0361E-03
            4505            4694     18.0564E-03     19.0361E-03
            4486            4694     18.0564E-03     19.0361E-03
            4505            4695     14.5630E-03     15.6391E-03
            4488            4695     14.5630E-03     15.6391E-03
            4506            4695     14.5630E-03     15.6391E-03
            4487            4695     14.5630E-03     15.6391E-03
            4506            4696     11.5736E-03     12.4938E-03
            4489            4696     11.5736E-03     12.4938E-03
            4488            4696     11.5736E-03     12.4938E-03
            4507            4696     11.5736E-03     12.4938E-03
            4489            4697     9.54152E-03     10.0674E-03
            4490            4697     9.54152E-03     10.0674E-03
            4507            4697     9.54152E-03     10.0674E-03
            4508            4697     9.54152E-03     10.0674E-03
            4509            4698     63.9940E-03     64.8038E-03
            4491            4698     63.9940E-03     64.8038E-03
            4510            4698     63.9940E-03     64.8038E-03
            4492            4698     63.9940E-03     64.8038E-03
            4510            4699     61.6100E-03     62.6272E-03
            4493            4699     61.6100E-03     62.6272E-03
            4492            4699     61.6100E-03     62.6272E-03
            4511            4699     61.6100E-03     62.6272E-03
            4493            4700     59.0034E-03     59.9465E-03
            4511            4700     59.0034E-03     59.9465E-03
            4494            4700     59.0034E-03     59.9465E-03
            4512            4700     59.0034E-03     59.9465E-03
            4494            4701     55.9132E-03     56.7472E-03
            4513            4701     55.9132E-03     56.7472E-03
            4512            4701     55.9132E-03     56.7472E-03
            4495            4701     55.9132E-03     56.7472E-03
            4514            4702     52.5292E-03     53.2076E-03
            4495            4702     52.5292E-03     53.2076E-03
            4496            4702     52.5292E-03     53.2076E-03
            4513            4702     52.5292E-03     53.2076E-03
            4515            4703     48.8946E-03     49.4721E-03
            4497            4703     48.8946E-03     49.4721E-03
            4514            4703     48.8946E-03     49.4721E-03
            4496            4703     48.8946E-03     49.4721E-03
            4516            4704     45.1275E-03     45.6428E-03
            4498            4704     45.1275E-03     45.6428E-03
            4497            4704     45.1275E-03     45.6428E-03
            4515            4704     45.1275E-03     45.6428E-03
            4499            4705     41.3000E-03     41.7686E-03
            4517            4705     41.3000E-03     41.7686E-03
            4516            4705     41.3000E-03     41.7686E-03
            4498            4705     41.3000E-03     41.7686E-03
            4517            4706     37.4482E-03     37.8982E-03
            4499            4706     37.4482E-03     37.8982E-03
            4500            4706     37.4482E-03     37.8982E-03
            4518            4706     37.4482E-03     37.8982E-03
            4500            4707     33.6156E-03     34.0538E-03
            4519            4707     33.6156E-03     34.0538E-03
            4501            4707     33.6156E-03     34.0538E-03
            4518            4707     33.6156E-03     34.0538E-03
            4501            4708     29.8171E-03     30.2637E-03
            4502            4708     29.8171E-03     30.2637E-03
            4520            4708     29.8171E-03     30.2637E-03
            4519            4708     29.8171E-03     30.2637E-03
            4521            4709     26.0788E-03     26.5566E-03
            4503            4709     26.0788E-03     26.5566E-03
            4520            4709     26.0788E-03     26.5566E-03
            4502            4709     26.0788E-03     26.5566E-03
            4521            4710     22.4279E-03     22.9852E-03
            4504            4710     22.4279E-03     22.9852E-03
            4503            4710     22.4279E-03     22.9852E-03
            4522            4710     22.4279E-03     22.9852E-03
            4523            4711     18.9061E-03     19.6205E-03
            4504            4711     18.9061E-03     19.6205E-03
            4522            4711     18.9061E-03     19.6205E-03
            4505            4711     18.9061E-03     19.6205E-03
            4506            4712     15.6158E-03     16.6359E-03
            4523            4712     15.6158E-03     16.6359E-03
            4524            4712     15.6158E-03     16.6359E-03
            4505            4712     15.6158E-03     16.6359E-03
            4525            4713     12.9560E-03     14.0099E-03
            4524            4713     12.9560E-03     14.0099E-03
            4506            4713     12.9560E-03     14.0099E-03
            4507            4713     12.9560E-03     14.0099E-03
            4507            4714     11.2617E-03     11.7574E-03
            4508            4714     11.2617E-03     11.7574E-03
            4525            4714     11.2617E-03     11.7574E-03
            4526            4714     11.2617E-03     11.7574E-03
            4527            4715     60.7807E-03     61.0301E-03
            4509            4715     60.7807E-03     61.0301E-03
            4510            4715     60.7807E-03     61.0301E-03
            4528            4715     60.7807E-03     61.0301E-03
            4528            4716     58.9491E-03     59.3690E-03
            4510            4716     58.9491E-03     59.3690E-03
            4511            4716     58.9491E-03     59.3690E-03
            4529            4716     58.9491E-03     59.3690E-03
            4530            4717     56.6716E-03     56.9952E-03
            4529            4717     56.6716E-03     56.9952E-03
            4512            4717     56.6716E-03     56.9952E-03
            4511            4717     56.6716E-03     56.9952E-03
            4512            4718     53.9735E-03     54.1538E-03
            4513            4718     53.9735E-03     54.1538E-03
            4531            4718     53.9735E-03     54.1538E-03
            4530            4718     53.9735E-03     54.1538E-03
            4532            4719     50.9069E-03     51.0266E-03
            4513            4719     50.9069E-03     51.0266E-03
            4531            4719     50.9069E-03     51.0266E-03
            4514            4719     50.9069E-03     51.0266E-03
            4514            4720     47.6027E-03     47.7127E-03
            4533            4720     47.6027E-03     47.7127E-03
            4532            4720     47.6027E-03     47.7127E-03
            4515            4720     47.6027E-03     47.7127E-03
            4533            4721     44.1546E-03     44.2695E-03
            4516            4721     44.1546E-03     44.2695E-03
            4515            4721     44.1546E-03     44.2695E-03
            4534            4721     44.1546E-03     44.2695E-03
            4534            4722     40.6177E-03     40.7572E-03
            4535            4722     40.6177E-03     40.7572E-03
            4516            4722     40.6177E-03     40.7572E-03
            4517            4722     40.6177E-03     40.7572E-03
            4535            4723     37.0530E-03     37.2081E-03
            4518            4723     37.0530E-03     37.2081E-03
            4536            4723     37.0530E-03     37.2081E-03
            4517            4723     37.0530E-03     37.2081E-03
            4536            4724     33.4859E-03     33.6613E-03
            4537            4724     33.4859E-03     33.6613E-03
            4518            4724     33.4859E-03     33.6613E-03
            4519            4724     33.4859E-03     33.6613E-03
            4537            4725     29.9583E-03     30.1470E-03
            4520            4725     29.9583E-03     30.1470E-03
            4519            4725     29.9583E-03     30.1470E-03
            4538            4725     29.9583E-03     30.1470E-03
            4521            4726     26.4961E-03     26.7051E-03
            4520            4726     26.4961E-03     26.7051E-03
            4539            4726     26.4961E-03     26.7051E-03
            4538            4726     26.4961E-03     26.7051E-03
            4521            4727     23.1388E-03     23.3967E-03
            4540            4727     23.1388E-03     23.3967E-03
            4539            4727     23.1388E-03     23.3967E-03
            4522            4727     23.1388E-03     23.3967E-03
            4541            4728     19.9413E-03     20.3125E-03
            4522            4728     19.9413E-03     20.3125E-03
            4540            4728     19.9413E-03     20.3125E-03
            4523            4728     19.9413E-03     20.3125E-03
            4524            4729     16.9498E-03     17.6440E-03
            4542            4729     16.9498E-03     17.6440E-03
            4523            4729     16.9498E-03     17.6440E-03
            4541            4729     16.9498E-03     17.6440E-03
            4542            4730     14.3849E-03     15.6957E-03
            4543            4730     14.3849E-03     15.6957E-03
            4525            4730     14.3849E-03     15.6957E-03
            4524            4730     14.3849E-03     15.6957E-03
            4526            4731     13.0305E-03     14.1523E-03
            4543            4731     13.0305E-03     14.1523E-03
            4525            4731     13.0305E-03     14.1523E-03
            4544            4731     13.0305E-03     14.1523E-03
            4528            4732     57.1623E-03     56.1918E-03
            4527            4732     57.1623E-03     56.1918E-03
            4545            4732     57.1623E-03     56.1918E-03
            4546            4732     57.1623E-03     56.1918E-03
            4528            4733     55.9156E-03     55.1281E-03
            4547            4733     55.9156E-03     55.1281E-03
            4529            4733     55.9156E-03     55.1281E-03
            4546            4733     55.9156E-03     55.1281E-03
            4547            4734     54.0012E-03     53.2091E-03
            4529            4734     54.0012E-03     53.2091E-03
            4530            4734     54.0012E-03     53.2091E-03
            4548            4734     54.0012E-03     53.2091E-03
            4549            4735     51.6414E-03     50.9694E-03
            4548            4735     51.6414E-03     50.9694E-03
            4531            4735     51.6414E-03     50.9694E-03
            4530            4735     51.6414E-03     50.9694E-03
            4532            4736     48.9439E-03     48.4160E-03
            4549            4736     48.9439E-03     48.4160E-03
            4531            4736     48.9439E-03     48.4160E-03
            4550            4736     48.9439E-03     48.4160E-03
            4550            4737     46.0338E-03     45.6474E-03
            4533            4737     46.0338E-03     45.6474E-03
            4551            4737     46.0338E-03     45.6474E-03
            4532            4737     46.0338E-03     45.6474E-03
            4533            4738     42.9657E-03     42.7034E-03
            4552            4738     42.9657E-03     42.7034E-03
            4534            4738     42.9657E-03     42.7034E-03
            4551            4738     42.9657E-03     42.7034E-03
            4552            4739     39.8046E-03     39.6363E-03
            4535            4739     39.8046E-03     39.6363E-03
            4553            4739     39.8046E-03     39.6363E-03
            4534            4739     39.8046E-03     39.6363E-03
            4536            4740     36.5852E-03     36.4933E-03
            4553            4740     36.5852E-03     36.4933E-03
            4554            4740     36.5852E-03     36.4933E-03
            4535            4740     36.5852E-03     36.4933E-03
            4555            4741     33.3591E-03     33.3117E-03
            4536            4741     33.3591E-03     33.3117E-03
            4554            4741     33.3591E-03     33.3117E-03
            4537            4741     33.3591E-03     33.3117E-03
            4555            4742     30.1543E-03     30.1374E-03
            4537            4742     30.1543E-03     30.1374E-03
            4556            4742     30.1543E-03     30.1374E-03
            4538            4742     30.1543E-03     30.1374E-03
            4539            4743     27.0285E-03     27.0152E-03
            4557            4743     27.0285E-03     27.0152E-03
            4556            4743     27.0285E-03     27.0152E-03
            4538            4743     27.0285E-03     27.0152E-03
            4558            4744     24.0186E-03     24.0064E-03
            4539            4744     24.0186E-03     24.0064E-03
            4557            4744     24.0186E-03     24.0064E-03
            4540            4744     24.0186E-03     24.0064E-03
            4540            4745     21.2089E-03     21.2095E-03
            4559            4745     21.2089E-03     21.2095E-03
            4558            4745     21.2089E-03     21.2095E-03
            4541            4745     21.2089E-03     21.2095E-03
            4560            4746     18.6456E-03     18.7617E-03
            4542            4746     18.6456E-03     18.7617E-03
            4541            4746     18.6456E-03     18.7617E-03
            4559            4746     18.6456E-03     18.7617E-03
            4561            4747     16.3689E-03     17.0542E-03
            4560            4747     16.3689E-03     17.0542E-03
            4542            4747     16.3689E-03     17.0542E-03
            4543            4747     16.3689E-03     17.0542E-03
            4561            4748     14.6302E-03     16.4759E-03
            4544            4748     14.6302E-03     16.4759E-03
            4562            4748     14.6302E-03     16.4759E-03
            4543            4748     14.6302E-03     16.4759E-03
            4564            4749     54.9803E-03     55.9824E-03
            4546            4749     54.9803E-03     55.9824E-03
            4545            4749     54.9803E-03     55.9824E-03
            4563            4749     54.9803E-03     55.9824E-03
            4547            4750     50.1487E-03     50.1354E-03
            4565            4750     50.1487E-03     50.1354E-03
            4546            4750     50.1487E-03     50.1354E-03
            4564            4750     50.1487E-03     50.1354E-03
            4547            4751     46.7605E-03     46.6786E-03
            4548            4751     46.7605E-03     46.6786E-03
            4565            4751     46.7605E-03     46.6786E-03
            4566            4751     46.7605E-03     46.6786E-03
            4567            4752     43.5578E-03     43.6383E-03
            4549            4752     43.5578E-03     43.6383E-03
            4566            4752     43.5578E-03     43.6383E-03
            4548            4752     43.5578E-03     43.6383E-03
            4567            4753     40.6037E-03     40.8194E-03
            4549            4753     40.6037E-03     40.8194E-03
            4568            4753     40.6037E-03     40.8194E-03
            4550            4753     40.6037E-03     40.8194E-03
            4550            4754     37.6855E-03     38.0870E-03
            4569            4754     37.6855E-03     38.0870E-03
            4568            4754     37.6855E-03     38.0870E-03
            4551            4754     37.6855E-03     38.0870E-03
            4552            4755     34.8365E-03     35.3586E-03
            4569            4755     34.8365E-03     35.3586E-03
            4570            4755     34.8365E-03     35.3586E-03
            4551            4755     34.8365E-03     35.3586E-03
            4552            4756     31.9885E-03     32.6332E-03
            4570            4756     31.9885E-03     32.6332E-03
            4571            4756     31.9885E-03     32.6332E-03
            4553            4756     31.9885E-03     32.6332E-03
            4553            4757     29.1681E-03     29.8854E-03
            4572            4757     29.1681E-03     29.8854E-03
            4554            4757     29.1681E-03     29.8854E-03
            4571            4757     29.1681E-03     29.8854E-03
            4572            4758     26.3551E-03     27.1316E-03
            4573            4758     26.3551E-03     27.1316E-03
            4554            4758     26.3551E-03     27.1316E-03
            4555            4758     26.3551E-03     27.1316E-03
            4573            4759     23.5781E-03     24.3772E-03
            4556            4759     23.5781E-03     24.3772E-03
            4555            4759     23.5781E-03     24.3772E-03
            4574            4759     23.5781E-03     24.3772E-03
            4557            4760     20.8427E-03     21.6425E-03
            4575            4760     20.8427E-03     21.6425E-03
            4574            4760     20.8427E-03     21.6425E-03
            4556            4760     20.8427E-03     21.6425E-03
            4575            4761     18.1876E-03     18.9526E-03
            4576            4761     18.1876E-03     18.9526E-03
            4558            4761     18.1876E-03     18.9526E-03
            4557            4761     18.1876E-03     18.9526E-03
            4558            4762     15.6423E-03     16.3538E-03
            4576            4762     15.6423E-03     16.3538E-03
            4577            4762     15.6423E-03     16.3538E-03
            4559            4762     15.6423E-03     16.3538E-03
            4560            4763     13.2564E-03     13.8855E-03
            4559            4763     13.2564E-03     13.8855E-03
            4577            4763     13.2564E-03     13.8855E-03
            4578            4763     13.2564E-03     13.8855E-03
            4579            4764     11.0722E-03     11.7349E-03
            4561            4764     11.0722E-03     11.7349E-03
            4578            4764     11.0722E-03     11.7349E-03
            4560            4764     11.0722E-03     11.7349E-03
            4579            4765     8.84612E-03     10.2184E-03
            4562            4765     8.84612E-03     10.2184E-03
            4580            4765     8.84612E-03     10.2184E-03
            4561            4765     8.84612E-03     10.2184E-03
            4582            4766     56.0910E-03     57.2010E-03
            4564            4766     56.0910E-03     57.2010E-03
            4563            4766     56.0910E-03     57.2010E-03
            4581            4766     56.0910E-03     57.2010E-03
            4582            4767     47.3338E-03     48.7816E-03
            4565            4767     47.3338E-03     48.7816E-03
            4564            4767     47.3338E-03     48.7816E-03
            4583            4767     47.3338E-03     48.7816E-03
            4565            4768     41.5842E-03     42.9188E-03
            4566            4768     41.5842E-03     42.9188E-03
            4584            4768     41.5842E-03     42.9188E-03
            4583            4768     41.5842E-03     42.9188E-03
            4566            4769     37.3879E-03     38.6862E-03
            4585            4769     37.3879E-03     38.6862E-03
            4567            4769     37.3879E-03     38.6862E-03
            4584            4769     37.3879E-03     38.6862E-03
            4585            4770     33.7784E-03     35.1207E-03
            4568            4770     33.7784E-03     35.1207E-03
            4567            4770     33.7784E-03     35.1207E-03
            4586            4770     33.7784E-03     35.1207E-03
            4587            4771     30.6384E-03     32.0356E-03
            4568            4771     30.6384E-03     32.0356E-03
            4586            4771     30.6384E-03     32.0356E-03
            4569            4771     30.6384E-03     32.0356E-03
            4570            4772     27.7179E-03     29.1807E-03
            4569            4772     27.7179E-03     29.1807E-03
            4587            4772     27.7179E-03     29.1807E-03
            4588            4772     27.7179E-03     29.1807E-03
            4571            4773     24.9702E-03     26.4887E-03
            4588            4773     24.9702E-03     26.4887E-03
            4570            4773     24.9702E-03     26.4887E-03
            4589            4773     24.9702E-03     26.4887E-03
            4590            4774     22.3061E-03     23.8686E-03
            4589            4774     22.3061E-03     23.8686E-03
            4571            4774     22.3061E-03     23.8686E-03
            4572            4774     22.3061E-03     23.8686E-03
            4573            4775     19.7060E-03     21.2966E-03
            4590            4775     19.7060E-03     21.2966E-03
            4572            4775     19.7060E-03     21.2966E-03
            4591            4775     19.7060E-03     21.2966E-03
            4592            4776     17.1363E-03     18.7361E-03
            4591            4776     17.1363E-03     18.7361E-03
            4574            4776     17.1363E-03     18.7361E-03
            4573            4776     17.1363E-03     18.7361E-03
            4575            4777     14.5907E-03     16.1796E-03
            4574            4777     14.5907E-03     16.1796E-03
            4592            4777     14.5907E-03     16.1796E-03
            4593            4777     14.5907E-03     16.1796E-03
            4575            4778     12.0600E-03     13.6119E-03
            4594            4778     12.0600E-03     13.6119E-03
            4593            4778     12.0600E-03     13.6119E-03
            4576            4778     12.0600E-03     13.6119E-03
            4594            4779     9.54534E-03     11.0296E-03
            4595            4779     9.54534E-03     11.0296E-03
            4576            4779     9.54534E-03     11.0296E-03
            4577            4779     9.54534E-03     11.0296E-03
            4577            4780     7.05036E-03     8.42872E-03
            4595            4780     7.05036E-03     8.42872E-03
            4578            4780     7.05036E-03     8.42872E-03
            4596            4780     7.05036E-03     8.42872E-03
            4579            4781     4.60489E-03     5.79687E-03
            4578            4781     4.60489E-03     5.79687E-03
            4597            4781     4.60489E-03     5.79687E-03
            4596            4781     4.60489E-03     5.79687E-03
            4598            4782     2.22714E-03     3.25099E-03
            4580            4782     2.22714E-03     3.25099E-03
            4579            4782     2.22714E-03     3.25099E-03
            4597            4782     2.22714E-03     3.25099E-03
            4600            4783     55.8007E-03     56.0003E-03
            4581            4783     55.8007E-03     56.0003E-03
            4599            4783     55.8007E-03     56.0003E-03
            4582            4783     55.8007E-03     56.0003E-03
            4583            4784     49.1514E-03     49.9607E-03
            4600            4784     49.1514E-03     49.9607E-03
            4601            4784     49.1514E-03     49.9607E-03
            4582            4784     49.1514E-03     49.9607E-03
            4584            4785     42.9788E-03     44.2123E-03
            4602            4785     42.9788E-03     44.2123E-03
            4601            4785     42.9788E-03     44.2123E-03
            4583            4785     42.9788E-03     44.2123E-03
            4602            4786     38.5112E-03     39.8250E-03
            4603            4786     38.5112E-03     39.8250E-03
            4584            4786     38.5112E-03     39.8250E-03
            4585            4786     38.5112E-03     39.8250E-03
            4585            4787     34.8037E-03     36.1335E-03
            4586            4787     34.8037E-03     36.1335E-03
            4603            4787     34.8037E-03     36.1335E-03
            4604            4787     34.8037E-03     36.1335E-03
            4604            4788     31.5292E-03     32.8952E-03
            4587            4788     31.5292E-03     32.8952E-03
            4586            4788     31.5292E-03     32.8952E-03
            4605            4788     31.5292E-03     32.8952E-03
            4588            4789     28.5504E-03     29.9274E-03
            4605            4789     28.5504E-03     29.9274E-03
            4606            4789     28.5504E-03     29.9274E-03
            4587            4789     28.5504E-03     29.9274E-03
            4589            4790     25.7215E-03     27.1189E-03
            4607            4790     25.7215E-03     27.1189E-03
            4588            4790     25.7215E-03     27.1189E-03
            4606            4790     25.7215E-03     27.1189E-03
            4589            4791     23.0025E-03     24.4072E-03
            4590            4791     23.0025E-03     24.4072E-03
            4607            4791     23.0025E-03     24.4072E-03
            4608            4791     23.0025E-03     24.4072E-03
            4608            4792     20.3358E-03     21.7443E-03
            4609            4792     20.3358E-03     21.7443E-03
            4591            4792     20.3358E-03     21.7443E-03
            4590            4792     20.3358E-03     21.7443E-03
            4610            4793     17.7093E-03     19.1097E-03
            4592            4793     17.7093E-03     19.1097E-03
            4591            4793     17.7093E-03     19.1097E-03
            4609            4793     17.7093E-03     19.1097E-03
            4611            4794     15.1032E-03     16.4819E-03
            4610            4794     15.1032E-03     16.4819E-03
            4592            4794     15.1032E-03     16.4819E-03
            4593            4794     15.1032E-03     16.4819E-03
            4611            4795     12.5166E-03     13.8555E-03
            4612            4795     12.5166E-03     13.8555E-03
            4594            4795     12.5166E-03     13.8555E-03
            4593            4795     12.5166E-03     13.8555E-03
            4594            4796     9.94843E-03     11.2234E-03
            4612            4796     9.94843E-03     11.2234E-03
            4613            4796     9.94843E-03     11.2234E-03
            4595            4796     9.94843E-03     11.2234E-03
            4614            4797     7.41138E-03     8.58202E-03
            4613            4797     7.41138E-03     8.58202E-03
            4596            4797     7.41138E-03     8.58202E-03
            4595            4797     7.41138E-03     8.58202E-03
            4615            4798     4.92410E-03     5.96591E-03
            4597            4798     4.92410E-03     5.96591E-03
            4614            4798     4.92410E-03     5.96591E-03
            4596            4798     4.92410E-03     5.96591E-03
            4615            4799     2.63152E-03     3.48543E-03
            4597            4799     2.63152E-03     3.48543E-03
            4598            4799     2.63152E-03     3.48543E-03
            4616            4799     2.63152E-03     3.48543E-03
            4617            4800     53.4682E-03     54.4265E-03
            4599            4800     53.4682E-03     54.4265E-03
            4600            4800     53.4682E-03     54.4265E-03
            4618            4800     53.4682E-03     54.4265E-03
            4619            4801     48.8092E-03     49.6214E-03
            4618            4801     48.8092E-03     49.6214E-03
            4600            4801     48.8092E-03     49.6214E-03
            4601            4801     48.8092E-03     49.6214E-03
            4601            4802     43.8532E-03     44.8554E-03
            4620            4802     43.8532E-03     44.8554E-03
            4602            4802     43.8532E-03     44.8554E-03
            4619            4802     43.8532E-03     44.8554E-03
            4602            4803     39.3730E-03     40.6022E-03
            4620            4803     39.3730E-03     40.6022E-03
            4621            4803     39.3730E-03     40.6022E-03
            4603            4803     39.3730E-03     40.6022E-03
            4622            4804     35.6945E-03     36.9712E-03
            4604            4804     35.6945E-03     36.9712E-03
            4621            4804     35.6945E-03     36.9712E-03
            4603            4804     35.6945E-03     36.9712E-03
            4604            4805     32.3941E-03     33.6815E-03
            4623            4805     32.3941E-03     33.6815E-03
            4622            4805     32.3941E-03     33.6815E-03
            4605            4805     32.3941E-03     33.6815E-03
            4605            4806     29.3597E-03     30.6486E-03
            4624            4806     29.3597E-03     30.6486E-03
            4606            4806     29.3597E-03     30.6486E-03
            4623            4806     29.3597E-03     30.6486E-03
            4606            4807     26.4887E-03     27.7611E-03
            4607            4807     26.4887E-03     27.7611E-03
            4625            4807     26.4887E-03     27.7611E-03
            4624            4807     26.4887E-03     27.7611E-03
            4607            4808     23.7107E-03     24.9720E-03
            4608            4808     23.7107E-03     24.9720E-03
            4625            4808     23.7107E-03     24.9720E-03
            4626            4808     23.7107E-03     24.9720E-03
            4608            4809     20.9977E-03     22.2407E-03
            4627            4809     20.9977E-03     22.2407E-03
            4626            4809     20.9977E-03     22.2407E-03
            4609            4809     20.9977E-03     22.2407E-03
            4628            4810     18.3206E-03     19.5448E-03
            4610            4810     18.3206E-03     19.5448E-03
            4609            4810     18.3206E-03     19.5448E-03
            4627            4810     18.3206E-03     19.5448E-03
            4629            4811     15.6753E-03     16.8717E-03
            4628            4811     15.6753E-03     16.8717E-03
            4610            4811     15.6753E-03     16.8717E-03
            4611            4811     15.6753E-03     16.8717E-03
            4630            4812     13.0564E-03     14.2121E-03
            4629            4812     13.0564E-03     14.2121E-03
            4612            4812     13.0564E-03     14.2121E-03
            4611            4812     13.0564E-03     14.2121E-03
            4630            4813     10.4754E-03     11.5680E-03
            4612            4813     10.4754E-03     11.5680E-03
            4631            4813     10.4754E-03     11.5680E-03
            4613            4813     10.4754E-03     11.5680E-03
            4614            4814     7.95355E-03     8.95188E-03
            4631            4814     7.95355E-03     8.95188E-03
            4632            4814     7.95355E-03     8.95188E-03
            4613            4814     7.95355E-03     8.95188E-03
            4633            4815     5.55841E-03     6.42170E-03
            4615            4815     5.55841E-03     6.42170E-03
            4614            4815     5.55841E-03     6.42170E-03
            4632            4815     5.55841E-03     6.42170E-03
            4634            4816     3.64435E-03     4.08705E-03
            4633            4816     3.64435E-03     4.08705E-03
            4615            4816     3.64435E-03     4.08705E-03
            4616            4816     3.64435E-03     4.08705E-03
            4635            4817     51.3911E-03     51.9921E-03
            4618            4817     51.3911E-03     51.9921E-03
            4617            4817     51.3911E-03     51.9921E-03
            4636            4817     51.3911E-03     51.9921E-03
            4618            4818     47.4528E-03     48.3922E-03
            4637            4818     47.4528E-03     48.3922E-03
            4636            4818     47.4528E-03     48.3922E-03
            4619            4818     47.4528E-03     48.3922E-03
            4619            4819     43.5855E-03     44.5960E-03
            4637            4819     43.5855E-03     44.5960E-03
            4620            4819     43.5855E-03     44.5960E-03
            4638            4819     43.5855E-03     44.5960E-03
            4621            4820     39.7974E-03     40.8970E-03
            4639            4820     39.7974E-03     40.8970E-03
            4620            4820     39.7974E-03     40.8970E-03
            4638            4820     39.7974E-03     40.8970E-03
            4639            4821     36.2603E-03     37.4543E-03
            4621            4821     36.2603E-03     37.4543E-03
            4622            4821     36.2603E-03     37.4543E-03
            4640            4821     36.2603E-03     37.4543E-03
            4640            4822     33.0738E-03     34.2632E-03
            4623            4822     33.0738E-03     34.2632E-03
            4622            4822     33.0738E-03     34.2632E-03
            4641            4822     33.0738E-03     34.2632E-03
            4642            4823     30.0538E-03     31.2251E-03
            4623            4823     30.0538E-03     31.2251E-03
            4624            4823     30.0538E-03     31.2251E-03
            4641            4823     30.0538E-03     31.2251E-03
            4625            4824     27.1720E-03     28.3143E-03
            4624            4824     27.1720E-03     28.3143E-03
            4643            4824     27.1720E-03     28.3143E-03
            4642            4824     27.1720E-03     28.3143E-03
            4644            4825     24.3697E-03     25.4802E-03
            4625            4825     24.3697E-03     25.4802E-03
            4643            4825     24.3697E-03     25.4802E-03
            4626            4825     24.3697E-03     25.4802E-03
            4644            4826     21.6229E-03     22.7080E-03
            4627            4826     21.6229E-03     22.7080E-03
            4626            4826     21.6229E-03     22.7080E-03
            4645            4826     21.6229E-03     22.7080E-03
            4645            4827     18.9187E-03     19.9782E-03
            4627            4827     18.9187E-03     19.9782E-03
            4646            4827     18.9187E-03     19.9782E-03
            4628            4827     18.9187E-03     19.9782E-03
            4646            4828     16.2495E-03     17.2835E-03
            4629            4828     16.2495E-03     17.2835E-03
            4647            4828     16.2495E-03     17.2835E-03
            4628            4828     16.2495E-03     17.2835E-03
            4647            4829     13.6238E-03     14.6235E-03
            4629            4829     13.6238E-03     14.6235E-03
            4630            4829     13.6238E-03     14.6235E-03
            4648            4829     13.6238E-03     14.6235E-03
            4649            4830     11.0578E-03     11.9996E-03
            4630            4830     11.0578E-03     11.9996E-03
            4648            4830     11.0578E-03     11.9996E-03
            4631            4830     11.0578E-03     11.9996E-03
            4632            4831     8.59378E-03     9.44888E-03
            4649            4831     8.59378E-03     9.44888E-03
            4631            4831     8.59378E-03     9.44888E-03
            4650            4831     8.59378E-03     9.44888E-03
            4650            4832     6.36891E-03     7.01647E-03
            4632            4832     6.36891E-03     7.01647E-03
            4651            4832     6.36891E-03     7.01647E-03
            4633            4832     6.36891E-03     7.01647E-03
            4651            4833     4.70334E-03     4.92754E-03
            4633            4833     4.70334E-03     4.92754E-03
            4652            4833     4.70334E-03     4.92754E-03
            4634            4833     4.70334E-03     4.92754E-03
            4654            4834     49.0603E-03     49.7353E-03
            4635            4834     49.0603E-03     49.7353E-03
            4636            4834     49.0603E-03     49.7353E-03
            4653            4834     49.0603E-03     49.7353E-03
            4654            4835     45.9511E-03     46.7293E-03
            4637            4835     45.9511E-03     46.7293E-03
            4636            4835     45.9511E-03     46.7293E-03
            4655            4835     45.9511E-03     46.7293E-03
            4656            4836     42.7428E-03     43.7303E-03
            4655            4836     42.7428E-03     43.7303E-03
            4637            4836     42.7428E-03     43.7303E-03
            4638            4836     42.7428E-03     43.7303E-03
            4638            4837     39.5866E-03     40.6475E-03
            4639            4837     39.5866E-03     40.6475E-03
            4657            4837     39.5866E-03     40.6475E-03
            4656            4837     39.5866E-03     40.6475E-03
            4658            4838     36.4868E-03     37.5594E-03
            4639            4838     36.4868E-03     37.5594E-03
            4640            4838     36.4868E-03     37.5594E-03
            4657            4838     36.4868E-03     37.5594E-03
            4659            4839     33.4575E-03     34.5330E-03
            4641            4839     33.4575E-03     34.5330E-03
            4640            4839     33.4575E-03     34.5330E-03
            4658            4839     33.4575E-03     34.5330E-03
            4660            4840     30.5525E-03     31.5819E-03
            4641            4840     30.5525E-03     31.5819E-03
            4642            4840     30.5525E-03     31.5819E-03
            4659            4840     30.5525E-03     31.5819E-03
            4642            4841     27.7003E-03     28.6892E-03
            4660            4841     27.7003E-03     28.6892E-03
            4661            4841     27.7003E-03     28.6892E-03
            4643            4841     27.7003E-03     28.6892E-03
            4661            4842     24.9110E-03     25.8599E-03
            4662            4842     24.9110E-03     25.8599E-03
            4643            4842     24.9110E-03     25.8599E-03
            4644            4842     24.9110E-03     25.8599E-03
            4644            4843     22.1612E-03     23.0789E-03
            4645            4843     22.1612E-03     23.0789E-03
            4663            4843     22.1612E-03     23.0789E-03
            4662            4843     22.1612E-03     23.0789E-03
            4663            4844     19.4518E-03     20.3490E-03
            4664            4844     19.4518E-03     20.3490E-03
            4645            4844     19.4518E-03     20.3490E-03
            4646            4844     19.4518E-03     20.3490E-03
            4665            4845     16.7860E-03     17.6664E-03
            4647            4845     16.7860E-03     17.6664E-03
            4646            4845     16.7860E-03     17.6664E-03
            4664            4845     16.7860E-03     17.6664E-03
            4648            4846     14.1752E-03     15.0340E-03
            4666            4846     14.1752E-03     15.0340E-03
            4647            4846     14.1752E-03     15.0340E-03
            4665            4846     14.1752E-03     15.0340E-03
            4648            4847     11.6511E-03     12.4730E-03
            4667            4847     11.6511E-03     12.4730E-03
            4649            4847     11.6511E-03     12.4730E-03
            4666            4847     11.6511E-03     12.4730E-03
            4667            4848     9.28381E-03     9.99908E-03
            4650            4848     9.28381E-03     9.99908E-03
            4649            4848     9.28381E-03     9.99908E-03
            4668            4848     9.28381E-03     9.99908E-03
            4668            4849     7.20656E-03     7.72419E-03
            4669            4849     7.20656E-03     7.72419E-03
            4650            4849     7.20656E-03     7.72419E-03
            4651            4849     7.20656E-03     7.72419E-03
            4669            4850     5.75418E-03     5.86369E-03
            4651            4850     5.75418E-03     5.86369E-03
            4652            4850     5.75418E-03     5.86369E-03
            4670            4850     5.75418E-03     5.86369E-03
            4654            4851     46.8105E-03     47.3342E-03
            4653            4851     46.8105E-03     47.3342E-03
            4672            4851     46.8105E-03     47.3342E-03
            4671            4851     46.8105E-03     47.3342E-03
            4673            4852     44.1681E-03     44.9625E-03
            4672            4852     44.1681E-03     44.9625E-03
            4655            4852     44.1681E-03     44.9625E-03
            4654            4852     44.1681E-03     44.9625E-03
            4656            4853     41.6321E-03     42.5341E-03
            4673            4853     41.6321E-03     42.5341E-03
            4655            4853     41.6321E-03     42.5341E-03
            4674            4853     41.6321E-03     42.5341E-03
            4675            4854     38.9999E-03     39.9796E-03
            4656            4854     38.9999E-03     39.9796E-03
            4674            4854     38.9999E-03     39.9796E-03
            4657            4854     38.9999E-03     39.9796E-03
            4658            4855     36.3024E-03     37.2744E-03
            4676            4855     36.3024E-03     37.2744E-03
            4675            4855     36.3024E-03     37.2744E-03
            4657            4855     36.3024E-03     37.2744E-03
            4659            4856     33.5626E-03     34.4758E-03
            4658            4856     33.5626E-03     34.4758E-03
            4677            4856     33.5626E-03     34.4758E-03
            4676            4856     33.5626E-03     34.4758E-03
            4659            4857     30.7861E-03     31.6516E-03
            4677            4857     30.7861E-03     31.6516E-03
            4678            4857     30.7861E-03     31.6516E-03
            4660            4857     30.7861E-03     31.6516E-03
            4678            4858     28.0319E-03     28.8373E-03
            4661            4858     28.0319E-03     28.8373E-03
            4679            4858     28.0319E-03     28.8373E-03
            4660            4858     28.0319E-03     28.8373E-03
            4679            4859     25.2849E-03     26.0497E-03
            4661            4859     25.2849E-03     26.0497E-03
            4662            4859     25.2849E-03     26.0497E-03
            4680            4859     25.2849E-03     26.0497E-03
            4662            4860     22.5712E-03     23.3066E-03
            4681            4860     22.5712E-03     23.3066E-03
            4680            4860     22.5712E-03     23.3066E-03
            4663            4860     22.5712E-03     23.3066E-03
            4682            4861     19.8893E-03     20.6111E-03
            4681            4861     19.8893E-03     20.6111E-03
            4663            4861     19.8893E-03     20.6111E-03
            4664            4861     19.8893E-03     20.6111E-03
            4665            4862     17.2542E-03     17.9778E-03
            4683            4862     17.2542E-03     17.9778E-03
            4682            4862     17.2542E-03     17.9778E-03
            4664            4862     17.2542E-03     17.9778E-03
            4665            4863     14.6887E-03     15.4168E-03
            4683            4863     14.6887E-03     15.4168E-03
            4666            4863     14.6887E-03     15.4168E-03
            4684            4863     14.6887E-03     15.4168E-03
            4684            4864     12.2343E-03     12.9397E-03
            4685            4864     12.2343E-03     12.9397E-03
            4666            4864     12.2343E-03     12.9397E-03
            4667            4864     12.2343E-03     12.9397E-03
            4686            4865     9.97135E-03     10.6066E-03
            4668            4865     9.97135E-03     10.6066E-03
            4667            4865     9.97135E-03     10.6066E-03
            4685            4865     9.97135E-03     10.6066E-03
            4686            4866     8.06621E-03     8.48358E-03
            4669            4866     8.06621E-03     8.48358E-03
            4668            4866     8.06621E-03     8.48358E-03
            4687            4866     8.06621E-03     8.48358E-03
            4669            4867     6.77368E-03     6.83261E-03
            4687            4867     6.77368E-03     6.83261E-03
            4670            4867     6.77368E-03     6.83261E-03
            4688            4867     6.77368E-03     6.83261E-03
            4689            4868     44.3621E-03     44.8691E-03
            4690            4868     44.3621E-03     44.8691E-03
            4671            4868     44.3621E-03     44.8691E-03
            4672            4868     44.3621E-03     44.8691E-03
            4672            4869     42.3032E-03     43.0075E-03
            4690            4869     42.3032E-03     43.0075E-03
            4673            4869     42.3032E-03     43.0075E-03
            4691            4869     42.3032E-03     43.0075E-03
            4674            4870     40.2666E-03     41.1340E-03
            4673            4870     40.2666E-03     41.1340E-03
            4692            4870     40.2666E-03     41.1340E-03
            4691            4870     40.2666E-03     41.1340E-03
            4675            4871     38.1453E-03     39.0092E-03
            4693            4871     38.1453E-03     39.0092E-03
            4692            4871     38.1453E-03     39.0092E-03
            4674            4871     38.1453E-03     39.0092E-03
            4676            4872     35.8315E-03     36.6350E-03
            4693            4872     35.8315E-03     36.6350E-03
            4675            4872     35.8315E-03     36.6350E-03
            4694            4872     35.8315E-03     36.6350E-03
            4694            4873     33.3485E-03     34.0784E-03
            4677            4873     33.3485E-03     34.0784E-03
            4676            4873     33.3485E-03     34.0784E-03
            4695            4873     33.3485E-03     34.0784E-03
            4696            4874     30.7669E-03     31.4162E-03
            4678            4874     30.7669E-03     31.4162E-03
            4677            4874     30.7669E-03     31.4162E-03
            4695            4874     30.7669E-03     31.4162E-03
            4678            4875     28.1221E-03     28.7183E-03
            4696            4875     28.1221E-03     28.7183E-03
            4679            4875     28.1221E-03     28.7183E-03
            4697            4875     28.1221E-03     28.7183E-03
            4697            4876     25.4726E-03     26.0242E-03
            4679            4876     25.4726E-03     26.0242E-03
            4698            4876     25.4726E-03     26.0242E-03
            4680            4876     25.4726E-03     26.0242E-03
            4680            4877     22.8269E-03     23.3577E-03
            4681            4877     22.8269E-03     23.3577E-03
            4699            4877     22.8269E-03     23.3577E-03
            4698            4877     22.8269E-03     23.3577E-03
            4700            4878     20.2150E-03     20.7433E-03
            4681            4878     20.2150E-03     20.7433E-03
            4699            4878     20.2150E-03     20.7433E-03
            4682            4878     20.2150E-03     20.7433E-03
            4682            4879     17.6487E-03     18.1959E-03
            4683            4879     17.6487E-03     18.1959E-03
            4701            4879     17.6487E-03     18.1959E-03
            4700            4879     17.6487E-03     18.1959E-03
            4702            4880     15.1571E-03     15.7456E-03
            4684            4880     15.1571E-03     15.7456E-03
            4701            4880     15.1571E-03     15.7456E-03
            4683            4880     15.1571E-03     15.7456E-03
            4684            4881     12.7988E-03     13.4148E-03
            4703            4881     12.7988E-03     13.4148E-03
            4702            4881     12.7988E-03     13.4148E-03
            4685            4881     12.7988E-03     13.4148E-03
            4704            4882     10.6647E-03     11.2292E-03
            4686            4882     10.6647E-03     11.2292E-03
            4685            4882     10.6647E-03     11.2292E-03
            4703            4882     10.6647E-03     11.2292E-03
            4687            4883     8.91560E-03     9.32392E-03
            4704            4883     8.91560E-03     9.32392E-03
            4686            4883     8.91560E-03     9.32392E-03
            4705            4883     8.91560E-03     9.32392E-03
            4706            4884     7.79846E-03     7.83077E-03
            4705            4884     7.79846E-03     7.83077E-03
            4688            4884     7.79846E-03     7.83077E-03
            4687            4884     7.79846E-03     7.83077E-03
            4708            4885     41.8337E-03     42.2336E-03
            4690            4885     41.8337E-03     42.2336E-03
            4707            4885     41.8337E-03     42.2336E-03
            4689            4885     41.8337E-03     42.2336E-03
            4690            4886     40.2323E-03     40.9330E-03
            4709            4886     40.2323E-03     40.9330E-03
            4691            4886     40.2323E-03     40.9330E-03
            4708            4886     40.2323E-03     40.9330E-03
            4710            4887     38.7564E-03     39.5034E-03
            4692            4887     38.7564E-03     39.5034E-03
            4691            4887     38.7564E-03     39.5034E-03
            4709            4887     38.7564E-03     39.5034E-03
            4711            4888     37.0766E-03     37.7566E-03
            4692            4888     37.0766E-03     37.7566E-03
            4693            4888     37.0766E-03     37.7566E-03
            4710            4888     37.0766E-03     37.7566E-03
            4712            4889     35.0988E-03     35.6682E-03
            4693            4889     35.0988E-03     35.6682E-03
            4694            4889     35.0988E-03     35.6682E-03
            4711            4889     35.0988E-03     35.6682E-03
            4713            4890     32.8657E-03     33.3358E-03
            4712            4890     32.8657E-03     33.3358E-03
            4695            4890     32.8657E-03     33.3358E-03
            4694            4890     32.8657E-03     33.3358E-03
            4696            4891     30.4666E-03     30.8672E-03
            4714            4891     30.4666E-03     30.8672E-03
            4713            4891     30.4666E-03     30.8672E-03
            4695            4891     30.4666E-03     30.8672E-03
            4696            4892     27.9828E-03     28.3288E-03
            4715            4892     27.9828E-03     28.3288E-03
            4714            4892     27.9828E-03     28.3288E-03
            4697            4892     27.9828E-03     28.3288E-03
            4698            4893     25.4552E-03     25.7734E-03
            4697            4893     25.4552E-03     25.7734E-03
            4715            4893     25.4552E-03     25.7734E-03
            4716            4893     25.4552E-03     25.7734E-03
            4698            4894     22.9323E-03     23.2360E-03
            4716            4894     22.9323E-03     23.2360E-03
            4717            4894     22.9323E-03     23.2360E-03
            4699            4894     22.9323E-03     23.2360E-03
            4700            4895     20.4296E-03     20.7432E-03
            4699            4895     20.4296E-03     20.7432E-03
            4717            4895     20.4296E-03     20.7432E-03
            4718            4895     20.4296E-03     20.7432E-03
            4718            4896     17.9798E-03     18.3278E-03
            4701            4896     17.9798E-03     18.3278E-03
            4700            4896     17.9798E-03     18.3278E-03
            4719            4896     17.9798E-03     18.3278E-03
            4720            4897     15.6051E-03     16.0205E-03
            4701            4897     15.6051E-03     16.0205E-03
            4702            4897     15.6051E-03     16.0205E-03
            4719            4897     15.6051E-03     16.0205E-03
            4702            4898     13.3582E-03     13.8835E-03
            4721            4898     13.3582E-03     13.8835E-03
            4720            4898     13.3582E-03     13.8835E-03
            4703            4898     13.3582E-03     13.8835E-03
            4703            4899     11.3710E-03     11.9323E-03
            4722            4899     11.3710E-03     11.9323E-03
            4721            4899     11.3710E-03     11.9323E-03
            4704            4899     11.3710E-03     11.9323E-03
            4723            4900     9.78765E-03     10.1951E-03
            4704            4900     9.78765E-03     10.1951E-03
            4705            4900     9.78765E-03     10.1951E-03
            4722            4900     9.78765E-03     10.1951E-03
            4723            4901     8.80170E-03     8.94501E-03
            4724            4901     8.80170E-03     8.94501E-03
            4705            4901     8.80170E-03     8.94501E-03
            4706            4901     8.80170E-03     8.94501E-03
            4726            4902     39.0728E-03     39.4631E-03
            4708            4902     39.0728E-03     39.4631E-03
            4707            4902     39.0728E-03     39.4631E-03
            4725            4902     39.0728E-03     39.4631E-03
            4708            4903     38.0263E-03     38.5990E-03
            4709            4903     38.0263E-03     38.5990E-03
            4726            4903     38.0263E-03     38.5990E-03
            4727            4903     38.0263E-03     38.5990E-03
            4728            4904     37.1217E-03     37.6228E-03
            4709            4904     37.1217E-03     37.6228E-03
            4727            4904     37.1217E-03     37.6228E-03
            4710            4904     37.1217E-03     37.6228E-03
            4728            4905     35.8340E-03     36.1807E-03
            4710            4905     35.8340E-03     36.1807E-03
            4711            4905     35.8340E-03     36.1807E-03
            4729            4905     35.8340E-03     36.1807E-03
            4711            4906     34.1152E-03     34.3443E-03
            4729            4906     34.1152E-03     34.3443E-03
            4730            4906     34.1152E-03     34.3443E-03
            4712            4906     34.1152E-03     34.3443E-03
            4731            4907     32.1098E-03     32.2585E-03
            4730            4907     32.1098E-03     32.2585E-03
            4713            4907     32.1098E-03     32.2585E-03
            4712            4907     32.1098E-03     32.2585E-03
            4713            4908     29.9145E-03     30.0158E-03
            4732            4908     29.9145E-03     30.0158E-03
            4714            4908     29.9145E-03     30.0158E-03
            4731            4908     29.9145E-03     30.0158E-03
            4714            4909     27.6115E-03     27.6893E-03
            4733            4909     27.6115E-03     27.6893E-03
            4715            4909     27.6115E-03     27.6893E-03
            4732            4909     27.6115E-03     27.6893E-03
            4716            4910     25.2616E-03     25.3273E-03
            4715            4910     25.2616E-03     25.3273E-03
            4734            4910     25.2616E-03     25.3273E-03
            4733            4910     25.2616E-03     25.3273E-03
            4734            4911     22.8993E-03     22.9698E-03
            4716            4911     22.8993E-03     22.9698E-03
            4717            4911     22.8993E-03     22.9698E-03
            4735            4911     22.8993E-03     22.9698E-03
            4736            4912     20.5642E-03     20.6494E-03
            4718            4912     20.5642E-03     20.6494E-03
            4735            4912     20.5642E-03     20.6494E-03
            4717            4912     20.5642E-03     20.6494E-03
            4719            4913     18.2742E-03     18.4029E-03
            4718            4913     18.2742E-03     18.4029E-03
            4737            4913     18.2742E-03     18.4029E-03
            4736            4913     18.2742E-03     18.4029E-03
            4719            4914     16.0704E-03     16.2779E-03
            4738            4914     16.0704E-03     16.2779E-03
            4720            4914     16.0704E-03     16.2779E-03
            4737            4914     16.0704E-03     16.2779E-03
            4721            4915     13.9804E-03     14.3381E-03
            4739            4915     13.9804E-03     14.3381E-03
            4738            4915     13.9804E-03     14.3381E-03
            4720            4915     13.9804E-03     14.3381E-03
            4721            4916     12.0989E-03     12.6978E-03
            4722            4916     12.0989E-03     12.6978E-03
            4740            4916     12.0989E-03     12.6978E-03
            4739            4916     12.0989E-03     12.6978E-03
            4740            4917     10.6970E-03     11.2781E-03
            4741            4917     10.6970E-03     11.2781E-03
            4723            4917     10.6970E-03     11.2781E-03
            4722            4917     10.6970E-03     11.2781E-03
            4741            4918     9.87109E-03     10.0475E-03
            4723            4918     9.87109E-03     10.0475E-03
            4742            4918     9.87109E-03     10.0475E-03
            4724            4918     9.87109E-03     10.0475E-03
            4725            4919     36.0445E-03     36.1435E-03
            4726            4919     36.0445E-03     36.1435E-03
            4743            4919     36.0445E-03     36.1435E-03
            4744            4919     36.0445E-03     36.1435E-03
            4745            4920     35.8096E-03     35.9475E-03
            4727            4920     35.8096E-03     35.9475E-03
            4744            4920     35.8096E-03     35.9475E-03
            4726            4920     35.8096E-03     35.9475E-03
            4745            4921     35.4209E-03     35.3718E-03
            4727            4921     35.4209E-03     35.3718E-03
            4746            4921     35.4209E-03     35.3718E-03
            4728            4921     35.4209E-03     35.3718E-03
            4746            4922     34.3644E-03     34.2009E-03
            4728            4922     34.3644E-03     34.2009E-03
            4729            4922     34.3644E-03     34.2009E-03
            4747            4922     34.3644E-03     34.2009E-03
            4747            4923     32.8804E-03     32.6589E-03
            4748            4923     32.8804E-03     32.6589E-03
            4729            4923     32.8804E-03     32.6589E-03
            4730            4923     32.8804E-03     32.6589E-03
            4748            4924     31.0976E-03     30.8700E-03
            4730            4924     31.0976E-03     30.8700E-03
            4749            4924     31.0976E-03     30.8700E-03
            4731            4924     31.0976E-03     30.8700E-03
            4750            4925     29.1354E-03     28.9171E-03
            4749            4925     29.1354E-03     28.9171E-03
            4732            4925     29.1354E-03     28.9171E-03
            4731            4925     29.1354E-03     28.9171E-03
            4732            4926     27.0610E-03     26.8618E-03
            4733            4926     27.0610E-03     26.8618E-03
            4750            4926     27.0610E-03     26.8618E-03
            4751            4926     27.0610E-03     26.8618E-03
            4751            4927     24.9305E-03     24.7544E-03
            4752            4927     24.9305E-03     24.7544E-03
            4734            4927     24.9305E-03     24.7544E-03
            4733            4927     24.9305E-03     24.7544E-03
            4753            4928     22.7868E-03     22.6314E-03
            4752            4928     22.7868E-03     22.6314E-03
            4735            4928     22.7868E-03     22.6314E-03
            4734            4928     22.7868E-03     22.6314E-03
            4753            4929     20.6609E-03     20.5328E-03
            4754            4929     20.6609E-03     20.5328E-03
            4735            4929     20.6609E-03     20.5328E-03
            4736            4929     20.6609E-03     20.5328E-03
            4737            4930     18.5894E-03     18.4945E-03
            4755            4930     18.5894E-03     18.4945E-03
            4754            4930     18.5894E-03     18.4945E-03
            4736            4930     18.5894E-03     18.4945E-03
            4738            4931     16.5968E-03     16.5737E-03
            4755            4931     16.5968E-03     16.5737E-03
            4737            4931     16.5968E-03     16.5737E-03
            4756            4931     16.5968E-03     16.5737E-03
            4739            4932     14.7314E-03     14.8372E-03
            4756            4932     14.7314E-03     14.8372E-03
            4738            4932     14.7314E-03     14.8372E-03
            4757            4932     14.7314E-03     14.8372E-03
            4757            4933     13.0056E-03     13.4226E-03
            4739            4933     13.0056E-03     13.4226E-03
            4740            4933     13.0056E-03     13.4226E-03
            4758            4933     13.0056E-03     13.4226E-03
            4741            4934     11.5763E-03     12.4883E-03
            4740            4934     11.5763E-03     12.4883E-03
            4758            4934     11.5763E-03     12.4883E-03
            4759            4934     11.5763E-03     12.4883E-03
            4741            4935     10.9568E-03     11.6868E-03
            4742            4935     10.9568E-03     11.6868E-03
            4760            4935     10.9568E-03     11.6868E-03
            4759            4935     10.9568E-03     11.6868E-03
            4743            4936     33.1126E-03     32.1237E-03
            4762            4936     33.1126E-03     32.1237E-03
            4744            4936     33.1126E-03     32.1237E-03
            4761            4936     33.1126E-03     32.1237E-03
            4745            4937     33.7791E-03     32.8408E-03
            4763            4937     33.7791E-03     32.8408E-03
            4762            4937     33.7791E-03     32.8408E-03
            4744            4937     33.7791E-03     32.8408E-03
            4745            4938     33.5389E-03     32.6156E-03
            4763            4938     33.5389E-03     32.6156E-03
            4764            4938     33.5389E-03     32.6156E-03
            4746            4938     33.5389E-03     32.6156E-03
            4746            4939     32.6610E-03     31.8264E-03
            4747            4939     32.6610E-03     31.8264E-03
            4765            4939     32.6610E-03     31.8264E-03
            4764            4939     32.6610E-03     31.8264E-03
            4747            4940     31.4018E-03     30.6815E-03
            4765            4940     31.4018E-03     30.6815E-03
            4766            4940     31.4018E-03     30.6815E-03
            4748            4940     31.4018E-03     30.6815E-03
            4748            4941     29.8943E-03     29.2775E-03
            4766            4941     29.8943E-03     29.2775E-03
            4749            4941     29.8943E-03     29.2775E-03
            4767            4941     29.8943E-03     29.2775E-03
            4749            4942     28.2108E-03     27.6877E-03
            4767            4942     28.2108E-03     27.6877E-03
            4768            4942     28.2108E-03     27.6877E-03
            4750            4942     28.2108E-03     27.6877E-03
            4769            4943     26.4187E-03     25.9721E-03
            4750            4943     26.4187E-03     25.9721E-03
            4751            4943     26.4187E-03     25.9721E-03
            4768            4943     26.4187E-03     25.9721E-03
            4770            4944     24.5595E-03     24.1733E-03
            4752            4944     24.5595E-03     24.1733E-03
            4769            4944     24.5595E-03     24.1733E-03
            4751            4944     24.5595E-03     24.1733E-03
            4753            4945     22.6768E-03     22.3372E-03
            4771            4945     22.6768E-03     22.3372E-03
            4770            4945     22.6768E-03     22.3372E-03
            4752            4945     22.6768E-03     22.3372E-03
            4772            4946     20.8045E-03     20.4997E-03
            4771            4946     20.8045E-03     20.4997E-03
            4753            4946     20.8045E-03     20.4997E-03
            4754            4946     20.8045E-03     20.4997E-03
            4755            4947     18.9837E-03     18.7050E-03
            4773            4947     18.9837E-03     18.7050E-03
            4754            4947     18.9837E-03     18.7050E-03
            4772            4947     18.9837E-03     18.7050E-03
            4774            4948     17.2463E-03     17.0008E-03
            4773            4948     17.2463E-03     17.0008E-03
            4756            4948     17.2463E-03     17.0008E-03
            4755            4948     17.2463E-03     17.0008E-03
            4757            4949     15.6429E-03     15.4591E-03
            4774            4949     15.6429E-03     15.4591E-03
            4756            4949     15.6429E-03     15.4591E-03
            4775            4949     15.6429E-03     15.4591E-03
            4757            4950     14.1906E-03     14.1682E-03
            4776            4950     14.1906E-03     14.1682E-03
            4758            4950     14.1906E-03     14.1682E-03
            4775            4950     14.1906E-03     14.1682E-03
            4759            4951     12.8748E-03     13.3893E-03
            4777            4951     12.8748E-03     13.3893E-03
            4758            4951     12.8748E-03     13.3893E-03
            4776            4951     12.8748E-03     13.3893E-03
            4759            4952     11.8592E-03     13.3032E-03
            4777            4952     11.8592E-03     13.3032E-03
            4760            4952     11.8592E-03     13.3032E-03
            4778            4952     11.8592E-03     13.3032E-03
            4762            4953     31.5311E-03     32.1504E-03
            4780            4953     31.5311E-03     32.1504E-03
            4761            4953     31.5311E-03     32.1504E-03
            4779            4953     31.5311E-03     32.1504E-03
            4763            4954     28.6899E-03     28.6853E-03
            4780            4954     28.6899E-03     28.6853E-03
            4762            4954     28.6899E-03     28.6853E-03
            4781            4954     28.6899E-03     28.6853E-03
            4763            4955     26.8463E-03     26.7856E-03
            4764            4955     26.8463E-03     26.7856E-03
            4781            4955     26.8463E-03     26.7856E-03
            4782            4955     26.8463E-03     26.7856E-03
            4782            4956     25.1291E-03     25.1717E-03
            4783            4956     25.1291E-03     25.1717E-03
            4764            4956     25.1291E-03     25.1717E-03
            4765            4956     25.1291E-03     25.1717E-03
            4784            4957     23.5809E-03     23.7073E-03
            4766            4957     23.5809E-03     23.7073E-03
            4783            4957     23.5809E-03     23.7073E-03
            4765            4957     23.5809E-03     23.7073E-03
            4785            4958     22.0522E-03     22.2927E-03
            4784            4958     22.0522E-03     22.2927E-03
            4767            4958     22.0522E-03     22.2927E-03
            4766            4958     22.0522E-03     22.2927E-03
            4785            4959     20.5640E-03     20.8811E-03
            4786            4959     20.5640E-03     20.8811E-03
            4767            4959     20.5640E-03     20.8811E-03
            4768            4959     20.5640E-03     20.8811E-03
            4768            4960     19.0679E-03     19.4581E-03
            4787            4960     19.0679E-03     19.4581E-03
            4786            4960     19.0679E-03     19.4581E-03
            4769            4960     19.0679E-03     19.4581E-03
            4788            4961     17.5820E-03     18.0185E-03
            4770            4961     17.5820E-03     18.0185E-03
            4787            4961     17.5820E-03     18.0185E-03
            4769            4961     17.5820E-03     18.0185E-03
            4788            4962     16.0990E-03     16.5706E-03
            4770            4962     16.0990E-03     16.5706E-03
            4771            4962     16.0990E-03     16.5706E-03
            4789            4962     16.0990E-03     16.5706E-03
            4789            4963     14.6372E-03     15.1231E-03
            4771            4963     14.6372E-03     15.1231E-03
            4772            4963     14.6372E-03     15.1231E-03
            4790            4963     14.6372E-03     15.1231E-03
            4772            4964     13.2117E-03     13.7002E-03
            4791            4964     13.2117E-03     13.7002E-03
            4773            4964     13.2117E-03     13.7002E-03
            4790            4964     13.2117E-03     13.7002E-03
            4792            4965     11.8463E-03     12.3142E-03
            4791            4965     11.8463E-03     12.3142E-03
            4773            4965     11.8463E-03     12.3142E-03
            4774            4965     11.8463E-03     12.3142E-03
            4775            4966     10.5716E-03     11.0220E-03
            4792            4966     10.5716E-03     11.0220E-03
            4793            4966     10.5716E-03     11.0220E-03
            4774            4966     10.5716E-03     11.0220E-03
            4776            4967     9.41976E-03     9.83462E-03
            4775            4967     9.41976E-03     9.83462E-03
            4793            4967     9.41976E-03     9.83462E-03
            4794            4967     9.41976E-03     9.83462E-03
            4794            4968     8.43685E-03     8.93818E-03
            4776            4968     8.43685E-03     8.93818E-03
            4777            4968     8.43685E-03     8.93818E-03
            4795            4968     8.43685E-03     8.93818E-03
            4796            4969     7.40257E-03     8.56844E-03
            4777            4969     7.40257E-03     8.56844E-03
            4778            4969     7.40257E-03     8.56844E-03
            4795            4969     7.40257E-03     8.56844E-03
            4779            4970     31.8916E-03     32.9711E-03
            4798            4970     31.8916E-03     32.9711E-03
            4780            4970     31.8916E-03     32.9711E-03
            4797            4970     31.8916E-03     32.9711E-03
            4798            4971     25.3111E-03     26.6156E-03
            4799            4971     25.3111E-03     26.6156E-03
            4780            4971     25.3111E-03     26.6156E-03
            4781            4971     25.3111E-03     26.6156E-03
            4781            4972     21.4039E-03     22.6187E-03
            4782            4972     21.4039E-03     22.6187E-03
            4799            4972     21.4039E-03     22.6187E-03
            4800            4972     21.4039E-03     22.6187E-03
            4801            4973     18.8191E-03     19.9898E-03
            4782            4973     18.8191E-03     19.9898E-03
            4783            4973     18.8191E-03     19.9898E-03
            4800            4973     18.8191E-03     19.9898E-03
            4783            4974     16.7615E-03     17.9419E-03
            4802            4974     16.7615E-03     17.9419E-03
            4784            4974     16.7615E-03     17.9419E-03
            4801            4974     16.7615E-03     17.9419E-03
            4803            4975     15.1007E-03     16.2981E-03
            4784            4975     15.1007E-03     16.2981E-03
            4802            4975     15.1007E-03     16.2981E-03
            4785            4975     15.1007E-03     16.2981E-03
            4804            4976     13.6289E-03     14.8480E-03
            4785            4976     13.6289E-03     14.8480E-03
            4786            4976     13.6289E-03     14.8480E-03
            4803            4976     13.6289E-03     14.8480E-03
            4805            4977     12.2954E-03     13.5313E-03
            4786            4977     12.2954E-03     13.5313E-03
            4804            4977     12.2954E-03     13.5313E-03
            4787            4977     12.2954E-03     13.5313E-03
            4788            4978     11.0299E-03     12.2737E-03
            4806            4978     11.0299E-03     12.2737E-03
            4805            4978     11.0299E-03     12.2737E-03
            4787            4978     11.0299E-03     12.2737E-03
            4806            4979     9.81544E-03     11.0583E-03
            4788            4979     9.81544E-03     11.0583E-03
            4807            4979     9.81544E-03     11.0583E-03
            4789            4979     9.81544E-03     11.0583E-03
            4790            4980     8.63125E-03     9.86019E-03
            4808            4980     8.63125E-03     9.86019E-03
            4807            4980     8.63125E-03     9.86019E-03
            4789            4980     8.63125E-03     9.86019E-03
            4790            4981     7.47949E-03     8.67913E-03
            4791            4981     7.47949E-03     8.67913E-03
            4808            4981     7.47949E-03     8.67913E-03
            4809            4981     7.47949E-03     8.67913E-03
            4792            4982     6.36197E-03     7.51402E-03
            4810            4982     6.36197E-03     7.51402E-03
            4809            4982     6.36197E-03     7.51402E-03
            4791            4982     6.36197E-03     7.51402E-03
            4810            4983     5.30116E-03     6.37822E-03
            4792            4983     5.30116E-03     6.37822E-03
            4811            4983     5.30116E-03     6.37822E-03
            4793            4983     5.30116E-03     6.37822E-03
            4793            4984     4.32726E-03     5.29524E-03
            4811            4984     4.32726E-03     5.29524E-03
            4812            4984     4.32726E-03     5.29524E-03
            4794            4984     4.32726E-03     5.29524E-03
            4795            4985     3.50905E-03     4.33758E-03
            4794            4985     3.50905E-03     4.33758E-03
            4812            4985     3.50905E-03     4.33758E-03
            4813            4985     3.50905E-03     4.33758E-03
            4813            4986     3.02078E-03     3.55393E-03
            4796            4986     3.02078E-03     3.55393E-03
            4795            4986     3.02078E-03     3.55393E-03
            4814            4986     3.02078E-03     3.55393E-03
            4797            4987     30.9266E-03     31.0049E-03
            4798            4987     30.9266E-03     31.0049E-03
            4816            4987     30.9266E-03     31.0049E-03
            4815            4987     30.9266E-03     31.0049E-03
            4816            4988     26.0898E-03     26.6436E-03
            4799            4988     26.0898E-03     26.6436E-03
            4798            4988     26.0898E-03     26.6436E-03
            4817            4988     26.0898E-03     26.6436E-03
            4817            4989     21.9739E-03     22.8856E-03
            4799            4989     21.9739E-03     22.8856E-03
            4818            4989     21.9739E-03     22.8856E-03
            4800            4989     21.9739E-03     22.8856E-03
            4819            4990     19.2973E-03     20.2979E-03
            4818            4990     19.2973E-03     20.2979E-03
            4801            4990     19.2973E-03     20.2979E-03
            4800            4990     19.2973E-03     20.2979E-03
            4801            4991     17.2673E-03     18.2876E-03
            4802            4991     17.2673E-03     18.2876E-03
            4819            4991     17.2673E-03     18.2876E-03
            4820            4991     17.2673E-03     18.2876E-03
            4820            4992     15.5868E-03     16.6294E-03
            4821            4992     15.5868E-03     16.6294E-03
            4802            4992     15.5868E-03     16.6294E-03
            4803            4992     15.5868E-03     16.6294E-03
            4804            4993     14.1376E-03     15.1784E-03
            4821            4993     14.1376E-03     15.1784E-03
            4822            4993     14.1376E-03     15.1784E-03
            4803            4993     14.1376E-03     15.1784E-03
            4822            4994     12.8000E-03     13.8409E-03
            4804            4994     12.8000E-03     13.8409E-03
            4805            4994     12.8000E-03     13.8409E-03
            4823            4994     12.8000E-03     13.8409E-03
            4806            4995     11.5435E-03     12.5746E-03
            4823            4995     11.5435E-03     12.5746E-03
            4805            4995     11.5435E-03     12.5746E-03
            4824            4995     11.5435E-03     12.5746E-03
            4807            4996     10.3286E-03     11.3454E-03
            4825            4996     10.3286E-03     11.3454E-03
            4824            4996     10.3286E-03     11.3454E-03
            4806            4996     10.3286E-03     11.3454E-03
            4825            4997     9.15321E-03     10.1449E-03
            4808            4997     9.15321E-03     10.1449E-03
            4826            4997     9.15321E-03     10.1449E-03
            4807            4997     9.15321E-03     10.1449E-03
            4827            4998     8.01255E-03     8.96563E-03
            4808            4998     8.01255E-03     8.96563E-03
            4809            4998     8.01255E-03     8.96563E-03
            4826            4998     8.01255E-03     8.96563E-03
            4810            4999     6.92148E-03     7.81421E-03
            4827            4999     6.92148E-03     7.81421E-03
            4809            4999     6.92148E-03     7.81421E-03
            4828            4999     6.92148E-03     7.81421E-03
            4828            5000     5.90198E-03     6.70097E-03
            4829            5000     5.90198E-03     6.70097E-03
            4810            5000     5.90198E-03     6.70097E-03
            4811            5000     5.90198E-03     6.70097E-03
            4811            5001     4.99386E-03     5.66147E-03
            4829            5001     4.99386E-03     5.66147E-03
            4830            5001     4.99386E-03     5.66147E-03
            4812            5001     4.99386E-03     5.66147E-03
            4813            5002     4.29132E-03     4.72350E-03
            4812            5002     4.29132E-03     4.72350E-03
            4830            5002     4.29132E-03     4.72350E-03
            4831            5002     4.29132E-03     4.72350E-03
            4831            5003     3.93322E-03     3.93752E-03
            4813            5003     3.93322E-03     3.93752E-03
            4814            5003     3.93322E-03     3.93752E-03
            4832            5003     3.93322E-03     3.93752E-03
            4833            5004     28.4340E-03     28.9843E-03
            4816            5004     28.4340E-03     28.9843E-03
            4834            5004     28.4340E-03     28.9843E-03
            4815            5004     28.4340E-03     28.9843E-03
            4835            5005     25.2296E-03     25.6765E-03
            4816            5005     25.2296E-03     25.6765E-03
            4834            5005     25.2296E-03     25.6765E-03
            4817            5005     25.2296E-03     25.6765E-03
            4817            5006     22.1561E-03     22.7740E-03
            4835            5006     22.1561E-03     22.7740E-03
            4818            5006     22.1561E-03     22.7740E-03
            4836            5006     22.1561E-03     22.7740E-03
            4818            5007     19.6014E-03     20.4106E-03
            4836            5007     19.6014E-03     20.4106E-03
            4837            5007     19.6014E-03     20.4106E-03
            4819            5007     19.6014E-03     20.4106E-03
            4819            5008     17.6946E-03     18.5552E-03
            4837            5008     17.6946E-03     18.5552E-03
            4838            5008     17.6946E-03     18.5552E-03
            4820            5008     17.6946E-03     18.5552E-03
            4838            5009     16.0805E-03     16.9484E-03
            4839            5009     16.0805E-03     16.9484E-03
            4820            5009     16.0805E-03     16.9484E-03
            4821            5009     16.0805E-03     16.9484E-03
            4840            5010     14.6474E-03     15.5134E-03
            4839            5010     14.6474E-03     15.5134E-03
            4821            5010     14.6474E-03     15.5134E-03
            4822            5010     14.6474E-03     15.5134E-03
            4841            5011     13.3253E-03     14.1718E-03
            4840            5011     13.3253E-03     14.1718E-03
            4823            5011     13.3253E-03     14.1718E-03
            4822            5011     13.3253E-03     14.1718E-03
            4841            5012     12.0624E-03     12.8917E-03
            4842            5012     12.0624E-03     12.8917E-03
            4824            5012     12.0624E-03     12.8917E-03
            4823            5012     12.0624E-03     12.8917E-03
            4843            5013     10.8485E-03     11.6532E-03
            4825            5013     10.8485E-03     11.6532E-03
            4824            5013     10.8485E-03     11.6532E-03
            4842            5013     10.8485E-03     11.6532E-03
            4825            5014     9.67186E-03     10.4469E-03
            4844            5014     9.67186E-03     10.4469E-03
            4826            5014     9.67186E-03     10.4469E-03
            4843            5014     9.67186E-03     10.4469E-03
            4827            5015     8.54139E-03     9.27299E-03
            4845            5015     8.54139E-03     9.27299E-03
            4844            5015     8.54139E-03     9.27299E-03
            4826            5015     8.54139E-03     9.27299E-03
            4827            5016     7.47167E-03     8.13560E-03
            4845            5016     7.47167E-03     8.13560E-03
            4846            5016     7.47167E-03     8.13560E-03
            4828            5016     7.47167E-03     8.13560E-03
            4829            5017     6.48968E-03     7.04930E-03
            4846            5017     6.48968E-03     7.04930E-03
            4828            5017     6.48968E-03     7.04930E-03
            4847            5017     6.48968E-03     7.04930E-03
            4847            5018     5.64805E-03     6.03771E-03
            4848            5018     5.64805E-03     6.03771E-03
            4829            5018     5.64805E-03     6.03771E-03
            4830            5018     5.64805E-03     6.03771E-03
            4831            5019     5.02697E-03     5.12711E-03
            4849            5019     5.02697E-03     5.12711E-03
            4848            5019     5.02697E-03     5.12711E-03
            4830            5019     5.02697E-03     5.12711E-03
            4850            5020     4.64436E-03     4.44308E-03
            4832            5020     4.64436E-03     4.44308E-03
            4831            5020     4.64436E-03     4.44308E-03
            4849            5020     4.64436E-03     4.44308E-03
            4834            5021     26.2042E-03     26.4887E-03
            4852            5021     26.2042E-03     26.4887E-03
            4833            5021     26.2042E-03     26.4887E-03
            4851            5021     26.2042E-03     26.4887E-03
            4834            5022     23.6390E-03     24.1459E-03
            4835            5022     23.6390E-03     24.1459E-03
            4852            5022     23.6390E-03     24.1459E-03
            4853            5022     23.6390E-03     24.1459E-03
            4836            5023     21.5037E-03     22.0761E-03
            4835            5023     21.5037E-03     22.0761E-03
            4854            5023     21.5037E-03     22.0761E-03
            4853            5023     21.5037E-03     22.0761E-03
            4836            5024     19.6027E-03     20.2438E-03
            4855            5024     19.6027E-03     20.2438E-03
            4837            5024     19.6027E-03     20.2438E-03
            4854            5024     19.6027E-03     20.2438E-03
            4837            5025     17.9174E-03     18.6225E-03
            4838            5025     17.9174E-03     18.6225E-03
            4855            5025     17.9174E-03     18.6225E-03
            4856            5025     17.9174E-03     18.6225E-03
            4838            5026     16.4623E-03     17.1611E-03
            4857            5026     16.4623E-03     17.1611E-03
            4839            5026     16.4623E-03     17.1611E-03
            4856            5026     16.4623E-03     17.1611E-03
            4840            5027     15.0967E-03     15.7756E-03
            4857            5027     15.0967E-03     15.7756E-03
            4839            5027     15.0967E-03     15.7756E-03
            4858            5027     15.0967E-03     15.7756E-03
            4840            5028     13.8000E-03     14.4551E-03
            4841            5028     13.8000E-03     14.4551E-03
            4858            5028     13.8000E-03     14.4551E-03
            4859            5028     13.8000E-03     14.4551E-03
            4841            5029     12.5477E-03     13.1755E-03
            4842            5029     12.5477E-03     13.1755E-03
            4860            5029     12.5477E-03     13.1755E-03
            4859            5029     12.5477E-03     13.1755E-03
            4842            5030     11.3334E-03     11.9363E-03
            4861            5030     11.3334E-03     11.9363E-03
            4843            5030     11.3334E-03     11.9363E-03
            4860            5030     11.3334E-03     11.9363E-03
            4862            5031     10.1606E-03     10.7344E-03
            4844            5031     10.1606E-03     10.7344E-03
            4861            5031     10.1606E-03     10.7344E-03
            4843            5031     10.1606E-03     10.7344E-03
            4862            5032     9.03984E-03     9.57353E-03
            4863            5032     9.03984E-03     9.57353E-03
            4844            5032     9.03984E-03     9.57353E-03
            4845            5032     9.03984E-03     9.57353E-03
            4845            5033     7.98895E-03     8.46021E-03
            4846            5033     7.98895E-03     8.46021E-03
            4863            5033     7.98895E-03     8.46021E-03
            4864            5033     7.98895E-03     8.46021E-03
            4865            5034     7.04299E-03     7.41012E-03
            4846            5034     7.04299E-03     7.41012E-03
            4847            5034     7.04299E-03     7.41012E-03
            4864            5034     7.04299E-03     7.41012E-03
            4866            5035     6.24853E-03     6.43559E-03
            4847            5035     6.24853E-03     6.43559E-03
            4865            5035     6.24853E-03     6.43559E-03
            4848            5035     6.24853E-03     6.43559E-03
            4849            5036     5.64016E-03     5.61217E-03
            4866            5036     5.64016E-03     5.61217E-03
            4867            5036     5.64016E-03     5.61217E-03
            4848            5036     5.64016E-03     5.61217E-03
            4867            5037     5.28473E-03     5.01709E-03
            4868            5037     5.28473E-03     5.01709E-03
            4849            5037     5.28473E-03     5.01709E-03
            4850            5037     5.28473E-03     5.01709E-03
            4869            5038     23.8377E-03     24.1500E-03
            4870            5038     23.8377E-03     24.1500E-03
            4851            5038     23.8377E-03     24.1500E-03
            4852            5038     23.8377E-03     24.1500E-03
            4852            5039     21.9847E-03     22.3682E-03
            4870            5039     21.9847E-03     22.3682E-03
            4871            5039     21.9847E-03     22.3682E-03
            4853            5039     21.9847E-03     22.3682E-03
            4853            5040     20.4804E-03     21.0073E-03
            4871            5040     20.4804E-03     21.0073E-03
            4872            5040     20.4804E-03     21.0073E-03
            4854            5040     20.4804E-03     21.0073E-03
            4873            5041     19.1869E-03     19.7465E-03
            4854            5041     19.1869E-03     19.7465E-03
            4872            5041     19.1869E-03     19.7465E-03
            4855            5041     19.1869E-03     19.7465E-03
            4874            5042     17.9335E-03     18.4755E-03
            4856            5042     17.9335E-03     18.4755E-03
            4855            5042     17.9335E-03     18.4755E-03
            4873            5042     17.9335E-03     18.4755E-03
            4875            5043     16.6677E-03     17.1919E-03
            4874            5043     16.6677E-03     17.1919E-03
            4857            5043     16.6677E-03     17.1919E-03
            4856            5043     16.6677E-03     17.1919E-03
            4857            5044     15.4244E-03     15.9089E-03
            4875            5044     15.4244E-03     15.9089E-03
            4876            5044     15.4244E-03     15.9089E-03
            4858            5044     15.4244E-03     15.9089E-03
            4858            5045     14.1762E-03     14.6296E-03
            4876            5045     14.1762E-03     14.6296E-03
            4877            5045     14.1762E-03     14.6296E-03
            4859            5045     14.1762E-03     14.6296E-03
            4877            5046     12.9513E-03     13.3773E-03
            4859            5046     12.9513E-03     13.3773E-03
            4878            5046     12.9513E-03     13.3773E-03
            4860            5046     12.9513E-03     13.3773E-03
            4878            5047     11.7515E-03     12.1547E-03
            4879            5047     11.7515E-03     12.1547E-03
            4860            5047     11.7515E-03     12.1547E-03
            4861            5047     11.7515E-03     12.1547E-03
            4879            5048     10.5924E-03     10.9744E-03
            4862            5048     10.5924E-03     10.9744E-03
            4861            5048     10.5924E-03     10.9744E-03
            4880            5048     10.5924E-03     10.9744E-03
            4880            5049     9.48662E-03     9.84420E-03
            4881            5049     9.48662E-03     9.84420E-03
            4862            5049     9.48662E-03     9.84420E-03
            4863            5049     9.48662E-03     9.84420E-03
            4882            5050     8.46082E-03     8.77399E-03
            4863            5050     8.46082E-03     8.77399E-03
            4881            5050     8.46082E-03     8.77399E-03
            4864            5050     8.46082E-03     8.77399E-03
            4883            5051     7.54450E-03     7.77187E-03
            4882            5051     7.54450E-03     7.77187E-03
            4865            5051     7.54450E-03     7.77187E-03
            4864            5051     7.54450E-03     7.77187E-03
            4865            5052     6.77848E-03     6.87607E-03
            4884            5052     6.77848E-03     6.87607E-03
            4883            5052     6.77848E-03     6.87607E-03
            4866            5052     6.77848E-03     6.87607E-03
            4885            5053     6.21474E-03     6.11260E-03
            4866            5053     6.21474E-03     6.11260E-03
            4867            5053     6.21474E-03     6.11260E-03
            4884            5053     6.21474E-03     6.11260E-03
            4885            5054     5.87579E-03     5.57300E-03
            4886            5054     5.87579E-03     5.57300E-03
            4867            5054     5.87579E-03     5.57300E-03
            4868            5054     5.87579E-03     5.57300E-03
            4888            5055     21.5361E-03     21.7234E-03
            4870            5055     21.5361E-03     21.7234E-03
            4887            5055     21.5361E-03     21.7234E-03
            4869            5055     21.5361E-03     21.7234E-03
            4889            5056     20.1549E-03     20.5410E-03
            4888            5056     20.1549E-03     20.5410E-03
            4871            5056     20.1549E-03     20.5410E-03
            4870            5056     20.1549E-03     20.5410E-03
            4872            5057     19.3329E-03     19.7685E-03
            4890            5057     19.3329E-03     19.7685E-03
            4889            5057     19.3329E-03     19.7685E-03
            4871            5057     19.3329E-03     19.7685E-03
            4873            5058     18.5745E-03     19.0152E-03
            4890            5058     18.5745E-03     19.0152E-03
            4872            5058     18.5745E-03     19.0152E-03
            4891            5058     18.5745E-03     19.0152E-03
            4892            5059     17.7168E-03     18.1029E-03
            4874            5059     17.7168E-03     18.1029E-03
            4891            5059     17.7168E-03     18.1029E-03
            4873            5059     17.7168E-03     18.1029E-03
            4874            5060     16.7101E-03     17.0271E-03
            4892            5060     16.7101E-03     17.0271E-03
            4893            5060     16.7101E-03     17.0271E-03
            4875            5060     16.7101E-03     17.0271E-03
            4894            5061     15.5832E-03     15.8604E-03
            4875            5061     15.5832E-03     15.8604E-03
            4876            5061     15.5832E-03     15.8604E-03
            4893            5061     15.5832E-03     15.8604E-03
            4876            5062     14.4212E-03     14.6605E-03
            4895            5062     14.4212E-03     14.6605E-03
            4894            5062     14.4212E-03     14.6605E-03
            4877            5062     14.4212E-03     14.6605E-03
            4877            5063     13.2398E-03     13.4570E-03
            4896            5063     13.2398E-03     13.4570E-03
            4878            5063     13.2398E-03     13.4570E-03
            4895            5063     13.2398E-03     13.4570E-03
            4897            5064     12.0785E-03     12.2805E-03
            4896            5064     12.0785E-03     12.2805E-03
            4879            5064     12.0785E-03     12.2805E-03
            4878            5064     12.0785E-03     12.2805E-03
            4879            5065     10.9499E-03     11.1446E-03
            4880            5065     10.9499E-03     11.1446E-03
            4897            5065     10.9499E-03     11.1446E-03
            4898            5065     10.9499E-03     11.1446E-03
            4898            5066     9.87643E-03     10.0669E-03
            4899            5066     9.87643E-03     10.0669E-03
            4880            5066     9.87643E-03     10.0669E-03
            4881            5066     9.87643E-03     10.0669E-03
            4881            5067     8.87864E-03     9.06368E-03
            4882            5067     8.87864E-03     9.06368E-03
            4899            5067     8.87864E-03     9.06368E-03
            4900            5067     8.87864E-03     9.06368E-03
            4882            5068     7.99689E-03     8.14458E-03
            4901            5068     7.99689E-03     8.14458E-03
            4900            5068     7.99689E-03     8.14458E-03
            4883            5068     7.99689E-03     8.14458E-03
            4902            5069     7.26810E-03     7.31930E-03
            4883            5069     7.26810E-03     7.31930E-03
            4901            5069     7.26810E-03     7.31930E-03
            4884            5069     7.26810E-03     7.31930E-03
            4902            5070     6.73886E-03     6.64458E-03
            4903            5070     6.73886E-03     6.64458E-03
            4885            5070     6.73886E-03     6.64458E-03
            4884            5070     6.73886E-03     6.64458E-03
            4904            5071     6.44159E-03     6.13895E-03
            4903            5071     6.44159E-03     6.13895E-03
            4886            5071     6.44159E-03     6.13895E-03
            4885            5071     6.44159E-03     6.13895E-03
            4887            5072     19.0989E-03     19.2453E-03
            4888            5072     19.0989E-03     19.2453E-03
            4905            5072     19.0989E-03     19.2453E-03
            4906            5072     19.0989E-03     19.2453E-03
            4889            5073     18.3037E-03     18.5977E-03
            4907            5073     18.3037E-03     18.5977E-03
            4906            5073     18.3037E-03     18.5977E-03
            4888            5073     18.3037E-03     18.5977E-03
            4908            5074     18.0834E-03     18.4412E-03
            4907            5074     18.0834E-03     18.4412E-03
            4890            5074     18.0834E-03     18.4412E-03
            4889            5074     18.0834E-03     18.4412E-03
            4891            5075     17.8842E-03     18.1443E-03
            4908            5075     17.8842E-03     18.1443E-03
            4890            5075     17.8842E-03     18.1443E-03
            4909            5075     17.8842E-03     18.1443E-03
            4909            5076     17.3648E-03     17.5212E-03
            4892            5076     17.3648E-03     17.5212E-03
            4891            5076     17.3648E-03     17.5212E-03
            4910            5076     17.3648E-03     17.5212E-03
            4910            5077     16.5531E-03     16.6427E-03
            4911            5077     16.5531E-03     16.6427E-03
            4892            5077     16.5531E-03     16.6427E-03
            4893            5077     16.5531E-03     16.6427E-03
            4894            5078     15.5784E-03     15.6166E-03
            4911            5078     15.5784E-03     15.6166E-03
            4893            5078     15.5784E-03     15.6166E-03
            4912            5078     15.5784E-03     15.6166E-03
            4912            5079     14.5027E-03     14.5176E-03
            4895            5079     14.5027E-03     14.5176E-03
            4894            5079     14.5027E-03     14.5176E-03
            4913            5079     14.5027E-03     14.5176E-03
            4913            5080     13.4023E-03     13.4021E-03
            4914            5080     13.4023E-03     13.4021E-03
            4896            5080     13.4023E-03     13.4021E-03
            4895            5080     13.4023E-03     13.4021E-03
            4897            5081     12.3016E-03     12.2993E-03
            4914            5081     12.3016E-03     12.2993E-03
            4915            5081     12.3016E-03     12.2993E-03
            4896            5081     12.3016E-03     12.2993E-03
            4897            5082     11.2324E-03     11.2382E-03
            4915            5082     11.2324E-03     11.2382E-03
            4916            5082     11.2324E-03     11.2382E-03
            4898            5082     11.2324E-03     11.2382E-03
            4917            5083     10.2122E-03     10.2382E-03
            4898            5083     10.2122E-03     10.2382E-03
            4899            5083     10.2122E-03     10.2382E-03
            4916            5083     10.2122E-03     10.2382E-03
            4900            5084     9.26107E-03     9.32141E-03
            4899            5084     9.26107E-03     9.32141E-03
            4918            5084     9.26107E-03     9.32141E-03
            4917            5084     9.26107E-03     9.32141E-03
            4901            5085     8.41033E-03     8.51540E-03
            4919            5085     8.41033E-03     8.51540E-03
            4918            5085     8.41033E-03     8.51540E-03
            4900            5085     8.41033E-03     8.51540E-03
            4919            5086     7.72759E-03     7.80240E-03
            4920            5086     7.72759E-03     7.80240E-03
            4901            5086     7.72759E-03     7.80240E-03
            4902            5086     7.72759E-03     7.80240E-03
            4920            5087     7.23666E-03     7.18109E-03
            4903            5087     7.23666E-03     7.18109E-03
            4921            5087     7.23666E-03     7.18109E-03
            4902            5087     7.23666E-03     7.18109E-03
            4922            5088     6.96569E-03     6.76570E-03
            4921            5088     6.96569E-03     6.76570E-03
            4904            5088     6.96569E-03     6.76570E-03
            4903            5088     6.96569E-03     6.76570E-03
            4905            5089     16.5680E-03     16.5907E-03
            4923            5089     16.5680E-03     16.5907E-03
            4906            5089     16.5680E-03     16.5907E-03
            4924            5089     16.5680E-03     16.5907E-03
            4906            5090     16.3465E-03     16.5901E-03
            4924            5090     16.3465E-03     16.5901E-03
            4907            5090     16.3465E-03     16.5901E-03
            4925            5090     16.3465E-03     16.5901E-03
            4925            5091     16.9293E-03     17.0538E-03
            4907            5091     16.9293E-03     17.0538E-03
            4908            5091     16.9293E-03     17.0538E-03
            4926            5091     16.9293E-03     17.0538E-03
            4908            5092     17.1596E-03     17.1227E-03
            4909            5092     17.1596E-03     17.1227E-03
            4926            5092     17.1596E-03     17.1227E-03
            4927            5092     17.1596E-03     17.1227E-03
            4928            5093     16.8573E-03     16.7220E-03
            4927            5093     16.8573E-03     16.7220E-03
            4910            5093     16.8573E-03     16.7220E-03
            4909            5093     16.8573E-03     16.7220E-03
            4910            5094     16.2256E-03     16.0335E-03
            4929            5094     16.2256E-03     16.0335E-03
            4928            5094     16.2256E-03     16.0335E-03
            4911            5094     16.2256E-03     16.0335E-03
            4912            5095     15.3806E-03     15.1664E-03
            4930            5095     15.3806E-03     15.1664E-03
            4929            5095     15.3806E-03     15.1664E-03
            4911            5095     15.3806E-03     15.1664E-03
            4930            5096     14.4329E-03     14.2087E-03
            4912            5096     14.4329E-03     14.2087E-03
            4913            5096     14.4329E-03     14.2087E-03
            4931            5096     14.4329E-03     14.2087E-03
            4932            5097     13.4339E-03     13.2150E-03
            4914            5097     13.4339E-03     13.2150E-03
            4913            5097     13.4339E-03     13.2150E-03
            4931            5097     13.4339E-03     13.2150E-03
            4914            5098     12.4328E-03     12.2259E-03
            4933            5098     12.4328E-03     12.2259E-03
            4915            5098     12.4328E-03     12.2259E-03
            4932            5098     12.4328E-03     12.2259E-03
            4915            5099     11.4522E-03     11.2681E-03
            4934            5099     11.4522E-03     11.2681E-03
            4916            5099     11.4522E-03     11.2681E-03
            4933            5099     11.4522E-03     11.2681E-03
            4917            5100     10.5128E-03     10.3706E-03
            4934            5100     10.5128E-03     10.3706E-03
            4935            5100     10.5128E-03     10.3706E-03
            4916            5100     10.5128E-03     10.3706E-03
            4918            5101     9.63584E-03     9.55773E-03
            4935            5101     9.63584E-03     9.55773E-03
            4917            5101     9.63584E-03     9.55773E-03
            4936            5101     9.63584E-03     9.55773E-03
            4937            5102     8.83177E-03     8.86286E-03
            4936            5102     8.83177E-03     8.86286E-03
            4918            5102     8.83177E-03     8.86286E-03
            4919            5102     8.83177E-03     8.86286E-03
            4919            5103     8.15002E-03     8.32433E-03
            4937            5103     8.15002E-03     8.32433E-03
            4938            5103     8.15002E-03     8.32433E-03
            4920            5103     8.15002E-03     8.32433E-03
            4921            5104     7.72315E-03     7.83548E-03
            4938            5104     7.72315E-03     7.83548E-03
            4939            5104     7.72315E-03     7.83548E-03
            4920            5104     7.72315E-03     7.83548E-03
            4922            5105     7.50313E-03     7.35932E-03
            4940            5105     7.50313E-03     7.35932E-03
            4921            5105     7.50313E-03     7.35932E-03
            4939            5105     7.50313E-03     7.35932E-03
            4924            5106     13.8258E-03     13.7674E-03
            4941            5106     13.8258E-03     13.7674E-03
            4923            5106     13.8258E-03     13.7674E-03
            4942            5106     13.8258E-03     13.7674E-03
            4925            5107     14.6457E-03     14.5313E-03
            4942            5107     14.6457E-03     14.5313E-03
            4943            5107     14.6457E-03     14.5313E-03
            4924            5107     14.6457E-03     14.5313E-03
            4925            5108     15.9301E-03     15.5763E-03
            4944            5108     15.9301E-03     15.5763E-03
            4943            5108     15.9301E-03     15.5763E-03
            4926            5108     15.9301E-03     15.5763E-03
            4927            5109     16.3216E-03     15.8575E-03
            4926            5109     16.3216E-03     15.8575E-03
            4944            5109     16.3216E-03     15.8575E-03
            4945            5109     16.3216E-03     15.8575E-03
            4946            5110     16.1800E-03     15.6847E-03
            4928            5110     16.1800E-03     15.6847E-03
            4945            5110     16.1800E-03     15.6847E-03
            4927            5110     16.1800E-03     15.6847E-03
            4929            5111     15.7019E-03     15.2048E-03
            4928            5111     15.7019E-03     15.2048E-03
            4947            5111     15.7019E-03     15.2048E-03
            4946            5111     15.7019E-03     15.2048E-03
            4947            5112     15.0202E-03     14.5388E-03
            4930            5112     15.0202E-03     14.5388E-03
            4929            5112     15.0202E-03     14.5388E-03
            4948            5112     15.0202E-03     14.5388E-03
            4949            5113     14.2233E-03     13.7660E-03
            4948            5113     14.2233E-03     13.7660E-03
            4931            5113     14.2233E-03     13.7660E-03
            4930            5113     14.2233E-03     13.7660E-03
            4949            5114     13.3712E-03     12.9393E-03
            4950            5114     13.3712E-03     12.9393E-03
            4931            5114     13.3712E-03     12.9393E-03
            4932            5114     13.3712E-03     12.9393E-03
            4933            5115     12.5000E-03     12.0993E-03
            4932            5115     12.5000E-03     12.0993E-03
            4951            5115     12.5000E-03     12.0993E-03
            4950            5115     12.5000E-03     12.0993E-03
            4951            5116     11.6409E-03     11.2772E-03
            4934            5116     11.6409E-03     11.2772E-03
            4933            5116     11.6409E-03     11.2772E-03
            4952            5116     11.6409E-03     11.2772E-03
            4953            5117     10.8130E-03     10.4991E-03
            4934            5117     10.8130E-03     10.4991E-03
            4935            5117     10.8130E-03     10.4991E-03
            4952            5117     10.8130E-03     10.4991E-03
            4953            5118     10.0309E-03     9.79943E-03
            4954            5118     10.0309E-03     9.79943E-03
            4935            5118     10.0309E-03     9.79943E-03
            4936            5118     10.0309E-03     9.79943E-03
            4937            5119     9.31381E-03     9.20575E-03
            4955            5119     9.31381E-03     9.20575E-03
            4954            5119     9.31381E-03     9.20575E-03
            4936            5119     9.31381E-03     9.20575E-03
            4955            5120     8.64812E-03     8.78712E-03
            4937            5120     8.64812E-03     8.78712E-03
            4938            5120     8.64812E-03     8.78712E-03
            4956            5120     8.64812E-03     8.78712E-03
            4956            5121     8.11953E-03     8.57986E-03
            4957            5121     8.11953E-03     8.57986E-03
            4939            5121     8.11953E-03     8.57986E-03
            4938            5121     8.11953E-03     8.57986E-03
            4957            5122     8.00699E-03     8.30238E-03
            4958            5122     8.00699E-03     8.30238E-03
            4940            5122     8.00699E-03     8.30238E-03
            4939            5122     8.00699E-03     8.30238E-03
            4941            5123     11.5451E-03     10.7535E-03
            4960            5123     11.5451E-03     10.7535E-03
            4959            5123     11.5451E-03     10.7535E-03
            4942            5123     11.5451E-03     10.7535E-03
            4961            5124     13.5366E-03     12.4908E-03
            4943            5124     13.5366E-03     12.4908E-03
            4942            5124     13.5366E-03     12.4908E-03
            4960            5124     13.5366E-03     12.4908E-03
            4944            5125     14.8428E-03     13.7952E-03
            4943            5125     14.8428E-03     13.7952E-03
            4962            5125     14.8428E-03     13.7952E-03
            4961            5125     14.8428E-03     13.7952E-03
            4963            5126     15.2879E-03     14.3308E-03
            4944            5126     15.2879E-03     14.3308E-03
            4962            5126     15.2879E-03     14.3308E-03
            4945            5126     15.2879E-03     14.3308E-03
            4963            5127     15.3098E-03     14.4335E-03
            4964            5127     15.3098E-03     14.4335E-03
            4946            5127     15.3098E-03     14.4335E-03
            4945            5127     15.3098E-03     14.4335E-03
            4964            5128     15.0199E-03     14.2240E-03
            4947            5128     15.0199E-03     14.2240E-03
            4946            5128     15.0199E-03     14.2240E-03
            4965            5128     15.0199E-03     14.2240E-03
            4947            5129     14.5469E-03     13.8183E-03
            4965            5129     14.5469E-03     13.8183E-03
            4948            5129     14.5469E-03     13.8183E-03
            4966            5129     14.5469E-03     13.8183E-03
            4966            5130     13.9468E-03     13.2755E-03
            4948            5130     13.9468E-03     13.2755E-03
            4967            5130     13.9468E-03     13.2755E-03
            4949            5130     13.9468E-03     13.2755E-03
            4967            5131     13.2736E-03     12.6563E-03
            4968            5131     13.2736E-03     12.6563E-03
            4950            5131     13.2736E-03     12.6563E-03
            4949            5131     13.2736E-03     12.6563E-03
            4968            5132     12.5649E-03     11.9950E-03
            4950            5132     12.5649E-03     11.9950E-03
            4969            5132     12.5649E-03     11.9950E-03
            4951            5132     12.5649E-03     11.9950E-03
            4970            5133     11.8469E-03     11.3289E-03
            4952            5133     11.8469E-03     11.3289E-03
            4969            5133     11.8469E-03     11.3289E-03
            4951            5133     11.8469E-03     11.3289E-03
            4971            5134     11.1489E-03     10.6843E-03
            4970            5134     11.1489E-03     10.6843E-03
            4953            5134     11.1489E-03     10.6843E-03
            4952            5134     11.1489E-03     10.6843E-03
            4971            5135     10.4833E-03     10.0912E-03
            4953            5135     10.4833E-03     10.0912E-03
            4972            5135     10.4833E-03     10.0912E-03
            4954            5135     10.4833E-03     10.0912E-03
            4954            5136     9.87336E-03     9.58433E-03
            4973            5136     9.87336E-03     9.58433E-03
            4955            5136     9.87336E-03     9.58433E-03
            4972            5136     9.87336E-03     9.58433E-03
            4956            5137     9.31044E-03     9.19744E-03
            4974            5137     9.31044E-03     9.19744E-03
            4955            5137     9.31044E-03     9.19744E-03
            4973            5137     9.31044E-03     9.19744E-03
            4957            5138     8.75700E-03     9.07275E-03
            4974            5138     8.75700E-03     9.07275E-03
            4956            5138     8.75700E-03     9.07275E-03
            4975            5138     8.75700E-03     9.07275E-03
            4958            5139     8.31277E-03     9.24933E-03
            4975            5139     8.31277E-03     9.24933E-03
            4957            5139     8.31277E-03     9.24933E-03
            4976            5139     8.31277E-03     9.24933E-03
            4978            5140     10.0914E-03     10.5134E-03
            4977            5140     10.0914E-03     10.5134E-03
            4960            5140     10.0914E-03     10.5134E-03
            4959            5140     10.0914E-03     10.5134E-03
            4960            5141     9.61972E-03     9.62453E-03
            4978            5141     9.61972E-03     9.62453E-03
            4979            5141     9.61972E-03     9.62453E-03
            4961            5141     9.61972E-03     9.62453E-03
            4962            5142     9.89335E-03     9.88876E-03
            4961            5142     9.89335E-03     9.88876E-03
            4979            5142     9.89335E-03     9.88876E-03
            4980            5142     9.89335E-03     9.88876E-03
            4963            5143     10.1010E-03     10.1395E-03
            4980            5143     10.1010E-03     10.1395E-03
            4981            5143     10.1010E-03     10.1395E-03
            4962            5143     10.1010E-03     10.1395E-03
            4963            5144     10.0923E-03     10.1737E-03
            4964            5144     10.0923E-03     10.1737E-03
            4982            5144     10.0923E-03     10.1737E-03
            4981            5144     10.0923E-03     10.1737E-03
            4983            5145     9.94092E-03     10.0560E-03
            4964            5145     9.94092E-03     10.0560E-03
            4982            5145     9.94092E-03     10.0560E-03
            4965            5145     9.94092E-03     10.0560E-03
            4984            5146     9.67843E-03     9.81359E-03
            4966            5146     9.67843E-03     9.81359E-03
            4965            5146     9.67843E-03     9.81359E-03
            4983            5146     9.67843E-03     9.81359E-03
            4984            5147     9.36185E-03     9.50439E-03
            4967            5147     9.36185E-03     9.50439E-03
            4985            5147     9.36185E-03     9.50439E-03
            4966            5147     9.36185E-03     9.50439E-03
            4986            5148     9.00663E-03     9.14551E-03
            4968            5148     9.00663E-03     9.14551E-03
            4967            5148     9.00663E-03     9.14551E-03
            4985            5148     9.00663E-03     9.14551E-03
            4969            5149     8.64046E-03     8.76863E-03
            4986            5149     8.64046E-03     8.76863E-03
            4987            5149     8.64046E-03     8.76863E-03
            4968            5149     8.64046E-03     8.76863E-03
            4988            5150     8.27399E-03     8.38504E-03
            4987            5150     8.27399E-03     8.38504E-03
            4969            5150     8.27399E-03     8.38504E-03
            4970            5150     8.27399E-03     8.38504E-03
            4971            5151     7.92392E-03     8.01598E-03
            4988            5151     7.92392E-03     8.01598E-03
            4989            5151     7.92392E-03     8.01598E-03
            4970            5151     7.92392E-03     8.01598E-03
            4989            5152     7.59715E-03     7.66687E-03
            4971            5152     7.59715E-03     7.66687E-03
            4990            5152     7.59715E-03     7.66687E-03
            4972            5152     7.59715E-03     7.66687E-03
            4991            5153     7.31367E-03     7.36816E-03
            4973            5153     7.31367E-03     7.36816E-03
            4972            5153     7.31367E-03     7.36816E-03
            4990            5153     7.31367E-03     7.36816E-03
            4974            5154     7.05387E-03     7.08717E-03
            4991            5154     7.05387E-03     7.08717E-03
            4973            5154     7.05387E-03     7.08717E-03
            4992            5154     7.05387E-03     7.08717E-03
            4975            5155     6.81556E-03     6.98001E-03
            4992            5155     6.81556E-03     6.98001E-03
            4974            5155     6.81556E-03     6.98001E-03
            4993            5155     6.81556E-03     6.98001E-03
            4975            5156     6.32899E-03     7.11719E-03
            4976            5156     6.32899E-03     7.11719E-03
            4994            5156     6.32899E-03     7.11719E-03
            4993            5156     6.32899E-03     7.11719E-03
            4996            5157     9.19416E-03     10.2052E-03
            4977            5157     9.19416E-03     10.2052E-03
            4995            5157     9.19416E-03     10.2052E-03
            4978            5157     9.19416E-03     10.2052E-03
            4997            5158     6.49613E-03     7.63315E-03
            4978            5158     6.49613E-03     7.63315E-03
            4996            5158     6.49613E-03     7.63315E-03
            4979            5158     6.49613E-03     7.63315E-03
            4997            5159     5.86455E-03     6.95412E-03
            4998            5159     5.86455E-03     6.95412E-03
            4979            5159     5.86455E-03     6.95412E-03
            4980            5159     5.86455E-03     6.95412E-03
            4998            5160     5.79204E-03     6.76063E-03
            4999            5160     5.79204E-03     6.76063E-03
            4980            5160     5.79204E-03     6.76063E-03
            4981            5160     5.79204E-03     6.76063E-03
            5000            5161     5.60326E-03     6.52762E-03
            4981            5161     5.60326E-03     6.52762E-03
            4982            5161     5.60326E-03     6.52762E-03
            4999            5161     5.60326E-03     6.52762E-03
            4983            5162     5.43239E-03     6.31916E-03
            5001            5162     5.43239E-03     6.31916E-03
            5000            5162     5.43239E-03     6.31916E-03
            4982            5162     5.43239E-03     6.31916E-03
            5002            5163     5.25767E-03     6.10096E-03
            4983            5163     5.25767E-03     6.10096E-03
            5001            5163     5.25767E-03     6.10096E-03
            4984            5163     5.25767E-03     6.10096E-03
            4984            5164     5.09784E-03     5.89710E-03
            5003            5164     5.09784E-03     5.89710E-03
            5002            5164     5.09784E-03     5.89710E-03
            4985            5164     5.09784E-03     5.89710E-03
            5004            5165     4.96002E-03     5.70054E-03
            4985            5165     4.96002E-03     5.70054E-03
            5003            5165     4.96002E-03     5.70054E-03
            4986            5165     4.96002E-03     5.70054E-03
            4986            5166     4.83930E-03     5.52139E-03
            4987            5166     4.83930E-03     5.52139E-03
            5005            5166     4.83930E-03     5.52139E-03
            5004            5166     4.83930E-03     5.52139E-03
            4988            5167     4.74053E-03     5.35212E-03
            4987            5167     4.74053E-03     5.35212E-03
            5006            5167     4.74053E-03     5.35212E-03
            5005            5167     4.74053E-03     5.35212E-03
            4988            5168     4.66071E-03     5.20126E-03
            5006            5168     4.66071E-03     5.20126E-03
            4989            5168     4.66071E-03     5.20126E-03
            5007            5168     4.66071E-03     5.20126E-03
            4989            5169     4.60047E-03     5.06013E-03
            5008            5169     4.60047E-03     5.06013E-03
            4990            5169     4.60047E-03     5.06013E-03
            5007            5169     4.60047E-03     5.06013E-03
            4991            5170     4.56662E-03     4.94256E-03
            5008            5170     4.56662E-03     4.94256E-03
            5009            5170     4.56662E-03     4.94256E-03
            4990            5170     4.56662E-03     4.94256E-03
            5010            5171     4.55277E-03     4.82019E-03
            5009            5171     4.55277E-03     4.82019E-03
            4991            5171     4.55277E-03     4.82019E-03
            4992            5171     4.55277E-03     4.82019E-03
            4992            5172     4.52752E-03     4.74025E-03
            5011            5172     4.52752E-03     4.74025E-03
            4993            5172     4.52752E-03     4.74025E-03
            5010            5172     4.52752E-03     4.74025E-03
            4994            5173     4.51458E-03     4.75331E-03
            4993            5173     4.51458E-03     4.75331E-03
            5012            5173     4.51458E-03     4.75331E-03
            5011            5173     4.51458E-03     4.75331E-03
            4995            5174     7.31183E-03     7.26397E-03
            5013            5174     7.31183E-03     7.26397E-03
            4996            5174     7.31183E-03     7.26397E-03
            5014            5174     7.31183E-03     7.26397E-03
            5015            5175     6.59420E-03     7.00825E-03
            4996            5175     6.59420E-03     7.00825E-03
            4997            5175     6.59420E-03     7.00825E-03
            5014            5175     6.59420E-03     7.00825E-03
            4997            5176     6.55548E-03     6.93057E-03
            5015            5176     6.55548E-03     6.93057E-03
            5016            5176     6.55548E-03     6.93057E-03
            4998            5176     6.55548E-03     6.93057E-03
            4999            5177     6.33224E-03     6.68420E-03
            4998            5177     6.33224E-03     6.68420E-03
            5016            5177     6.33224E-03     6.68420E-03
            5017            5177     6.33224E-03     6.68420E-03
            5017            5178     6.07118E-03     6.40906E-03
            4999            5178     6.07118E-03     6.40906E-03
            5018            5178     6.07118E-03     6.40906E-03
            5000            5178     6.07118E-03     6.40906E-03
            5000            5179     5.83181E-03     6.15704E-03
            5018            5179     5.83181E-03     6.15704E-03
            5001            5179     5.83181E-03     6.15704E-03
            5019            5179     5.83181E-03     6.15704E-03
            5020            5180     5.63317E-03     5.94387E-03
            5001            5180     5.63317E-03     5.94387E-03
            5019            5180     5.63317E-03     5.94387E-03
            5002            5180     5.63317E-03     5.94387E-03
            5003            5181     5.46097E-03     5.75181E-03
            5021            5181     5.46097E-03     5.75181E-03
            5002            5181     5.46097E-03     5.75181E-03
            5020            5181     5.46097E-03     5.75181E-03
            5004            5182     5.30998E-03     5.58223E-03
            5003            5182     5.30998E-03     5.58223E-03
            5022            5182     5.30998E-03     5.58223E-03
            5021            5182     5.30998E-03     5.58223E-03
            5022            5183     5.17722E-03     5.42514E-03
            5005            5183     5.17722E-03     5.42514E-03
            5004            5183     5.17722E-03     5.42514E-03
            5023            5183     5.17722E-03     5.42514E-03
            5005            5184     5.06086E-03     5.28520E-03
            5023            5184     5.06086E-03     5.28520E-03
            5006            5184     5.06086E-03     5.28520E-03
            5024            5184     5.06086E-03     5.28520E-03
            5006            5185     4.96113E-03     5.15732E-03
            5025            5185     4.96113E-03     5.15732E-03
            5007            5185     4.96113E-03     5.15732E-03
            5024            5185     4.96113E-03     5.15732E-03
            5007            5186     4.88236E-03     5.04894E-03
            5025            5186     4.88236E-03     5.04894E-03
            5008            5186     4.88236E-03     5.04894E-03
            5026            5186     4.88236E-03     5.04894E-03
            5027            5187     4.81792E-03     4.95794E-03
            5008            5187     4.81792E-03     4.95794E-03
            5026            5187     4.81792E-03     4.95794E-03
            5009            5187     4.81792E-03     4.95794E-03
            5010            5188     4.77835E-03     4.91092E-03
            5009            5188     4.77835E-03     4.91092E-03
            5028            5188     4.77835E-03     4.91092E-03
            5027            5188     4.77835E-03     4.91092E-03
            5011            5189     4.84590E-03     4.81766E-03
            5028            5189     4.84590E-03     4.81766E-03
            5010            5189     4.84590E-03     4.81766E-03
            5029            5189     4.84590E-03     4.81766E-03
            5030            5190     5.02343E-03     4.55929E-03
            5029            5190     5.02343E-03     4.55929E-03
            5011            5190     5.02343E-03     4.55929E-03
            5012            5190     5.02343E-03     4.55929E-03
            5013            5191     4.81203E-03     4.81303E-03
            5032            5191     4.81203E-03     4.81303E-03
            5031            5191     4.81203E-03     4.81303E-03
            5014            5191     4.81203E-03     4.81303E-03
            5014            5192     5.98105E-03     5.86358E-03
            5032            5192     5.98105E-03     5.86358E-03
            5033            5192     5.98105E-03     5.86358E-03
            5015            5192     5.98105E-03     5.86358E-03
            5015            5193     6.89584E-03     6.58770E-03
            5016            5193     6.89584E-03     6.58770E-03
            5034            5193     6.89584E-03     6.58770E-03
            5033            5193     6.89584E-03     6.58770E-03
            5016            5194     6.67642E-03     6.41423E-03
            5035            5194     6.67642E-03     6.41423E-03
            5034            5194     6.67642E-03     6.41423E-03
            5017            5194     6.67642E-03     6.41423E-03
            5017            5195     6.43832E-03     6.20011E-03
            5035            5195     6.43832E-03     6.20011E-03
            5018            5195     6.43832E-03     6.20011E-03
            5036            5195     6.43832E-03     6.20011E-03
            5036            5196     6.19990E-03     5.97284E-03
            5019            5196     6.19990E-03     5.97284E-03
            5037            5196     6.19990E-03     5.97284E-03
            5018            5196     6.19990E-03     5.97284E-03
            5037            5197     6.00160E-03     5.78800E-03
            5038            5197     6.00160E-03     5.78800E-03
            5020            5197     6.00160E-03     5.78800E-03
            5019            5197     6.00160E-03     5.78800E-03
            5039            5198     5.83007E-03     5.63188E-03
            5038            5198     5.83007E-03     5.63188E-03
            5020            5198     5.83007E-03     5.63188E-03
            5021            5198     5.83007E-03     5.63188E-03
            5021            5199     5.67466E-03     5.49232E-03
            5040            5199     5.67466E-03     5.49232E-03
            5039            5199     5.67466E-03     5.49232E-03
            5022            5199     5.67466E-03     5.49232E-03
            5022            5200     5.53403E-03     5.36835E-03
            5041            5200     5.53403E-03     5.36835E-03
            5040            5200     5.53403E-03     5.36835E-03
            5023            5200     5.53403E-03     5.36835E-03
            5023            5201     5.40525E-03     5.25753E-03
            5041            5201     5.40525E-03     5.25753E-03
            5042            5201     5.40525E-03     5.25753E-03
            5024            5201     5.40525E-03     5.25753E-03
            5025            5202     5.29056E-03     5.16036E-03
            5042            5202     5.29056E-03     5.16036E-03
            5024            5202     5.29056E-03     5.16036E-03
            5043            5202     5.29056E-03     5.16036E-03
            5025            5203     5.19088E-03     5.08100E-03
            5044            5203     5.19088E-03     5.08100E-03
            5026            5203     5.19088E-03     5.08100E-03
            5043            5203     5.19088E-03     5.08100E-03
            5045            5204     5.10608E-03     5.02008E-03
            5027            5204     5.10608E-03     5.02008E-03
            5026            5204     5.10608E-03     5.02008E-03
            5044            5204     5.10608E-03     5.02008E-03
            5027            5205     5.03712E-03     5.00122E-03
            5028            5205     5.03712E-03     5.00122E-03
            5046            5205     5.03712E-03     5.00122E-03
            5045            5205     5.03712E-03     5.00122E-03
            5028            5206     5.06005E-03     4.96027E-03
            5046            5206     5.06005E-03     4.96027E-03
            5047            5206     5.06005E-03     4.96027E-03
            5029            5206     5.06005E-03     4.96027E-03
            5048            5207     5.21251E-03     4.76602E-03
            5047            5207     5.21251E-03     4.76602E-03
            5029            5207     5.21251E-03     4.76602E-03
            5030            5207     5.21251E-03     4.76602E-03
            5049            5208     3.76837E-03     3.83314E-03
            5031            5208     3.76837E-03     3.83314E-03
            5050            5208     3.76837E-03     3.83314E-03
            5032            5208     3.76837E-03     3.83314E-03
            5050            5209     5.37605E-03     4.42784E-03
            5051            5209     5.37605E-03     4.42784E-03
            5032            5209     5.37605E-03     4.42784E-03
            5033            5209     5.37605E-03     4.42784E-03
            5034            5210     6.50243E-03     5.57492E-03
            5051            5210     6.50243E-03     5.57492E-03
            5052            5210     6.50243E-03     5.57492E-03
            5033            5210     6.50243E-03     5.57492E-03
            5052            5211     6.76790E-03     5.88577E-03
            5034            5211     6.76790E-03     5.88577E-03
            5053            5211     6.76790E-03     5.88577E-03
            5035            5211     6.76790E-03     5.88577E-03
            5053            5212     6.67630E-03     5.86268E-03
            5035            5212     6.67630E-03     5.86268E-03
            5036            5212     6.67630E-03     5.86268E-03
            5054            5212     6.67630E-03     5.86268E-03
            5037            5213     6.53349E-03     5.76553E-03
            5054            5213     6.53349E-03     5.76553E-03
            5055            5213     6.53349E-03     5.76553E-03
            5036            5213     6.53349E-03     5.76553E-03
            5055            5214     6.36929E-03     5.65475E-03
            5037            5214     6.36929E-03     5.65475E-03
            5056            5214     6.36929E-03     5.65475E-03
            5038            5214     6.36929E-03     5.65475E-03
            5039            5215     6.20940E-03     5.54630E-03
            5038            5215     6.20940E-03     5.54630E-03
            5057            5215     6.20940E-03     5.54630E-03
            5056            5215     6.20940E-03     5.54630E-03
            5057            5216     6.05663E-03     5.44554E-03
            5058            5216     6.05663E-03     5.44554E-03
            5040            5216     6.05663E-03     5.44554E-03
            5039            5216     6.05663E-03     5.44554E-03
            5040            5217     5.90954E-03     5.35604E-03
            5059            5217     5.90954E-03     5.35604E-03
            5041            5217     5.90954E-03     5.35604E-03
            5058            5217     5.90954E-03     5.35604E-03
            5059            5218     5.77181E-03     5.27620E-03
            5060            5218     5.77181E-03     5.27620E-03
            5041            5218     5.77181E-03     5.27620E-03
            5042            5218     5.77181E-03     5.27620E-03
            5060            5219     5.64361E-03     5.21220E-03
            5042            5219     5.64361E-03     5.21220E-03
            5061            5219     5.64361E-03     5.21220E-03
            5043            5219     5.64361E-03     5.21220E-03
            5043            5220     5.52451E-03     5.15807E-03
            5061            5220     5.52451E-03     5.15807E-03
            5062            5220     5.52451E-03     5.15807E-03
            5044            5220     5.52451E-03     5.15807E-03
            5044            5221     5.42268E-03     5.12814E-03
            5045            5221     5.42268E-03     5.12814E-03
            5063            5221     5.42268E-03     5.12814E-03
            5062            5221     5.42268E-03     5.12814E-03
            5045            5222     5.32859E-03     5.09619E-03
            5063            5222     5.32859E-03     5.09619E-03
            5064            5222     5.32859E-03     5.09619E-03
            5046            5222     5.32859E-03     5.09619E-03
            5047            5223     5.20461E-03     5.13269E-03
            5065            5223     5.20461E-03     5.13269E-03
            5064            5223     5.20461E-03     5.13269E-03
            5046            5223     5.20461E-03     5.13269E-03
            5066            5224     5.08834E-03     5.29073E-03
            5065            5224     5.08834E-03     5.29073E-03
            5047            5224     5.08834E-03     5.29073E-03
            5048            5224     5.08834E-03     5.29073E-03
            5175            5310     90.1265E-03     91.8291E-03
            5194            5310     90.1265E-03     91.8291E-03
            5176            5310     90.1265E-03     91.8291E-03
            5193            5310     90.1265E-03     91.8291E-03
            5194            5311     80.7018E-03     83.1611E-03
            5176            5311     80.7018E-03     83.1611E-03
            5177            5311     80.7018E-03     83.1611E-03
            5195            5311     80.7018E-03     83.1611E-03
            5177            5312     74.3495E-03     76.8750E-03
            5196            5312     74.3495E-03     76.8750E-03
            5178            5312     74.3495E-03     76.8750E-03
            5195            5312     74.3495E-03     76.8750E-03
            5197            5313     69.2264E-03     71.7696E-03
            5179            5313     69.2264E-03     71.7696E-03
            5196            5313     69.2264E-03     71.7696E-03
            5178            5313     69.2264E-03     71.7696E-03
            5198            5314     64.1846E-03     66.8111E-03
            5180            5314     64.1846E-03     66.8111E-03
            5197            5314     64.1846E-03     66.8111E-03
            5179            5314     64.1846E-03     66.8111E-03
            5181            5315     59.2802E-03     61.9412E-03
            5199            5315     59.2802E-03     61.9412E-03
            5180            5315     59.2802E-03     61.9412E-03
            5198            5315     59.2802E-03     61.9412E-03
            5182            5316     54.3299E-03     57.0072E-03
            5199            5316     54.3299E-03     57.0072E-03
            5181            5316     54.3299E-03     57.0072E-03
            5200            5316     54.3299E-03     57.0072E-03
            5182            5317     49.3625E-03     52.0511E-03
            5183            5317     49.3625E-03     52.0511E-03
            5200            5317     49.3625E-03     52.0511E-03
            5201            5317     49.3625E-03     52.0511E-03
            5201            5318     44.3589E-03     47.0469E-03
            5183            5318     44.3589E-03     47.0469E-03
            5184            5318     44.3589E-03     47.0469E-03
            5202            5318     44.3589E-03     47.0469E-03
            5203            5319     39.3328E-03     42.0263E-03
            5202            5319     39.3328E-03     42.0263E-03
            5184            5319     39.3328E-03     42.0263E-03
            5185            5319     39.3328E-03     42.0263E-03
            5185            5320     34.2861E-03     36.9825E-03
            5204            5320     34.2861E-03     36.9825E-03
            5203            5320     34.2861E-03     36.9825E-03
            5186            5320     34.2861E-03     36.9825E-03
            5204            5321     29.2307E-03     31.9337E-03
            5187            5321     29.2307E-03     31.9337E-03
            5205            5321     29.2307E-03     31.9337E-03
            5186            5321     29.2307E-03     31.9337E-03
            5187            5322     24.1686E-03     26.8712E-03
            5188            5322     24.1686E-03     26.8712E-03
            5205            5322     24.1686E-03     26.8712E-03
            5206            5322     24.1686E-03     26.8712E-03
            5189            5323     19.1190E-03     21.8129E-03
            5188            5323     19.1190E-03     21.8129E-03
            5206            5323     19.1190E-03     21.8129E-03
            5207            5323     19.1190E-03     21.8129E-03
            5189            5324     14.1239E-03     16.7006E-03
            5208            5324     14.1239E-03     16.7006E-03
            5190            5324     14.1239E-03     16.7006E-03
            5207            5324     14.1239E-03     16.7006E-03
            5191            5325     9.22593E-03     11.5523E-03
            5208            5325     9.22593E-03     11.5523E-03
            5190            5325     9.22593E-03     11.5523E-03
            5209            5325     9.22593E-03     11.5523E-03
            5192            5326     4.48865E-03     6.62205E-03
            5210            5326     4.48865E-03     6.62205E-03
            5209            5326     4.48865E-03     6.62205E-03
            5191            5326     4.48865E-03     6.62205E-03
            5194            5327     90.5397E-03     91.1656E-03
            5193            5327     90.5397E-03     91.1656E-03
            5211            5327     90.5397E-03     91.1656E-03
            5212            5327     90.5397E-03     91.1656E-03
            5194            5328     83.4993E-03     85.4165E-03
            5195            5328     83.4993E-03     85.4165E-03
            5213            5328     83.4993E-03     85.4165E-03
            5212            5328     83.4993E-03     85.4165E-03
            5196            5329     76.5082E-03     78.7627E-03
            5213            5329     76.5082E-03     78.7627E-03
            5214            5329     76.5082E-03     78.7627E-03
            5195            5329     76.5082E-03     78.7627E-03
            5196            5330     70.9405E-03     73.0771E-03
            5197            5330     70.9405E-03     73.0771E-03
            5214            5330     70.9405E-03     73.0771E-03
            5215            5330     70.9405E-03     73.0771E-03
            5198            5331     65.6168E-03     67.6659E-03
            5216            5331     65.6168E-03     67.6659E-03
            5215            5331     65.6168E-03     67.6659E-03
            5197            5331     65.6168E-03     67.6659E-03
            5199            5332     60.4304E-03     62.4384E-03
            5216            5332     60.4304E-03     62.4384E-03
            5217            5332     60.4304E-03     62.4384E-03
            5198            5332     60.4304E-03     62.4384E-03
            5217            5333     55.2818E-03     57.2738E-03
            5218            5333     55.2818E-03     57.2738E-03
            5200            5333     55.2818E-03     57.2738E-03
            5199            5333     55.2818E-03     57.2738E-03
            5200            5334     50.1503E-03     52.1388E-03
            5219            5334     50.1503E-03     52.1388E-03
            5218            5334     50.1503E-03     52.1388E-03
            5201            5334     50.1503E-03     52.1388E-03
            5201            5335     45.0320E-03     47.0231E-03
            5202            5335     45.0320E-03     47.0231E-03
            5219            5335     45.0320E-03     47.0231E-03
            5220            5335     45.0320E-03     47.0231E-03
            5203            5336     39.9232E-03     41.9118E-03
            5220            5336     39.9232E-03     41.9118E-03
            5221            5336     39.9232E-03     41.9118E-03
            5202            5336     39.9232E-03     41.9118E-03
            5221            5337     34.8231E-03     36.8088E-03
            5203            5337     34.8231E-03     36.8088E-03
            5204            5337     34.8231E-03     36.8088E-03
            5222            5337     34.8231E-03     36.8088E-03
            5204            5338     29.7344E-03     31.7097E-03
            5205            5338     29.7344E-03     31.7097E-03
            5222            5338     29.7344E-03     31.7097E-03
            5223            5338     29.7344E-03     31.7097E-03
            5205            5339     24.6551E-03     26.6147E-03
            5206            5339     24.6551E-03     26.6147E-03
            5223            5339     24.6551E-03     26.6147E-03
            5224            5339     24.6551E-03     26.6147E-03
            5224            5340     19.5855E-03     21.5432E-03
            5225            5340     19.5855E-03     21.5432E-03
            5206            5340     19.5855E-03     21.5432E-03
            5207            5340     19.5855E-03     21.5432E-03
            5207            5341     14.5444E-03     16.5130E-03
            5226            5341     14.5444E-03     16.5130E-03
            5208            5341     14.5444E-03     16.5130E-03
            5225            5341     14.5444E-03     16.5130E-03
            5209            5342     9.60298E-03     11.4672E-03
            5227            5342     9.60298E-03     11.4672E-03
            5226            5342     9.60298E-03     11.4672E-03
            5208            5342     9.60298E-03     11.4672E-03
            5227            5343     4.93447E-03     6.85046E-03
            5209            5343     4.93447E-03     6.85046E-03
            5210            5343     4.93447E-03     6.85046E-03
            5228            5343     4.93447E-03     6.85046E-03
            5211            5344     87.7658E-03     89.7752E-03
            5212            5344     87.7658E-03     89.7752E-03
            5229            5344     87.7658E-03     89.7752E-03
            5230            5344     87.7658E-03     89.7752E-03
            5230            5345     83.4691E-03     85.0159E-03
            5213            5345     83.4691E-03     85.0159E-03
            5212            5345     83.4691E-03     85.0159E-03
            5231            5345     83.4691E-03     85.0159E-03
            5231            5346     77.6714E-03     79.2370E-03
            5214            5346     77.6714E-03     79.2370E-03
            5213            5346     77.6714E-03     79.2370E-03
            5232            5346     77.6714E-03     79.2370E-03
            5215            5347     71.7846E-03     73.3631E-03
            5233            5347     71.7846E-03     73.3631E-03
            5232            5347     71.7846E-03     73.3631E-03
            5214            5347     71.7846E-03     73.3631E-03
            5234            5348     66.4709E-03     67.8690E-03
            5215            5348     66.4709E-03     67.8690E-03
            5216            5348     66.4709E-03     67.8690E-03
            5233            5348     66.4709E-03     67.8690E-03
            5234            5349     61.1661E-03     62.5025E-03
            5235            5349     61.1661E-03     62.5025E-03
            5217            5349     61.1661E-03     62.5025E-03
            5216            5349     61.1661E-03     62.5025E-03
            5235            5350     55.9676E-03     57.2707E-03
            5236            5350     55.9676E-03     57.2707E-03
            5218            5350     55.9676E-03     57.2707E-03
            5217            5350     55.9676E-03     57.2707E-03
            5218            5351     50.7988E-03     52.0952E-03
            5237            5351     50.7988E-03     52.0952E-03
            5236            5351     50.7988E-03     52.0952E-03
            5219            5351     50.7988E-03     52.0952E-03
            5220            5352     45.6706E-03     46.9609E-03
            5219            5352     45.6706E-03     46.9609E-03
            5237            5352     45.6706E-03     46.9609E-03
            5238            5352     45.6706E-03     46.9609E-03
            5238            5353     40.5663E-03     41.8551E-03
            5239            5353     40.5663E-03     41.8551E-03
            5220            5353     40.5663E-03     41.8551E-03
            5221            5353     40.5663E-03     41.8551E-03
            5239            5354     35.4923E-03     36.7677E-03
            5240            5354     35.4923E-03     36.7677E-03
            5221            5354     35.4923E-03     36.7677E-03
            5222            5354     35.4923E-03     36.7677E-03
            5240            5355     30.4404E-03     31.6997E-03
            5241            5355     30.4404E-03     31.6997E-03
            5223            5355     30.4404E-03     31.6997E-03
            5222            5355     30.4404E-03     31.6997E-03
            5241            5356     25.4257E-03     26.6642E-03
            5224            5356     25.4257E-03     26.6642E-03
            5223            5356     25.4257E-03     26.6642E-03
            5242            5356     25.4257E-03     26.6642E-03
            5225            5357     20.4455E-03     21.6735E-03
            5224            5357     20.4455E-03     21.6735E-03
            5242            5357     20.4455E-03     21.6735E-03
            5243            5357     20.4455E-03     21.6735E-03
            5244            5358     15.5007E-03     16.8552E-03
            5225            5358     15.5007E-03     16.8552E-03
            5243            5358     15.5007E-03     16.8552E-03
            5226            5358     15.5007E-03     16.8552E-03
            5226            5359     10.7819E-03     12.3444E-03
            5245            5359     10.7819E-03     12.3444E-03
            5227            5359     10.7819E-03     12.3444E-03
            5244            5359     10.7819E-03     12.3444E-03
            5246            5360     7.01698E-03     7.96322E-03
            5245            5360     7.01698E-03     7.96322E-03
            5227            5360     7.01698E-03     7.96322E-03
            5228            5360     7.01698E-03     7.96322E-03
            5248            5361     85.0437E-03     85.5765E-03
            5230            5361     85.0437E-03     85.5765E-03
            5247            5361     85.0437E-03     85.5765E-03
            5229            5361     85.0437E-03     85.5765E-03
            5248            5362     81.4241E-03     82.5514E-03
            5249            5362     81.4241E-03     82.5514E-03
            5230            5362     81.4241E-03     82.5514E-03
            5231            5362     81.4241E-03     82.5514E-03
            5232            5363     76.7748E-03     77.6500E-03
            5250            5363     76.7748E-03     77.6500E-03
            5231            5363     76.7748E-03     77.6500E-03
            5249            5363     76.7748E-03     77.6500E-03
            5250            5364     71.7094E-03     72.4146E-03
            5232            5364     71.7094E-03     72.4146E-03
            5251            5364     71.7094E-03     72.4146E-03
            5233            5364     71.7094E-03     72.4146E-03
            5251            5365     66.5032E-03     67.1708E-03
            5233            5365     66.5032E-03     67.1708E-03
            5252            5365     66.5032E-03     67.1708E-03
            5234            5365     66.5032E-03     67.1708E-03
            5252            5366     61.4131E-03     62.0284E-03
            5253            5366     61.4131E-03     62.0284E-03
            5235            5366     61.4131E-03     62.0284E-03
            5234            5366     61.4131E-03     62.0284E-03
            5254            5367     56.3176E-03     56.9298E-03
            5235            5367     56.3176E-03     56.9298E-03
            5253            5367     56.3176E-03     56.9298E-03
            5236            5367     56.3176E-03     56.9298E-03
            5255            5368     51.2735E-03     51.8745E-03
            5236            5368     51.2735E-03     51.8745E-03
            5254            5368     51.2735E-03     51.8745E-03
            5237            5368     51.2735E-03     51.8745E-03
            5256            5369     46.2425E-03     46.8470E-03
            5255            5369     46.2425E-03     46.8470E-03
            5238            5369     46.2425E-03     46.8470E-03
            5237            5369     46.2425E-03     46.8470E-03
            5239            5370     41.2426E-03     41.8388E-03
            5257            5370     41.2426E-03     41.8388E-03
            5238            5370     41.2426E-03     41.8388E-03
            5256            5370     41.2426E-03     41.8388E-03
            5239            5371     36.2648E-03     36.8556E-03
            5257            5371     36.2648E-03     36.8556E-03
            5240            5371     36.2648E-03     36.8556E-03
            5258            5371     36.2648E-03     36.8556E-03
            5240            5372     31.3306E-03     31.9020E-03
            5258            5372     31.3306E-03     31.9020E-03
            5241            5372     31.3306E-03     31.9020E-03
            5259            5372     31.3306E-03     31.9020E-03
            5242            5373     26.4458E-03     27.0018E-03
            5260            5373     26.4458E-03     27.0018E-03
            5241            5373     26.4458E-03     27.0018E-03
            5259            5373     26.4458E-03     27.0018E-03
            5261            5374     21.6501E-03     22.2028E-03
            5242            5374     21.6501E-03     22.2028E-03
            5243            5374     21.6501E-03     22.2028E-03
            5260            5374     21.6501E-03     22.2028E-03
            5244            5375     16.9701E-03     17.6329E-03
            5261            5375     16.9701E-03     17.6329E-03
            5243            5375     16.9701E-03     17.6329E-03
            5262            5375     16.9701E-03     17.6329E-03
            5262            5376     12.5651E-03     13.6751E-03
            5245            5376     12.5651E-03     13.6751E-03
            5244            5376     12.5651E-03     13.6751E-03
            5263            5376     12.5651E-03     13.6751E-03
            5263            5377     9.42336E-03     10.4478E-03
            5245            5377     9.42336E-03     10.4478E-03
            5264            5377     9.42336E-03     10.4478E-03
            5246            5377     9.42336E-03     10.4478E-03
            5266            5378     80.8295E-03     80.3682E-03
            5248            5378     80.8295E-03     80.3682E-03
            5265            5378     80.8295E-03     80.3682E-03
            5247            5378     80.8295E-03     80.3682E-03
            5266            5379     78.1970E-03     77.9412E-03
            5248            5379     78.1970E-03     77.9412E-03
            5267            5379     78.1970E-03     77.9412E-03
            5249            5379     78.1970E-03     77.9412E-03
            5267            5380     74.5751E-03     74.3565E-03
            5250            5380     74.5751E-03     74.3565E-03
            5268            5380     74.5751E-03     74.3565E-03
            5249            5380     74.5751E-03     74.3565E-03
            5268            5381     70.4478E-03     70.2284E-03
            5250            5381     70.4478E-03     70.2284E-03
            5251            5381     70.4478E-03     70.2284E-03
            5269            5381     70.4478E-03     70.2284E-03
            5252            5382     65.8734E-03     65.7214E-03
            5269            5382     65.8734E-03     65.7214E-03
            5251            5382     65.8734E-03     65.7214E-03
            5270            5382     65.8734E-03     65.7214E-03
            5270            5383     61.1745E-03     61.0797E-03
            5253            5383     61.1745E-03     61.0797E-03
            5252            5383     61.1745E-03     61.0797E-03
            5271            5383     61.1745E-03     61.0797E-03
            5253            5384     56.4227E-03     56.3316E-03
            5271            5384     56.4227E-03     56.3316E-03
            5254            5384     56.4227E-03     56.3316E-03
            5272            5384     56.4227E-03     56.3316E-03
            5272            5385     51.6176E-03     51.5454E-03
            5254            5385     51.6176E-03     51.5454E-03
            5273            5385     51.6176E-03     51.5454E-03
            5255            5385     51.6176E-03     51.5454E-03
            5273            5386     46.8045E-03     46.7273E-03
            5274            5386     46.8045E-03     46.7273E-03
            5256            5386     46.8045E-03     46.7273E-03
            5255            5386     46.8045E-03     46.7273E-03
            5275            5387     41.9777E-03     41.9064E-03
            5257            5387     41.9777E-03     41.9064E-03
            5274            5387     41.9777E-03     41.9064E-03
            5256            5387     41.9777E-03     41.9064E-03
            5276            5388     37.1700E-03     37.0987E-03
            5257            5388     37.1700E-03     37.0987E-03
            5275            5388     37.1700E-03     37.0987E-03
            5258            5388     37.1700E-03     37.0987E-03
            5277            5389     32.4000E-03     32.3354E-03
            5276            5389     32.4000E-03     32.3354E-03
            5259            5389     32.4000E-03     32.3354E-03
            5258            5389     32.4000E-03     32.3354E-03
            5260            5390     27.7057E-03     27.6464E-03
            5259            5390     27.7057E-03     27.6464E-03
            5277            5390     27.7057E-03     27.6464E-03
            5278            5390     27.7057E-03     27.6464E-03
            5260            5391     23.1537E-03     23.1103E-03
            5261            5391     23.1537E-03     23.1103E-03
            5278            5391     23.1537E-03     23.1103E-03
            5279            5391     23.1537E-03     23.1103E-03
            5262            5392     18.8337E-03     18.8338E-03
            5261            5392     18.8337E-03     18.8338E-03
            5280            5392     18.8337E-03     18.8338E-03
            5279            5392     18.8337E-03     18.8338E-03
            5280            5393     14.9126E-03     15.1940E-03
            5263            5393     14.9126E-03     15.1940E-03
            5262            5393     14.9126E-03     15.1940E-03
            5281            5393     14.9126E-03     15.1940E-03
            5281            5394     11.7746E-03     13.0841E-03
            5282            5394     11.7746E-03     13.0841E-03
            5263            5394     11.7746E-03     13.0841E-03
            5264            5394     11.7746E-03     13.0841E-03
            5757            5777     21.3628E-15     22.9390E-15
            5739            5777     21.3628E-15     22.9390E-15
            5758            5777     21.3628E-15     22.9390E-15
            5740            5777     21.3628E-15     22.9390E-15
            5740            5778     27.0558E-15     28.1647E-15
            5758            5778     27.0558E-15     28.1647E-15
            5759            5778     27.0558E-15     28.1647E-15
            5741            5778     27.0558E-15     28.1647E-15
            5759            5779     21.8805E-15     21.9489E-15
            5741            5779     21.8805E-15     21.9489E-15
            5760            5779     21.8805E-15     21.9489E-15
            5742            5779     21.8805E-15     21.9489E-15
            5761            5780     17.8896E-15     19.9266E-15
            5760            5780     17.8896E-15     19.9266E-15
            5743            5780     17.8896E-15     19.9266E-15
            5742            5780     17.8896E-15     19.9266E-15
            5761            5781     27.0349E-15     29.9088E-15
            5762            5781     27.0349E-15     29.9088E-15
            5743            5781     27.0349E-15     29.9088E-15
            5744            5781     27.0349E-15     29.9088E-15
            5745            5782     29.6491E-15     31.4041E-15
            5744            5782     29.6491E-15     31.4041E-15
            5763            5782     29.6491E-15     31.4041E-15
            5762            5782     29.6491E-15     31.4041E-15
            5763            5783     23.5643E-15     23.7817E-15
            5746            5783     23.5643E-15     23.7817E-15
            5764            5783     23.5643E-15     23.7817E-15
            5745            5783     23.5643E-15     23.7817E-15
            5746            5784     20.1699E-15     19.8753E-15
            5764            5784     20.1699E-15     19.8753E-15
            5747            5784     20.1699E-15     19.8753E-15
            5765            5784     20.1699E-15     19.8753E-15
            5748            5785     14.7827E-15     14.7116E-15
            5747            5785     14.7827E-15     14.7116E-15
            5765            5785     14.7827E-15     14.7116E-15
            5766            5785     14.7827E-15     14.7116E-15
            5749            5786     20.5680E-15     18.8676E-15
            5766            5786     20.5680E-15     18.8676E-15
            5767            5786     20.5680E-15     18.8676E-15
            5748            5786     20.5680E-15     18.8676E-15
            5768            5787     29.3485E-15     26.8214E-15
            5749            5787     29.3485E-15     26.8214E-15
            5750            5787     29.3485E-15     26.8214E-15
            5767            5787     29.3485E-15     26.8214E-15
            5751            5788     25.1384E-15     24.2344E-15
            5768            5788     25.1384E-15     24.2344E-15
            5769            5788     25.1384E-15     24.2344E-15
            5750            5788     25.1384E-15     24.2344E-15
            5770            5789     18.5608E-15     19.3181E-15
            5751            5789     18.5608E-15     19.3181E-15
            5752            5789     18.5608E-15     19.3181E-15
            5769            5789     18.5608E-15     19.3181E-15
            5753            5790     19.6515E-15     18.5270E-15
            5771            5790     19.6515E-15     18.5270E-15
            5770            5790     19.6515E-15     18.5270E-15
            5752            5790     19.6515E-15     18.5270E-15
            5771            5791     20.1232E-15     20.0869E-15
            5753            5791     20.1232E-15     20.0869E-15
            5772            5791     20.1232E-15     20.0869E-15
            5754            5791     20.1232E-15     20.0869E-15
            5772            5792     19.1489E-15     20.2675E-15
            5755            5792     19.1489E-15     20.2675E-15
            5754            5792     19.1489E-15     20.2675E-15
            5773            5792     19.1489E-15     20.2675E-15
            5755            5793     17.6883E-15     18.3341E-15
            5773            5793     17.6883E-15     18.3341E-15
            5774            5793     17.6883E-15     18.3341E-15
            5756            5793     17.6883E-15     18.3341E-15
            5775            5794     26.7402E-15     27.6684E-15
            5758            5794     26.7402E-15     27.6684E-15
            5776            5794     26.7402E-15     27.6684E-15
            5757            5794     26.7402E-15     27.6684E-15
            5776            5795     23.3705E-15     23.4322E-15
            5759            5795     23.3705E-15     23.4322E-15
            5777            5795     23.3705E-15     23.4322E-15
            5758            5795     23.3705E-15     23.4322E-15
            5778            5796     11.8950E-15     10.5100E-15
            5759            5796     11.8950E-15     10.5100E-15
            5760            5796     11.8950E-15     10.5100E-15
            5777            5796     11.8950E-15     10.5100E-15
            5779            5797     19.3684E-15     19.0314E-15
            5761            5797     19.3684E-15     19.0314E-15
            5778            5797     19.3684E-15     19.0314E-15
            5760            5797     19.3684E-15     19.0314E-15
            5762            5798     28.1234E-15     28.2341E-15
            5779            5798     28.1234E-15     28.2341E-15
            5780            5798     28.1234E-15     28.2341E-15
            5761            5798     28.1234E-15     28.2341E-15
            5763            5799     25.2557E-15     26.9522E-15
            5780            5799     25.2557E-15     26.9522E-15
            5781            5799     25.2557E-15     26.9522E-15
            5762            5799     25.2557E-15     26.9522E-15
            5782            5800     26.8439E-15     26.7337E-15
            5781            5800     26.8439E-15     26.7337E-15
            5764            5800     26.8439E-15     26.7337E-15
            5763            5800     26.8439E-15     26.7337E-15
            5782            5801     23.7849E-15     21.7912E-15
            5783            5801     23.7849E-15     21.7912E-15
            5764            5801     23.7849E-15     21.7912E-15
            5765            5801     23.7849E-15     21.7912E-15
            5766            5802     13.4692E-15     13.9504E-15
            5784            5802     13.4692E-15     13.9504E-15
            5783            5802     13.4692E-15     13.9504E-15
            5765            5802     13.4692E-15     13.9504E-15
            5767            5803     18.8404E-15     18.9054E-15
            5784            5803     18.8404E-15     18.9054E-15
            5785            5803     18.8404E-15     18.9054E-15
            5766            5803     18.8404E-15     18.9054E-15
            5768            5804     24.6293E-15     23.8482E-15
            5767            5804     24.6293E-15     23.8482E-15
            5786            5804     24.6293E-15     23.8482E-15
            5785            5804     24.6293E-15     23.8482E-15
            5787            5805     18.1477E-15     17.6090E-15
            5769            5805     18.1477E-15     17.6090E-15
            5768            5805     18.1477E-15     17.6090E-15
            5786            5805     18.1477E-15     17.6090E-15
            5788            5806     16.3322E-15     18.5834E-15
            5769            5806     16.3322E-15     18.5834E-15
            5770            5806     16.3322E-15     18.5834E-15
            5787            5806     16.3322E-15     18.5834E-15
            5788            5807     20.9889E-15     22.1477E-15
            5771            5807     20.9889E-15     22.1477E-15
            5789            5807     20.9889E-15     22.1477E-15
            5770            5807     20.9889E-15     22.1477E-15
            5772            5808     17.7463E-15     16.8433E-15
            5771            5808     17.7463E-15     16.8433E-15
            5789            5808     17.7463E-15     16.8433E-15
            5790            5808     17.7463E-15     16.8433E-15
            5773            5809     14.3657E-15     15.3127E-15
            5772            5809     14.3657E-15     15.3127E-15
            5791            5809     14.3657E-15     15.3127E-15
            5790            5809     14.3657E-15     15.3127E-15
            5791            5810     14.0408E-15     14.8959E-15
            5773            5810     14.0408E-15     14.8959E-15
            5792            5810     14.0408E-15     14.8959E-15
            5774            5810     14.0408E-15     14.8959E-15
            5794            5811     23.4866E-15     23.5057E-15
            5775            5811     23.4866E-15     23.5057E-15
            5793            5811     23.4866E-15     23.5057E-15
            5776            5811     23.4866E-15     23.5057E-15
            5776            5812     24.8930E-15     25.8200E-15
            5794            5812     24.8930E-15     25.8200E-15
            5795            5812     24.8930E-15     25.8200E-15
            5777            5812     24.8930E-15     25.8200E-15
            5777            5813     19.4246E-15     19.8616E-15
            5795            5813     19.4246E-15     19.8616E-15
            5796            5813     19.4246E-15     19.8616E-15
            5778            5813     19.4246E-15     19.8616E-15
            5779            5814     23.3436E-15     22.2404E-15
            5778            5814     23.3436E-15     22.2404E-15
            5797            5814     23.3436E-15     22.2404E-15
            5796            5814     23.3436E-15     22.2404E-15
            5780            5815     30.0516E-15     28.4738E-15
            5797            5815     30.0516E-15     28.4738E-15
            5798            5815     30.0516E-15     28.4738E-15
            5779            5815     30.0516E-15     28.4738E-15
            5780            5816     23.6406E-15     23.0603E-15
            5781            5816     23.6406E-15     23.0603E-15
            5799            5816     23.6406E-15     23.0603E-15
            5798            5816     23.6406E-15     23.0603E-15
            5781            5817     26.1841E-15     23.8424E-15
            5799            5817     26.1841E-15     23.8424E-15
            5800            5817     26.1841E-15     23.8424E-15
            5782            5817     26.1841E-15     23.8424E-15
            5800            5818     24.3091E-15     22.8793E-15
            5801            5818     24.3091E-15     22.8793E-15
            5783            5818     24.3091E-15     22.8793E-15
            5782            5818     24.3091E-15     22.8793E-15
            5802            5819     13.0889E-15     14.6164E-15
            5801            5819     13.0889E-15     14.6164E-15
            5783            5819     13.0889E-15     14.6164E-15
            5784            5819     13.0889E-15     14.6164E-15
            5784            5820     14.0681E-15     14.4529E-15
            5785            5820     14.0681E-15     14.4529E-15
            5802            5820     14.0681E-15     14.4529E-15
            5803            5820     14.0681E-15     14.4529E-15
            5804            5821     22.3022E-15     22.6085E-15
            5785            5821     22.3022E-15     22.6085E-15
            5803            5821     22.3022E-15     22.6085E-15
            5786            5821     22.3022E-15     22.6085E-15
            5787            5822     18.3860E-15     18.8799E-15
            5804            5822     18.3860E-15     18.8799E-15
            5805            5822     18.3860E-15     18.8799E-15
            5786            5822     18.3860E-15     18.8799E-15
            5806            5823     9.77523E-15     12.1323E-15
            5787            5823     9.77523E-15     12.1323E-15
            5788            5823     9.77523E-15     12.1323E-15
            5805            5823     9.77523E-15     12.1323E-15
            5788            5824     14.7894E-15     14.6193E-15
            5806            5824     14.7894E-15     14.6193E-15
            5807            5824     14.7894E-15     14.6193E-15
            5789            5824     14.7894E-15     14.6193E-15
            5807            5825     14.4054E-15     11.9927E-15
            5789            5825     14.4054E-15     11.9927E-15
            5808            5825     14.4054E-15     11.9927E-15
            5790            5825     14.4054E-15     11.9927E-15
            5809            5826     10.1100E-15     12.8752E-15
            5808            5826     10.1100E-15     12.8752E-15
            5790            5826     10.1100E-15     12.8752E-15
            5791            5826     10.1100E-15     12.8752E-15
            5810            5827     17.6895E-15     20.2107E-15
            5791            5827     17.6895E-15     20.2107E-15
            5792            5827     17.6895E-15     20.2107E-15
            5809            5827     17.6895E-15     20.2107E-15
            5794            5828     24.0883E-15     24.3317E-15
            5811            5828     24.0883E-15     24.3317E-15
            5812            5828     24.0883E-15     24.3317E-15
            5793            5828     24.0883E-15     24.3317E-15
            5795            5829     23.5194E-15     23.6822E-15
            5812            5829     23.5194E-15     23.6822E-15
            5794            5829     23.5194E-15     23.6822E-15
            5813            5829     23.5194E-15     23.6822E-15
            5813            5830     20.0967E-15     19.1294E-15
            5796            5830     20.0967E-15     19.1294E-15
            5814            5830     20.0967E-15     19.1294E-15
            5795            5830     20.0967E-15     19.1294E-15
            5796            5831     28.4049E-15     26.6230E-15
            5797            5831     28.4049E-15     26.6230E-15
            5814            5831     28.4049E-15     26.6230E-15
            5815            5831     28.4049E-15     26.6230E-15
            5797            5832     33.8362E-15     32.5101E-15
            5816            5832     33.8362E-15     32.5101E-15
            5815            5832     33.8362E-15     32.5101E-15
            5798            5832     33.8362E-15     32.5101E-15
            5799            5833     22.6648E-15     21.9241E-15
            5816            5833     22.6648E-15     21.9241E-15
            5817            5833     22.6648E-15     21.9241E-15
            5798            5833     22.6648E-15     21.9241E-15
            5800            5834     21.8965E-15     21.1516E-15
            5817            5834     21.8965E-15     21.1516E-15
            5799            5834     21.8965E-15     21.1516E-15
            5818            5834     21.8965E-15     21.1516E-15
            5819            5835     21.6938E-15     22.0036E-15
            5800            5835     21.6938E-15     22.0036E-15
            5818            5835     21.6938E-15     22.0036E-15
            5801            5835     21.6938E-15     22.0036E-15
            5801            5836     15.8065E-15     15.5436E-15
            5820            5836     15.8065E-15     15.5436E-15
            5819            5836     15.8065E-15     15.5436E-15
            5802            5836     15.8065E-15     15.5436E-15
            5802            5837     14.8838E-15     14.6383E-15
            5803            5837     14.8838E-15     14.6383E-15
            5820            5837     14.8838E-15     14.6383E-15
            5821            5837     14.8838E-15     14.6383E-15
            5803            5838     11.8196E-15     13.4612E-15
            5821            5838     11.8196E-15     13.4612E-15
            5804            5838     11.8196E-15     13.4612E-15
            5822            5838     11.8196E-15     13.4612E-15
            5822            5839     7.21503E-15     9.23672E-15
            5804            5839     7.21503E-15     9.23672E-15
            5805            5839     7.21503E-15     9.23672E-15
            5823            5839     7.21503E-15     9.23672E-15
            5823            5840     8.95471E-15     9.94793E-15
            5805            5840     8.95471E-15     9.94793E-15
            5806            5840     8.95471E-15     9.94793E-15
            5824            5840     8.95471E-15     9.94793E-15
            5807            5841     14.5228E-15     12.7167E-15
            5824            5841     14.5228E-15     12.7167E-15
            5806            5841     14.5228E-15     12.7167E-15
            5825            5841     14.5228E-15     12.7167E-15
            5807            5842     17.8245E-15     15.3453E-15
            5826            5842     17.8245E-15     15.3453E-15
            5825            5842     17.8245E-15     15.3453E-15
            5808            5842     17.8245E-15     15.3453E-15
            5827            5843     22.3206E-15     21.3230E-15
            5808            5843     22.3206E-15     21.3230E-15
            5826            5843     22.3206E-15     21.3230E-15
            5809            5843     22.3206E-15     21.3230E-15
            5828            5844     23.0963E-15     22.6130E-15
            5827            5844     23.0963E-15     22.6130E-15
            5809            5844     23.0963E-15     22.6130E-15
            5810            5844     23.0963E-15     22.6130E-15
            5812            5845     27.0929E-15     25.5895E-15
            5811            5845     27.0929E-15     25.5895E-15
            5829            5845     27.0929E-15     25.5895E-15
            5830            5845     27.0929E-15     25.5895E-15
            5813            5846     25.1416E-15     21.8620E-15
            5812            5846     25.1416E-15     21.8620E-15
            5831            5846     25.1416E-15     21.8620E-15
            5830            5846     25.1416E-15     21.8620E-15
            5814            5847     17.1834E-15     15.7562E-15
            5813            5847     17.1834E-15     15.7562E-15
            5831            5847     17.1834E-15     15.7562E-15
            5832            5847     17.1834E-15     15.7562E-15
            5815            5848     25.9382E-15     28.3248E-15
            5814            5848     25.9382E-15     28.3248E-15
            5833            5848     25.9382E-15     28.3248E-15
            5832            5848     25.9382E-15     28.3248E-15
            5833            5849     39.7454E-15     42.4331E-15
            5834            5849     39.7454E-15     42.4331E-15
            5815            5849     39.7454E-15     42.4331E-15
            5816            5849     39.7454E-15     42.4331E-15
            5835            5850     26.7572E-15     28.3090E-15
            5816            5850     26.7572E-15     28.3090E-15
            5834            5850     26.7572E-15     28.3090E-15
            5817            5850     26.7572E-15     28.3090E-15
            5835            5851     16.6389E-15     18.6815E-15
            5817            5851     16.6389E-15     18.6815E-15
            5818            5851     16.6389E-15     18.6815E-15
            5836            5851     16.6389E-15     18.6815E-15
            5819            5852     15.0531E-15     17.9342E-15
            5836            5852     15.0531E-15     17.9342E-15
            5818            5852     15.0531E-15     17.9342E-15
            5837            5852     15.0531E-15     17.9342E-15
            5820            5853     14.5659E-15     16.3183E-15
            5819            5853     14.5659E-15     16.3183E-15
            5838            5853     14.5659E-15     16.3183E-15
            5837            5853     14.5659E-15     16.3183E-15
            5820            5854     19.6937E-15     20.4359E-15
            5838            5854     19.6937E-15     20.4359E-15
            5839            5854     19.6937E-15     20.4359E-15
            5821            5854     19.6937E-15     20.4359E-15
            5839            5855     13.4132E-15     13.6151E-15
            5821            5855     13.4132E-15     13.6151E-15
            5822            5855     13.4132E-15     13.6151E-15
            5840            5855     13.4132E-15     13.6151E-15
            5823            5856     11.1938E-15     11.3411E-15
            5841            5856     11.1938E-15     11.3411E-15
            5822            5856     11.1938E-15     11.3411E-15
            5840            5856     11.1938E-15     11.3411E-15
            5824            5857     16.9912E-15     18.8189E-15
            5841            5857     16.9912E-15     18.8189E-15
            5823            5857     16.9912E-15     18.8189E-15
            5842            5857     16.9912E-15     18.8189E-15
            5843            5858     17.1537E-15     19.0598E-15
            5825            5858     17.1537E-15     19.0598E-15
            5824            5858     17.1537E-15     19.0598E-15
            5842            5858     17.1537E-15     19.0598E-15
            5844            5859     22.9882E-15     21.3962E-15
            5825            5859     22.9882E-15     21.3962E-15
            5843            5859     22.9882E-15     21.3962E-15
            5826            5859     22.9882E-15     21.3962E-15
            5844            5860     30.3181E-15     26.7891E-15
            5827            5860     30.3181E-15     26.7891E-15
            5826            5860     30.3181E-15     26.7891E-15
            5845            5860     30.3181E-15     26.7891E-15
            5846            5861     19.6671E-15     18.7155E-15
            5827            5861     19.6671E-15     18.7155E-15
            5845            5861     19.6671E-15     18.7155E-15
            5828            5861     19.6671E-15     18.7155E-15


  Minimum                            7.21503E-15     9.23672E-15
      At Element                            5823            5823
            Node                            5839            5839

  Maximum                            95.7088E-03     100.497E-03
      At Element                            5193            5175
            Node                             629              22

           Total                         189.669         194.643


