********************************************************************************
Field Output Report, written Fri Feb 15 16:32:37 2019

Source 1
---------

   ODB: C:/Scratch/A320-19.odb
   Step: Jam2
   Frame: Increment      1: Step Time =    1.000

Loc 1 : Element nodal  values at shell < ALUMINIUM > < 5 section points > from source 1 : SNEG, (fraction = -1.0) ( Average criteria = 75%, Not averaged across region boundaries )
Loc 2 : Element nodal  values at shell < ALUMINIUM > < 5 section points > from source 1 : SPOS, (fraction = 1.0) ( Average criteria = 75%, Not averaged across region boundaries )

Output sorted by column "Node Label".

Field Output reported at element nodes for region: A320-1.Region_1
   Computation algorithm: EXTRAPOLATE_COMPUTE_AVERAGE
   Averaged at nodes
   Averaging regions: ODB_REGIONS

   Element Label      Node Label         S.Mises         S.Mises
                                          @Loc 1          @Loc 2
-----------------------------------------------------------------
            2271               3     2.21106E-03     2.55873E-03
             874               3     2.21106E-03     2.55873E-03
            2325               4     84.3043E-06     183.631E-06
            3976               6     97.8517E-03     100.989E-03
            1756               6     97.8517E-03     100.989E-03
            4066               8     95.3757E-03     102.942E-03
            3410               8     95.3757E-03     102.942E-03
            5864              10     75.5859E-03     75.6947E-03
            3500              10     75.5859E-03     75.6947E-03
            5084              15     3.00456E-03     3.77453E-03
            6566              15     3.00456E-03     3.77453E-03
            2288              16     3.67540E-03     3.63496E-03
             857              16     3.67540E-03     3.63496E-03
            2342              19     251.216E-06     296.436E-06
            1739              20     39.4416E-03     39.4811E-03
            3959              20     39.4416E-03     39.4811E-03
            4049              23     43.5324E-03     70.7238E-03
            3393              23     43.5324E-03     70.7238E-03
            5847              24     21.3700E-03     21.1765E-03
            3483              24     21.3700E-03     21.1765E-03
            5067              26     1.27882E-03     2.33335E-03
            6549              26     1.27882E-03     2.33335E-03
            5174              27     112.100E-06     214.044E-06
            5157              28     268.471E-06     327.164E-06
            2289              38     319.364E-06     353.735E-06
            2271              38     319.364E-06     353.735E-06
            2289              39     151.911E-06     156.375E-06
            2307              39     151.911E-06     156.375E-06
            2307              40     59.9919E-06     139.587E-06
            2325              40     59.9919E-06     139.587E-06
            1738             102     99.3194E-03     99.6787E-03
            1756             102     99.3194E-03     99.6787E-03
            1738             103     96.7975E-03     96.4966E-03
            1720             103     96.7975E-03     96.4966E-03
            1720             104     93.3613E-03     94.8920E-03
            1702             104     93.3613E-03     94.8920E-03
            1702             105     90.9433E-03     91.2620E-03
            1684             105     90.9433E-03     91.2620E-03
            1684             106     87.6463E-03     88.7412E-03
            1666             106     87.6463E-03     88.7412E-03
            1666             107     84.8729E-03     85.1960E-03
            1648             107     84.8729E-03     85.1960E-03
            1648             108     81.1327E-03     82.1221E-03
            1630             108     81.1327E-03     82.1221E-03
            1630             109     77.1403E-03     77.0864E-03
            1612             109     77.1403E-03     77.0864E-03
            1612             110     72.3833E-03     71.4484E-03
            1594             110     72.3833E-03     71.4484E-03
            1576             111     72.9689E-03     75.2819E-03
            1594             111     72.9689E-03     75.2819E-03
            1558             112     76.7514E-03     77.1181E-03
            1576             112     76.7514E-03     77.1181E-03
            1558             113     74.2441E-03     74.0346E-03
            1540             113     74.2441E-03     74.0346E-03
            1540             114     71.1026E-03     72.2429E-03
            1522             114     71.1026E-03     72.2429E-03
            1504             115     68.7337E-03     69.0599E-03
            1522             115     68.7337E-03     69.0599E-03
            1504             116     65.9758E-03     66.6746E-03
            1486             116     65.9758E-03     66.6746E-03
            1486             117     63.3984E-03     63.8562E-03
            1468             117     63.3984E-03     63.8562E-03
            1468             118     60.4934E-03     60.8886E-03
            1450             118     60.4934E-03     60.8886E-03
            1450             119     57.3589E-03     57.8766E-03
            1432             119     57.3589E-03     57.8766E-03
            1414             120     53.6503E-03     53.6987E-03
            1432             120     53.6503E-03     53.6987E-03
            1396             121     49.5517E-03     48.7189E-03
            1414             121     49.5517E-03     48.7189E-03
            1396             122     50.4474E-03     52.0207E-03
            1378             122     50.4474E-03     52.0207E-03
            1378             123     53.5655E-03     53.9519E-03
            1360             123     53.5655E-03     53.9519E-03
            1360             124     51.0436E-03     50.8754E-03
            1342             124     51.0436E-03     50.8754E-03
            1324             125     48.0869E-03     48.9047E-03
            1342             125     48.0869E-03     48.9047E-03
            1324             126     45.8136E-03     46.0127E-03
            1306             126     45.8136E-03     46.0127E-03
            1306             127     43.2707E-03     43.7536E-03
            1288             127     43.2707E-03     43.7536E-03
            1270             128     40.9109E-03     41.1765E-03
            1288             128     40.9109E-03     41.1765E-03
            1252             129     38.2736E-03     38.5409E-03
            1270             129     38.2736E-03     38.5409E-03
            1252             130     35.5040E-03     35.7670E-03
            1234             130     35.5040E-03     35.7670E-03
            1216             131     32.1857E-03     32.2685E-03
            1234             131     32.1857E-03     32.2685E-03
            1198             132     28.6568E-03     27.9838E-03
            1216             132     28.6568E-03     27.9838E-03
            1180             133     29.8185E-03     30.6993E-03
            1198             133     29.8185E-03     30.6993E-03
            1180             134     32.3063E-03     32.7073E-03
            1162             134     32.3063E-03     32.7073E-03
            1144             135     29.7875E-03     29.6691E-03
            1162             135     29.7875E-03     29.6691E-03
            1126             136     27.0230E-03     27.5488E-03
            1144             136     27.0230E-03     27.5488E-03
            1108             137     24.8553E-03     24.9439E-03
            1126             137     24.8553E-03     24.9439E-03
            1090             138     22.5300E-03     22.8193E-03
            1108             138     22.5300E-03     22.8193E-03
            1090             139     20.3897E-03     20.4857E-03
            1072             139     20.3897E-03     20.4857E-03
            1054             140     18.0230E-03     18.1805E-03
            1072             140     18.0230E-03     18.1805E-03
            1036             141     15.6168E-03     15.6605E-03
            1054             141     15.6168E-03     15.6605E-03
            1018             142     12.7016E-03     12.8546E-03
            1036             142     12.7016E-03     12.8546E-03
            1000             143     9.79749E-03     9.30698E-03
            1018             143     9.79749E-03     9.30698E-03
            1000             144     11.1367E-03     11.3023E-03
             982             144     11.1367E-03     11.3023E-03
             982             145     12.8039E-03     13.2043E-03
             964             145     12.8039E-03     13.2043E-03
             964             146     10.2164E-03     10.1472E-03
             946             146     10.2164E-03     10.1472E-03
             928             147     7.56208E-03     7.85388E-03
             946             147     7.56208E-03     7.85388E-03
             910             148     5.51164E-03     5.48834E-03
             928             148     5.51164E-03     5.48834E-03
             892             149     3.73086E-03     4.01822E-03
             910             149     3.73086E-03     4.01822E-03
             892             150     3.52818E-03     4.10367E-03
             874             150     3.52818E-03     4.10367E-03
            4048             162     98.5619E-03     100.517E-03
            4066             162     98.5619E-03     100.517E-03
            4030             163     97.0090E-03     97.2437E-03
            4048             163     97.0090E-03     97.2437E-03
            4030             164     93.7061E-03     94.0593E-03
            4012             164     93.7061E-03     94.0593E-03
            3994             165     90.5002E-03     87.7676E-03
            4012             165     90.5002E-03     87.7676E-03
            3994             166     92.2086E-03     92.1541E-03
            3976             166     92.2086E-03     92.1541E-03
            3500             178     79.2512E-03     78.2553E-03
            3482             178     79.2512E-03     78.2553E-03
            3464             179     84.1447E-03     84.1518E-03
            3482             179     84.1447E-03     84.1518E-03
            3464             180     87.5852E-03     89.9351E-03
            3446             180     87.5852E-03     89.9351E-03
            3446             181     91.6311E-03     91.6338E-03
            3428             181     91.6311E-03     91.6338E-03
            3410             182     94.1632E-03     95.6276E-03
            3428             182     94.1632E-03     95.6276E-03
            6566             250     6.21133E-03     6.72043E-03
            6548             250     6.21133E-03     6.72043E-03
            6530             251     7.66529E-03     7.33448E-03
            6548             251     7.66529E-03     7.33448E-03
            6512             252     9.50424E-03     8.87860E-03
            6530             252     9.50424E-03     8.87860E-03
            6512             253     11.0793E-03     11.9535E-03
            6494             253     11.0793E-03     11.9535E-03
            6476             254     11.3052E-03     12.4372E-03
            6494             254     11.3052E-03     12.4372E-03
            6458             255     12.5599E-03     12.2325E-03
            6476             255     12.5599E-03     12.2325E-03
            6458             256     15.2647E-03     14.8965E-03
            6440             256     15.2647E-03     14.8965E-03
            6440             257     17.5239E-03     17.2047E-03
            6422             257     17.5239E-03     17.2047E-03
            6422             258     19.5378E-03     19.5217E-03
            6404             258     19.5378E-03     19.5217E-03
            6386             259     21.6839E-03     21.6558E-03
            6404             259     21.6839E-03     21.6558E-03
            6386             260     23.6357E-03     23.9065E-03
            6368             260     23.6357E-03     23.9065E-03
            6368             261     25.8853E-03     25.9844E-03
            6350             261     25.8853E-03     25.9844E-03
            6332             262     27.8778E-03     28.5250E-03
            6350             262     27.8778E-03     28.5250E-03
            6314             263     30.4967E-03     30.3779E-03
            6332             263     30.4967E-03     30.3779E-03
            6314             264     32.6351E-03     33.5448E-03
            6296             264     32.6351E-03     33.5448E-03
            6278             265     30.7244E-03     31.6902E-03
            6296             265     30.7244E-03     31.6902E-03
            6260             266     30.4599E-03     29.3483E-03
            6278             266     30.4599E-03     29.3483E-03
            6242             267     34.0124E-03     33.8339E-03
            6260             267     34.0124E-03     33.8339E-03
            6242             268     37.1184E-03     37.1628E-03
            6224             268     37.1184E-03     37.1628E-03
            6206             269     39.8144E-03     39.9269E-03
            6224             269     39.8144E-03     39.9269E-03
            6206             270     42.3398E-03     42.7002E-03
            6188             270     42.3398E-03     42.7002E-03
            6170             271     44.9173E-03     45.2302E-03
            6188             271     44.9173E-03     45.2302E-03
            6152             272     47.1969E-03     47.8684E-03
            6170             272     47.1969E-03     47.8684E-03
            6152             273     49.8081E-03     50.1787E-03
            6134             273     49.8081E-03     50.1787E-03
            6116             274     52.0214E-03     53.1633E-03
            6134             274     52.0214E-03     53.1633E-03
            6116             275     54.9351E-03     54.9232E-03
            6098             275     54.9351E-03     54.9232E-03
            6098             276     57.2458E-03     58.1381E-03
            6080             276     57.2458E-03     58.1381E-03
            6080             277     54.5729E-03     56.0336E-03
            6062             277     54.5729E-03     56.0336E-03
            6044             278     54.3092E-03     52.9255E-03
            6062             278     54.3092E-03     52.9255E-03
            6044             279     58.4049E-03     58.4161E-03
            6026             279     58.4049E-03     58.4161E-03
            6026             280     62.0567E-03     62.4752E-03
            6008             280     62.0567E-03     62.4752E-03
            5990             281     65.0995E-03     65.6062E-03
            6008             281     65.0995E-03     65.6062E-03
            5972             282     68.0714E-03     68.6579E-03
            5990             282     68.0714E-03     68.6579E-03
            5954             283     70.6776E-03     71.6269E-03
            5972             283     70.6776E-03     71.6269E-03
            5954             284     73.5741E-03     74.1694E-03
            5936             284     73.5741E-03     74.1694E-03
            5936             285     75.9644E-03     77.5161E-03
            5918             285     75.9644E-03     77.5161E-03
            5918             286     79.1378E-03     79.2004E-03
            5900             286     79.1378E-03     79.2004E-03
            5882             287     81.5721E-03     82.4048E-03
            5900             287     81.5721E-03     82.4048E-03
            5882             288     77.8220E-03     81.1215E-03
            5864             288     77.8220E-03     81.1215E-03
            2324             326     274.951E-06     275.731E-06
            2342             326     274.951E-06     275.731E-06
            2324             327     296.404E-06     250.080E-06
            2306             327     296.404E-06     250.080E-06
            2306             328     265.711E-06     264.344E-06
            2288             328     265.711E-06     264.344E-06
             857             329     3.85232E-03     3.86107E-03
            2287             329     3.85232E-03     3.86107E-03
            2288             329     3.85232E-03     3.86107E-03
             858             329     3.85232E-03     3.86107E-03
             859             330     4.13265E-03     4.16852E-03
            2287             330     4.13265E-03     4.16852E-03
            2286             330     4.13265E-03     4.16852E-03
             858             330     4.13265E-03     4.16852E-03
            2285             331     4.39144E-03     4.41177E-03
            2286             331     4.39144E-03     4.41177E-03
             860             331     4.39144E-03     4.41177E-03
             859             331     4.39144E-03     4.41177E-03
            2285             332     4.63964E-03     4.65457E-03
            2284             332     4.63964E-03     4.65457E-03
             861             332     4.63964E-03     4.65457E-03
             860             332     4.63964E-03     4.65457E-03
            2283             333     4.79551E-03     4.79527E-03
            2284             333     4.79551E-03     4.79527E-03
             862             333     4.79551E-03     4.79527E-03
             861             333     4.79551E-03     4.79527E-03
             863             334     4.91048E-03     4.89783E-03
             862             334     4.91048E-03     4.89783E-03
            2283             334     4.91048E-03     4.89783E-03
            2282             334     4.91048E-03     4.89783E-03
             864             335     4.99045E-03     4.96329E-03
             863             335     4.99045E-03     4.96329E-03
            2282             335     4.99045E-03     4.96329E-03
            2281             335     4.99045E-03     4.96329E-03
            2280             336     5.04673E-03     5.00344E-03
             864             336     5.04673E-03     5.00344E-03
            2281             336     5.04673E-03     5.00344E-03
             865             336     5.04673E-03     5.00344E-03
             866             337     5.09044E-03     5.03253E-03
            2279             337     5.09044E-03     5.03253E-03
            2280             337     5.09044E-03     5.03253E-03
             865             337     5.09044E-03     5.03253E-03
            2279             338     5.11580E-03     5.04081E-03
             866             338     5.11580E-03     5.04081E-03
            2278             338     5.11580E-03     5.04081E-03
             867             338     5.11580E-03     5.04081E-03
             868             339     5.12115E-03     5.03079E-03
            2277             339     5.12115E-03     5.03079E-03
             867             339     5.12115E-03     5.03079E-03
            2278             339     5.12115E-03     5.03079E-03
            2277             340     5.08982E-03     4.98233E-03
             869             340     5.08982E-03     4.98233E-03
            2276             340     5.08982E-03     4.98233E-03
             868             340     5.08982E-03     4.98233E-03
            2275             341     4.98861E-03     4.86425E-03
            2276             341     4.98861E-03     4.86425E-03
             869             341     4.98861E-03     4.86425E-03
             870             341     4.98861E-03     4.86425E-03
            2275             342     4.80830E-03     4.65552E-03
            2274             342     4.80830E-03     4.65552E-03
             871             342     4.80830E-03     4.65552E-03
             870             342     4.80830E-03     4.65552E-03
             872             343     4.41621E-03     4.24804E-03
            2274             343     4.41621E-03     4.24804E-03
             871             343     4.41621E-03     4.24804E-03
            2273             343     4.41621E-03     4.24804E-03
            2273             344     3.91476E-03     3.66881E-03
             873             344     3.91476E-03     3.66881E-03
             872             344     3.91476E-03     3.66881E-03
            2272             344     3.91476E-03     3.66881E-03
             874             345     2.95528E-03     2.96166E-03
            2272             345     2.95528E-03     2.96166E-03
             873             345     2.95528E-03     2.96166E-03
            2271             345     2.95528E-03     2.96166E-03
            3976             346     91.9290E-03     94.2933E-03
            1755             346     91.9290E-03     94.2933E-03
            1756             346     91.9290E-03     94.2933E-03
            3975             346     91.9290E-03     94.2933E-03
            3974             347     82.3763E-03     83.6629E-03
            3975             347     82.3763E-03     83.6629E-03
            1755             347     82.3763E-03     83.6629E-03
            1754             347     82.3763E-03     83.6629E-03
            1753             348     75.1752E-03     76.2715E-03
            3974             348     75.1752E-03     76.2715E-03
            1754             348     75.1752E-03     76.2715E-03
            3973             348     75.1752E-03     76.2715E-03
            3973             349     68.4983E-03     69.6400E-03
            3972             349     68.4983E-03     69.6400E-03
            1752             349     68.4983E-03     69.6400E-03
            1753             349     68.4983E-03     69.6400E-03
            3971             350     62.2975E-03     63.4765E-03
            3972             350     62.2975E-03     63.4765E-03
            1752             350     62.2975E-03     63.4765E-03
            1751             350     62.2975E-03     63.4765E-03
            1751             351     56.3154E-03     57.5842E-03
            3971             351     56.3154E-03     57.5842E-03
            3970             351     56.3154E-03     57.5842E-03
            1750             351     56.3154E-03     57.5842E-03
            1749             352     50.5720E-03     51.8787E-03
            3970             352     50.5720E-03     51.8787E-03
            1750             352     50.5720E-03     51.8787E-03
            3969             352     50.5720E-03     51.8787E-03
            3969             353     45.0060E-03     46.3497E-03
            3968             353     45.0060E-03     46.3497E-03
            1749             353     45.0060E-03     46.3497E-03
            1748             353     45.0060E-03     46.3497E-03
            1748             354     39.6614E-03     40.9990E-03
            3968             354     39.6614E-03     40.9990E-03
            1747             354     39.6614E-03     40.9990E-03
            3967             354     39.6614E-03     40.9990E-03
            1746             355     34.5624E-03     35.8727E-03
            1747             355     34.5624E-03     35.8727E-03
            3967             355     34.5624E-03     35.8727E-03
            3966             355     34.5624E-03     35.8727E-03
            3966             356     29.7717E-03     31.0179E-03
            1745             356     29.7717E-03     31.0179E-03
            1746             356     29.7717E-03     31.0179E-03
            3965             356     29.7717E-03     31.0179E-03
            3964             357     25.4017E-03     26.5280E-03
            3965             357     25.4017E-03     26.5280E-03
            1744             357     25.4017E-03     26.5280E-03
            1745             357     25.4017E-03     26.5280E-03
            1743             358     21.7785E-03     22.5585E-03
            3964             358     21.7785E-03     22.5585E-03
            1744             358     21.7785E-03     22.5585E-03
            3963             358     21.7785E-03     22.5585E-03
            1743             359     21.1787E-03     20.9285E-03
            1742             359     21.1787E-03     20.9285E-03
            3963             359     21.1787E-03     20.9285E-03
            3962             359     21.1787E-03     20.9285E-03
            3962             360     24.0852E-03     23.0413E-03
            1742             360     24.0852E-03     23.0413E-03
            1741             360     24.0852E-03     23.0413E-03
            3961             360     24.0852E-03     23.0413E-03
            1740             361     28.3876E-03     27.4449E-03
            3961             361     28.3876E-03     27.4449E-03
            1741             361     28.3876E-03     27.4449E-03
            3960             361     28.3876E-03     27.4449E-03
            3959             362     35.1026E-03     34.7089E-03
            3960             362     35.1026E-03     34.7089E-03
            1740             362     35.1026E-03     34.7089E-03
            1739             362     35.1026E-03     34.7089E-03
            1721             363     33.8723E-03     32.4789E-03
            1739             363     33.8723E-03     32.4789E-03
            1703             364     30.1955E-03     27.6869E-03
            1721             364     30.1955E-03     27.6869E-03
            1703             365     27.7355E-03     25.8292E-03
            1685             365     27.7355E-03     25.8292E-03
            1667             366     26.7978E-03     24.5776E-03
            1685             366     26.7978E-03     24.5776E-03
            1649             367     25.8552E-03     23.9209E-03
            1667             367     25.8552E-03     23.9209E-03
            1649             368     25.7638E-03     23.6104E-03
            1631             368     25.7638E-03     23.6104E-03
            1631             369     25.2843E-03     23.7902E-03
            1613             369     25.2843E-03     23.7902E-03
            1613             370     26.3929E-03     24.0718E-03
            1595             370     26.3929E-03     24.0718E-03
            1595             371     24.4467E-03     26.5676E-03
            1577             371     24.4467E-03     26.5676E-03
            1577             372     25.2697E-03     29.5629E-03
            1559             372     25.2697E-03     29.5629E-03
            1559             373     28.1722E-03     27.0594E-03
            1541             373     28.1722E-03     27.0594E-03
            1541             374     24.7185E-03     22.9197E-03
            1523             374     24.7185E-03     22.9197E-03
            1523             375     22.6108E-03     21.2108E-03
            1505             375     22.6108E-03     21.2108E-03
            1505             376     21.5605E-03     19.9875E-03
            1487             376     21.5605E-03     19.9875E-03
            1487             377     20.7198E-03     19.2508E-03
            1469             377     20.7198E-03     19.2508E-03
            1469             378     20.1525E-03     18.7131E-03
            1451             378     20.1525E-03     18.7131E-03
            1451             379     19.9229E-03     18.4563E-03
            1433             379     19.9229E-03     18.4563E-03
            1415             380     19.5051E-03     18.4697E-03
            1433             380     19.5051E-03     18.4697E-03
            1397             381     20.1616E-03     18.5929E-03
            1415             381     20.1616E-03     18.5929E-03
            1379             382     18.2524E-03     20.3112E-03
            1397             382     18.2524E-03     20.3112E-03
            1361             383     19.2549E-03     22.5182E-03
            1379             383     19.2549E-03     22.5182E-03
            1361             384     21.6395E-03     20.7461E-03
            1343             384     21.6395E-03     20.7461E-03
            1343             385     18.4746E-03     17.3417E-03
            1325             385     18.4746E-03     17.3417E-03
            1325             386     16.7037E-03     15.7399E-03
            1307             386     16.7037E-03     15.7399E-03
            1307             387     15.6725E-03     14.6289E-03
            1289             387     15.6725E-03     14.6289E-03
            1271             388     14.8641E-03     13.8758E-03
            1289             388     14.8641E-03     13.8758E-03
            1253             389     14.2603E-03     13.2934E-03
            1271             389     14.2603E-03     13.2934E-03
            1235             390     13.9037E-03     12.9491E-03
            1253             390     13.9037E-03     12.9491E-03
            1235             391     13.4488E-03     12.7784E-03
            1217             391     13.4488E-03     12.7784E-03
            1199             392     13.6987E-03     12.8003E-03
            1217             392     13.6987E-03     12.8003E-03
            1181             393     12.0990E-03     13.7952E-03
            1199             393     12.0990E-03     13.7952E-03
            1181             394     13.4417E-03     15.4842E-03
            1163             394     13.4417E-03     15.4842E-03
            1163             395     15.2416E-03     14.6427E-03
            1145             395     15.2416E-03     14.6427E-03
            1127             396     12.4652E-03     11.9391E-03
            1145             396     12.4652E-03     11.9391E-03
            1109             397     11.0163E-03     10.4427E-03
            1127             397     11.0163E-03     10.4427E-03
            1091             398     10.0331E-03     9.45477E-03
            1109             398     10.0331E-03     9.45477E-03
            1073             399     9.29458E-03     8.72230E-03
            1091             399     9.29458E-03     8.72230E-03
            1073             400     8.73222E-03     8.16886E-03
            1055             400     8.73222E-03     8.16886E-03
            1055             401     8.36096E-03     7.86384E-03
            1037             401     8.36096E-03     7.86384E-03
            1019             402     8.06600E-03     7.69256E-03
            1037             402     8.06600E-03     7.69256E-03
            1019             403     8.16936E-03     7.93830E-03
            1001             403     8.16936E-03     7.93830E-03
             983             404     7.75922E-03     8.72171E-03
            1001             404     7.75922E-03     8.72171E-03
             983             405     8.65041E-03     9.28389E-03
             965             405     8.65041E-03     9.28389E-03
             965             406     8.67284E-03     8.38561E-03
             947             406     8.67284E-03     8.38561E-03
             929             407     6.59025E-03     6.33591E-03
             947             407     6.59025E-03     6.33591E-03
             911             408     5.63838E-03     5.22616E-03
             929             408     5.63838E-03     5.22616E-03
             911             409     5.21085E-03     4.82802E-03
             893             409     5.21085E-03     4.82802E-03
             875             410     5.36099E-03     5.19482E-03
             893             410     5.36099E-03     5.19482E-03
             875             411     6.30975E-03     6.39485E-03
             857             411     6.30975E-03     6.39485E-03
            2342             497     265.233E-06     285.861E-06
            2341             497     265.233E-06     285.861E-06
            2340             498     283.009E-06     274.139E-06
            2341             498     283.009E-06     274.139E-06
            2340             499     285.861E-06     274.323E-06
            2339             499     285.861E-06     274.323E-06
            2339             500     287.160E-06     274.277E-06
            2338             500     287.160E-06     274.277E-06
            2337             501     290.307E-06     272.575E-06
            2338             501     290.307E-06     272.575E-06
            2337             502     292.899E-06     272.376E-06
            2336             502     292.899E-06     272.376E-06
            2336             503     295.690E-06     272.114E-06
            2335             503     295.690E-06     272.114E-06
            2334             504     298.896E-06     272.446E-06
            2335             504     298.896E-06     272.446E-06
            2334             505     301.687E-06     272.639E-06
            2333             505     301.687E-06     272.639E-06
            2332             506     305.339E-06     273.851E-06
            2333             506     305.339E-06     273.851E-06
            2331             507     307.707E-06     274.001E-06
            2332             507     307.707E-06     274.001E-06
            2331             508     312.141E-06     276.255E-06
            2330             508     312.141E-06     276.255E-06
            2330             509     312.786E-06     275.739E-06
            2329             509     312.786E-06     275.739E-06
            2328             510     319.877E-06     277.651E-06
            2329             510     319.877E-06     277.651E-06
            2327             511     308.555E-06     269.467E-06
            2328             511     308.555E-06     269.467E-06
            2327             512     279.983E-06     236.389E-06
            2326             512     279.983E-06     236.389E-06
            2326             513     179.240E-06     200.698E-06
            2325             513     179.240E-06     200.698E-06
            3977             548     47.8220E-03     72.9940E-03
            3959             548     47.8220E-03     72.9940E-03
            3977             549     62.3611E-03     84.7541E-03
            3995             549     62.3611E-03     84.7541E-03
            3995             550     66.6363E-03     53.1458E-03
            4013             550     66.6363E-03     53.1458E-03
            4031             551     64.7754E-03     52.0057E-03
            4013             551     64.7754E-03     52.0057E-03
            4031             552     61.8984E-03     83.9033E-03
            4049             552     61.8984E-03     83.9033E-03
            4050             570     30.0667E-03     54.2096E-03
            3394             570     30.0667E-03     54.2096E-03
            4049             570     30.0667E-03     54.2096E-03
            3393             570     30.0667E-03     54.2096E-03
            4051             571     16.7990E-03     36.1830E-03
            3395             571     16.7990E-03     36.1830E-03
            4050             571     16.7990E-03     36.1830E-03
            3394             571     16.7990E-03     36.1830E-03
            4051             572     18.9415E-03     35.8637E-03
            3395             572     18.9415E-03     35.8637E-03
            3396             572     18.9415E-03     35.8637E-03
            4052             572     18.9415E-03     35.8637E-03
            3396             573     23.1181E-03     38.9326E-03
            3397             573     23.1181E-03     38.9326E-03
            4052             573     23.1181E-03     38.9326E-03
            4053             573     23.1181E-03     38.9326E-03
            4054             574     27.4561E-03     42.8744E-03
            3397             574     27.4561E-03     42.8744E-03
            4053             574     27.4561E-03     42.8744E-03
            3398             574     27.4561E-03     42.8744E-03
            3398             575     31.8931E-03     46.8833E-03
            3399             575     31.8931E-03     46.8833E-03
            4054             575     31.8931E-03     46.8833E-03
            4055             575     31.8931E-03     46.8833E-03
            3400             576     36.5700E-03     50.8354E-03
            4055             576     36.5700E-03     50.8354E-03
            4056             576     36.5700E-03     50.8354E-03
            3399             576     36.5700E-03     50.8354E-03
            4056             577     41.2747E-03     54.7634E-03
            3401             577     41.2747E-03     54.7634E-03
            3400             577     41.2747E-03     54.7634E-03
            4057             577     41.2747E-03     54.7634E-03
            3402             578     46.0459E-03     58.6249E-03
            4057             578     46.0459E-03     58.6249E-03
            3401             578     46.0459E-03     58.6249E-03
            4058             578     46.0459E-03     58.6249E-03
            3402             579     50.7619E-03     62.4459E-03
            4059             579     50.7619E-03     62.4459E-03
            3403             579     50.7619E-03     62.4459E-03
            4058             579     50.7619E-03     62.4459E-03
            3404             580     55.4978E-03     66.1863E-03
            3403             580     55.4978E-03     66.1863E-03
            4060             580     55.4978E-03     66.1863E-03
            4059             580     55.4978E-03     66.1863E-03
            4061             581     60.0874E-03     69.8340E-03
            3404             581     60.0874E-03     69.8340E-03
            3405             581     60.0874E-03     69.8340E-03
            4060             581     60.0874E-03     69.8340E-03
            3405             582     64.7373E-03     73.3569E-03
            4062             582     64.7373E-03     73.3569E-03
            4061             582     64.7373E-03     73.3569E-03
            3406             582     64.7373E-03     73.3569E-03
            3407             583     69.1668E-03     76.7702E-03
            4063             583     69.1668E-03     76.7702E-03
            4062             583     69.1668E-03     76.7702E-03
            3406             583     69.1668E-03     76.7702E-03
            3408             584     74.0720E-03     80.3261E-03
            4063             584     74.0720E-03     80.3261E-03
            3407             584     74.0720E-03     80.3261E-03
            4064             584     74.0720E-03     80.3261E-03
            3409             585     79.0117E-03     84.3598E-03
            4065             585     79.0117E-03     84.3598E-03
            4064             585     79.0117E-03     84.3598E-03
            3408             585     79.0117E-03     84.3598E-03
            3409             586     88.1795E-03     94.7278E-03
            4066             586     88.1795E-03     94.7278E-03
            3410             586     88.1795E-03     94.7278E-03
            4065             586     88.1795E-03     94.7278E-03
            3500             587     74.8367E-03     74.7567E-03
            5864             587     74.8367E-03     74.7567E-03
            5863             587     74.8367E-03     74.7567E-03
            3499             587     74.8367E-03     74.7567E-03
            5863             588     73.0480E-03     72.6847E-03
            5862             588     73.0480E-03     72.6847E-03
            3499             588     73.0480E-03     72.6847E-03
            3498             588     73.0480E-03     72.6847E-03
            3498             589     70.5032E-03     70.2021E-03
            3497             589     70.5032E-03     70.2021E-03
            5861             589     70.5032E-03     70.2021E-03
            5862             589     70.5032E-03     70.2021E-03
            5861             590     67.4995E-03     67.2914E-03
            3496             590     67.4995E-03     67.2914E-03
            5860             590     67.4995E-03     67.2914E-03
            3497             590     67.4995E-03     67.2914E-03
            3495             591     64.3462E-03     64.1338E-03
            3496             591     64.3462E-03     64.1338E-03
            5860             591     64.3462E-03     64.1338E-03
            5859             591     64.3462E-03     64.1338E-03
            3495             592     61.0444E-03     60.8161E-03
            5859             592     61.0444E-03     60.8161E-03
            5858             592     61.0444E-03     60.8161E-03
            3494             592     61.0444E-03     60.8161E-03
            5857             593     57.6992E-03     57.4134E-03
            3493             593     57.6992E-03     57.4134E-03
            5858             593     57.6992E-03     57.4134E-03
            3494             593     57.6992E-03     57.4134E-03
            3493             594     54.3080E-03     53.9713E-03
            5857             594     54.3080E-03     53.9713E-03
            5856             594     54.3080E-03     53.9713E-03
            3492             594     54.3080E-03     53.9713E-03
            5856             595     50.8909E-03     50.4806E-03
            5855             595     50.8909E-03     50.4806E-03
            3492             595     50.8909E-03     50.4806E-03
            3491             595     50.8909E-03     50.4806E-03
            5855             596     47.4494E-03     46.9832E-03
            3490             596     47.4494E-03     46.9832E-03
            3491             596     47.4494E-03     46.9832E-03
            5854             596     47.4494E-03     46.9832E-03
            5854             597     43.9946E-03     43.4645E-03
            3489             597     43.9946E-03     43.4645E-03
            5853             597     43.9946E-03     43.4645E-03
            3490             597     43.9946E-03     43.4645E-03
            3489             598     40.5274E-03     39.9477E-03
            5852             598     40.5274E-03     39.9477E-03
            5853             598     40.5274E-03     39.9477E-03
            3488             598     40.5274E-03     39.9477E-03
            5851             599     37.0657E-03     36.4423E-03
            5852             599     37.0657E-03     36.4423E-03
            3488             599     37.0657E-03     36.4423E-03
            3487             599     37.0657E-03     36.4423E-03
            3487             600     33.5729E-03     32.9169E-03
            3486             600     33.5729E-03     32.9169E-03
            5850             600     33.5729E-03     32.9169E-03
            5851             600     33.5729E-03     32.9169E-03
            5850             601     30.0978E-03     29.3903E-03
            5849             601     30.0978E-03     29.3903E-03
            3485             601     30.0978E-03     29.3903E-03
            3486             601     30.0978E-03     29.3903E-03
            5848             602     26.6155E-03     25.8803E-03
            3485             602     26.6155E-03     25.8803E-03
            5849             602     26.6155E-03     25.8803E-03
            3484             602     26.6155E-03     25.8803E-03
            3484             603     23.1087E-03     22.6434E-03
            5847             603     23.1087E-03     22.6434E-03
            5848             603     23.1087E-03     22.6434E-03
            3483             603     23.1087E-03     22.6434E-03
            3465             604     22.6835E-03     24.4691E-03
            3483             604     22.6835E-03     24.4691E-03
            3465             605     21.8592E-03     24.1311E-03
            3447             605     21.8592E-03     24.1311E-03
            3429             606     22.9913E-03     24.3473E-03
            3447             606     22.9913E-03     24.3473E-03
            3411             607     25.1643E-03     27.5108E-03
            3429             607     25.1643E-03     27.5108E-03
            3393             608     29.9198E-03     33.2910E-03
            3411             608     29.9198E-03     33.2910E-03
            5865             692     21.3269E-03     22.3399E-03
            5847             692     21.3269E-03     22.3399E-03
            5883             693     22.2769E-03     23.9768E-03
            5865             693     22.2769E-03     23.9768E-03
            5901             694     18.7565E-03     20.8981E-03
            5883             694     18.7565E-03     20.8981E-03
            5919             695     17.4715E-03     19.2085E-03
            5901             695     17.4715E-03     19.2085E-03
            5919             696     16.8205E-03     18.5107E-03
            5937             696     16.8205E-03     18.5107E-03
            5937             697     16.5167E-03     18.1258E-03
            5955             697     16.5167E-03     18.1258E-03
            5973             698     16.6545E-03     17.9402E-03
            5955             698     16.6545E-03     17.9402E-03
            5973             699     16.7426E-03     18.3594E-03
            5991             699     16.7426E-03     18.3594E-03
            6009             700     17.4976E-03     18.4461E-03
            5991             700     17.4976E-03     18.4461E-03
            6027             701     18.2094E-03     20.2072E-03
            6009             701     18.2094E-03     20.2072E-03
            6027             702     20.4437E-03     22.3849E-03
            6045             702     20.4437E-03     22.3849E-03
            6045             703     20.2547E-03     20.6817E-03
            6063             703     20.2547E-03     20.6817E-03
            6081             704     16.1292E-03     17.3790E-03
            6063             704     16.1292E-03     17.3790E-03
            6099             705     13.7682E-03     14.9482E-03
            6081             705     13.7682E-03     14.9482E-03
            6117             706     12.7229E-03     13.7906E-03
            6099             706     12.7229E-03     13.7906E-03
            6117             707     12.2016E-03     13.1560E-03
            6135             707     12.2016E-03     13.1560E-03
            6153             708     11.9380E-03     12.7499E-03
            6135             708     11.9380E-03     12.7499E-03
            6153             709     11.7847E-03     12.5732E-03
            6171             709     11.7847E-03     12.5732E-03
            6189             710     11.8555E-03     12.4101E-03
            6171             710     11.8555E-03     12.4101E-03
            6207             711     11.8722E-03     12.6657E-03
            6189             711     11.8722E-03     12.6657E-03
            6225             712     12.2348E-03     12.6107E-03
            6207             712     12.2348E-03     12.6107E-03
            6243             713     12.6508E-03     13.6852E-03
            6225             713     12.6508E-03     13.6852E-03
            6243             714     13.5358E-03     15.1139E-03
            6261             714     13.5358E-03     15.1139E-03
            6261             715     12.3203E-03     13.5829E-03
            6279             715     12.3203E-03     13.5829E-03
            6279             716     9.69185E-03     10.6876E-03
            6297             716     9.69185E-03     10.6876E-03
            6297             717     8.58113E-03     8.87046E-03
            6315             717     8.58113E-03     8.87046E-03
            6333             718     7.73401E-03     8.14149E-03
            6315             718     7.73401E-03     8.14149E-03
            6333             719     7.46410E-03     7.60152E-03
            6351             719     7.46410E-03     7.60152E-03
            6351             720     7.16612E-03     7.30728E-03
            6369             720     7.16612E-03     7.30728E-03
            6369             721     7.12070E-03     7.05298E-03
            6387             721     7.12070E-03     7.05298E-03
            6405             722     7.02989E-03     7.09265E-03
            6387             722     7.02989E-03     7.09265E-03
            6423             723     7.09573E-03     6.96781E-03
            6405             723     7.09573E-03     6.96781E-03
            6423             724     7.33987E-03     7.43214E-03
            6441             724     7.33987E-03     7.43214E-03
            6459             725     7.04631E-03     8.39976E-03
            6441             725     7.04631E-03     8.39976E-03
            6477             726     5.14214E-03     7.26711E-03
            6459             726     5.14214E-03     7.26711E-03
            6495             727     3.89596E-03     4.90476E-03
            6477             727     3.89596E-03     4.90476E-03
            6495             728     3.88448E-03     3.14964E-03
            6513             728     3.88448E-03     3.14964E-03
            6531             729     3.58599E-03     2.96061E-03
            6513             729     3.58599E-03     2.96061E-03
            6531             730     2.98311E-03     3.92050E-03
            6549             730     2.98311E-03     3.92050E-03
            5067             748     1.22697E-03     1.68751E-03
            6550             748     1.22697E-03     1.68751E-03
            6549             748     1.22697E-03     1.68751E-03
            5068             748     1.22697E-03     1.68751E-03
            5068             749     1.25566E-03     881.843E-06
            6551             749     1.25566E-03     881.843E-06
            6550             749     1.25566E-03     881.843E-06
            5069             749     1.25566E-03     881.843E-06
            6551             750     1.41780E-03     741.025E-06
            6552             750     1.41780E-03     741.025E-06
            5070             750     1.41780E-03     741.025E-06
            5069             750     1.41780E-03     741.025E-06
            6553             751     1.54905E-03     782.859E-06
            5071             751     1.54905E-03     782.859E-06
            5070             751     1.54905E-03     782.859E-06
            6552             751     1.54905E-03     782.859E-06
            5072             752     1.64835E-03     848.678E-06
            6553             752     1.64835E-03     848.678E-06
            5071             752     1.64835E-03     848.678E-06
            6554             752     1.64835E-03     848.678E-06
            5072             753     1.74825E-03     939.278E-06
            6554             753     1.74825E-03     939.278E-06
            5073             753     1.74825E-03     939.278E-06
            6555             753     1.74825E-03     939.278E-06
            5073             754     1.84864E-03     1.03732E-03
            6556             754     1.84864E-03     1.03732E-03
            6555             754     1.84864E-03     1.03732E-03
            5074             754     1.84864E-03     1.03732E-03
            6556             755     1.95228E-03     1.13718E-03
            6557             755     1.95228E-03     1.13718E-03
            5074             755     1.95228E-03     1.13718E-03
            5075             755     1.95228E-03     1.13718E-03
            6558             756     2.05465E-03     1.24240E-03
            5075             756     2.05465E-03     1.24240E-03
            6557             756     2.05465E-03     1.24240E-03
            5076             756     2.05465E-03     1.24240E-03
            5076             757     2.16036E-03     1.34457E-03
            6558             757     2.16036E-03     1.34457E-03
            6559             757     2.16036E-03     1.34457E-03
            5077             757     2.16036E-03     1.34457E-03
            5077             758     2.26372E-03     1.45268E-03
            5078             758     2.26372E-03     1.45268E-03
            6559             758     2.26372E-03     1.45268E-03
            6560             758     2.26372E-03     1.45268E-03
            5078             759     2.37066E-03     1.55562E-03
            5079             759     2.37066E-03     1.55562E-03
            6560             759     2.37066E-03     1.55562E-03
            6561             759     2.37066E-03     1.55562E-03
            6561             760     2.46981E-03     1.65629E-03
            5079             760     2.46981E-03     1.65629E-03
            6562             760     2.46981E-03     1.65629E-03
            5080             760     2.46981E-03     1.65629E-03
            5080             761     2.55539E-03     1.75173E-03
            5081             761     2.55539E-03     1.75173E-03
            6563             761     2.55539E-03     1.75173E-03
            6562             761     2.55539E-03     1.75173E-03
            5082             762     2.53011E-03     1.75449E-03
            6563             762     2.53011E-03     1.75449E-03
            5081             762     2.53011E-03     1.75449E-03
            6564             762     2.53011E-03     1.75449E-03
            6565             763     2.36193E-03     1.73857E-03
            5083             763     2.36193E-03     1.73857E-03
            5082             763     2.36193E-03     1.73857E-03
            6564             763     2.36193E-03     1.73857E-03
            6566             764     2.63523E-03     2.76518E-03
            6565             764     2.63523E-03     2.76518E-03
            5084             764     2.63523E-03     2.76518E-03
            5083             764     2.63523E-03     2.76518E-03
            5084             765     572.569E-06     602.467E-06
            5102             765     572.569E-06     602.467E-06
            5120             766     426.628E-06     421.158E-06
            5102             766     426.628E-06     421.158E-06
            5120             767     277.204E-06     279.645E-06
            5138             767     277.204E-06     279.645E-06
            5156             768     154.056E-06     137.597E-06
            5138             768     154.056E-06     137.597E-06
            5174             769     96.2626E-06     150.545E-06
            5156             769     96.2626E-06     150.545E-06
            5173             770     161.242E-06     181.783E-06
            5174             770     161.242E-06     181.783E-06
            5172             771     235.216E-06     185.307E-06
            5173             771     235.216E-06     185.307E-06
            5172             772     294.836E-06     251.946E-06
            5171             772     294.836E-06     251.946E-06
            5170             773     332.530E-06     291.313E-06
            5171             773     332.530E-06     291.313E-06
            5169             774     345.131E-06     308.487E-06
            5170             774     345.131E-06     308.487E-06
            5168             775     351.126E-06     315.333E-06
            5169             775     351.126E-06     315.333E-06
            5168             776     348.597E-06     315.617E-06
            5167             776     348.597E-06     315.617E-06
            5167             777     345.677E-06     314.653E-06
            5166             777     345.677E-06     314.653E-06
            5166             778     340.329E-06     311.607E-06
            5165             778     340.329E-06     311.607E-06
            5164             779     335.491E-06     309.228E-06
            5165             779     335.491E-06     309.228E-06
            5163             780     330.098E-06     306.332E-06
            5164             780     330.098E-06     306.332E-06
            5162             781     325.100E-06     304.446E-06
            5163             781     325.100E-06     304.446E-06
            5162             782     320.426E-06     302.338E-06
            5161             782     320.426E-06     302.338E-06
            5161             783     315.566E-06     301.527E-06
            5160             783     315.566E-06     301.527E-06
            5159             784     310.642E-06     300.804E-06
            5160             784     310.642E-06     300.804E-06
            5159             785     304.738E-06     303.698E-06
            5158             785     304.738E-06     303.698E-06
            5157             786     284.429E-06     317.194E-06
            5158             786     284.429E-06     317.194E-06
            5157             787     290.143E-06     312.655E-06
            5139             787     290.143E-06     312.655E-06
            5121             788     305.308E-06     279.228E-06
            5139             788     305.308E-06     279.228E-06
            5103             789     293.707E-06     258.452E-06
            5121             789     293.707E-06     258.452E-06
            5085             790     286.352E-06     258.619E-06
            5103             790     286.352E-06     258.619E-06
            5085             791     254.996E-06     269.744E-06
            5067             791     254.996E-06     269.744E-06
             876            1518     7.05142E-03     7.18047E-03
             858            1518     7.05142E-03     7.18047E-03
             875            1518     7.05142E-03     7.18047E-03
             857            1518     7.05142E-03     7.18047E-03
             876            1519     8.06769E-03     8.19760E-03
             877            1519     8.06769E-03     8.19760E-03
             859            1519     8.06769E-03     8.19760E-03
             858            1519     8.06769E-03     8.19760E-03
             878            1520     8.63064E-03     8.68734E-03
             877            1520     8.63064E-03     8.68734E-03
             859            1520     8.63064E-03     8.68734E-03
             860            1520     8.63064E-03     8.68734E-03
             879            1521     9.06311E-03     9.08108E-03
             860            1521     9.06311E-03     9.08108E-03
             878            1521     9.06311E-03     9.08108E-03
             861            1521     9.06311E-03     9.08108E-03
             879            1522     9.32507E-03     9.31596E-03
             862            1522     9.32507E-03     9.31596E-03
             861            1522     9.32507E-03     9.31596E-03
             880            1522     9.32507E-03     9.31596E-03
             880            1523     9.51174E-03     9.47362E-03
             863            1523     9.51174E-03     9.47362E-03
             881            1523     9.51174E-03     9.47362E-03
             862            1523     9.51174E-03     9.47362E-03
             882            1524     9.63885E-03     9.57180E-03
             881            1524     9.63885E-03     9.57180E-03
             864            1524     9.63885E-03     9.57180E-03
             863            1524     9.63885E-03     9.57180E-03
             864            1525     9.74083E-03     9.64572E-03
             865            1525     9.74083E-03     9.64572E-03
             883            1525     9.74083E-03     9.64572E-03
             882            1525     9.74083E-03     9.64572E-03
             866            1526     9.82551E-03     9.70036E-03
             865            1526     9.82551E-03     9.70036E-03
             884            1526     9.82551E-03     9.70036E-03
             883            1526     9.82551E-03     9.70036E-03
             866            1527     9.89337E-03     9.73960E-03
             867            1527     9.89337E-03     9.73960E-03
             884            1527     9.89337E-03     9.73960E-03
             885            1527     9.89337E-03     9.73960E-03
             867            1528     9.93419E-03     9.75093E-03
             886            1528     9.93419E-03     9.75093E-03
             885            1528     9.93419E-03     9.75093E-03
             868            1528     9.93419E-03     9.75093E-03
             868            1529     9.92876E-03     9.71269E-03
             887            1529     9.92876E-03     9.71269E-03
             869            1529     9.92876E-03     9.71269E-03
             886            1529     9.92876E-03     9.71269E-03
             887            1530     9.81643E-03     9.57299E-03
             888            1530     9.81643E-03     9.57299E-03
             869            1530     9.81643E-03     9.57299E-03
             870            1530     9.81643E-03     9.57299E-03
             889            1531     9.53791E-03     9.25159E-03
             870            1531     9.53791E-03     9.25159E-03
             871            1531     9.53791E-03     9.25159E-03
             888            1531     9.53791E-03     9.25159E-03
             890            1532     8.92886E-03     8.59597E-03
             871            1532     8.92886E-03     8.59597E-03
             889            1532     8.92886E-03     8.59597E-03
             872            1532     8.92886E-03     8.59597E-03
             873            1533     7.86990E-03     7.47992E-03
             891            1533     7.86990E-03     7.47992E-03
             872            1533     7.86990E-03     7.47992E-03
             890            1533     7.86990E-03     7.47992E-03
             892            1534     5.38131E-03     5.45525E-03
             874            1534     5.38131E-03     5.45525E-03
             891            1534     5.38131E-03     5.45525E-03
             873            1534     5.38131E-03     5.45525E-03
             875            1535     6.44635E-03     6.38644E-03
             876            1535     6.44635E-03     6.38644E-03
             894            1535     6.44635E-03     6.38644E-03
             893            1535     6.44635E-03     6.38644E-03
             876            1536     8.06442E-03     8.13442E-03
             894            1536     8.06442E-03     8.13442E-03
             895            1536     8.06442E-03     8.13442E-03
             877            1536     8.06442E-03     8.13442E-03
             896            1537     8.80587E-03     8.86712E-03
             877            1537     8.80587E-03     8.86712E-03
             895            1537     8.80587E-03     8.86712E-03
             878            1537     8.80587E-03     8.86712E-03
             897            1538     9.15099E-03     9.17531E-03
             878            1538     9.15099E-03     9.17531E-03
             896            1538     9.15099E-03     9.17531E-03
             879            1538     9.15099E-03     9.17531E-03
             898            1539     9.33390E-03     9.34082E-03
             897            1539     9.33390E-03     9.34082E-03
             879            1539     9.33390E-03     9.34082E-03
             880            1539     9.33390E-03     9.34082E-03
             881            1540     9.42024E-03     9.40423E-03
             899            1540     9.42024E-03     9.40423E-03
             898            1540     9.42024E-03     9.40423E-03
             880            1540     9.42024E-03     9.40423E-03
             899            1541     9.49229E-03     9.45876E-03
             881            1541     9.49229E-03     9.45876E-03
             882            1541     9.49229E-03     9.45876E-03
             900            1541     9.49229E-03     9.45876E-03
             900            1542     9.56426E-03     9.51225E-03
             883            1542     9.56426E-03     9.51225E-03
             882            1542     9.56426E-03     9.51225E-03
             901            1542     9.56426E-03     9.51225E-03
             884            1543     9.64851E-03     9.58009E-03
             902            1543     9.64851E-03     9.58009E-03
             883            1543     9.64851E-03     9.58009E-03
             901            1543     9.64851E-03     9.58009E-03
             903            1544     9.74663E-03     9.65986E-03
             902            1544     9.74663E-03     9.65986E-03
             885            1544     9.74663E-03     9.65986E-03
             884            1544     9.74663E-03     9.65986E-03
             904            1545     9.85486E-03     9.75101E-03
             885            1545     9.85486E-03     9.75101E-03
             886            1545     9.85486E-03     9.75101E-03
             903            1545     9.85486E-03     9.75101E-03
             905            1546     9.95229E-03     9.82967E-03
             886            1546     9.95229E-03     9.82967E-03
             887            1546     9.95229E-03     9.82967E-03
             904            1546     9.95229E-03     9.82967E-03
             887            1547     10.0152E-03     9.87281E-03
             905            1547     10.0152E-03     9.87281E-03
             906            1547     10.0152E-03     9.87281E-03
             888            1547     10.0152E-03     9.87281E-03
             889            1548     9.89788E-03     9.76028E-03
             906            1548     9.89788E-03     9.76028E-03
             907            1548     9.89788E-03     9.76028E-03
             888            1548     9.89788E-03     9.76028E-03
             890            1549     9.47943E-03     9.33272E-03
             908            1549     9.47943E-03     9.33272E-03
             889            1549     9.47943E-03     9.33272E-03
             907            1549     9.47943E-03     9.33272E-03
             909            1550     8.19991E-03     8.19709E-03
             890            1550     8.19991E-03     8.19709E-03
             891            1550     8.19991E-03     8.19709E-03
             908            1550     8.19991E-03     8.19709E-03
             910            1551     5.46610E-03     5.68985E-03
             891            1551     5.46610E-03     5.68985E-03
             909            1551     5.46610E-03     5.68985E-03
             892            1551     5.46610E-03     5.68985E-03
             893            1552     6.27565E-03     5.95432E-03
             894            1552     6.27565E-03     5.95432E-03
             912            1552     6.27565E-03     5.95432E-03
             911            1552     6.27565E-03     5.95432E-03
             894            1553     7.96516E-03     7.81126E-03
             912            1553     7.96516E-03     7.81126E-03
             913            1553     7.96516E-03     7.81126E-03
             895            1553     7.96516E-03     7.81126E-03
             914            1554     8.86900E-03     8.85626E-03
             896            1554     8.86900E-03     8.85626E-03
             895            1554     8.86900E-03     8.85626E-03
             913            1554     8.86900E-03     8.85626E-03
             915            1555     9.21918E-03     9.23448E-03
             914            1555     9.21918E-03     9.23448E-03
             896            1555     9.21918E-03     9.23448E-03
             897            1555     9.21918E-03     9.23448E-03
             898            1556     9.30760E-03     9.31555E-03
             897            1556     9.30760E-03     9.31555E-03
             915            1556     9.30760E-03     9.31555E-03
             916            1556     9.30760E-03     9.31555E-03
             898            1557     9.33221E-03     9.33591E-03
             899            1557     9.33221E-03     9.33591E-03
             916            1557     9.33221E-03     9.33591E-03
             917            1557     9.33221E-03     9.33591E-03
             899            1558     9.35426E-03     9.35182E-03
             900            1558     9.35426E-03     9.35182E-03
             918            1558     9.35426E-03     9.35182E-03
             917            1558     9.35426E-03     9.35182E-03
             901            1559     9.40148E-03     9.39567E-03
             900            1559     9.40148E-03     9.39567E-03
             918            1559     9.40148E-03     9.39567E-03
             919            1559     9.40148E-03     9.39567E-03
             902            1560     9.48479E-03     9.47474E-03
             901            1560     9.48479E-03     9.47474E-03
             919            1560     9.48479E-03     9.47474E-03
             920            1560     9.48479E-03     9.47474E-03
             903            1561     9.60375E-03     9.59088E-03
             921            1561     9.60375E-03     9.59088E-03
             902            1561     9.60375E-03     9.59088E-03
             920            1561     9.60375E-03     9.59088E-03
             903            1562     9.75859E-03     9.74060E-03
             921            1562     9.75859E-03     9.74060E-03
             922            1562     9.75859E-03     9.74060E-03
             904            1562     9.75859E-03     9.74060E-03
             922            1563     9.93811E-03     9.91815E-03
             923            1563     9.93811E-03     9.91815E-03
             905            1563     9.93811E-03     9.91815E-03
             904            1563     9.93811E-03     9.91815E-03
             906            1564     10.0955E-03     10.0771E-03
             924            1564     10.0955E-03     10.0771E-03
             923            1564     10.0955E-03     10.0771E-03
             905            1564     10.0955E-03     10.0771E-03
             907            1565     10.1599E-03     10.1523E-03
             925            1565     10.1599E-03     10.1523E-03
             906            1565     10.1599E-03     10.1523E-03
             924            1565     10.1599E-03     10.1523E-03
             926            1566     9.77139E-03     9.88544E-03
             908            1566     9.77139E-03     9.88544E-03
             925            1566     9.77139E-03     9.88544E-03
             907            1566     9.77139E-03     9.88544E-03
             908            1567     8.52387E-03     8.78771E-03
             926            1567     8.52387E-03     8.78771E-03
             909            1567     8.52387E-03     8.78771E-03
             927            1567     8.52387E-03     8.78771E-03
             909            1568     6.58812E-03     6.72877E-03
             927            1568     6.58812E-03     6.72877E-03
             928            1568     6.58812E-03     6.72877E-03
             910            1568     6.58812E-03     6.72877E-03
             912            1569     6.54799E-03     6.20536E-03
             911            1569     6.54799E-03     6.20536E-03
             930            1569     6.54799E-03     6.20536E-03
             929            1569     6.54799E-03     6.20536E-03
             912            1570     8.05802E-03     7.86215E-03
             930            1570     8.05802E-03     7.86215E-03
             913            1570     8.05802E-03     7.86215E-03
             931            1570     8.05802E-03     7.86215E-03
             932            1571     8.87976E-03     8.80756E-03
             931            1571     8.87976E-03     8.80756E-03
             914            1571     8.87976E-03     8.80756E-03
             913            1571     8.87976E-03     8.80756E-03
             932            1572     9.13147E-03     9.12035E-03
             915            1572     9.13147E-03     9.12035E-03
             933            1572     9.13147E-03     9.12035E-03
             914            1572     9.13147E-03     9.12035E-03
             933            1573     9.17209E-03     9.17988E-03
             916            1573     9.17209E-03     9.17988E-03
             934            1573     9.17209E-03     9.17988E-03
             915            1573     9.17209E-03     9.17988E-03
             917            1574     9.17034E-03     9.18988E-03
             934            1574     9.17034E-03     9.18988E-03
             916            1574     9.17034E-03     9.18988E-03
             935            1574     9.17034E-03     9.18988E-03
             935            1575     9.17102E-03     9.20167E-03
             918            1575     9.17102E-03     9.20167E-03
             917            1575     9.17102E-03     9.20167E-03
             936            1575     9.17102E-03     9.20167E-03
             936            1576     9.21140E-03     9.25199E-03
             919            1576     9.21140E-03     9.25199E-03
             918            1576     9.21140E-03     9.25199E-03
             937            1576     9.21140E-03     9.25199E-03
             919            1577     9.29108E-03     9.34236E-03
             938            1577     9.29108E-03     9.34236E-03
             920            1577     9.29108E-03     9.34236E-03
             937            1577     9.29108E-03     9.34236E-03
             920            1578     9.41869E-03     9.47942E-03
             921            1578     9.41869E-03     9.47942E-03
             939            1578     9.41869E-03     9.47942E-03
             938            1578     9.41869E-03     9.47942E-03
             939            1579     9.58574E-03     9.65827E-03
             922            1579     9.58574E-03     9.65827E-03
             940            1579     9.58574E-03     9.65827E-03
             921            1579     9.58574E-03     9.65827E-03
             922            1580     9.79246E-03     9.87271E-03
             941            1580     9.79246E-03     9.87271E-03
             940            1580     9.79246E-03     9.87271E-03
             923            1580     9.79246E-03     9.87271E-03
             923            1581     9.99660E-03     10.0979E-03
             924            1581     9.99660E-03     10.0979E-03
             942            1581     9.99660E-03     10.0979E-03
             941            1581     9.99660E-03     10.0979E-03
             943            1582     10.1420E-03     10.2602E-03
             924            1582     10.1420E-03     10.2602E-03
             925            1582     10.1420E-03     10.2602E-03
             942            1582     10.1420E-03     10.2602E-03
             926            1583     10.0441E-03     10.2286E-03
             925            1583     10.0441E-03     10.2286E-03
             944            1583     10.0441E-03     10.2286E-03
             943            1583     10.0441E-03     10.2286E-03
             944            1584     9.37992E-03     9.62921E-03
             945            1584     9.37992E-03     9.62921E-03
             926            1584     9.37992E-03     9.62921E-03
             927            1584     9.37992E-03     9.62921E-03
             928            1585     8.21612E-03     8.48434E-03
             945            1585     8.21612E-03     8.48434E-03
             946            1585     8.21612E-03     8.48434E-03
             927            1585     8.21612E-03     8.48434E-03
             948            1586     7.36019E-03     7.14303E-03
             947            1586     7.36019E-03     7.14303E-03
             929            1586     7.36019E-03     7.14303E-03
             930            1586     7.36019E-03     7.14303E-03
             949            1587     8.41380E-03     8.27148E-03
             931            1587     8.41380E-03     8.27148E-03
             930            1587     8.41380E-03     8.27148E-03
             948            1587     8.41380E-03     8.27148E-03
             949            1588     8.74465E-03     8.65875E-03
             932            1588     8.74465E-03     8.65875E-03
             950            1588     8.74465E-03     8.65875E-03
             931            1588     8.74465E-03     8.65875E-03
             950            1589     8.85517E-03     8.81691E-03
             933            1589     8.85517E-03     8.81691E-03
             932            1589     8.85517E-03     8.81691E-03
             951            1589     8.85517E-03     8.81691E-03
             934            1590     8.90536E-03     8.91326E-03
             952            1590     8.90536E-03     8.91326E-03
             933            1590     8.90536E-03     8.91326E-03
             951            1590     8.90536E-03     8.91326E-03
             935            1591     8.90416E-03     8.94164E-03
             952            1591     8.90416E-03     8.94164E-03
             934            1591     8.90416E-03     8.94164E-03
             953            1591     8.90416E-03     8.94164E-03
             936            1592     8.92560E-03     8.99018E-03
             954            1592     8.92560E-03     8.99018E-03
             935            1592     8.92560E-03     8.99018E-03
             953            1592     8.92560E-03     8.99018E-03
             937            1593     8.96925E-03     9.05778E-03
             954            1593     8.96925E-03     9.05778E-03
             955            1593     8.96925E-03     9.05778E-03
             936            1593     8.96925E-03     9.05778E-03
             956            1594     9.05247E-03     9.16525E-03
             955            1594     9.05247E-03     9.16525E-03
             938            1594     9.05247E-03     9.16525E-03
             937            1594     9.05247E-03     9.16525E-03
             938            1595     9.17048E-03     9.30563E-03
             957            1595     9.17048E-03     9.30563E-03
             939            1595     9.17048E-03     9.30563E-03
             956            1595     9.17048E-03     9.30563E-03
             939            1596     9.32734E-03     9.48580E-03
             957            1596     9.32734E-03     9.48580E-03
             958            1596     9.32734E-03     9.48580E-03
             940            1596     9.32734E-03     9.48580E-03
             941            1597     9.50392E-03     9.68739E-03
             940            1597     9.50392E-03     9.68739E-03
             959            1597     9.50392E-03     9.68739E-03
             958            1597     9.50392E-03     9.68739E-03
             941            1598     9.70944E-03     9.91284E-03
             959            1598     9.70944E-03     9.91284E-03
             960            1598     9.70944E-03     9.91284E-03
             942            1598     9.70944E-03     9.91284E-03
             942            1599     9.86545E-03     10.1094E-03
             960            1599     9.86545E-03     10.1094E-03
             943            1599     9.86545E-03     10.1094E-03
             961            1599     9.86545E-03     10.1094E-03
             943            1600     10.0693E-03     10.2712E-03
             944            1600     10.0693E-03     10.2712E-03
             962            1600     10.0693E-03     10.2712E-03
             961            1600     10.0693E-03     10.2712E-03
             945            1601     10.3320E-03     10.4901E-03
             963            1601     10.3320E-03     10.4901E-03
             962            1601     10.3320E-03     10.4901E-03
             944            1601     10.3320E-03     10.4901E-03
             946            1602     10.3232E-03     10.3816E-03
             963            1602     10.3232E-03     10.3816E-03
             964            1602     10.3232E-03     10.3816E-03
             945            1602     10.3232E-03     10.3816E-03
             948            1603     8.67187E-03     8.40258E-03
             966            1603     8.67187E-03     8.40258E-03
             965            1603     8.67187E-03     8.40258E-03
             947            1603     8.67187E-03     8.40258E-03
             948            1604     8.46477E-03     8.26023E-03
             949            1604     8.46477E-03     8.26023E-03
             967            1604     8.46477E-03     8.26023E-03
             966            1604     8.46477E-03     8.26023E-03
             950            1605     8.35583E-03     8.23245E-03
             968            1605     8.35583E-03     8.23245E-03
             967            1605     8.35583E-03     8.23245E-03
             949            1605     8.35583E-03     8.23245E-03
             950            1606     8.46616E-03     8.41236E-03
             968            1606     8.46616E-03     8.41236E-03
             951            1606     8.46616E-03     8.41236E-03
             969            1606     8.46616E-03     8.41236E-03
             970            1607     8.52008E-03     8.52730E-03
             952            1607     8.52008E-03     8.52730E-03
             969            1607     8.52008E-03     8.52730E-03
             951            1607     8.52008E-03     8.52730E-03
             953            1608     8.57686E-03     8.63415E-03
             971            1608     8.57686E-03     8.63415E-03
             970            1608     8.57686E-03     8.63415E-03
             952            1608     8.57686E-03     8.63415E-03
             954            1609     8.62298E-03     8.72122E-03
             972            1609     8.62298E-03     8.72122E-03
             971            1609     8.62298E-03     8.72122E-03
             953            1609     8.62298E-03     8.72122E-03
             955            1610     8.68601E-03     8.82458E-03
             972            1610     8.68601E-03     8.82458E-03
             954            1610     8.68601E-03     8.82458E-03
             973            1610     8.68601E-03     8.82458E-03
             973            1611     8.76990E-03     8.94299E-03
             956            1611     8.76990E-03     8.94299E-03
             974            1611     8.76990E-03     8.94299E-03
             955            1611     8.76990E-03     8.94299E-03
             975            1612     8.87759E-03     9.08828E-03
             974            1612     8.87759E-03     9.08828E-03
             956            1612     8.87759E-03     9.08828E-03
             957            1612     8.87759E-03     9.08828E-03
             957            1613     9.00382E-03     9.24678E-03
             975            1613     9.00382E-03     9.24678E-03
             976            1613     9.00382E-03     9.24678E-03
             958            1613     9.00382E-03     9.24678E-03
             976            1614     9.14629E-03     9.42648E-03
             959            1614     9.14629E-03     9.42648E-03
             958            1614     9.14629E-03     9.42648E-03
             977            1614     9.14629E-03     9.42648E-03
             959            1615     9.27970E-03     9.59541E-03
             960            1615     9.27970E-03     9.59541E-03
             977            1615     9.27970E-03     9.59541E-03
             978            1615     9.27970E-03     9.59541E-03
             960            1616     9.45685E-03     9.80304E-03
             979            1616     9.45685E-03     9.80304E-03
             978            1616     9.45685E-03     9.80304E-03
             961            1616     9.45685E-03     9.80304E-03
             979            1617     9.66529E-03     10.0476E-03
             980            1617     9.66529E-03     10.0476E-03
             962            1617     9.66529E-03     10.0476E-03
             961            1617     9.66529E-03     10.0476E-03
             963            1618     10.3994E-03     10.7466E-03
             981            1618     10.3994E-03     10.7466E-03
             962            1618     10.3994E-03     10.7466E-03
             980            1618     10.3994E-03     10.7466E-03
             964            1619     11.9228E-03     12.2743E-03
             963            1619     11.9228E-03     12.2743E-03
             981            1619     11.9228E-03     12.2743E-03
             982            1619     11.9228E-03     12.2743E-03
             966            1620     8.79839E-03     9.22341E-03
             984            1620     8.79839E-03     9.22341E-03
             965            1620     8.79839E-03     9.22341E-03
             983            1620     8.79839E-03     9.22341E-03
             966            1621     9.02643E-03     9.14452E-03
             985            1621     9.02643E-03     9.14452E-03
             967            1621     9.02643E-03     9.14452E-03
             984            1621     9.02643E-03     9.14452E-03
             967            1622     9.36290E-03     9.38502E-03
             985            1622     9.36290E-03     9.38502E-03
             968            1622     9.36290E-03     9.38502E-03
             986            1622     9.36290E-03     9.38502E-03
             969            1623     9.77053E-03     9.77519E-03
             968            1623     9.77053E-03     9.77519E-03
             987            1623     9.77053E-03     9.77519E-03
             986            1623     9.77053E-03     9.77519E-03
             988            1624     10.0893E-03     10.0783E-03
             970            1624     10.0893E-03     10.0783E-03
             969            1624     10.0893E-03     10.0783E-03
             987            1624     10.0893E-03     10.0783E-03
             989            1625     10.4002E-03     10.3869E-03
             988            1625     10.4002E-03     10.3869E-03
             970            1625     10.4002E-03     10.3869E-03
             971            1625     10.4002E-03     10.3869E-03
             972            1626     10.6830E-03     10.6649E-03
             989            1626     10.6830E-03     10.6649E-03
             990            1626     10.6830E-03     10.6649E-03
             971            1626     10.6830E-03     10.6649E-03
             972            1627     10.9634E-03     10.9408E-03
             973            1627     10.9634E-03     10.9408E-03
             990            1627     10.9634E-03     10.9408E-03
             991            1627     10.9634E-03     10.9408E-03
             974            1628     11.2385E-03     11.2093E-03
             991            1628     11.2385E-03     11.2093E-03
             992            1628     11.2385E-03     11.2093E-03
             973            1628     11.2385E-03     11.2093E-03
             975            1629     11.5022E-03     11.4632E-03
             974            1629     11.5022E-03     11.4632E-03
             992            1629     11.5022E-03     11.4632E-03
             993            1629     11.5022E-03     11.4632E-03
             994            1630     11.7352E-03     11.6827E-03
             975            1630     11.7352E-03     11.6827E-03
             976            1630     11.7352E-03     11.6827E-03
             993            1630     11.7352E-03     11.6827E-03
             995            1631     11.9248E-03     11.8497E-03
             977            1631     11.9248E-03     11.8497E-03
             994            1631     11.9248E-03     11.8497E-03
             976            1631     11.9248E-03     11.8497E-03
             995            1632     12.0153E-03     11.9145E-03
             978            1632     12.0153E-03     11.9145E-03
             996            1632     12.0153E-03     11.9145E-03
             977            1632     12.0153E-03     11.9145E-03
             997            1633     12.0332E-03     11.8789E-03
             979            1633     12.0332E-03     11.8789E-03
             996            1633     12.0332E-03     11.8789E-03
             978            1633     12.0332E-03     11.8789E-03
             997            1634     11.8708E-03     11.6772E-03
             998            1634     11.8708E-03     11.6772E-03
             980            1634     11.8708E-03     11.6772E-03
             979            1634     11.8708E-03     11.6772E-03
             980            1635     11.7140E-03     11.4369E-03
             981            1635     11.7140E-03     11.4369E-03
             999            1635     11.7140E-03     11.4369E-03
             998            1635     11.7140E-03     11.4369E-03
             982            1636     11.4349E-03     11.3339E-03
            1000            1636     11.4349E-03     11.3339E-03
             999            1636     11.4349E-03     11.3339E-03
             981            1636     11.4349E-03     11.3339E-03
             983            1637     8.50915E-03     9.42802E-03
             984            1637     8.50915E-03     9.42802E-03
            1002            1637     8.50915E-03     9.42802E-03
            1001            1637     8.50915E-03     9.42802E-03
            1002            1638     9.70177E-03     10.3411E-03
             985            1638     9.70177E-03     10.3411E-03
            1003            1638     9.70177E-03     10.3411E-03
             984            1638     9.70177E-03     10.3411E-03
            1003            1639     10.4933E-03     10.7817E-03
             986            1639     10.4933E-03     10.7817E-03
            1004            1639     10.4933E-03     10.7817E-03
             985            1639     10.4933E-03     10.7817E-03
             987            1640     11.1011E-03     11.2224E-03
             986            1640     11.1011E-03     11.2224E-03
            1005            1640     11.1011E-03     11.2224E-03
            1004            1640     11.1011E-03     11.2224E-03
             988            1641     11.6238E-03     11.6381E-03
             987            1641     11.6238E-03     11.6381E-03
            1005            1641     11.6238E-03     11.6381E-03
            1006            1641     11.6238E-03     11.6381E-03
            1007            1642     12.1333E-03     12.0666E-03
             989            1642     12.1333E-03     12.0666E-03
            1006            1642     12.1333E-03     12.0666E-03
             988            1642     12.1333E-03     12.0666E-03
             990            1643     12.6408E-03     12.5145E-03
            1007            1643     12.6408E-03     12.5145E-03
            1008            1643     12.6408E-03     12.5145E-03
             989            1643     12.6408E-03     12.5145E-03
             991            1644     13.1658E-03     12.9816E-03
            1009            1644     13.1658E-03     12.9816E-03
            1008            1644     13.1658E-03     12.9816E-03
             990            1644     13.1658E-03     12.9816E-03
             991            1645     13.6912E-03     13.4564E-03
             992            1645     13.6912E-03     13.4564E-03
            1010            1645     13.6912E-03     13.4564E-03
            1009            1645     13.6912E-03     13.4564E-03
             992            1646     14.2073E-03     13.9159E-03
            1011            1646     14.2073E-03     13.9159E-03
             993            1646     14.2073E-03     13.9159E-03
            1010            1646     14.2073E-03     13.9159E-03
            1011            1647     14.6779E-03     14.3310E-03
             994            1647     14.6779E-03     14.3310E-03
            1012            1647     14.6779E-03     14.3310E-03
             993            1647     14.6779E-03     14.3310E-03
             994            1648     15.0644E-03     14.6511E-03
            1012            1648     15.0644E-03     14.6511E-03
             995            1648     15.0644E-03     14.6511E-03
            1013            1648     15.0644E-03     14.6511E-03
            1013            1649     15.3076E-03     14.8213E-03
             996            1649     15.3076E-03     14.8213E-03
            1014            1649     15.3076E-03     14.8213E-03
             995            1649     15.3076E-03     14.8213E-03
             996            1650     15.3150E-03     14.7490E-03
            1015            1650     15.3150E-03     14.7490E-03
            1014            1650     15.3150E-03     14.7490E-03
             997            1650     15.3150E-03     14.7490E-03
            1015            1651     14.9589E-03     14.3034E-03
             997            1651     14.9589E-03     14.3034E-03
            1016            1651     14.9589E-03     14.3034E-03
             998            1651     14.9589E-03     14.3034E-03
             998            1652     13.9366E-03     13.2455E-03
            1017            1652     13.9366E-03     13.2455E-03
            1016            1652     13.9366E-03     13.2455E-03
             999            1652     13.9366E-03     13.2455E-03
             999            1653     11.5011E-03     10.9131E-03
            1018            1653     11.5011E-03     10.9131E-03
            1017            1653     11.5011E-03     10.9131E-03
            1000            1653     11.5011E-03     10.9131E-03
            1002            1654     8.77181E-03     8.84732E-03
            1019            1654     8.77181E-03     8.84732E-03
            1001            1654     8.77181E-03     8.84732E-03
            1020            1654     8.77181E-03     8.84732E-03
            1020            1655     9.71180E-03     10.1294E-03
            1003            1655     9.71180E-03     10.1294E-03
            1021            1655     9.71180E-03     10.1294E-03
            1002            1655     9.71180E-03     10.1294E-03
            1021            1656     10.3128E-03     10.6513E-03
            1022            1656     10.3128E-03     10.6513E-03
            1003            1656     10.3128E-03     10.6513E-03
            1004            1656     10.3128E-03     10.6513E-03
            1022            1657     10.7994E-03     10.9708E-03
            1005            1657     10.7994E-03     10.9708E-03
            1023            1657     10.7994E-03     10.9708E-03
            1004            1657     10.7994E-03     10.9708E-03
            1006            1658     11.2380E-03     11.3083E-03
            1023            1658     11.2380E-03     11.3083E-03
            1024            1658     11.2380E-03     11.3083E-03
            1005            1658     11.2380E-03     11.3083E-03
            1006            1659     11.7012E-03     11.6880E-03
            1025            1659     11.7012E-03     11.6880E-03
            1007            1659     11.7012E-03     11.6880E-03
            1024            1659     11.7012E-03     11.6880E-03
            1007            1660     12.2244E-03     12.1496E-03
            1025            1660     12.2244E-03     12.1496E-03
            1026            1660     12.2244E-03     12.1496E-03
            1008            1660     12.2244E-03     12.1496E-03
            1026            1661     12.8091E-03     12.6853E-03
            1009            1661     12.8091E-03     12.6853E-03
            1027            1661     12.8091E-03     12.6853E-03
            1008            1661     12.8091E-03     12.6853E-03
            1009            1662     13.4570E-03     13.2901E-03
            1028            1662     13.4570E-03     13.2901E-03
            1027            1662     13.4570E-03     13.2901E-03
            1010            1662     13.4570E-03     13.2901E-03
            1028            1663     14.1368E-03     13.9345E-03
            1029            1663     14.1368E-03     13.9345E-03
            1011            1663     14.1368E-03     13.9345E-03
            1010            1663     14.1368E-03     13.9345E-03
            1030            1664     14.8204E-03     14.5836E-03
            1011            1664     14.8204E-03     14.5836E-03
            1012            1664     14.8204E-03     14.5836E-03
            1029            1664     14.8204E-03     14.5836E-03
            1013            1665     15.4476E-03     15.1861E-03
            1031            1665     15.4476E-03     15.1861E-03
            1012            1665     15.4476E-03     15.1861E-03
            1030            1665     15.4476E-03     15.1861E-03
            1014            1666     15.9480E-03     15.6720E-03
            1032            1666     15.9480E-03     15.6720E-03
            1013            1666     15.9480E-03     15.6720E-03
            1031            1666     15.9480E-03     15.6720E-03
            1014            1667     16.2036E-03     15.9375E-03
            1032            1667     16.2036E-03     15.9375E-03
            1033            1667     16.2036E-03     15.9375E-03
            1015            1667     16.2036E-03     15.9375E-03
            1033            1668     16.0484E-03     15.8520E-03
            1016            1668     16.0484E-03     15.8520E-03
            1034            1668     16.0484E-03     15.8520E-03
            1015            1668     16.0484E-03     15.8520E-03
            1034            1669     15.1089E-03     15.0959E-03
            1035            1669     15.1089E-03     15.0959E-03
            1017            1669     15.1089E-03     15.0959E-03
            1016            1669     15.1089E-03     15.0959E-03
            1035            1670     13.5332E-03     13.6699E-03
            1018            1670     13.5332E-03     13.6699E-03
            1036            1670     13.5332E-03     13.6699E-03
            1017            1670     13.5332E-03     13.6699E-03
            1038            1671     8.69385E-03     8.38377E-03
            1020            1671     8.69385E-03     8.38377E-03
            1019            1671     8.69385E-03     8.38377E-03
            1037            1671     8.69385E-03     8.38377E-03
            1039            1672     9.65650E-03     9.58211E-03
            1038            1672     9.65650E-03     9.58211E-03
            1020            1672     9.65650E-03     9.58211E-03
            1021            1672     9.65650E-03     9.58211E-03
            1040            1673     10.2028E-03     10.3352E-03
            1021            1673     10.2028E-03     10.3352E-03
            1022            1673     10.2028E-03     10.3352E-03
            1039            1673     10.2028E-03     10.3352E-03
            1022            1674     10.6025E-03     10.7321E-03
            1040            1674     10.6025E-03     10.7321E-03
            1041            1674     10.6025E-03     10.7321E-03
            1023            1674     10.6025E-03     10.7321E-03
            1023            1675     10.9909E-03     11.0634E-03
            1024            1675     10.9909E-03     11.0634E-03
            1041            1675     10.9909E-03     11.0634E-03
            1042            1675     10.9909E-03     11.0634E-03
            1043            1676     11.4294E-03     11.4544E-03
            1025            1676     11.4294E-03     11.4544E-03
            1042            1676     11.4294E-03     11.4544E-03
            1024            1676     11.4294E-03     11.4544E-03
            1025            1677     11.9615E-03     11.9421E-03
            1026            1677     11.9615E-03     11.9421E-03
            1044            1677     11.9615E-03     11.9421E-03
            1043            1677     11.9615E-03     11.9421E-03
            1045            1678     12.6067E-03     12.5556E-03
            1026            1678     12.6067E-03     12.5556E-03
            1044            1678     12.6067E-03     12.5556E-03
            1027            1678     12.6067E-03     12.5556E-03
            1028            1679     13.3494E-03     13.2753E-03
            1046            1679     13.3494E-03     13.2753E-03
            1027            1679     13.3494E-03     13.2753E-03
            1045            1679     13.3494E-03     13.2753E-03
            1029            1680     14.1712E-03     14.0813E-03
            1047            1680     14.1712E-03     14.0813E-03
            1028            1680     14.1712E-03     14.0813E-03
            1046            1680     14.1712E-03     14.0813E-03
            1030            1681     15.0180E-03     14.9266E-03
            1029            1681     15.0180E-03     14.9266E-03
            1048            1681     15.0180E-03     14.9266E-03
            1047            1681     15.0180E-03     14.9266E-03
            1031            1682     15.8370E-03     15.7533E-03
            1030            1682     15.8370E-03     15.7533E-03
            1049            1682     15.8370E-03     15.7533E-03
            1048            1682     15.8370E-03     15.7533E-03
            1049            1683     16.5240E-03     16.4784E-03
            1032            1683     16.5240E-03     16.4784E-03
            1050            1683     16.5240E-03     16.4784E-03
            1031            1683     16.5240E-03     16.4784E-03
            1032            1684     16.9658E-03     16.9897E-03
            1051            1684     16.9658E-03     16.9897E-03
            1033            1684     16.9658E-03     16.9897E-03
            1050            1684     16.9658E-03     16.9897E-03
            1051            1685     16.9684E-03     17.1177E-03
            1052            1685     16.9684E-03     17.1177E-03
            1034            1685     16.9684E-03     17.1177E-03
            1033            1685     16.9684E-03     17.1177E-03
            1034            1686     16.4286E-03     16.7031E-03
            1053            1686     16.4286E-03     16.7031E-03
            1052            1686     16.4286E-03     16.7031E-03
            1035            1686     16.4286E-03     16.7031E-03
            1053            1687     15.8302E-03     16.0058E-03
            1035            1687     15.8302E-03     16.0058E-03
            1036            1687     15.8302E-03     16.0058E-03
            1054            1687     15.8302E-03     16.0058E-03
            1038            1688     8.74897E-03     8.33731E-03
            1056            1688     8.74897E-03     8.33731E-03
            1055            1688     8.74897E-03     8.33731E-03
            1037            1688     8.74897E-03     8.33731E-03
            1057            1689     9.48535E-03     9.22267E-03
            1056            1689     9.48535E-03     9.22267E-03
            1039            1689     9.48535E-03     9.22267E-03
            1038            1689     9.48535E-03     9.22267E-03
            1057            1690     10.0434E-03     9.93568E-03
            1058            1690     10.0434E-03     9.93568E-03
            1039            1690     10.0434E-03     9.93568E-03
            1040            1690     10.0434E-03     9.93568E-03
            1041            1691     10.4279E-03     10.4430E-03
            1040            1691     10.4279E-03     10.4430E-03
            1058            1691     10.4279E-03     10.4430E-03
            1059            1691     10.4279E-03     10.4430E-03
            1042            1692     10.7907E-03     10.8337E-03
            1059            1692     10.7907E-03     10.8337E-03
            1060            1692     10.7907E-03     10.8337E-03
            1041            1692     10.7907E-03     10.8337E-03
            1043            1693     11.2176E-03     11.2577E-03
            1060            1693     11.2176E-03     11.2577E-03
            1042            1693     11.2176E-03     11.2577E-03
            1061            1693     11.2176E-03     11.2577E-03
            1044            1694     11.7666E-03     11.8003E-03
            1043            1694     11.7666E-03     11.8003E-03
            1062            1694     11.7666E-03     11.8003E-03
            1061            1694     11.7666E-03     11.8003E-03
            1063            1695     12.4526E-03     12.4786E-03
            1044            1695     12.4526E-03     12.4786E-03
            1045            1695     12.4526E-03     12.4786E-03
            1062            1695     12.4526E-03     12.4786E-03
            1063            1696     13.2730E-03     13.2998E-03
            1045            1696     13.2730E-03     13.2998E-03
            1046            1696     13.2730E-03     13.2998E-03
            1064            1696     13.2730E-03     13.2998E-03
            1046            1697     14.1936E-03     14.2289E-03
            1047            1697     14.1936E-03     14.2289E-03
            1064            1697     14.1936E-03     14.2289E-03
            1065            1697     14.1936E-03     14.2289E-03
            1047            1698     15.1738E-03     15.2269E-03
            1048            1698     15.1738E-03     15.2269E-03
            1065            1698     15.1738E-03     15.2269E-03
            1066            1698     15.1738E-03     15.2269E-03
            1049            1699     16.1321E-03     16.2255E-03
            1048            1699     16.1321E-03     16.2255E-03
            1067            1699     16.1321E-03     16.2255E-03
            1066            1699     16.1321E-03     16.2255E-03
            1049            1700     16.9906E-03     17.1372E-03
            1067            1700     16.9906E-03     17.1372E-03
            1050            1700     16.9906E-03     17.1372E-03
            1068            1700     16.9906E-03     17.1372E-03
            1051            1701     17.6147E-03     17.8478E-03
            1050            1701     17.6147E-03     17.8478E-03
            1068            1701     17.6147E-03     17.8478E-03
            1069            1701     17.6147E-03     17.8478E-03
            1051            1702     17.8952E-03     18.2177E-03
            1052            1702     17.8952E-03     18.2177E-03
            1070            1702     17.8952E-03     18.2177E-03
            1069            1702     17.8952E-03     18.2177E-03
            1052            1703     17.9290E-03     18.2371E-03
            1053            1703     17.9290E-03     18.2371E-03
            1070            1703     17.9290E-03     18.2371E-03
            1071            1703     17.9290E-03     18.2371E-03
            1053            1704     17.9627E-03     18.1748E-03
            1054            1704     17.9627E-03     18.1748E-03
            1072            1704     17.9627E-03     18.1748E-03
            1071            1704     17.9627E-03     18.1748E-03
            1056            1705     8.97411E-03     8.45835E-03
            1073            1705     8.97411E-03     8.45835E-03
            1074            1705     8.97411E-03     8.45835E-03
            1055            1705     8.97411E-03     8.45835E-03
            1056            1706     9.44167E-03     9.06494E-03
            1075            1706     9.44167E-03     9.06494E-03
            1074            1706     9.44167E-03     9.06494E-03
            1057            1706     9.44167E-03     9.06494E-03
            1057            1707     9.87894E-03     9.65538E-03
            1076            1707     9.87894E-03     9.65538E-03
            1058            1707     9.87894E-03     9.65538E-03
            1075            1707     9.87894E-03     9.65538E-03
            1059            1708     10.2428E-03     10.1435E-03
            1076            1708     10.2428E-03     10.1435E-03
            1077            1708     10.2428E-03     10.1435E-03
            1058            1708     10.2428E-03     10.1435E-03
            1078            1709     10.5773E-03     10.5750E-03
            1077            1709     10.5773E-03     10.5750E-03
            1060            1709     10.5773E-03     10.5750E-03
            1059            1709     10.5773E-03     10.5750E-03
            1061            1710     10.9991E-03     11.0469E-03
            1060            1710     10.9991E-03     11.0469E-03
            1078            1710     10.9991E-03     11.0469E-03
            1079            1710     10.9991E-03     11.0469E-03
            1080            1711     11.5518E-03     11.6299E-03
            1079            1711     11.5518E-03     11.6299E-03
            1061            1711     11.5518E-03     11.6299E-03
            1062            1711     11.5518E-03     11.6299E-03
            1063            1712     12.2675E-03     12.3716E-03
            1062            1712     12.2675E-03     12.3716E-03
            1080            1712     12.2675E-03     12.3716E-03
            1081            1712     12.2675E-03     12.3716E-03
            1082            1713     13.1384E-03     13.2652E-03
            1064            1713     13.1384E-03     13.2652E-03
            1081            1713     13.1384E-03     13.2652E-03
            1063            1713     13.1384E-03     13.2652E-03
            1065            1714     14.1347E-03     14.2903E-03
            1064            1714     14.1347E-03     14.2903E-03
            1083            1714     14.1347E-03     14.2903E-03
            1082            1714     14.1347E-03     14.2903E-03
            1065            1715     15.2075E-03     15.3993E-03
            1083            1715     15.2075E-03     15.3993E-03
            1084            1715     15.2075E-03     15.3993E-03
            1066            1715     15.2075E-03     15.3993E-03
            1084            1716     16.3066E-03     16.5396E-03
            1066            1716     16.3066E-03     16.5396E-03
            1067            1716     16.3066E-03     16.5396E-03
            1085            1716     16.3066E-03     16.5396E-03
            1085            1717     17.3299E-03     17.6287E-03
            1067            1717     17.3299E-03     17.6287E-03
            1086            1717     17.3299E-03     17.6287E-03
            1068            1717     17.3299E-03     17.6287E-03
            1069            1718     18.2052E-03     18.5568E-03
            1068            1718     18.2052E-03     18.5568E-03
            1086            1718     18.2052E-03     18.5568E-03
            1087            1718     18.2052E-03     18.5568E-03
            1070            1719     18.8821E-03     19.2572E-03
            1087            1719     18.8821E-03     19.2572E-03
            1088            1719     18.8821E-03     19.2572E-03
            1069            1719     18.8821E-03     19.2572E-03
            1088            1720     19.3914E-03     19.7465E-03
            1071            1720     19.3914E-03     19.7465E-03
            1070            1720     19.3914E-03     19.7465E-03
            1089            1720     19.3914E-03     19.7465E-03
            1072            1721     20.0098E-03     20.2185E-03
            1071            1721     20.0098E-03     20.2185E-03
            1089            1721     20.0098E-03     20.2185E-03
            1090            1721     20.0098E-03     20.2185E-03
            1074            1722     9.35364E-03     8.81493E-03
            1091            1722     9.35364E-03     8.81493E-03
            1073            1722     9.35364E-03     8.81493E-03
            1092            1722     9.35364E-03     8.81493E-03
            1075            1723     9.55791E-03     9.11074E-03
            1074            1723     9.55791E-03     9.11074E-03
            1093            1723     9.55791E-03     9.11074E-03
            1092            1723     9.55791E-03     9.11074E-03
            1075            1724     9.80539E-03     9.49765E-03
            1076            1724     9.80539E-03     9.49765E-03
            1093            1724     9.80539E-03     9.49765E-03
            1094            1724     9.80539E-03     9.49765E-03
            1095            1725     10.0436E-03     9.88334E-03
            1077            1725     10.0436E-03     9.88334E-03
            1094            1725     10.0436E-03     9.88334E-03
            1076            1725     10.0436E-03     9.88334E-03
            1077            1726     10.3333E-03     10.2927E-03
            1078            1726     10.3333E-03     10.2927E-03
            1095            1726     10.3333E-03     10.2927E-03
            1096            1726     10.3333E-03     10.2927E-03
            1079            1727     10.7088E-03     10.7625E-03
            1097            1727     10.7088E-03     10.7625E-03
            1096            1727     10.7088E-03     10.7625E-03
            1078            1727     10.7088E-03     10.7625E-03
            1097            1728     11.2545E-03     11.3784E-03
            1080            1728     11.2545E-03     11.3784E-03
            1098            1728     11.2545E-03     11.3784E-03
            1079            1728     11.2545E-03     11.3784E-03
            1099            1729     11.9863E-03     12.1625E-03
            1081            1729     11.9863E-03     12.1625E-03
            1098            1729     11.9863E-03     12.1625E-03
            1080            1729     11.9863E-03     12.1625E-03
            1099            1730     12.8862E-03     13.1112E-03
            1082            1730     12.8862E-03     13.1112E-03
            1100            1730     12.8862E-03     13.1112E-03
            1081            1730     12.8862E-03     13.1112E-03
            1083            1731     13.9349E-03     14.2006E-03
            1101            1731     13.9349E-03     14.2006E-03
            1100            1731     13.9349E-03     14.2006E-03
            1082            1731     13.9349E-03     14.2006E-03
            1102            1732     15.0892E-03     15.3997E-03
            1084            1732     15.0892E-03     15.3997E-03
            1083            1732     15.0892E-03     15.3997E-03
            1101            1732     15.0892E-03     15.3997E-03
            1084            1733     16.3028E-03     16.6571E-03
            1103            1733     16.3028E-03     16.6571E-03
            1085            1733     16.3028E-03     16.6571E-03
            1102            1733     16.3028E-03     16.6571E-03
            1085            1734     17.5448E-03     17.9314E-03
            1103            1734     17.5448E-03     17.9314E-03
            1086            1734     17.5448E-03     17.9314E-03
            1104            1734     17.5448E-03     17.9314E-03
            1104            1735     18.7239E-03     19.1502E-03
            1105            1735     18.7239E-03     19.1502E-03
            1087            1735     18.7239E-03     19.1502E-03
            1086            1735     18.7239E-03     19.1502E-03
            1087            1736     19.8215E-03     20.2395E-03
            1088            1736     19.8215E-03     20.2395E-03
            1105            1736     19.8215E-03     20.2395E-03
            1106            1736     19.8215E-03     20.2395E-03
            1088            1737     20.8768E-03     21.2095E-03
            1106            1737     20.8768E-03     21.2095E-03
            1089            1737     20.8768E-03     21.2095E-03
            1107            1737     20.8768E-03     21.2095E-03
            1090            1738     21.9587E-03     22.2418E-03
            1107            1738     21.9587E-03     22.2418E-03
            1089            1738     21.9587E-03     22.2418E-03
            1108            1738     21.9587E-03     22.2418E-03
            1092            1739     9.96187E-03     9.40003E-03
            1109            1739     9.96187E-03     9.40003E-03
            1110            1739     9.96187E-03     9.40003E-03
            1091            1739     9.96187E-03     9.40003E-03
            1111            1740     9.83880E-03     9.35517E-03
            1093            1740     9.83880E-03     9.35517E-03
            1092            1740     9.83880E-03     9.35517E-03
            1110            1740     9.83880E-03     9.35517E-03
            1093            1741     9.81987E-03     9.47070E-03
            1094            1741     9.81987E-03     9.47070E-03
            1111            1741     9.81987E-03     9.47070E-03
            1112            1741     9.81987E-03     9.47070E-03
            1113            1742     9.87395E-03     9.67314E-03
            1094            1742     9.87395E-03     9.67314E-03
            1095            1742     9.87395E-03     9.67314E-03
            1112            1742     9.87395E-03     9.67314E-03
            1114            1743     9.99036E-03     9.93479E-03
            1095            1743     9.99036E-03     9.93479E-03
            1113            1743     9.99036E-03     9.93479E-03
            1096            1743     9.99036E-03     9.93479E-03
            1096            1744     10.3034E-03     10.3730E-03
            1097            1744     10.3034E-03     10.3730E-03
            1114            1744     10.3034E-03     10.3730E-03
            1115            1744     10.3034E-03     10.3730E-03
            1116            1745     10.8301E-03     10.9999E-03
            1097            1745     10.8301E-03     10.9999E-03
            1115            1745     10.8301E-03     10.9999E-03
            1098            1745     10.8301E-03     10.9999E-03
            1117            1746     11.5581E-03     11.8098E-03
            1099            1746     11.5581E-03     11.8098E-03
            1098            1746     11.5581E-03     11.8098E-03
            1116            1746     11.5581E-03     11.8098E-03
            1099            1747     12.4834E-03     12.7975E-03
            1100            1747     12.4834E-03     12.7975E-03
            1117            1747     12.4834E-03     12.7975E-03
            1118            1747     12.4834E-03     12.7975E-03
            1101            1748     13.5619E-03     13.9334E-03
            1118            1748     13.5619E-03     13.9334E-03
            1100            1748     13.5619E-03     13.9334E-03
            1119            1748     13.5619E-03     13.9334E-03
            1102            1749     14.7805E-03     15.1933E-03
            1120            1749     14.7805E-03     15.1933E-03
            1101            1749     14.7805E-03     15.1933E-03
            1119            1749     14.7805E-03     15.1933E-03
            1120            1750     16.1083E-03     16.5607E-03
            1103            1750     16.1083E-03     16.5607E-03
            1102            1750     16.1083E-03     16.5607E-03
            1121            1750     16.1083E-03     16.5607E-03
            1103            1751     17.5331E-03     18.0033E-03
            1104            1751     17.5331E-03     18.0033E-03
            1121            1751     17.5331E-03     18.0033E-03
            1122            1751     17.5331E-03     18.0033E-03
            1105            1752     19.0976E-03     19.5423E-03
            1123            1752     19.0976E-03     19.5423E-03
            1122            1752     19.0976E-03     19.5423E-03
            1104            1752     19.0976E-03     19.5423E-03
            1124            1753     20.6904E-03     21.1267E-03
            1105            1753     20.6904E-03     21.1267E-03
            1106            1753     20.6904E-03     21.1267E-03
            1123            1753     20.6904E-03     21.1267E-03
            1125            1754     22.2848E-03     22.6825E-03
            1106            1754     22.2848E-03     22.6825E-03
            1107            1754     22.2848E-03     22.6825E-03
            1124            1754     22.2848E-03     22.6825E-03
            1108            1755     23.9815E-03     24.2033E-03
            1126            1755     23.9815E-03     24.2033E-03
            1107            1755     23.9815E-03     24.2033E-03
            1125            1755     23.9815E-03     24.2033E-03
            1109            1756     10.7718E-03     10.2155E-03
            1110            1756     10.7718E-03     10.2155E-03
            1127            1756     10.7718E-03     10.2155E-03
            1128            1756     10.7718E-03     10.2155E-03
            1129            1757     10.3611E-03     9.87126E-03
            1110            1757     10.3611E-03     9.87126E-03
            1111            1757     10.3611E-03     9.87126E-03
            1128            1757     10.3611E-03     9.87126E-03
            1112            1758     9.94788E-03     9.57259E-03
            1130            1758     9.94788E-03     9.57259E-03
            1129            1758     9.94788E-03     9.57259E-03
            1111            1758     9.94788E-03     9.57259E-03
            1131            1759     9.57062E-03     9.34956E-03
            1112            1759     9.57062E-03     9.34956E-03
            1130            1759     9.57062E-03     9.34956E-03
            1113            1759     9.57062E-03     9.34956E-03
            1132            1760     9.50658E-03     9.45315E-03
            1113            1760     9.50658E-03     9.45315E-03
            1114            1760     9.50658E-03     9.45315E-03
            1131            1760     9.50658E-03     9.45315E-03
            1133            1761     9.74442E-03     9.84188E-03
            1114            1761     9.74442E-03     9.84188E-03
            1132            1761     9.74442E-03     9.84188E-03
            1115            1761     9.74442E-03     9.84188E-03
            1134            1762     10.2354E-03     10.4616E-03
            1115            1762     10.2354E-03     10.4616E-03
            1133            1762     10.2354E-03     10.4616E-03
            1116            1762     10.2354E-03     10.4616E-03
            1116            1763     10.9749E-03     11.3015E-03
            1134            1763     10.9749E-03     11.3015E-03
            1117            1763     10.9749E-03     11.3015E-03
            1135            1763     10.9749E-03     11.3015E-03
            1135            1764     11.9055E-03     12.3128E-03
            1117            1764     11.9055E-03     12.3128E-03
            1118            1764     11.9055E-03     12.3128E-03
            1136            1764     11.9055E-03     12.3128E-03
            1118            1765     13.0174E-03     13.4822E-03
            1137            1765     13.0174E-03     13.4822E-03
            1136            1765     13.0174E-03     13.4822E-03
            1119            1765     13.0174E-03     13.4822E-03
            1138            1766     14.2713E-03     14.7867E-03
            1120            1766     14.2713E-03     14.7867E-03
            1119            1766     14.2713E-03     14.7867E-03
            1137            1766     14.2713E-03     14.7867E-03
            1138            1767     15.6881E-03     16.2242E-03
            1139            1767     15.6881E-03     16.2242E-03
            1120            1767     15.6881E-03     16.2242E-03
            1121            1767     15.6881E-03     16.2242E-03
            1122            1768     17.2706E-03     17.8237E-03
            1139            1768     17.2706E-03     17.8237E-03
            1121            1768     17.2706E-03     17.8237E-03
            1140            1768     17.2706E-03     17.8237E-03
            1141            1769     19.0879E-03     19.6018E-03
            1140            1769     19.0879E-03     19.6018E-03
            1122            1769     19.0879E-03     19.6018E-03
            1123            1769     19.0879E-03     19.6018E-03
            1141            1770     21.3192E-03     21.7152E-03
            1123            1770     21.3192E-03     21.7152E-03
            1142            1770     21.3192E-03     21.7152E-03
            1124            1770     21.3192E-03     21.7152E-03
            1143            1771     23.7027E-03     24.0393E-03
            1142            1771     23.7027E-03     24.0393E-03
            1124            1771     23.7027E-03     24.0393E-03
            1125            1771     23.7027E-03     24.0393E-03
            1143            1772     25.9385E-03     26.3662E-03
            1144            1772     25.9385E-03     26.3662E-03
            1125            1772     25.9385E-03     26.3662E-03
            1126            1772     25.9385E-03     26.3662E-03
            1146            1773     12.1399E-03     11.6069E-03
            1145            1773     12.1399E-03     11.6069E-03
            1128            1773     12.1399E-03     11.6069E-03
            1127            1773     12.1399E-03     11.6069E-03
            1146            1774     11.0688E-03     10.5557E-03
            1147            1774     11.0688E-03     10.5557E-03
            1128            1774     11.0688E-03     10.5557E-03
            1129            1774     11.0688E-03     10.5557E-03
            1129            1775     9.76510E-03     9.36187E-03
            1148            1775     9.76510E-03     9.36187E-03
            1147            1775     9.76510E-03     9.36187E-03
            1130            1775     9.76510E-03     9.36187E-03
            1148            1776     9.03396E-03     8.80492E-03
            1130            1776     9.03396E-03     8.80492E-03
            1131            1776     9.03396E-03     8.80492E-03
            1149            1776     9.03396E-03     8.80492E-03
            1131            1777     8.83017E-03     8.79005E-03
            1150            1777     8.83017E-03     8.79005E-03
            1132            1777     8.83017E-03     8.79005E-03
            1149            1777     8.83017E-03     8.79005E-03
            1150            1778     8.98519E-03     9.12635E-03
            1132            1778     8.98519E-03     9.12635E-03
            1133            1778     8.98519E-03     9.12635E-03
            1151            1778     8.98519E-03     9.12635E-03
            1152            1779     9.48211E-03     9.77579E-03
            1133            1779     9.48211E-03     9.77579E-03
            1151            1779     9.48211E-03     9.77579E-03
            1134            1779     9.48211E-03     9.77579E-03
            1153            1780     10.2248E-03     10.6369E-03
            1134            1780     10.2248E-03     10.6369E-03
            1135            1780     10.2248E-03     10.6369E-03
            1152            1780     10.2248E-03     10.6369E-03
            1154            1781     11.1843E-03     11.6846E-03
            1135            1781     11.1843E-03     11.6846E-03
            1153            1781     11.1843E-03     11.6846E-03
            1136            1781     11.1843E-03     11.6846E-03
            1154            1782     12.3095E-03     12.8734E-03
            1137            1782     12.3095E-03     12.8734E-03
            1155            1782     12.3095E-03     12.8734E-03
            1136            1782     12.3095E-03     12.8734E-03
            1155            1783     13.6027E-03     14.2069E-03
            1138            1783     13.6027E-03     14.2069E-03
            1137            1783     13.6027E-03     14.2069E-03
            1156            1783     13.6027E-03     14.2069E-03
            1138            1784     15.0507E-03     15.6849E-03
            1156            1784     15.0507E-03     15.6849E-03
            1139            1784     15.0507E-03     15.6849E-03
            1157            1784     15.0507E-03     15.6849E-03
            1158            1785     16.7339E-03     17.3619E-03
            1139            1785     16.7339E-03     17.3619E-03
            1140            1785     16.7339E-03     17.3619E-03
            1157            1785     16.7339E-03     17.3619E-03
            1140            1786     18.6954E-03     19.3215E-03
            1159            1786     18.6954E-03     19.3215E-03
            1158            1786     18.6954E-03     19.3215E-03
            1141            1786     18.6954E-03     19.3215E-03
            1141            1787     21.1832E-03     21.7106E-03
            1159            1787     21.1832E-03     21.7106E-03
            1160            1787     21.1832E-03     21.7106E-03
            1142            1787     21.1832E-03     21.7106E-03
            1161            1788     24.6329E-03     24.9131E-03
            1142            1788     24.6329E-03     24.9131E-03
            1160            1788     24.6329E-03     24.9131E-03
            1143            1788     24.6329E-03     24.9131E-03
            1143            1789     28.2060E-03     28.2223E-03
            1161            1789     28.2060E-03     28.2223E-03
            1162            1789     28.2060E-03     28.2223E-03
            1144            1789     28.2060E-03     28.2223E-03
            1164            1790     13.7713E-03     13.1511E-03
            1145            1790     13.7713E-03     13.1511E-03
            1163            1790     13.7713E-03     13.1511E-03
            1146            1790     13.7713E-03     13.1511E-03
            1164            1791     10.9511E-03     10.3705E-03
            1147            1791     10.9511E-03     10.3705E-03
            1146            1791     10.9511E-03     10.3705E-03
            1165            1791     10.9511E-03     10.3705E-03
            1147            1792     9.08122E-03     8.64313E-03
            1148            1792     9.08122E-03     8.64313E-03
            1166            1792     9.08122E-03     8.64313E-03
            1165            1792     9.08122E-03     8.64313E-03
            1167            1793     8.23394E-03     7.98895E-03
            1166            1793     8.23394E-03     7.98895E-03
            1149            1793     8.23394E-03     7.98895E-03
            1148            1793     8.23394E-03     7.98895E-03
            1149            1794     7.89753E-03     7.87995E-03
            1168            1794     7.89753E-03     7.87995E-03
            1167            1794     7.89753E-03     7.87995E-03
            1150            1794     7.89753E-03     7.87995E-03
            1150            1795     8.06111E-03     8.26101E-03
            1168            1795     8.06111E-03     8.26101E-03
            1151            1795     8.06111E-03     8.26101E-03
            1169            1795     8.06111E-03     8.26101E-03
            1151            1796     8.56851E-03     8.94576E-03
            1152            1796     8.56851E-03     8.94576E-03
            1169            1796     8.56851E-03     8.94576E-03
            1170            1796     8.56851E-03     8.94576E-03
            1153            1797     9.35590E-03     9.86871E-03
            1171            1797     9.35590E-03     9.86871E-03
            1170            1797     9.35590E-03     9.86871E-03
            1152            1797     9.35590E-03     9.86871E-03
            1153            1798     10.3471E-03     10.9497E-03
            1171            1798     10.3471E-03     10.9497E-03
            1172            1798     10.3471E-03     10.9497E-03
            1154            1798     10.3471E-03     10.9497E-03
            1173            1799     11.5085E-03     12.1738E-03
            1155            1799     11.5085E-03     12.1738E-03
            1154            1799     11.5085E-03     12.1738E-03
            1172            1799     11.5085E-03     12.1738E-03
            1155            1800     12.8183E-03     13.5153E-03
            1174            1800     12.8183E-03     13.5153E-03
            1156            1800     12.8183E-03     13.5153E-03
            1173            1800     12.8183E-03     13.5153E-03
            1156            1801     14.3018E-03     15.0178E-03
            1157            1801     14.3018E-03     15.0178E-03
            1174            1801     14.3018E-03     15.0178E-03
            1175            1801     14.3018E-03     15.0178E-03
            1176            1802     15.9805E-03     16.7003E-03
            1158            1802     15.9805E-03     16.7003E-03
            1175            1802     15.9805E-03     16.7003E-03
            1157            1802     15.9805E-03     16.7003E-03
            1159            1803     18.0082E-03     18.7272E-03
            1176            1803     18.0082E-03     18.7272E-03
            1177            1803     18.0082E-03     18.7272E-03
            1158            1803     18.0082E-03     18.7272E-03
            1178            1804     20.4531E-03     21.1989E-03
            1177            1804     20.4531E-03     21.1989E-03
            1159            1804     20.4531E-03     21.1989E-03
            1160            1804     20.4531E-03     21.1989E-03
            1160            1805     24.0069E-03     24.7500E-03
            1161            1805     24.0069E-03     24.7500E-03
            1178            1805     24.0069E-03     24.7500E-03
            1179            1805     24.0069E-03     24.7500E-03
            1161            1806     29.2839E-03     29.8487E-03
            1179            1806     29.2839E-03     29.8487E-03
            1162            1806     29.2839E-03     29.8487E-03
            1180            1806     29.2839E-03     29.8487E-03
            1164            1807     12.5626E-03     13.8292E-03
            1163            1807     12.5626E-03     13.8292E-03
            1181            1807     12.5626E-03     13.8292E-03
            1182            1807     12.5626E-03     13.8292E-03
            1165            1808     11.3518E-03     11.5888E-03
            1164            1808     11.3518E-03     11.5888E-03
            1182            1808     11.3518E-03     11.5888E-03
            1183            1808     11.3518E-03     11.5888E-03
            1165            1809     10.9066E-03     10.8767E-03
            1183            1809     10.9066E-03     10.8767E-03
            1166            1809     10.9066E-03     10.8767E-03
            1184            1809     10.9066E-03     10.8767E-03
            1185            1810     10.8246E-03     10.7735E-03
            1166            1810     10.8246E-03     10.7735E-03
            1167            1810     10.8246E-03     10.7735E-03
            1184            1810     10.8246E-03     10.7735E-03
            1186            1811     11.1020E-03     11.0899E-03
            1185            1811     11.1020E-03     11.0899E-03
            1167            1811     11.1020E-03     11.0899E-03
            1168            1811     11.1020E-03     11.0899E-03
            1168            1812     11.7168E-03     11.7845E-03
            1186            1812     11.7168E-03     11.7845E-03
            1169            1812     11.7168E-03     11.7845E-03
            1187            1812     11.7168E-03     11.7845E-03
            1188            1813     12.5974E-03     12.7264E-03
            1170            1813     12.5974E-03     12.7264E-03
            1169            1813     12.5974E-03     12.7264E-03
            1187            1813     12.5974E-03     12.7264E-03
            1171            1814     13.6946E-03     13.8659E-03
            1188            1814     13.6946E-03     13.8659E-03
            1189            1814     13.6946E-03     13.8659E-03
            1170            1814     13.6946E-03     13.8659E-03
            1171            1815     14.9467E-03     15.1324E-03
            1172            1815     14.9467E-03     15.1324E-03
            1189            1815     14.9467E-03     15.1324E-03
            1190            1815     14.9467E-03     15.1324E-03
            1172            1816     16.3083E-03     16.4892E-03
            1173            1816     16.3083E-03     16.4892E-03
            1191            1816     16.3083E-03     16.4892E-03
            1190            1816     16.3083E-03     16.4892E-03
            1173            1817     17.7471E-03     17.8951E-03
            1174            1817     17.7471E-03     17.8951E-03
            1192            1817     17.7471E-03     17.8951E-03
            1191            1817     17.7471E-03     17.8951E-03
            1192            1818     19.2387E-03     19.3428E-03
            1193            1818     19.2387E-03     19.3428E-03
            1175            1818     19.2387E-03     19.3428E-03
            1174            1818     19.2387E-03     19.3428E-03
            1193            1819     20.7757E-03     20.8055E-03
            1175            1819     20.7757E-03     20.8055E-03
            1194            1819     20.7757E-03     20.8055E-03
            1176            1819     20.7757E-03     20.8055E-03
            1176            1820     22.3606E-03     22.3225E-03
            1177            1820     22.3606E-03     22.3225E-03
            1195            1820     22.3606E-03     22.3225E-03
            1194            1820     22.3606E-03     22.3225E-03
            1177            1821     24.0435E-03     23.9307E-03
            1178            1821     24.0435E-03     23.9307E-03
            1195            1821     24.0435E-03     23.9307E-03
            1196            1821     24.0435E-03     23.9307E-03
            1197            1822     25.8505E-03     25.7502E-03
            1178            1822     25.8505E-03     25.7502E-03
            1196            1822     25.8505E-03     25.7502E-03
            1179            1822     25.8505E-03     25.7502E-03
            1197            1823     28.2944E-03     28.7233E-03
            1180            1823     28.2944E-03     28.7233E-03
            1179            1823     28.2944E-03     28.7233E-03
            1198            1823     28.2944E-03     28.7233E-03
            1200            1824     12.0527E-03     13.6653E-03
            1181            1824     12.0527E-03     13.6653E-03
            1182            1824     12.0527E-03     13.6653E-03
            1199            1824     12.0527E-03     13.6653E-03
            1182            1825     12.2849E-03     13.4077E-03
            1183            1825     12.2849E-03     13.4077E-03
            1201            1825     12.2849E-03     13.4077E-03
            1200            1825     12.2849E-03     13.4077E-03
            1183            1826     12.8239E-03     13.3384E-03
            1201            1826     12.8239E-03     13.3384E-03
            1184            1826     12.8239E-03     13.3384E-03
            1202            1826     12.8239E-03     13.3384E-03
            1184            1827     13.4166E-03     13.6402E-03
            1202            1827     13.4166E-03     13.6402E-03
            1203            1827     13.4166E-03     13.6402E-03
            1185            1827     13.4166E-03     13.6402E-03
            1204            1828     14.2178E-03     14.2720E-03
            1185            1828     14.2178E-03     14.2720E-03
            1203            1828     14.2178E-03     14.2720E-03
            1186            1828     14.2178E-03     14.2720E-03
            1187            1829     15.2733E-03     15.2158E-03
            1204            1829     15.2733E-03     15.2158E-03
            1186            1829     15.2733E-03     15.2158E-03
            1205            1829     15.2733E-03     15.2158E-03
            1187            1830     16.5590E-03     16.4357E-03
            1188            1830     16.5590E-03     16.4357E-03
            1206            1830     16.5590E-03     16.4357E-03
            1205            1830     16.5590E-03     16.4357E-03
            1207            1831     18.0528E-03     17.8673E-03
            1188            1831     18.0528E-03     17.8673E-03
            1189            1831     18.0528E-03     17.8673E-03
            1206            1831     18.0528E-03     17.8673E-03
            1189            1832     19.6862E-03     19.4523E-03
            1190            1832     19.6862E-03     19.4523E-03
            1208            1832     19.6862E-03     19.4523E-03
            1207            1832     19.6862E-03     19.4523E-03
            1209            1833     21.4139E-03     21.1181E-03
            1190            1833     21.4139E-03     21.1181E-03
            1208            1833     21.4139E-03     21.1181E-03
            1191            1833     21.4139E-03     21.1181E-03
            1192            1834     23.1660E-03     22.8098E-03
            1191            1834     23.1660E-03     22.8098E-03
            1209            1834     23.1660E-03     22.8098E-03
            1210            1834     23.1660E-03     22.8098E-03
            1210            1835     24.8853E-03     24.4505E-03
            1193            1835     24.8853E-03     24.4505E-03
            1192            1835     24.8853E-03     24.4505E-03
            1211            1835     24.8853E-03     24.4505E-03
            1193            1836     26.4967E-03     25.9792E-03
            1211            1836     26.4967E-03     25.9792E-03
            1212            1836     26.4967E-03     25.9792E-03
            1194            1836     26.4967E-03     25.9792E-03
            1213            1837     27.9109E-03     27.3086E-03
            1195            1837     27.9109E-03     27.3086E-03
            1194            1837     27.9109E-03     27.3086E-03
            1212            1837     27.9109E-03     27.3086E-03
            1196            1838     29.0058E-03     28.3297E-03
            1213            1838     29.0058E-03     28.3297E-03
            1214            1838     29.0058E-03     28.3297E-03
            1195            1838     29.0058E-03     28.3297E-03
            1197            1839     29.5474E-03     28.9045E-03
            1196            1839     29.5474E-03     28.9045E-03
            1215            1839     29.5474E-03     28.9045E-03
            1214            1839     29.5474E-03     28.9045E-03
            1198            1840     29.1547E-03     28.5200E-03
            1216            1840     29.1547E-03     28.5200E-03
            1197            1840     29.1547E-03     28.5200E-03
            1215            1840     29.1547E-03     28.5200E-03
            1218            1841     13.3891E-03     13.0937E-03
            1199            1841     13.3891E-03     13.0937E-03
            1217            1841     13.3891E-03     13.0937E-03
            1200            1841     13.3891E-03     13.0937E-03
            1200            1842     12.7312E-03     13.2160E-03
            1201            1842     12.7312E-03     13.2160E-03
            1218            1842     12.7312E-03     13.2160E-03
            1219            1842     12.7312E-03     13.2160E-03
            1219            1843     12.4175E-03     12.9289E-03
            1202            1843     12.4175E-03     12.9289E-03
            1220            1843     12.4175E-03     12.9289E-03
            1201            1843     12.4175E-03     12.9289E-03
            1221            1844     12.6314E-03     12.9178E-03
            1202            1844     12.6314E-03     12.9178E-03
            1203            1844     12.6314E-03     12.9178E-03
            1220            1844     12.6314E-03     12.9178E-03
            1204            1845     13.2200E-03     13.3640E-03
            1221            1845     13.2200E-03     13.3640E-03
            1203            1845     13.2200E-03     13.3640E-03
            1222            1845     13.2200E-03     13.3640E-03
            1205            1846     14.2346E-03     14.2697E-03
            1223            1846     14.2346E-03     14.2697E-03
            1204            1846     14.2346E-03     14.2697E-03
            1222            1846     14.2346E-03     14.2697E-03
            1224            1847     15.6260E-03     15.5913E-03
            1205            1847     15.6260E-03     15.5913E-03
            1206            1847     15.6260E-03     15.5913E-03
            1223            1847     15.6260E-03     15.5913E-03
            1206            1848     17.3164E-03     17.2378E-03
            1224            1848     17.3164E-03     17.2378E-03
            1207            1848     17.3164E-03     17.2378E-03
            1225            1848     17.3164E-03     17.2378E-03
            1207            1849     19.2340E-03     19.1199E-03
            1208            1849     19.2340E-03     19.1199E-03
            1226            1849     19.2340E-03     19.1199E-03
            1225            1849     19.2340E-03     19.1199E-03
            1208            1850     21.2910E-03     21.1543E-03
            1209            1850     21.2910E-03     21.1543E-03
            1226            1850     21.2910E-03     21.1543E-03
            1227            1850     21.2910E-03     21.1543E-03
            1210            1851     23.4195E-03     23.2594E-03
            1228            1851     23.4195E-03     23.2594E-03
            1209            1851     23.4195E-03     23.2594E-03
            1227            1851     23.4195E-03     23.2594E-03
            1229            1852     25.5362E-03     25.3688E-03
            1228            1852     25.5362E-03     25.3688E-03
            1211            1852     25.5362E-03     25.3688E-03
            1210            1852     25.5362E-03     25.3688E-03
            1229            1853     27.5554E-03     27.3961E-03
            1211            1853     27.5554E-03     27.3961E-03
            1230            1853     27.5554E-03     27.3961E-03
            1212            1853     27.5554E-03     27.3961E-03
            1212            1854     29.3715E-03     29.2538E-03
            1230            1854     29.3715E-03     29.2538E-03
            1231            1854     29.3715E-03     29.2538E-03
            1213            1854     29.3715E-03     29.2538E-03
            1232            1855     30.8194E-03     30.8253E-03
            1213            1855     30.8194E-03     30.8253E-03
            1231            1855     30.8194E-03     30.8253E-03
            1214            1855     30.8194E-03     30.8253E-03
            1215            1856     31.7223E-03     31.8735E-03
            1232            1856     31.7223E-03     31.8735E-03
            1233            1856     31.7223E-03     31.8735E-03
            1214            1856     31.7223E-03     31.8735E-03
            1234            1857     32.0958E-03     32.2474E-03
            1216            1857     32.0958E-03     32.2474E-03
            1233            1857     32.0958E-03     32.2474E-03
            1215            1857     32.0958E-03     32.2474E-03
            1235            1858     13.3803E-03     12.7404E-03
            1217            1858     13.3803E-03     12.7404E-03
            1236            1858     13.3803E-03     12.7404E-03
            1218            1858     13.3803E-03     12.7404E-03
            1236            1859     12.9457E-03     12.6360E-03
            1219            1859     12.9457E-03     12.6360E-03
            1218            1859     12.9457E-03     12.6360E-03
            1237            1859     12.9457E-03     12.6360E-03
            1238            1860     12.3241E-03     12.4343E-03
            1219            1860     12.3241E-03     12.4343E-03
            1237            1860     12.3241E-03     12.4343E-03
            1220            1860     12.3241E-03     12.4343E-03
            1238            1861     12.1380E-03     12.3367E-03
            1239            1861     12.1380E-03     12.3367E-03
            1221            1861     12.1380E-03     12.3367E-03
            1220            1861     12.1380E-03     12.3367E-03
            1221            1862     12.5419E-03     12.6953E-03
            1240            1862     12.5419E-03     12.6953E-03
            1222            1862     12.5419E-03     12.6953E-03
            1239            1862     12.5419E-03     12.6953E-03
            1222            1863     13.5014E-03     13.6121E-03
            1240            1863     13.5014E-03     13.6121E-03
            1223            1863     13.5014E-03     13.6121E-03
            1241            1863     13.5014E-03     13.6121E-03
            1223            1864     14.9650E-03     15.0380E-03
            1224            1864     14.9650E-03     15.0380E-03
            1242            1864     14.9650E-03     15.0380E-03
            1241            1864     14.9650E-03     15.0380E-03
            1224            1865     16.8283E-03     16.8821E-03
            1242            1865     16.8283E-03     16.8821E-03
            1225            1865     16.8283E-03     16.8821E-03
            1243            1865     16.8283E-03     16.8821E-03
            1244            1866     18.9739E-03     19.0229E-03
            1225            1866     18.9739E-03     19.0229E-03
            1226            1866     18.9739E-03     19.0229E-03
            1243            1866     18.9739E-03     19.0229E-03
            1226            1867     21.3080E-03     21.3614E-03
            1244            1867     21.3080E-03     21.3614E-03
            1227            1867     21.3080E-03     21.3614E-03
            1245            1867     21.3080E-03     21.3614E-03
            1228            1868     23.7344E-03     23.8115E-03
            1227            1868     23.7344E-03     23.8115E-03
            1245            1868     23.7344E-03     23.8115E-03
            1246            1868     23.7344E-03     23.8115E-03
            1246            1869     26.1718E-03     26.2855E-03
            1247            1869     26.1718E-03     26.2855E-03
            1229            1869     26.1718E-03     26.2855E-03
            1228            1869     26.1718E-03     26.2855E-03
            1248            1870     28.5183E-03     28.6999E-03
            1247            1870     28.5183E-03     28.6999E-03
            1229            1870     28.5183E-03     28.6999E-03
            1230            1870     28.5183E-03     28.6999E-03
            1231            1871     30.6467E-03     30.9405E-03
            1230            1871     30.6467E-03     30.9405E-03
            1249            1871     30.6467E-03     30.9405E-03
            1248            1871     30.6467E-03     30.9405E-03
            1249            1872     32.4441E-03     32.8544E-03
            1231            1872     32.4441E-03     32.8544E-03
            1250            1872     32.4441E-03     32.8544E-03
            1232            1872     32.4441E-03     32.8544E-03
            1251            1873     33.7740E-03     34.2787E-03
            1232            1873     33.7740E-03     34.2787E-03
            1233            1873     33.7740E-03     34.2787E-03
            1250            1873     33.7740E-03     34.2787E-03
            1233            1874     34.9081E-03     35.3089E-03
            1252            1874     34.9081E-03     35.3089E-03
            1234            1874     34.9081E-03     35.3089E-03
            1251            1874     34.9081E-03     35.3089E-03
            1236            1875     13.4850E-03     12.6814E-03
            1254            1875     13.4850E-03     12.6814E-03
            1235            1875     13.4850E-03     12.6814E-03
            1253            1875     13.4850E-03     12.6814E-03
            1237            1876     12.7487E-03     12.1990E-03
            1254            1876     12.7487E-03     12.1990E-03
            1255            1876     12.7487E-03     12.1990E-03
            1236            1876     12.7487E-03     12.1990E-03
            1237            1877     12.1260E-03     11.8537E-03
            1255            1877     12.1260E-03     11.8537E-03
            1238            1877     12.1260E-03     11.8537E-03
            1256            1877     12.1260E-03     11.8537E-03
            1238            1878     11.7719E-03     11.7671E-03
            1239            1878     11.7719E-03     11.7671E-03
            1257            1878     11.7719E-03     11.7671E-03
            1256            1878     11.7719E-03     11.7671E-03
            1239            1879     12.0206E-03     12.1322E-03
            1258            1879     12.0206E-03     12.1322E-03
            1257            1879     12.0206E-03     12.1322E-03
            1240            1879     12.0206E-03     12.1322E-03
            1258            1880     12.9368E-03     13.0929E-03
            1241            1880     12.9368E-03     13.0929E-03
            1259            1880     12.9368E-03     13.0929E-03
            1240            1880     12.9368E-03     13.0929E-03
            1242            1881     14.4601E-03     14.6408E-03
            1259            1881     14.4601E-03     14.6408E-03
            1241            1881     14.4601E-03     14.6408E-03
            1260            1881     14.4601E-03     14.6408E-03
            1261            1882     16.4507E-03     16.6483E-03
            1260            1882     16.4507E-03     16.6483E-03
            1243            1882     16.4507E-03     16.6483E-03
            1242            1882     16.4507E-03     16.6483E-03
            1262            1883     18.7737E-03     18.9959E-03
            1261            1883     18.7737E-03     18.9959E-03
            1244            1883     18.7737E-03     18.9959E-03
            1243            1883     18.7737E-03     18.9959E-03
            1263            1884     21.3113E-03     21.5679E-03
            1244            1884     21.3113E-03     21.5679E-03
            1245            1884     21.3113E-03     21.5679E-03
            1262            1884     21.3113E-03     21.5679E-03
            1264            1885     23.9727E-03     24.2739E-03
            1245            1885     23.9727E-03     24.2739E-03
            1263            1885     23.9727E-03     24.2739E-03
            1246            1885     23.9727E-03     24.2739E-03
            1265            1886     26.6593E-03     27.0289E-03
            1246            1886     26.6593E-03     27.0289E-03
            1264            1886     26.6593E-03     27.0289E-03
            1247            1886     26.6593E-03     27.0289E-03
            1266            1887     29.2797E-03     29.7328E-03
            1265            1887     29.2797E-03     29.7328E-03
            1247            1887     29.2797E-03     29.7328E-03
            1248            1887     29.2797E-03     29.7328E-03
            1248            1888     31.7244E-03     32.2693E-03
            1266            1888     31.7244E-03     32.2693E-03
            1249            1888     31.7244E-03     32.2693E-03
            1267            1888     31.7244E-03     32.2693E-03
            1250            1889     33.8617E-03     34.4923E-03
            1249            1889     33.8617E-03     34.4923E-03
            1267            1889     33.8617E-03     34.4923E-03
            1268            1889     33.8617E-03     34.4923E-03
            1250            1890     35.7304E-03     36.3175E-03
            1268            1890     35.7304E-03     36.3175E-03
            1251            1890     35.7304E-03     36.3175E-03
            1269            1890     35.7304E-03     36.3175E-03
            1270            1891     37.4429E-03     37.8328E-03
            1251            1891     37.4429E-03     37.8328E-03
            1252            1891     37.4429E-03     37.8328E-03
            1269            1891     37.4429E-03     37.8328E-03
            1271            1892     13.7145E-03     12.7958E-03
            1272            1892     13.7145E-03     12.7958E-03
            1254            1892     13.7145E-03     12.7958E-03
            1253            1892     13.7145E-03     12.7958E-03
            1273            1893     12.6650E-03     11.9366E-03
            1254            1893     12.6650E-03     11.9366E-03
            1272            1893     12.6650E-03     11.9366E-03
            1255            1893     12.6650E-03     11.9366E-03
            1274            1894     11.8414E-03     11.3796E-03
            1255            1894     11.8414E-03     11.3796E-03
            1273            1894     11.8414E-03     11.3796E-03
            1256            1894     11.8414E-03     11.3796E-03
            1274            1895     11.3999E-03     11.2045E-03
            1257            1895     11.3999E-03     11.2045E-03
            1256            1895     11.3999E-03     11.2045E-03
            1275            1895     11.3999E-03     11.2045E-03
            1275            1896     11.5376E-03     11.5787E-03
            1276            1896     11.5376E-03     11.5787E-03
            1258            1896     11.5376E-03     11.5787E-03
            1257            1896     11.5376E-03     11.5787E-03
            1258            1897     12.4318E-03     12.6187E-03
            1276            1897     12.4318E-03     12.6187E-03
            1277            1897     12.4318E-03     12.6187E-03
            1259            1897     12.4318E-03     12.6187E-03
            1259            1898     13.9917E-03     14.2683E-03
            1260            1898     13.9917E-03     14.2683E-03
            1277            1898     13.9917E-03     14.2683E-03
            1278            1898     13.9917E-03     14.2683E-03
            1278            1899     16.0739E-03     16.4149E-03
            1279            1899     16.0739E-03     16.4149E-03
            1260            1899     16.0739E-03     16.4149E-03
            1261            1899     16.0739E-03     16.4149E-03
            1280            1900     18.5215E-03     18.9124E-03
            1279            1900     18.5215E-03     18.9124E-03
            1261            1900     18.5215E-03     18.9124E-03
            1262            1900     18.5215E-03     18.9124E-03
            1262            1901     21.2061E-03     21.6506E-03
            1280            1901     21.2061E-03     21.6506E-03
            1281            1901     21.2061E-03     21.6506E-03
            1263            1901     21.2061E-03     21.6506E-03
            1282            1902     24.0333E-03     24.5381E-03
            1281            1902     24.0333E-03     24.5381E-03
            1264            1902     24.0333E-03     24.5381E-03
            1263            1902     24.0333E-03     24.5381E-03
            1283            1903     26.9355E-03     27.5027E-03
            1264            1903     26.9355E-03     27.5027E-03
            1282            1903     26.9355E-03     27.5027E-03
            1265            1903     26.9355E-03     27.5027E-03
            1283            1904     29.8104E-03     30.4564E-03
            1284            1904     29.8104E-03     30.4564E-03
            1266            1904     29.8104E-03     30.4564E-03
            1265            1904     29.8104E-03     30.4564E-03
            1285            1905     32.5778E-03     33.2774E-03
            1284            1905     32.5778E-03     33.2774E-03
            1267            1905     32.5778E-03     33.2774E-03
            1266            1905     32.5778E-03     33.2774E-03
            1268            1906     35.1599E-03     35.8581E-03
            1285            1906     35.1599E-03     35.8581E-03
            1286            1906     35.1599E-03     35.8581E-03
            1267            1906     35.1599E-03     35.8581E-03
            1269            1907     37.5031E-03     38.1310E-03
            1287            1907     37.5031E-03     38.1310E-03
            1268            1907     37.5031E-03     38.1310E-03
            1286            1907     37.5031E-03     38.1310E-03
            1287            1908     39.7684E-03     40.1841E-03
            1269            1908     39.7684E-03     40.1841E-03
            1288            1908     39.7684E-03     40.1841E-03
            1270            1908     39.7684E-03     40.1841E-03
            1272            1909     14.1073E-03     13.1525E-03
            1271            1909     14.1073E-03     13.1525E-03
            1289            1909     14.1073E-03     13.1525E-03
            1290            1909     14.1073E-03     13.1525E-03
            1272            1910     12.7486E-03     11.9069E-03
            1273            1910     12.7486E-03     11.9069E-03
            1290            1910     12.7486E-03     11.9069E-03
            1291            1910     12.7486E-03     11.9069E-03
            1274            1911     11.6439E-03     11.0321E-03
            1292            1911     11.6439E-03     11.0321E-03
            1291            1911     11.6439E-03     11.0321E-03
            1273            1911     11.6439E-03     11.0321E-03
            1274            1912     10.9848E-03     10.6733E-03
            1292            1912     10.9848E-03     10.6733E-03
            1275            1912     10.9848E-03     10.6733E-03
            1293            1912     10.9848E-03     10.6733E-03
            1294            1913     11.0418E-03     11.0181E-03
            1275            1913     11.0418E-03     11.0181E-03
            1293            1913     11.0418E-03     11.0181E-03
            1276            1913     11.0418E-03     11.0181E-03
            1277            1914     11.8751E-03     12.0880E-03
            1295            1914     11.8751E-03     12.0880E-03
            1276            1914     11.8751E-03     12.0880E-03
            1294            1914     11.8751E-03     12.0880E-03
            1295            1915     13.4623E-03     13.8345E-03
            1277            1915     13.4623E-03     13.8345E-03
            1296            1915     13.4623E-03     13.8345E-03
            1278            1915     13.4623E-03     13.8345E-03
            1296            1916     15.6133E-03     16.0851E-03
            1278            1916     15.6133E-03     16.0851E-03
            1297            1916     15.6133E-03     16.0851E-03
            1279            1916     15.6133E-03     16.0851E-03
            1279            1917     18.1370E-03     18.6869E-03
            1280            1917     18.1370E-03     18.6869E-03
            1297            1917     18.1370E-03     18.6869E-03
            1298            1917     18.1370E-03     18.6869E-03
            1298            1918     20.9190E-03     21.5293E-03
            1280            1918     20.9190E-03     21.5293E-03
            1281            1918     20.9190E-03     21.5293E-03
            1299            1918     20.9190E-03     21.5293E-03
            1282            1919     23.8699E-03     24.5419E-03
            1299            1919     23.8699E-03     24.5419E-03
            1300            1919     23.8699E-03     24.5419E-03
            1281            1919     23.8699E-03     24.5419E-03
            1300            1920     26.9276E-03     27.6571E-03
            1282            1920     26.9276E-03     27.6571E-03
            1283            1920     26.9276E-03     27.6571E-03
            1301            1920     26.9276E-03     27.6571E-03
            1284            1921     30.0755E-03     30.8350E-03
            1283            1921     30.0755E-03     30.8350E-03
            1302            1921     30.0755E-03     30.8350E-03
            1301            1921     30.0755E-03     30.8350E-03
            1284            1922     33.2032E-03     33.9953E-03
            1303            1922     33.2032E-03     33.9953E-03
            1285            1922     33.2032E-03     33.9953E-03
            1302            1922     33.2032E-03     33.9953E-03
            1304            1923     36.2568E-03     37.0084E-03
            1285            1923     36.2568E-03     37.0084E-03
            1303            1923     36.2568E-03     37.0084E-03
            1286            1923     36.2568E-03     37.0084E-03
            1286            1924     39.1895E-03     39.7952E-03
            1304            1924     39.1895E-03     39.7952E-03
            1287            1924     39.1895E-03     39.7952E-03
            1305            1924     39.1895E-03     39.7952E-03
            1288            1925     41.9339E-03     42.4356E-03
            1287            1925     41.9339E-03     42.4356E-03
            1305            1925     41.9339E-03     42.4356E-03
            1306            1925     41.9339E-03     42.4356E-03
            1307            1926     14.7737E-03     13.7625E-03
            1308            1926     14.7737E-03     13.7625E-03
            1290            1926     14.7737E-03     13.7625E-03
            1289            1926     14.7737E-03     13.7625E-03
            1308            1927     13.0084E-03     12.1034E-03
            1309            1927     13.0084E-03     12.1034E-03
            1290            1927     13.0084E-03     12.1034E-03
            1291            1927     13.0084E-03     12.1034E-03
            1309            1928     11.5413E-03     10.8313E-03
            1291            1928     11.5413E-03     10.8313E-03
            1292            1928     11.5413E-03     10.8313E-03
            1310            1928     11.5413E-03     10.8313E-03
            1292            1929     10.6010E-03     10.1913E-03
            1310            1929     10.6010E-03     10.1913E-03
            1311            1929     10.6010E-03     10.1913E-03
            1293            1929     10.6010E-03     10.1913E-03
            1312            1930     10.4040E-03     10.3537E-03
            1294            1930     10.4040E-03     10.3537E-03
            1293            1930     10.4040E-03     10.3537E-03
            1311            1930     10.4040E-03     10.3537E-03
            1295            1931     11.1883E-03     11.4451E-03
            1313            1931     11.1883E-03     11.4451E-03
            1312            1931     11.1883E-03     11.4451E-03
            1294            1931     11.1883E-03     11.4451E-03
            1296            1932     12.8029E-03     13.2695E-03
            1314            1932     12.8029E-03     13.2695E-03
            1295            1932     12.8029E-03     13.2695E-03
            1313            1932     12.8029E-03     13.2695E-03
            1297            1933     14.9914E-03     15.5963E-03
            1314            1933     14.9914E-03     15.5963E-03
            1315            1933     14.9914E-03     15.5963E-03
            1296            1933     14.9914E-03     15.5963E-03
            1316            1934     17.5770E-03     18.2668E-03
            1315            1934     17.5770E-03     18.2668E-03
            1297            1934     17.5770E-03     18.2668E-03
            1298            1934     17.5770E-03     18.2668E-03
            1317            1935     20.4094E-03     21.1698E-03
            1316            1935     20.4094E-03     21.1698E-03
            1299            1935     20.4094E-03     21.1698E-03
            1298            1935     20.4094E-03     21.1698E-03
            1318            1936     23.4354E-03     24.2437E-03
            1317            1936     23.4354E-03     24.2437E-03
            1300            1936     23.4354E-03     24.2437E-03
            1299            1936     23.4354E-03     24.2437E-03
            1319            1937     26.6215E-03     27.4719E-03
            1300            1937     26.6215E-03     27.4719E-03
            1318            1937     26.6215E-03     27.4719E-03
            1301            1937     26.6215E-03     27.4719E-03
            1302            1938     29.9515E-03     30.8203E-03
            1301            1938     29.9515E-03     30.8203E-03
            1319            1938     29.9515E-03     30.8203E-03
            1320            1938     29.9515E-03     30.8203E-03
            1321            1939     33.5131E-03     34.3224E-03
            1320            1939     33.5131E-03     34.3224E-03
            1302            1939     33.5131E-03     34.3224E-03
            1303            1939     33.5131E-03     34.3224E-03
            1321            1940     37.1354E-03     37.9074E-03
            1303            1940     37.1354E-03     37.9074E-03
            1322            1940     37.1354E-03     37.9074E-03
            1304            1940     37.1354E-03     37.9074E-03
            1304            1941     40.6814E-03     41.3813E-03
            1323            1941     40.6814E-03     41.3813E-03
            1305            1941     40.6814E-03     41.3813E-03
            1322            1941     40.6814E-03     41.3813E-03
            1305            1942     44.1365E-03     44.5473E-03
            1324            1942     44.1365E-03     44.5473E-03
            1323            1942     44.1365E-03     44.5473E-03
            1306            1942     44.1365E-03     44.5473E-03
            1325            1943     15.6485E-03     14.6535E-03
            1308            1943     15.6485E-03     14.6535E-03
            1326            1943     15.6485E-03     14.6535E-03
            1307            1943     15.6485E-03     14.6535E-03
            1309            1944     13.5803E-03     12.6019E-03
            1308            1944     13.5803E-03     12.6019E-03
            1327            1944     13.5803E-03     12.6019E-03
            1326            1944     13.5803E-03     12.6019E-03
            1328            1945     11.5444E-03     10.7452E-03
            1309            1945     11.5444E-03     10.7452E-03
            1310            1945     11.5444E-03     10.7452E-03
            1327            1945     11.5444E-03     10.7452E-03
            1329            1946     9.98010E-03     9.52532E-03
            1311            1946     9.98010E-03     9.52532E-03
            1310            1946     9.98010E-03     9.52532E-03
            1328            1946     9.98010E-03     9.52532E-03
            1330            1947     9.56239E-03     9.52420E-03
            1311            1947     9.56239E-03     9.52420E-03
            1312            1947     9.56239E-03     9.52420E-03
            1329            1947     9.56239E-03     9.52420E-03
            1330            1948     10.3033E-03     10.6310E-03
            1313            1948     10.3033E-03     10.6310E-03
            1331            1948     10.3033E-03     10.6310E-03
            1312            1948     10.3033E-03     10.6310E-03
            1331            1949     11.9361E-03     12.5220E-03
            1332            1949     11.9361E-03     12.5220E-03
            1313            1949     11.9361E-03     12.5220E-03
            1314            1949     11.9361E-03     12.5220E-03
            1332            1950     14.1929E-03     14.9285E-03
            1314            1950     14.1929E-03     14.9285E-03
            1333            1950     14.1929E-03     14.9285E-03
            1315            1950     14.1929E-03     14.9285E-03
            1316            1951     16.8077E-03     17.6384E-03
            1333            1951     16.8077E-03     17.6384E-03
            1315            1951     16.8077E-03     17.6384E-03
            1334            1951     16.8077E-03     17.6384E-03
            1317            1952     19.6792E-03     20.5637E-03
            1335            1952     19.6792E-03     20.5637E-03
            1316            1952     19.6792E-03     20.5637E-03
            1334            1952     19.6792E-03     20.5637E-03
            1317            1953     22.7303E-03     23.6610E-03
            1318            1953     22.7303E-03     23.6610E-03
            1335            1953     22.7303E-03     23.6610E-03
            1336            1953     22.7303E-03     23.6610E-03
            1337            1954     25.9778E-03     26.9214E-03
            1318            1954     25.9778E-03     26.9214E-03
            1319            1954     25.9778E-03     26.9214E-03
            1336            1954     25.9778E-03     26.9214E-03
            1319            1955     29.4479E-03     30.3980E-03
            1338            1955     29.4479E-03     30.3980E-03
            1337            1955     29.4479E-03     30.3980E-03
            1320            1955     29.4479E-03     30.3980E-03
            1338            1956     33.2153E-03     34.1161E-03
            1339            1956     33.2153E-03     34.1161E-03
            1321            1956     33.2153E-03     34.1161E-03
            1320            1956     33.2153E-03     34.1161E-03
            1339            1957     37.5617E-03     38.2732E-03
            1321            1957     37.5617E-03     38.2732E-03
            1340            1957     37.5617E-03     38.2732E-03
            1322            1957     37.5617E-03     38.2732E-03
            1323            1958     42.0788E-03     42.6719E-03
            1322            1958     42.0788E-03     42.6719E-03
            1340            1958     42.0788E-03     42.6719E-03
            1341            1958     42.0788E-03     42.6719E-03
            1323            1959     46.1640E-03     46.8666E-03
            1324            1959     46.1640E-03     46.8666E-03
            1341            1959     46.1640E-03     46.8666E-03
            1342            1959     46.1640E-03     46.8666E-03
            1326            1960     17.2825E-03     16.1694E-03
            1343            1960     17.2825E-03     16.1694E-03
            1344            1960     17.2825E-03     16.1694E-03
            1325            1960     17.2825E-03     16.1694E-03
            1344            1961     14.2417E-03     13.2124E-03
            1326            1961     14.2417E-03     13.2124E-03
            1327            1961     14.2417E-03     13.2124E-03
            1345            1961     14.2417E-03     13.2124E-03
            1345            1962     11.0017E-03     10.1840E-03
            1346            1962     11.0017E-03     10.1840E-03
            1328            1962     11.0017E-03     10.1840E-03
            1327            1962     11.0017E-03     10.1840E-03
            1328            1963     9.00582E-03     8.54941E-03
            1347            1963     9.00582E-03     8.54941E-03
            1346            1963     9.00582E-03     8.54941E-03
            1329            1963     9.00582E-03     8.54941E-03
            1329            1964     8.42142E-03     8.43793E-03
            1330            1964     8.42142E-03     8.43793E-03
            1347            1964     8.42142E-03     8.43793E-03
            1348            1964     8.42142E-03     8.43793E-03
            1349            1965     9.12820E-03     9.58292E-03
            1331            1965     9.12820E-03     9.58292E-03
            1330            1965     9.12820E-03     9.58292E-03
            1348            1965     9.12820E-03     9.58292E-03
            1331            1966     10.8738E-03     11.6083E-03
            1350            1966     10.8738E-03     11.6083E-03
            1349            1966     10.8738E-03     11.6083E-03
            1332            1966     10.8738E-03     11.6083E-03
            1351            1967     13.1964E-03     14.0855E-03
            1333            1967     13.1964E-03     14.0855E-03
            1332            1967     13.1964E-03     14.0855E-03
            1350            1967     13.1964E-03     14.0855E-03
            1352            1968     15.8683E-03     16.8361E-03
            1333            1968     15.8683E-03     16.8361E-03
            1334            1968     15.8683E-03     16.8361E-03
            1351            1968     15.8683E-03     16.8361E-03
            1353            1969     18.7475E-03     19.7570E-03
            1352            1969     18.7475E-03     19.7570E-03
            1334            1969     18.7475E-03     19.7570E-03
            1335            1969     18.7475E-03     19.7570E-03
            1335            1970     21.8112E-03     22.8330E-03
            1353            1970     21.8112E-03     22.8330E-03
            1336            1970     21.8112E-03     22.8330E-03
            1354            1970     21.8112E-03     22.8330E-03
            1355            1971     25.0440E-03     26.0745E-03
            1354            1971     25.0440E-03     26.0745E-03
            1336            1971     25.0440E-03     26.0745E-03
            1337            1971     25.0440E-03     26.0745E-03
            1355            1972     28.5484E-03     29.5499E-03
            1338            1972     28.5484E-03     29.5499E-03
            1356            1972     28.5484E-03     29.5499E-03
            1337            1972     28.5484E-03     29.5499E-03
            1338            1973     32.3981E-03     33.3839E-03
            1339            1973     32.3981E-03     33.3839E-03
            1356            1973     32.3981E-03     33.3839E-03
            1357            1973     32.3981E-03     33.3839E-03
            1357            1974     36.8871E-03     37.7564E-03
            1339            1974     36.8871E-03     37.7564E-03
            1358            1974     36.8871E-03     37.7564E-03
            1340            1974     36.8871E-03     37.7564E-03
            1359            1975     42.6708E-03     43.1699E-03
            1358            1975     42.6708E-03     43.1699E-03
            1340            1975     42.6708E-03     43.1699E-03
            1341            1975     42.6708E-03     43.1699E-03
            1359            1976     48.4974E-03     48.5490E-03
            1341            1976     48.4974E-03     48.5490E-03
            1342            1976     48.4974E-03     48.5490E-03
            1360            1976     48.4974E-03     48.5490E-03
            1362            1977     18.8378E-03     17.9132E-03
            1361            1977     18.8378E-03     17.9132E-03
            1344            1977     18.8378E-03     17.9132E-03
            1343            1977     18.8378E-03     17.9132E-03
            1362            1978     13.5772E-03     12.6467E-03
            1363            1978     13.5772E-03     12.6467E-03
            1344            1978     13.5772E-03     12.6467E-03
            1345            1978     13.5772E-03     12.6467E-03
            1364            1979     9.78309E-03     8.97901E-03
            1345            1979     9.78309E-03     8.97901E-03
            1346            1979     9.78309E-03     8.97901E-03
            1363            1979     9.78309E-03     8.97901E-03
            1364            1980     7.61091E-03     7.16480E-03
            1346            1980     7.61091E-03     7.16480E-03
            1347            1980     7.61091E-03     7.16480E-03
            1365            1980     7.61091E-03     7.16480E-03
            1366            1981     6.85766E-03     6.98923E-03
            1365            1981     6.85766E-03     6.98923E-03
            1348            1981     6.85766E-03     6.98923E-03
            1347            1981     6.85766E-03     6.98923E-03
            1348            1982     7.71150E-03     8.36129E-03
            1367            1982     7.71150E-03     8.36129E-03
            1349            1982     7.71150E-03     8.36129E-03
            1366            1982     7.71150E-03     8.36129E-03
            1368            1983     9.61174E-03     10.5520E-03
            1349            1983     9.61174E-03     10.5520E-03
            1367            1983     9.61174E-03     10.5520E-03
            1350            1983     9.61174E-03     10.5520E-03
            1368            1984     12.0716E-03     13.1464E-03
            1350            1984     12.0716E-03     13.1464E-03
            1369            1984     12.0716E-03     13.1464E-03
            1351            1984     12.0716E-03     13.1464E-03
            1352            1985     14.8057E-03     15.9290E-03
            1369            1985     14.8057E-03     15.9290E-03
            1370            1985     14.8057E-03     15.9290E-03
            1351            1985     14.8057E-03     15.9290E-03
            1371            1986     17.7105E-03     18.8431E-03
            1352            1986     17.7105E-03     18.8431E-03
            1370            1986     17.7105E-03     18.8431E-03
            1353            1986     17.7105E-03     18.8431E-03
            1353            1987     20.7521E-03     21.8629E-03
            1371            1987     20.7521E-03     21.8629E-03
            1354            1987     20.7521E-03     21.8629E-03
            1372            1987     20.7521E-03     21.8629E-03
            1354            1988     23.9664E-03     25.0425E-03
            1372            1988     23.9664E-03     25.0425E-03
            1373            1988     23.9664E-03     25.0425E-03
            1355            1988     23.9664E-03     25.0425E-03
            1355            1989     27.3816E-03     28.4155E-03
            1356            1989     27.3816E-03     28.4155E-03
            1373            1989     27.3816E-03     28.4155E-03
            1374            1989     27.3816E-03     28.4155E-03
            1375            1990     31.1990E-03     32.1924E-03
            1356            1990     31.1990E-03     32.1924E-03
            1374            1990     31.1990E-03     32.1924E-03
            1357            1990     31.1990E-03     32.1924E-03
            1376            1991     35.4982E-03     36.5022E-03
            1358            1991     35.4982E-03     36.5022E-03
            1357            1991     35.4982E-03     36.5022E-03
            1375            1991     35.4982E-03     36.5022E-03
            1358            1992     41.1627E-03     42.1770E-03
            1377            1992     41.1627E-03     42.1770E-03
            1376            1992     41.1627E-03     42.1770E-03
            1359            1992     41.1627E-03     42.1770E-03
            1359            1993     49.0845E-03     49.7801E-03
            1360            1993     49.0845E-03     49.7801E-03
            1377            1993     49.0845E-03     49.7801E-03
            1378            1993     49.0845E-03     49.7801E-03
            1380            1994     17.0443E-03     19.0830E-03
            1362            1994     17.0443E-03     19.0830E-03
            1361            1994     17.0443E-03     19.0830E-03
            1379            1994     17.0443E-03     19.0830E-03
            1363            1995     14.0255E-03     14.3928E-03
            1362            1995     14.0255E-03     14.3928E-03
            1380            1995     14.0255E-03     14.3928E-03
            1381            1995     14.0255E-03     14.3928E-03
            1364            1996     12.5750E-03     12.4552E-03
            1381            1996     12.5750E-03     12.4552E-03
            1363            1996     12.5750E-03     12.4552E-03
            1382            1996     12.5750E-03     12.4552E-03
            1365            1997     11.7785E-03     11.6699E-03
            1383            1997     11.7785E-03     11.6699E-03
            1364            1997     11.7785E-03     11.6699E-03
            1382            1997     11.7785E-03     11.6699E-03
            1366            1998     12.0809E-03     12.1844E-03
            1384            1998     12.0809E-03     12.1844E-03
            1383            1998     12.0809E-03     12.1844E-03
            1365            1998     12.0809E-03     12.1844E-03
            1366            1999     13.4404E-03     13.7957E-03
            1385            1999     13.4404E-03     13.7957E-03
            1384            1999     13.4404E-03     13.7957E-03
            1367            1999     13.4404E-03     13.7957E-03
            1367            2000     15.5558E-03     16.0305E-03
            1386            2000     15.5558E-03     16.0305E-03
            1385            2000     15.5558E-03     16.0305E-03
            1368            2000     15.5558E-03     16.0305E-03
            1387            2001     18.0892E-03     18.6009E-03
            1369            2001     18.0892E-03     18.6009E-03
            1386            2001     18.0892E-03     18.6009E-03
            1368            2001     18.0892E-03     18.6009E-03
            1388            2002     20.8548E-03     21.3492E-03
            1370            2002     20.8548E-03     21.3492E-03
            1369            2002     20.8548E-03     21.3492E-03
            1387            2002     20.8548E-03     21.3492E-03
            1389            2003     23.7438E-03     24.1983E-03
            1388            2003     23.7438E-03     24.1983E-03
            1370            2003     23.7438E-03     24.1983E-03
            1371            2003     23.7438E-03     24.1983E-03
            1372            2004     26.7288E-03     27.0983E-03
            1390            2004     26.7288E-03     27.0983E-03
            1371            2004     26.7288E-03     27.0983E-03
            1389            2004     26.7288E-03     27.0983E-03
            1391            2005     29.7568E-03     30.0392E-03
            1373            2005     29.7568E-03     30.0392E-03
            1372            2005     29.7568E-03     30.0392E-03
            1390            2005     29.7568E-03     30.0392E-03
            1391            2006     32.8580E-03     32.9997E-03
            1392            2006     32.8580E-03     32.9997E-03
            1373            2006     32.8580E-03     32.9997E-03
            1374            2006     32.8580E-03     32.9997E-03
            1392            2007     35.9997E-03     36.0364E-03
            1393            2007     35.9997E-03     36.0364E-03
            1374            2007     35.9997E-03     36.0364E-03
            1375            2007     35.9997E-03     36.0364E-03
            1375            2008     39.3294E-03     39.2429E-03
            1393            2008     39.3294E-03     39.2429E-03
            1376            2008     39.3294E-03     39.2429E-03
            1394            2008     39.3294E-03     39.2429E-03
            1376            2009     42.8135E-03     42.7835E-03
            1377            2009     42.8135E-03     42.7835E-03
            1395            2009     42.8135E-03     42.7835E-03
            1394            2009     42.8135E-03     42.7835E-03
            1395            2010     47.4715E-03     48.3430E-03
            1396            2010     47.4715E-03     48.3430E-03
            1377            2010     47.4715E-03     48.3430E-03
            1378            2010     47.4715E-03     48.3430E-03
            1398            2011     17.0054E-03     19.0546E-03
            1380            2011     17.0054E-03     19.0546E-03
            1379            2011     17.0054E-03     19.0546E-03
            1397            2011     17.0054E-03     19.0546E-03
            1380            2012     15.5919E-03     17.0969E-03
            1399            2012     15.5919E-03     17.0969E-03
            1398            2012     15.5919E-03     17.0969E-03
            1381            2012     15.5919E-03     17.0969E-03
            1382            2013     15.4991E-03     16.1957E-03
            1381            2013     15.4991E-03     16.1957E-03
            1399            2013     15.4991E-03     16.1957E-03
            1400            2013     15.4991E-03     16.1957E-03
            1400            2014     15.9870E-03     16.2994E-03
            1382            2014     15.9870E-03     16.2994E-03
            1401            2014     15.9870E-03     16.2994E-03
            1383            2014     15.9870E-03     16.2994E-03
            1384            2015     17.1699E-03     17.2812E-03
            1383            2015     17.1699E-03     17.2812E-03
            1401            2015     17.1699E-03     17.2812E-03
            1402            2015     17.1699E-03     17.2812E-03
            1402            2016     19.0054E-03     19.0037E-03
            1385            2016     19.0054E-03     19.0037E-03
            1403            2016     19.0054E-03     19.0037E-03
            1384            2016     19.0054E-03     19.0037E-03
            1403            2017     21.3533E-03     21.3030E-03
            1385            2017     21.3533E-03     21.3030E-03
            1386            2017     21.3533E-03     21.3030E-03
            1404            2017     21.3533E-03     21.3030E-03
            1386            2018     24.0939E-03     23.9929E-03
            1404            2018     24.0939E-03     23.9929E-03
            1387            2018     24.0939E-03     23.9929E-03
            1405            2018     24.0939E-03     23.9929E-03
            1405            2019     27.0826E-03     26.9412E-03
            1406            2019     27.0826E-03     26.9412E-03
            1387            2019     27.0826E-03     26.9412E-03
            1388            2019     27.0826E-03     26.9412E-03
            1406            2020     30.2286E-03     30.0214E-03
            1407            2020     30.2286E-03     30.0214E-03
            1389            2020     30.2286E-03     30.0214E-03
            1388            2020     30.2286E-03     30.0214E-03
            1407            2021     33.4320E-03     33.1550E-03
            1389            2021     33.4320E-03     33.1550E-03
            1390            2021     33.4320E-03     33.1550E-03
            1408            2021     33.4320E-03     33.1550E-03
            1390            2022     36.6231E-03     36.2490E-03
            1408            2022     36.6231E-03     36.2490E-03
            1391            2022     36.6231E-03     36.2490E-03
            1409            2022     36.6231E-03     36.2490E-03
            1392            2023     39.7149E-03     39.2380E-03
            1409            2023     39.7149E-03     39.2380E-03
            1410            2023     39.7149E-03     39.2380E-03
            1391            2023     39.7149E-03     39.2380E-03
            1411            2024     42.6329E-03     42.0534E-03
            1410            2024     42.6329E-03     42.0534E-03
            1393            2024     42.6329E-03     42.0534E-03
            1392            2024     42.6329E-03     42.0534E-03
            1394            2025     45.2499E-03     44.5950E-03
            1412            2025     45.2499E-03     44.5950E-03
            1393            2025     45.2499E-03     44.5950E-03
            1411            2025     45.2499E-03     44.5950E-03
            1394            2026     47.4381E-03     46.8530E-03
            1395            2026     47.4381E-03     46.8530E-03
            1412            2026     47.4381E-03     46.8530E-03
            1413            2026     47.4381E-03     46.8530E-03
            1395            2027     48.9957E-03     48.3209E-03
            1413            2027     48.9957E-03     48.3209E-03
            1396            2027     48.9957E-03     48.3209E-03
            1414            2027     48.9957E-03     48.3209E-03
            1397            2028     18.9192E-03     18.1909E-03
            1416            2028     18.9192E-03     18.1909E-03
            1398            2028     18.9192E-03     18.1909E-03
            1415            2028     18.9192E-03     18.1909E-03
            1417            2029     16.4302E-03     16.8811E-03
            1416            2029     16.4302E-03     16.8811E-03
            1398            2029     16.4302E-03     16.8811E-03
            1399            2029     16.4302E-03     16.8811E-03
            1400            2030     14.8520E-03     15.4826E-03
            1417            2030     14.8520E-03     15.4826E-03
            1399            2030     14.8520E-03     15.4826E-03
            1418            2030     14.8520E-03     15.4826E-03
            1418            2031     14.6571E-03     15.0494E-03
            1419            2031     14.6571E-03     15.0494E-03
            1400            2031     14.6571E-03     15.0494E-03
            1401            2031     14.6571E-03     15.0494E-03
            1419            2032     15.5144E-03     15.7562E-03
            1401            2032     15.5144E-03     15.7562E-03
            1402            2032     15.5144E-03     15.7562E-03
            1420            2032     15.5144E-03     15.7562E-03
            1420            2033     17.3690E-03     17.5055E-03
            1402            2033     17.3690E-03     17.5055E-03
            1421            2033     17.3690E-03     17.5055E-03
            1403            2033     17.3690E-03     17.5055E-03
            1404            2034     19.9732E-03     20.0521E-03
            1422            2034     19.9732E-03     20.0521E-03
            1403            2034     19.9732E-03     20.0521E-03
            1421            2034     19.9732E-03     20.0521E-03
            1404            2035     23.0873E-03     23.1388E-03
            1422            2035     23.0873E-03     23.1388E-03
            1405            2035     23.0873E-03     23.1388E-03
            1423            2035     23.0873E-03     23.1388E-03
            1423            2036     26.5348E-03     26.5623E-03
            1406            2036     26.5348E-03     26.5623E-03
            1424            2036     26.5348E-03     26.5623E-03
            1405            2036     26.5348E-03     26.5623E-03
            1425            2037     30.1733E-03     30.1889E-03
            1424            2037     30.1733E-03     30.1889E-03
            1406            2037     30.1733E-03     30.1889E-03
            1407            2037     30.1733E-03     30.1889E-03
            1426            2038     33.9077E-03     33.9053E-03
            1425            2038     33.9077E-03     33.9053E-03
            1407            2038     33.9077E-03     33.9053E-03
            1408            2038     33.9077E-03     33.9053E-03
            1408            2039     37.6411E-03     37.6412E-03
            1409            2039     37.6411E-03     37.6412E-03
            1427            2039     37.6411E-03     37.6412E-03
            1426            2039     37.6411E-03     37.6412E-03
            1409            2040     41.2870E-03     41.3056E-03
            1428            2040     41.2870E-03     41.3056E-03
            1410            2040     41.2870E-03     41.3056E-03
            1427            2040     41.2870E-03     41.3056E-03
            1428            2041     44.7490E-03     44.8292E-03
            1429            2041     44.7490E-03     44.8292E-03
            1410            2041     44.7490E-03     44.8292E-03
            1411            2041     44.7490E-03     44.8292E-03
            1429            2042     47.8741E-03     48.1081E-03
            1411            2042     47.8741E-03     48.1081E-03
            1412            2042     47.8741E-03     48.1081E-03
            1430            2042     47.8741E-03     48.1081E-03
            1412            2043     50.6367E-03     50.9661E-03
            1430            2043     50.6367E-03     50.9661E-03
            1413            2043     50.6367E-03     50.9661E-03
            1431            2043     50.6367E-03     50.9661E-03
            1413            2044     52.7872E-03     52.9828E-03
            1414            2044     52.7872E-03     52.9828E-03
            1431            2044     52.7872E-03     52.9828E-03
            1432            2044     52.7872E-03     52.9828E-03
            1416            2045     18.7231E-03     17.6827E-03
            1415            2045     18.7231E-03     17.6827E-03
            1433            2045     18.7231E-03     17.6827E-03
            1434            2045     18.7231E-03     17.6827E-03
            1416            2046     16.7730E-03     16.1466E-03
            1434            2046     16.7730E-03     16.1466E-03
            1417            2046     16.7730E-03     16.1466E-03
            1435            2046     16.7730E-03     16.1466E-03
            1435            2047     14.7461E-03     14.7703E-03
            1417            2047     14.7461E-03     14.7703E-03
            1418            2047     14.7461E-03     14.7703E-03
            1436            2047     14.7461E-03     14.7703E-03
            1419            2048     13.8236E-03     14.0815E-03
            1436            2048     13.8236E-03     14.0815E-03
            1437            2048     13.8236E-03     14.0815E-03
            1418            2048     13.8236E-03     14.0815E-03
            1438            2049     14.3622E-03     14.6322E-03
            1437            2049     14.3622E-03     14.6322E-03
            1420            2049     14.3622E-03     14.6322E-03
            1419            2049     14.3622E-03     14.6322E-03
            1420            2050     16.1828E-03     16.4425E-03
            1439            2050     16.1828E-03     16.4425E-03
            1421            2050     16.1828E-03     16.4425E-03
            1438            2050     16.1828E-03     16.4425E-03
            1421            2051     18.9802E-03     19.2237E-03
            1439            2051     18.9802E-03     19.2237E-03
            1422            2051     18.9802E-03     19.2237E-03
            1440            2051     18.9802E-03     19.2237E-03
            1422            2052     22.4130E-03     22.6544E-03
            1440            2052     22.4130E-03     22.6544E-03
            1441            2052     22.4130E-03     22.6544E-03
            1423            2052     22.4130E-03     22.6544E-03
            1423            2053     26.2316E-03     26.4851E-03
            1424            2053     26.2316E-03     26.4851E-03
            1441            2053     26.2316E-03     26.4851E-03
            1442            2053     26.2316E-03     26.4851E-03
            1424            2054     30.2778E-03     30.5510E-03
            1443            2054     30.2778E-03     30.5510E-03
            1425            2054     30.2778E-03     30.5510E-03
            1442            2054     30.2778E-03     30.5510E-03
            1426            2055     34.4328E-03     34.7491E-03
            1443            2055     34.4328E-03     34.7491E-03
            1425            2055     34.4328E-03     34.7491E-03
            1444            2055     34.4328E-03     34.7491E-03
            1445            2056     38.6055E-03     38.9788E-03
            1444            2056     38.6055E-03     38.9788E-03
            1426            2056     38.6055E-03     38.9788E-03
            1427            2056     38.6055E-03     38.9788E-03
            1446            2057     42.7013E-03     43.1651E-03
            1427            2057     42.7013E-03     43.1651E-03
            1428            2057     42.7013E-03     43.1651E-03
            1445            2057     42.7013E-03     43.1651E-03
            1447            2058     46.5820E-03     47.1885E-03
            1428            2058     46.5820E-03     47.1885E-03
            1429            2058     46.5820E-03     47.1885E-03
            1446            2058     46.5820E-03     47.1885E-03
            1429            2059     50.1999E-03     50.9065E-03
            1447            2059     50.1999E-03     50.9065E-03
            1448            2059     50.1999E-03     50.9065E-03
            1430            2059     50.1999E-03     50.9065E-03
            1430            2060     53.3181E-03     54.0973E-03
            1449            2060     53.3181E-03     54.0973E-03
            1448            2060     53.3181E-03     54.0973E-03
            1431            2060     53.3181E-03     54.0973E-03
            1432            2061     56.0306E-03     56.6989E-03
            1449            2061     56.0306E-03     56.6989E-03
            1450            2061     56.0306E-03     56.6989E-03
            1431            2061     56.0306E-03     56.6989E-03
            1451            2062     18.7149E-03     17.4553E-03
            1434            2062     18.7149E-03     17.4553E-03
            1452            2062     18.7149E-03     17.4553E-03
            1433            2062     18.7149E-03     17.4553E-03
            1452            2063     16.4424E-03     15.5291E-03
            1434            2063     16.4424E-03     15.5291E-03
            1435            2063     16.4424E-03     15.5291E-03
            1453            2063     16.4424E-03     15.5291E-03
            1453            2064     14.4503E-03     13.9499E-03
            1454            2064     14.4503E-03     13.9499E-03
            1435            2064     14.4503E-03     13.9499E-03
            1436            2064     14.4503E-03     13.9499E-03
            1437            2065     13.2266E-03     13.1887E-03
            1454            2065     13.2266E-03     13.1887E-03
            1436            2065     13.2266E-03     13.1887E-03
            1455            2065     13.2266E-03     13.1887E-03
            1437            2066     13.4846E-03     13.7116E-03
            1455            2066     13.4846E-03     13.7116E-03
            1456            2066     13.4846E-03     13.7116E-03
            1438            2066     13.4846E-03     13.7116E-03
            1438            2067     15.2714E-03     15.6218E-03
            1439            2067     15.2714E-03     15.6218E-03
            1456            2067     15.2714E-03     15.6218E-03
            1457            2067     15.2714E-03     15.6218E-03
            1439            2068     18.2214E-03     18.6320E-03
            1440            2068     18.2214E-03     18.6320E-03
            1458            2068     18.2214E-03     18.6320E-03
            1457            2068     18.2214E-03     18.6320E-03
            1459            2069     21.8966E-03     22.3438E-03
            1441            2069     21.8966E-03     22.3438E-03
            1458            2069     21.8966E-03     22.3438E-03
            1440            2069     21.8966E-03     22.3438E-03
            1460            2070     25.9973E-03     26.4852E-03
            1441            2070     25.9973E-03     26.4852E-03
            1459            2070     25.9973E-03     26.4852E-03
            1442            2070     25.9973E-03     26.4852E-03
            1442            2071     30.3442E-03     30.8853E-03
            1443            2071     30.3442E-03     30.8853E-03
            1461            2071     30.3442E-03     30.8853E-03
            1460            2071     30.3442E-03     30.8853E-03
            1461            2072     34.8243E-03     35.4306E-03
            1444            2072     34.8243E-03     35.4306E-03
            1462            2072     34.8243E-03     35.4306E-03
            1443            2072     34.8243E-03     35.4306E-03
            1444            2073     39.3390E-03     40.0373E-03
            1445            2073     39.3390E-03     40.0373E-03
            1463            2073     39.3390E-03     40.0373E-03
            1462            2073     39.3390E-03     40.0373E-03
            1464            2074     43.7900E-03     44.5974E-03
            1445            2074     43.7900E-03     44.5974E-03
            1446            2074     43.7900E-03     44.5974E-03
            1463            2074     43.7900E-03     44.5974E-03
            1447            2075     48.0879E-03     48.9897E-03
            1446            2075     48.0879E-03     48.9897E-03
            1464            2075     48.0879E-03     48.9897E-03
            1465            2075     48.0879E-03     48.9897E-03
            1448            2076     52.0502E-03     53.0381E-03
            1465            2076     52.0502E-03     53.0381E-03
            1447            2076     52.0502E-03     53.0381E-03
            1466            2076     52.0502E-03     53.0381E-03
            1467            2077     55.6547E-03     56.5671E-03
            1448            2077     55.6547E-03     56.5671E-03
            1449            2077     55.6547E-03     56.5671E-03
            1466            2077     55.6547E-03     56.5671E-03
            1468            2078     58.9381E-03     59.5354E-03
            1450            2078     58.9381E-03     59.5354E-03
            1449            2078     58.9381E-03     59.5354E-03
            1467            2078     58.9381E-03     59.5354E-03
            1451            2079     18.8400E-03     17.4503E-03
            1470            2079     18.8400E-03     17.4503E-03
            1452            2079     18.8400E-03     17.4503E-03
            1469            2079     18.8400E-03     17.4503E-03
            1470            2080     16.2411E-03     15.0877E-03
            1471            2080     16.2411E-03     15.0877E-03
            1452            2080     16.2411E-03     15.0877E-03
            1453            2080     16.2411E-03     15.0877E-03
            1454            2081     13.9978E-03     13.2318E-03
            1453            2081     13.9978E-03     13.2318E-03
            1472            2081     13.9978E-03     13.2318E-03
            1471            2081     13.9978E-03     13.2318E-03
            1472            2082     12.6225E-03     12.3193E-03
            1455            2082     12.6225E-03     12.3193E-03
            1454            2082     12.6225E-03     12.3193E-03
            1473            2082     12.6225E-03     12.3193E-03
            1455            2083     12.6994E-03     12.8430E-03
            1456            2083     12.6994E-03     12.8430E-03
            1474            2083     12.6994E-03     12.8430E-03
            1473            2083     12.6994E-03     12.8430E-03
            1474            2084     14.4870E-03     14.9056E-03
            1456            2084     14.4870E-03     14.9056E-03
            1457            2084     14.4870E-03     14.9056E-03
            1475            2084     14.4870E-03     14.9056E-03
            1458            2085     17.5503E-03     18.1124E-03
            1457            2085     17.5503E-03     18.1124E-03
            1476            2085     17.5503E-03     18.1124E-03
            1475            2085     17.5503E-03     18.1124E-03
            1459            2086     21.3983E-03     22.0453E-03
            1477            2086     21.3983E-03     22.0453E-03
            1476            2086     21.3983E-03     22.0453E-03
            1458            2086     21.3983E-03     22.0453E-03
            1460            2087     25.6971E-03     26.4073E-03
            1477            2087     25.6971E-03     26.4073E-03
            1459            2087     25.6971E-03     26.4073E-03
            1478            2087     25.6971E-03     26.4073E-03
            1479            2088     30.2519E-03     31.0315E-03
            1478            2088     30.2519E-03     31.0315E-03
            1460            2088     30.2519E-03     31.0315E-03
            1461            2088     30.2519E-03     31.0315E-03
            1479            2089     34.9557E-03     35.8153E-03
            1480            2089     34.9557E-03     35.8153E-03
            1461            2089     34.9557E-03     35.8153E-03
            1462            2089     34.9557E-03     35.8153E-03
            1481            2090     39.7426E-03     40.6845E-03
            1462            2090     39.7426E-03     40.6845E-03
            1480            2090     39.7426E-03     40.6845E-03
            1463            2090     39.7426E-03     40.6845E-03
            1481            2091     44.5150E-03     45.5500E-03
            1463            2091     44.5150E-03     45.5500E-03
            1482            2091     44.5150E-03     45.5500E-03
            1464            2091     44.5150E-03     45.5500E-03
            1482            2092     49.1743E-03     50.2689E-03
            1464            2092     49.1743E-03     50.2689E-03
            1483            2092     49.1743E-03     50.2689E-03
            1465            2092     49.1743E-03     50.2689E-03
            1465            2093     53.6085E-03     54.6791E-03
            1483            2093     53.6085E-03     54.6791E-03
            1466            2093     53.6085E-03     54.6791E-03
            1484            2093     53.6085E-03     54.6791E-03
            1467            2094     57.6917E-03     58.6367E-03
            1484            2094     57.6917E-03     58.6367E-03
            1485            2094     57.6917E-03     58.6367E-03
            1466            2094     57.6917E-03     58.6367E-03
            1485            2095     61.5212E-03     62.1750E-03
            1467            2095     61.5212E-03     62.1750E-03
            1468            2095     61.5212E-03     62.1750E-03
            1486            2095     61.5212E-03     62.1750E-03
            1487            2096     19.1773E-03     17.7401E-03
            1488            2096     19.1773E-03     17.7401E-03
            1469            2096     19.1773E-03     17.7401E-03
            1470            2096     19.1773E-03     17.7401E-03
            1488            2097     16.2390E-03     14.9334E-03
            1470            2097     16.2390E-03     14.9334E-03
            1489            2097     16.2390E-03     14.9334E-03
            1471            2097     16.2390E-03     14.9334E-03
            1489            2098     13.6364E-03     12.6561E-03
            1471            2098     13.6364E-03     12.6561E-03
            1490            2098     13.6364E-03     12.6561E-03
            1472            2098     13.6364E-03     12.6561E-03
            1490            2099     11.9509E-03     11.4752E-03
            1473            2099     11.9509E-03     11.4752E-03
            1472            2099     11.9509E-03     11.4752E-03
            1491            2099     11.9509E-03     11.4752E-03
            1473            2100     11.9232E-03     11.9867E-03
            1474            2100     11.9232E-03     11.9867E-03
            1491            2100     11.9232E-03     11.9867E-03
            1492            2100     11.9232E-03     11.9867E-03
            1475            2101     13.6799E-03     14.1588E-03
            1492            2101     13.6799E-03     14.1588E-03
            1493            2101     13.6799E-03     14.1588E-03
            1474            2101     13.6799E-03     14.1588E-03
            1476            2102     16.8412E-03     17.5489E-03
            1494            2102     16.8412E-03     17.5489E-03
            1493            2102     16.8412E-03     17.5489E-03
            1475            2102     16.8412E-03     17.5489E-03
            1494            2103     20.8212E-03     21.6455E-03
            1476            2103     20.8212E-03     21.6455E-03
            1495            2103     20.8212E-03     21.6455E-03
            1477            2103     20.8212E-03     21.6455E-03
            1496            2104     25.2348E-03     26.1459E-03
            1478            2104     25.2348E-03     26.1459E-03
            1495            2104     25.2348E-03     26.1459E-03
            1477            2104     25.2348E-03     26.1459E-03
            1497            2105     29.9155E-03     30.8970E-03
            1496            2105     29.9155E-03     30.8970E-03
            1479            2105     29.9155E-03     30.8970E-03
            1478            2105     29.9155E-03     30.8970E-03
            1498            2106     34.7671E-03     35.8244E-03
            1479            2106     34.7671E-03     35.8244E-03
            1480            2106     34.7671E-03     35.8244E-03
            1497            2106     34.7671E-03     35.8244E-03
            1499            2107     39.7321E-03     40.8628E-03
            1480            2107     39.7321E-03     40.8628E-03
            1498            2107     39.7321E-03     40.8628E-03
            1481            2107     39.7321E-03     40.8628E-03
            1499            2108     44.8107E-03     45.9769E-03
            1481            2108     44.8107E-03     45.9769E-03
            1482            2108     44.8107E-03     45.9769E-03
            1500            2108     44.8107E-03     45.9769E-03
            1483            2109     49.8703E-03     51.0700E-03
            1482            2109     49.8703E-03     51.0700E-03
            1501            2109     49.8703E-03     51.0700E-03
            1500            2109     49.8703E-03     51.0700E-03
            1502            2110     54.8207E-03     55.9533E-03
            1501            2110     54.8207E-03     55.9533E-03
            1483            2110     54.8207E-03     55.9533E-03
            1484            2110     54.8207E-03     55.9533E-03
            1485            2111     59.5456E-03     60.4682E-03
            1503            2111     59.5456E-03     60.4682E-03
            1502            2111     59.5456E-03     60.4682E-03
            1484            2111     59.5456E-03     60.4682E-03
            1485            2112     63.8911E-03     64.6411E-03
            1503            2112     63.8911E-03     64.6411E-03
            1486            2112     63.8911E-03     64.6411E-03
            1504            2112     63.8911E-03     64.6411E-03
            1506            2113     19.8598E-03     18.3415E-03
            1487            2113     19.8598E-03     18.3415E-03
            1505            2113     19.8598E-03     18.3415E-03
            1488            2113     19.8598E-03     18.3415E-03
            1489            2114     16.4465E-03     15.0609E-03
            1506            2114     16.4465E-03     15.0609E-03
            1507            2114     16.4465E-03     15.0609E-03
            1488            2114     16.4465E-03     15.0609E-03
            1507            2115     13.3914E-03     12.2570E-03
            1490            2115     13.3914E-03     12.2570E-03
            1508            2115     13.3914E-03     12.2570E-03
            1489            2115     13.3914E-03     12.2570E-03
            1490            2116     11.3116E-03     10.6827E-03
            1508            2116     11.3116E-03     10.6827E-03
            1509            2116     11.3116E-03     10.6827E-03
            1491            2116     11.3116E-03     10.6827E-03
            1491            2117     10.9664E-03     11.0069E-03
            1509            2117     10.9664E-03     11.0069E-03
            1510            2117     10.9664E-03     11.0069E-03
            1492            2117     10.9664E-03     11.0069E-03
            1492            2118     12.7424E-03     13.3070E-03
            1493            2118     12.7424E-03     13.3070E-03
            1511            2118     12.7424E-03     13.3070E-03
            1510            2118     12.7424E-03     13.3070E-03
            1512            2119     16.0178E-03     16.8634E-03
            1494            2119     16.0178E-03     16.8634E-03
            1511            2119     16.0178E-03     16.8634E-03
            1493            2119     16.0178E-03     16.8634E-03
            1513            2120     20.0754E-03     21.0717E-03
            1495            2120     20.0754E-03     21.0717E-03
            1512            2120     20.0754E-03     21.0717E-03
            1494            2120     20.0754E-03     21.0717E-03
            1513            2121     24.5658E-03     25.6447E-03
            1514            2121     24.5658E-03     25.6447E-03
            1496            2121     24.5658E-03     25.6447E-03
            1495            2121     24.5658E-03     25.6447E-03
            1497            2122     29.2936E-03     30.4462E-03
            1514            2122     29.2936E-03     30.4462E-03
            1515            2122     29.2936E-03     30.4462E-03
            1496            2122     29.2936E-03     30.4462E-03
            1497            2123     34.2082E-03     35.4147E-03
            1516            2123     34.2082E-03     35.4147E-03
            1515            2123     34.2082E-03     35.4147E-03
            1498            2123     34.2082E-03     35.4147E-03
            1499            2124     39.2945E-03     40.5520E-03
            1517            2124     39.2945E-03     40.5520E-03
            1498            2124     39.2945E-03     40.5520E-03
            1516            2124     39.2945E-03     40.5520E-03
            1499            2125     44.5411E-03     45.8265E-03
            1500            2125     44.5411E-03     45.8265E-03
            1517            2125     44.5411E-03     45.8265E-03
            1518            2125     44.5411E-03     45.8265E-03
            1501            2126     50.0775E-03     51.2823E-03
            1500            2126     50.0775E-03     51.2823E-03
            1519            2126     50.0775E-03     51.2823E-03
            1518            2126     50.0775E-03     51.2823E-03
            1519            2127     55.6709E-03     56.8214E-03
            1501            2127     55.6709E-03     56.8214E-03
            1502            2127     55.6709E-03     56.8214E-03
            1520            2127     55.6709E-03     56.8214E-03
            1520            2128     61.0969E-03     62.1408E-03
            1502            2128     61.0969E-03     62.1408E-03
            1503            2128     61.0969E-03     62.1408E-03
            1521            2128     61.0969E-03     62.1408E-03
            1504            2129     66.2640E-03     66.8911E-03
            1521            2129     66.2640E-03     66.8911E-03
            1503            2129     66.2640E-03     66.8911E-03
            1522            2129     66.2640E-03     66.8911E-03
            1505            2130     20.7811E-03     19.2979E-03
            1524            2130     20.7811E-03     19.2979E-03
            1506            2130     20.7811E-03     19.2979E-03
            1523            2130     20.7811E-03     19.2979E-03
            1507            2131     17.0491E-03     15.5336E-03
            1524            2131     17.0491E-03     15.5336E-03
            1506            2131     17.0491E-03     15.5336E-03
            1525            2131     17.0491E-03     15.5336E-03
            1507            2132     13.2300E-03     11.9608E-03
            1508            2132     13.2300E-03     11.9608E-03
            1525            2132     13.2300E-03     11.9608E-03
            1526            2132     13.2300E-03     11.9608E-03
            1509            2133     10.3194E-03     9.63404E-03
            1508            2133     10.3194E-03     9.63404E-03
            1527            2133     10.3194E-03     9.63404E-03
            1526            2133     10.3194E-03     9.63404E-03
            1528            2134     9.75303E-03     9.83752E-03
            1527            2134     9.75303E-03     9.83752E-03
            1509            2134     9.75303E-03     9.83752E-03
            1510            2134     9.75303E-03     9.83752E-03
            1529            2135     11.6052E-03     12.2966E-03
            1528            2135     11.6052E-03     12.2966E-03
            1510            2135     11.6052E-03     12.2966E-03
            1511            2135     11.6052E-03     12.2966E-03
            1511            2136     14.9907E-03     16.0067E-03
            1530            2136     14.9907E-03     16.0067E-03
            1529            2136     14.9907E-03     16.0067E-03
            1512            2136     14.9907E-03     16.0067E-03
            1513            2137     19.1540E-03     20.3115E-03
            1531            2137     19.1540E-03     20.3115E-03
            1530            2137     19.1540E-03     20.3115E-03
            1512            2137     19.1540E-03     20.3115E-03
            1513            2138     23.6621E-03     24.9011E-03
            1532            2138     23.6621E-03     24.9011E-03
            1531            2138     23.6621E-03     24.9011E-03
            1514            2138     23.6621E-03     24.9011E-03
            1515            2139     28.3971E-03     29.6789E-03
            1533            2139     28.3971E-03     29.6789E-03
            1532            2139     28.3971E-03     29.6789E-03
            1514            2139     28.3971E-03     29.6789E-03
            1534            2140     33.2953E-03     34.6214E-03
            1515            2140     33.2953E-03     34.6214E-03
            1533            2140     33.2953E-03     34.6214E-03
            1516            2140     33.2953E-03     34.6214E-03
            1534            2141     38.3931E-03     39.7316E-03
            1535            2141     38.3931E-03     39.7316E-03
            1517            2141     38.3931E-03     39.7316E-03
            1516            2141     38.3931E-03     39.7316E-03
            1536            2142     43.7466E-03     45.0930E-03
            1518            2142     43.7466E-03     45.0930E-03
            1535            2142     43.7466E-03     45.0930E-03
            1517            2142     43.7466E-03     45.0930E-03
            1536            2143     49.4415E-03     50.7401E-03
            1518            2143     49.4415E-03     50.7401E-03
            1519            2143     49.4415E-03     50.7401E-03
            1537            2143     49.4415E-03     50.7401E-03
            1519            2144     55.8613E-03     56.9134E-03
            1520            2144     55.8613E-03     56.9134E-03
            1537            2144     55.8613E-03     56.9134E-03
            1538            2144     55.8613E-03     56.9134E-03
            1538            2145     62.4522E-03     63.3385E-03
            1520            2145     62.4522E-03     63.3385E-03
            1521            2145     62.4522E-03     63.3385E-03
            1539            2145     62.4522E-03     63.3385E-03
            1540            2146     68.3483E-03     69.3600E-03
            1521            2146     68.3483E-03     69.3600E-03
            1539            2146     68.3483E-03     69.3600E-03
            1522            2146     68.3483E-03     69.3600E-03
            1542            2147     22.6609E-03     20.9405E-03
            1523            2147     22.6609E-03     20.9405E-03
            1524            2147     22.6609E-03     20.9405E-03
            1541            2147     22.6609E-03     20.9405E-03
            1542            2148     17.6047E-03     16.0700E-03
            1543            2148     17.6047E-03     16.0700E-03
            1524            2148     17.6047E-03     16.0700E-03
            1525            2148     17.6047E-03     16.0700E-03
            1526            2149     12.2763E-03     11.0337E-03
            1544            2149     12.2763E-03     11.0337E-03
            1525            2149     12.2763E-03     11.0337E-03
            1543            2149     12.2763E-03     11.0337E-03
            1544            2150     8.85526E-03     8.19388E-03
            1527            2150     8.85526E-03     8.19388E-03
            1526            2150     8.85526E-03     8.19388E-03
            1545            2150     8.85526E-03     8.19388E-03
            1545            2151     8.16530E-03     8.38577E-03
            1546            2151     8.16530E-03     8.38577E-03
            1528            2151     8.16530E-03     8.38577E-03
            1527            2151     8.16530E-03     8.38577E-03
            1528            2152     10.1624E-03     11.0855E-03
            1546            2152     10.1624E-03     11.0855E-03
            1547            2152     10.1624E-03     11.0855E-03
            1529            2152     10.1624E-03     11.0855E-03
            1530            2153     13.8069E-03     15.0288E-03
            1547            2153     13.8069E-03     15.0288E-03
            1548            2153     13.8069E-03     15.0288E-03
            1529            2153     13.8069E-03     15.0288E-03
            1549            2154     18.0554E-03     19.3978E-03
            1530            2154     18.0554E-03     19.3978E-03
            1531            2154     18.0554E-03     19.3978E-03
            1548            2154     18.0554E-03     19.3978E-03
            1550            2155     22.5847E-03     23.9718E-03
            1531            2155     22.5847E-03     23.9718E-03
            1532            2155     22.5847E-03     23.9718E-03
            1549            2155     22.5847E-03     23.9718E-03
            1550            2156     27.2693E-03     28.6739E-03
            1533            2156     27.2693E-03     28.6739E-03
            1532            2156     27.2693E-03     28.6739E-03
            1551            2156     27.2693E-03     28.6739E-03
            1533            2157     32.1115E-03     33.5070E-03
            1551            2157     32.1115E-03     33.5070E-03
            1534            2157     32.1115E-03     33.5070E-03
            1552            2157     32.1115E-03     33.5070E-03
            1534            2158     37.1166E-03     38.5095E-03
            1552            2158     37.1166E-03     38.5095E-03
            1535            2158     37.1166E-03     38.5095E-03
            1553            2158     37.1166E-03     38.5095E-03
            1553            2159     42.4199E-03     43.7715E-03
            1536            2159     42.4199E-03     43.7715E-03
            1535            2159     42.4199E-03     43.7715E-03
            1554            2159     42.4199E-03     43.7715E-03
            1537            2160     48.1274E-03     49.4610E-03
            1555            2160     48.1274E-03     49.4610E-03
            1536            2160     48.1274E-03     49.4610E-03
            1554            2160     48.1274E-03     49.4610E-03
            1538            2161     54.5885E-03     55.7985E-03
            1537            2161     54.5885E-03     55.7985E-03
            1555            2161     54.5885E-03     55.7985E-03
            1556            2161     54.5885E-03     55.7985E-03
            1538            2162     62.6822E-03     63.4109E-03
            1557            2162     62.6822E-03     63.4109E-03
            1556            2162     62.6822E-03     63.4109E-03
            1539            2162     62.6822E-03     63.4109E-03
            1540            2163     70.7408E-03     70.8419E-03
            1539            2163     70.7408E-03     70.8419E-03
            1558            2163     70.7408E-03     70.8419E-03
            1557            2163     70.7408E-03     70.8419E-03
            1542            2164     24.0381E-03     22.9021E-03
            1541            2164     24.0381E-03     22.9021E-03
            1559            2164     24.0381E-03     22.9021E-03
            1560            2164     24.0381E-03     22.9021E-03
            1560            2165     16.3506E-03     15.1520E-03
            1542            2165     16.3506E-03     15.1520E-03
            1561            2165     16.3506E-03     15.1520E-03
            1543            2165     16.3506E-03     15.1520E-03
            1562            2166     10.5237E-03     9.35385E-03
            1561            2166     10.5237E-03     9.35385E-03
            1543            2166     10.5237E-03     9.35385E-03
            1544            2166     10.5237E-03     9.35385E-03
            1545            2167     6.81259E-03     6.22916E-03
            1563            2167     6.81259E-03     6.22916E-03
            1544            2167     6.81259E-03     6.22916E-03
            1562            2167     6.81259E-03     6.22916E-03
            1564            2168     6.05065E-03     6.56673E-03
            1546            2168     6.05065E-03     6.56673E-03
            1545            2168     6.05065E-03     6.56673E-03
            1563            2168     6.05065E-03     6.56673E-03
            1565            2169     8.57586E-03     9.84497E-03
            1546            2169     8.57586E-03     9.84497E-03
            1547            2169     8.57586E-03     9.84497E-03
            1564            2169     8.57586E-03     9.84497E-03
            1547            2170     12.5332E-03     14.0296E-03
            1566            2170     12.5332E-03     14.0296E-03
            1548            2170     12.5332E-03     14.0296E-03
            1565            2170     12.5332E-03     14.0296E-03
            1567            2171     16.8988E-03     18.4589E-03
            1566            2171     16.8988E-03     18.4589E-03
            1549            2171     16.8988E-03     18.4589E-03
            1548            2171     16.8988E-03     18.4589E-03
            1550            2172     21.4234E-03     22.9792E-03
            1568            2172     21.4234E-03     22.9792E-03
            1567            2172     21.4234E-03     22.9792E-03
            1549            2172     21.4234E-03     22.9792E-03
            1569            2173     26.0475E-03     27.5683E-03
            1550            2173     26.0475E-03     27.5683E-03
            1568            2173     26.0475E-03     27.5683E-03
            1551            2173     26.0475E-03     27.5683E-03
            1552            2174     30.7729E-03     32.2322E-03
            1569            2174     30.7729E-03     32.2322E-03
            1551            2174     30.7729E-03     32.2322E-03
            1570            2174     30.7729E-03     32.2322E-03
            1570            2175     35.6640E-03     37.0482E-03
            1552            2175     35.6640E-03     37.0482E-03
            1571            2175     35.6640E-03     37.0482E-03
            1553            2175     35.6640E-03     37.0482E-03
            1553            2176     40.7628E-03     42.0688E-03
            1572            2176     40.7628E-03     42.0688E-03
            1571            2176     40.7628E-03     42.0688E-03
            1554            2176     40.7628E-03     42.0688E-03
            1573            2177     46.3236E-03     47.5578E-03
            1555            2177     46.3236E-03     47.5578E-03
            1554            2177     46.3236E-03     47.5578E-03
            1572            2177     46.3236E-03     47.5578E-03
            1555            2178     52.4399E-03     53.6753E-03
            1573            2178     52.4399E-03     53.6753E-03
            1574            2178     52.4399E-03     53.6753E-03
            1556            2178     52.4399E-03     53.6753E-03
            1556            2179     60.2081E-03     61.4752E-03
            1575            2179     60.2081E-03     61.4752E-03
            1557            2179     60.2081E-03     61.4752E-03
            1574            2179     60.2081E-03     61.4752E-03
            1575            2180     70.7981E-03     71.6155E-03
            1558            2180     70.7981E-03     71.6155E-03
            1576            2180     70.7981E-03     71.6155E-03
            1557            2180     70.7981E-03     71.6155E-03
            1560            2181     21.6431E-03     24.3387E-03
            1577            2181     21.6431E-03     24.3387E-03
            1559            2181     21.6431E-03     24.3387E-03
            1578            2181     21.6431E-03     24.3387E-03
            1579            2182     16.6671E-03     17.1420E-03
            1560            2182     16.6671E-03     17.1420E-03
            1561            2182     16.6671E-03     17.1420E-03
            1578            2182     16.6671E-03     17.1420E-03
            1561            2183     14.1050E-03     13.8602E-03
            1562            2183     14.1050E-03     13.8602E-03
            1579            2183     14.1050E-03     13.8602E-03
            1580            2183     14.1050E-03     13.8602E-03
            1562            2184     12.4707E-03     12.3422E-03
            1563            2184     12.4707E-03     12.3422E-03
            1580            2184     12.4707E-03     12.3422E-03
            1581            2184     12.4707E-03     12.3422E-03
            1581            2185     13.1441E-03     13.5142E-03
            1563            2185     13.1441E-03     13.5142E-03
            1582            2185     13.1441E-03     13.5142E-03
            1564            2185     13.1441E-03     13.5142E-03
            1582            2186     15.9696E-03     16.7107E-03
            1564            2186     15.9696E-03     16.7107E-03
            1583            2186     15.9696E-03     16.7107E-03
            1565            2186     15.9696E-03     16.7107E-03
            1583            2187     19.7706E-03     20.5875E-03
            1565            2187     19.7706E-03     20.5875E-03
            1584            2187     19.7706E-03     20.5875E-03
            1566            2187     19.7706E-03     20.5875E-03
            1584            2188     23.9700E-03     24.7864E-03
            1585            2188     23.9700E-03     24.7864E-03
            1567            2188     23.9700E-03     24.7864E-03
            1566            2188     23.9700E-03     24.7864E-03
            1586            2189     28.3500E-03     29.1212E-03
            1585            2189     28.3500E-03     29.1212E-03
            1567            2189     28.3500E-03     29.1212E-03
            1568            2189     28.3500E-03     29.1212E-03
            1587            2190     32.8486E-03     33.5522E-03
            1586            2190     32.8486E-03     33.5522E-03
            1568            2190     32.8486E-03     33.5522E-03
            1569            2190     32.8486E-03     33.5522E-03
            1587            2191     37.4301E-03     38.0127E-03
            1570            2191     37.4301E-03     38.0127E-03
            1588            2191     37.4301E-03     38.0127E-03
            1569            2191     37.4301E-03     38.0127E-03
            1588            2192     42.0389E-03     42.4970E-03
            1570            2192     42.0389E-03     42.4970E-03
            1589            2192     42.0389E-03     42.4970E-03
            1571            2192     42.0389E-03     42.4970E-03
            1571            2193     46.7455E-03     47.0016E-03
            1572            2193     46.7455E-03     47.0016E-03
            1590            2193     46.7455E-03     47.0016E-03
            1589            2193     46.7455E-03     47.0016E-03
            1590            2194     51.4641E-03     51.5784E-03
            1573            2194     51.4641E-03     51.5784E-03
            1591            2194     51.4641E-03     51.5784E-03
            1572            2194     51.4641E-03     51.5784E-03
            1573            2195     56.4692E-03     56.3986E-03
            1574            2195     56.4692E-03     56.3986E-03
            1591            2195     56.4692E-03     56.3986E-03
            1592            2195     56.4692E-03     56.3986E-03
            1592            2196     61.6389E-03     61.6698E-03
            1574            2196     61.6389E-03     61.6698E-03
            1593            2196     61.6389E-03     61.6698E-03
            1575            2196     61.6389E-03     61.6698E-03
            1593            2197     68.5297E-03     69.8664E-03
            1576            2197     68.5297E-03     69.8664E-03
            1594            2197     68.5297E-03     69.8664E-03
            1575            2197     68.5297E-03     69.8664E-03
            1595            2198     21.9827E-03     24.1902E-03
            1596            2198     21.9827E-03     24.1902E-03
            1577            2198     21.9827E-03     24.1902E-03
            1578            2198     21.9827E-03     24.1902E-03
            1596            2199     18.7543E-03     20.4501E-03
            1578            2199     18.7543E-03     20.4501E-03
            1597            2199     18.7543E-03     20.4501E-03
            1579            2199     18.7543E-03     20.4501E-03
            1580            2200     17.8353E-03     18.6256E-03
            1579            2200     17.8353E-03     18.6256E-03
            1598            2200     17.8353E-03     18.6256E-03
            1597            2200     17.8353E-03     18.6256E-03
            1599            2201     18.2392E-03     18.5999E-03
            1598            2201     18.2392E-03     18.5999E-03
            1580            2201     18.2392E-03     18.5999E-03
            1581            2201     18.2392E-03     18.5999E-03
            1599            2202     19.9847E-03     20.1535E-03
            1581            2202     19.9847E-03     20.1535E-03
            1600            2202     19.9847E-03     20.1535E-03
            1582            2202     19.9847E-03     20.1535E-03
            1582            2203     22.8677E-03     22.9542E-03
            1583            2203     22.8677E-03     22.9542E-03
            1600            2203     22.8677E-03     22.9542E-03
            1601            2203     22.8677E-03     22.9542E-03
            1602            2204     26.5789E-03     26.6402E-03
            1601            2204     26.5789E-03     26.6402E-03
            1583            2204     26.5789E-03     26.6402E-03
            1584            2204     26.5789E-03     26.6402E-03
            1584            2205     30.8196E-03     30.8566E-03
            1585            2205     30.8196E-03     30.8566E-03
            1602            2205     30.8196E-03     30.8566E-03
            1603            2205     30.8196E-03     30.8566E-03
            1585            2206     35.3990E-03     35.3982E-03
            1586            2206     35.3990E-03     35.3982E-03
            1603            2206     35.3990E-03     35.3982E-03
            1604            2206     35.3990E-03     35.3982E-03
            1586            2207     40.1632E-03     40.1062E-03
            1605            2207     40.1632E-03     40.1062E-03
            1604            2207     40.1632E-03     40.1062E-03
            1587            2207     40.1632E-03     40.1062E-03
            1588            2208     45.0031E-03     44.8610E-03
            1587            2208     45.0031E-03     44.8610E-03
            1606            2208     45.0031E-03     44.8610E-03
            1605            2208     45.0031E-03     44.8610E-03
            1588            2209     49.8402E-03     49.5877E-03
            1589            2209     49.8402E-03     49.5877E-03
            1607            2209     49.8402E-03     49.5877E-03
            1606            2209     49.8402E-03     49.5877E-03
            1608            2210     54.5577E-03     54.1838E-03
            1589            2210     54.5577E-03     54.1838E-03
            1607            2210     54.5577E-03     54.1838E-03
            1590            2210     54.5577E-03     54.1838E-03
            1590            2211     59.1288E-03     58.6113E-03
            1591            2211     59.1288E-03     58.6113E-03
            1609            2211     59.1288E-03     58.6113E-03
            1608            2211     59.1288E-03     58.6113E-03
            1609            2212     63.3549E-03     62.7735E-03
            1610            2212     63.3549E-03     62.7735E-03
            1592            2212     63.3549E-03     62.7735E-03
            1591            2212     63.3549E-03     62.7735E-03
            1592            2213     67.2726E-03     66.7576E-03
            1593            2213     67.2726E-03     66.7576E-03
            1610            2213     67.2726E-03     66.7576E-03
            1611            2213     67.2726E-03     66.7576E-03
            1611            2214     70.8043E-03     70.1055E-03
            1594            2214     70.8043E-03     70.1055E-03
            1612            2214     70.8043E-03     70.1055E-03
            1593            2214     70.8043E-03     70.1055E-03
            1613            2215     24.2872E-03     22.9923E-03
            1595            2215     24.2872E-03     22.9923E-03
            1596            2215     24.2872E-03     22.9923E-03
            1614            2215     24.2872E-03     22.9923E-03
            1614            2216     19.9806E-03     20.2084E-03
            1596            2216     19.9806E-03     20.2084E-03
            1597            2216     19.9806E-03     20.2084E-03
            1615            2216     19.9806E-03     20.2084E-03
            1615            2217     17.0052E-03     17.6047E-03
            1616            2217     17.0052E-03     17.6047E-03
            1598            2217     17.0052E-03     17.6047E-03
            1597            2217     17.0052E-03     17.6047E-03
            1598            2218     16.3340E-03     16.7664E-03
            1617            2218     16.3340E-03     16.7664E-03
            1599            2218     16.3340E-03     16.7664E-03
            1616            2218     16.3340E-03     16.7664E-03
            1600            2219     17.6147E-03     17.9487E-03
            1599            2219     17.6147E-03     17.9487E-03
            1617            2219     17.6147E-03     17.9487E-03
            1618            2219     17.6147E-03     17.9487E-03
            1600            2220     20.6134E-03     20.8811E-03
            1619            2220     20.6134E-03     20.8811E-03
            1601            2220     20.6134E-03     20.8811E-03
            1618            2220     20.6134E-03     20.8811E-03
            1619            2221     24.7091E-03     24.9601E-03
            1601            2221     24.7091E-03     24.9601E-03
            1620            2221     24.7091E-03     24.9601E-03
            1602            2221     24.7091E-03     24.9601E-03
            1603            2222     29.5012E-03     29.7434E-03
            1602            2222     29.5012E-03     29.7434E-03
            1620            2222     29.5012E-03     29.7434E-03
            1621            2222     29.5012E-03     29.7434E-03
            1604            2223     34.6745E-03     34.9154E-03
            1622            2223     34.6745E-03     34.9154E-03
            1603            2223     34.6745E-03     34.9154E-03
            1621            2223     34.6745E-03     34.9154E-03
            1622            2224     40.0789E-03     40.3107E-03
            1604            2224     40.0789E-03     40.3107E-03
            1605            2224     40.0789E-03     40.3107E-03
            1623            2224     40.0789E-03     40.3107E-03
            1624            2225     45.5877E-03     45.8168E-03
            1606            2225     45.5877E-03     45.8168E-03
            1605            2225     45.5877E-03     45.8168E-03
            1623            2225     45.5877E-03     45.8168E-03
            1607            2226     51.1116E-03     51.3462E-03
            1606            2226     51.1116E-03     51.3462E-03
            1625            2226     51.1116E-03     51.3462E-03
            1624            2226     51.1116E-03     51.3462E-03
            1607            2227     56.5651E-03     56.8258E-03
            1608            2227     56.5651E-03     56.8258E-03
            1626            2227     56.5651E-03     56.8258E-03
            1625            2227     56.5651E-03     56.8258E-03
            1626            2228     61.8262E-03     62.1829E-03
            1608            2228     61.8262E-03     62.1829E-03
            1609            2228     61.8262E-03     62.1829E-03
            1627            2228     61.8262E-03     62.1829E-03
            1627            2229     66.7992E-03     67.3046E-03
            1610            2229     66.7992E-03     67.3046E-03
            1628            2229     66.7992E-03     67.3046E-03
            1609            2229     66.7992E-03     67.3046E-03
            1628            2230     71.5090E-03     72.0927E-03
            1610            2230     71.5090E-03     72.0927E-03
            1629            2230     71.5090E-03     72.0927E-03
            1611            2230     71.5090E-03     72.0927E-03
            1611            2231     75.4790E-03     75.7424E-03
            1630            2231     75.4790E-03     75.7424E-03
            1629            2231     75.4790E-03     75.7424E-03
            1612            2231     75.4790E-03     75.7424E-03
            1613            2232     23.8432E-03     22.2818E-03
            1632            2232     23.8432E-03     22.2818E-03
            1614            2232     23.8432E-03     22.2818E-03
            1631            2232     23.8432E-03     22.2818E-03
            1614            2233     20.4258E-03     19.3187E-03
            1633            2233     20.4258E-03     19.3187E-03
            1632            2233     20.4258E-03     19.3187E-03
            1615            2233     20.4258E-03     19.3187E-03
            1615            2234     16.8804E-03     16.6621E-03
            1616            2234     16.8804E-03     16.6621E-03
            1634            2234     16.8804E-03     16.6621E-03
            1633            2234     16.8804E-03     16.6621E-03
            1635            2235     15.1352E-03     15.3612E-03
            1616            2235     15.1352E-03     15.3612E-03
            1617            2235     15.1352E-03     15.3612E-03
            1634            2235     15.1352E-03     15.3612E-03
            1636            2236     15.9457E-03     16.3217E-03
            1618            2236     15.9457E-03     16.3217E-03
            1617            2236     15.9457E-03     16.3217E-03
            1635            2236     15.9457E-03     16.3217E-03
            1637            2237     18.9055E-03     19.3608E-03
            1636            2237     18.9055E-03     19.3608E-03
            1618            2237     18.9055E-03     19.3608E-03
            1619            2237     18.9055E-03     19.3608E-03
            1637            2238     23.3475E-03     23.8234E-03
            1638            2238     23.3475E-03     23.8234E-03
            1619            2238     23.3475E-03     23.8234E-03
            1620            2238     23.3475E-03     23.8234E-03
            1639            2239     28.5631E-03     29.0672E-03
            1620            2239     28.5631E-03     29.0672E-03
            1638            2239     28.5631E-03     29.0672E-03
            1621            2239     28.5631E-03     29.0672E-03
            1640            2240     34.2264E-03     34.7573E-03
            1622            2240     34.2264E-03     34.7573E-03
            1621            2240     34.2264E-03     34.7573E-03
            1639            2240     34.2264E-03     34.7573E-03
            1641            2241     40.1248E-03     40.7001E-03
            1622            2241     40.1248E-03     40.7001E-03
            1640            2241     40.1248E-03     40.7001E-03
            1623            2241     40.1248E-03     40.7001E-03
            1624            2242     46.1665E-03     46.7931E-03
            1642            2242     46.1665E-03     46.7931E-03
            1623            2242     46.1665E-03     46.7931E-03
            1641            2242     46.1665E-03     46.7931E-03
            1625            2243     52.2350E-03     52.9535E-03
            1624            2243     52.2350E-03     52.9535E-03
            1642            2243     52.2350E-03     52.9535E-03
            1643            2243     52.2350E-03     52.9535E-03
            1644            2244     58.2697E-03     59.0989E-03
            1643            2244     58.2697E-03     59.0989E-03
            1625            2244     58.2697E-03     59.0989E-03
            1626            2244     58.2697E-03     59.0989E-03
            1627            2245     64.1136E-03     65.1093E-03
            1645            2245     64.1136E-03     65.1093E-03
            1644            2245     64.1136E-03     65.1093E-03
            1626            2245     64.1136E-03     65.1093E-03
            1627            2246     69.7116E-03     70.8319E-03
            1628            2246     69.7116E-03     70.8319E-03
            1645            2246     69.7116E-03     70.8319E-03
            1646            2246     69.7116E-03     70.8319E-03
            1629            2247     74.7993E-03     75.9055E-03
            1647            2247     74.7993E-03     75.9055E-03
            1628            2247     74.7993E-03     75.9055E-03
            1646            2247     74.7993E-03     75.9055E-03
            1648            2248     79.1196E-03     80.1622E-03
            1647            2248     79.1196E-03     80.1622E-03
            1630            2248     79.1196E-03     80.1622E-03
            1629            2248     79.1196E-03     80.1622E-03
            1649            2249     23.7793E-03     21.9211E-03
            1631            2249     23.7793E-03     21.9211E-03
            1650            2249     23.7793E-03     21.9211E-03
            1632            2249     23.7793E-03     21.9211E-03
            1633            2250     19.9519E-03     18.5348E-03
            1632            2250     19.9519E-03     18.5348E-03
            1650            2250     19.9519E-03     18.5348E-03
            1651            2250     19.9519E-03     18.5348E-03
            1634            2251     16.5046E-03     15.6093E-03
            1652            2251     16.5046E-03     15.6093E-03
            1651            2251     16.5046E-03     15.6093E-03
            1633            2251     16.5046E-03     15.6093E-03
            1652            2252     14.2688E-03     14.1022E-03
            1634            2252     14.2688E-03     14.1022E-03
            1635            2252     14.2688E-03     14.1022E-03
            1653            2252     14.2688E-03     14.1022E-03
            1653            2253     14.5994E-03     14.9523E-03
            1635            2253     14.5994E-03     14.9523E-03
            1636            2253     14.5994E-03     14.9523E-03
            1654            2253     14.5994E-03     14.9523E-03
            1636            2254     17.5980E-03     18.1992E-03
            1637            2254     17.5980E-03     18.1992E-03
            1655            2254     17.5980E-03     18.1992E-03
            1654            2254     17.5980E-03     18.1992E-03
            1638            2255     22.2571E-03     22.9743E-03
            1655            2255     22.2571E-03     22.9743E-03
            1656            2255     22.2571E-03     22.9743E-03
            1637            2255     22.2571E-03     22.9743E-03
            1657            2256     27.8101E-03     28.5869E-03
            1638            2256     27.8101E-03     28.5869E-03
            1656            2256     27.8101E-03     28.5869E-03
            1639            2256     27.8101E-03     28.5869E-03
            1640            2257     33.8108E-03     34.6479E-03
            1658            2257     33.8108E-03     34.6479E-03
            1657            2257     33.8108E-03     34.6479E-03
            1639            2257     33.8108E-03     34.6479E-03
            1641            2258     40.0734E-03     40.9777E-03
            1659            2258     40.0734E-03     40.9777E-03
            1640            2258     40.0734E-03     40.9777E-03
            1658            2258     40.0734E-03     40.9777E-03
            1641            2259     46.4694E-03     47.4745E-03
            1659            2259     46.4694E-03     47.4745E-03
            1660            2259     46.4694E-03     47.4745E-03
            1642            2259     46.4694E-03     47.4745E-03
            1660            2260     52.9744E-03     54.0780E-03
            1661            2260     52.9744E-03     54.0780E-03
            1643            2260     52.9744E-03     54.0780E-03
            1642            2260     52.9744E-03     54.0780E-03
            1662            2261     59.4346E-03     60.7016E-03
            1643            2261     59.4346E-03     60.7016E-03
            1661            2261     59.4346E-03     60.7016E-03
            1644            2261     59.4346E-03     60.7016E-03
            1645            2262     65.8170E-03     67.1887E-03
            1644            2262     65.8170E-03     67.1887E-03
            1663            2262     65.8170E-03     67.1887E-03
            1662            2262     65.8170E-03     67.1887E-03
            1645            2263     71.8750E-03     73.3029E-03
            1664            2263     71.8750E-03     73.3029E-03
            1646            2263     71.8750E-03     73.3029E-03
            1663            2263     71.8750E-03     73.3029E-03
            1665            2264     77.3478E-03     78.7623E-03
            1646            2264     77.3478E-03     78.7623E-03
            1664            2264     77.3478E-03     78.7623E-03
            1647            2264     77.3478E-03     78.7623E-03
            1665            2265     82.4296E-03     83.2490E-03
            1666            2265     82.4296E-03     83.2490E-03
            1647            2265     82.4296E-03     83.2490E-03
            1648            2265     82.4296E-03     83.2490E-03
            1667            2266     23.8698E-03     21.9026E-03
            1668            2266     23.8698E-03     21.9026E-03
            1649            2266     23.8698E-03     21.9026E-03
            1650            2266     23.8698E-03     21.9026E-03
            1668            2267     19.7808E-03     18.0261E-03
            1650            2267     19.7808E-03     18.0261E-03
            1669            2267     19.7808E-03     18.0261E-03
            1651            2267     19.7808E-03     18.0261E-03
            1651            2268     15.8752E-03     14.6559E-03
            1669            2268     15.8752E-03     14.6559E-03
            1652            2268     15.8752E-03     14.6559E-03
            1670            2268     15.8752E-03     14.6559E-03
            1671            2269     13.3295E-03     12.8342E-03
            1670            2269     13.3295E-03     12.8342E-03
            1652            2269     13.3295E-03     12.8342E-03
            1653            2269     13.3295E-03     12.8342E-03
            1654            2270     13.4461E-03     13.7148E-03
            1671            2270     13.4461E-03     13.7148E-03
            1672            2270     13.4461E-03     13.7148E-03
            1653            2270     13.4461E-03     13.7148E-03
            1672            2271     16.4159E-03     17.1616E-03
            1655            2271     16.4159E-03     17.1616E-03
            1654            2271     16.4159E-03     17.1616E-03
            1673            2271     16.4159E-03     17.1616E-03
            1674            2272     21.2847E-03     22.2315E-03
            1655            2272     21.2847E-03     22.2315E-03
            1673            2272     21.2847E-03     22.2315E-03
            1656            2272     21.2847E-03     22.2315E-03
            1656            2273     27.0663E-03     28.1090E-03
            1674            2273     27.0663E-03     28.1090E-03
            1675            2273     27.0663E-03     28.1090E-03
            1657            2273     27.0663E-03     28.1090E-03
            1657            2274     33.2842E-03     34.4035E-03
            1675            2274     33.2842E-03     34.4035E-03
            1658            2274     33.2842E-03     34.4035E-03
            1676            2274     33.2842E-03     34.4035E-03
            1676            2275     39.7476E-03     40.9526E-03
            1658            2275     39.7476E-03     40.9526E-03
            1659            2275     39.7476E-03     40.9526E-03
            1677            2275     39.7476E-03     40.9526E-03
            1659            2276     46.3895E-03     47.6873E-03
            1660            2276     46.3895E-03     47.6873E-03
            1677            2276     46.3895E-03     47.6873E-03
            1678            2276     46.3895E-03     47.6873E-03
            1679            2277     53.1208E-03     54.5482E-03
            1661            2277     53.1208E-03     54.5482E-03
            1660            2277     53.1208E-03     54.5482E-03
            1678            2277     53.1208E-03     54.5482E-03
            1680            2278     59.9955E-03     61.4965E-03
            1679            2278     59.9955E-03     61.4965E-03
            1661            2278     59.9955E-03     61.4965E-03
            1662            2278     59.9955E-03     61.4965E-03
            1662            2279     66.7984E-03     68.4093E-03
            1680            2279     66.7984E-03     68.4093E-03
            1663            2279     66.7984E-03     68.4093E-03
            1681            2279     66.7984E-03     68.4093E-03
            1664            2280     73.3896E-03     74.9985E-03
            1682            2280     73.3896E-03     74.9985E-03
            1663            2280     73.3896E-03     74.9985E-03
            1681            2280     73.3896E-03     74.9985E-03
            1683            2281     79.6106E-03     80.9018E-03
            1664            2281     79.6106E-03     80.9018E-03
            1665            2281     79.6106E-03     80.9018E-03
            1682            2281     79.6106E-03     80.9018E-03
            1683            2282     85.0862E-03     86.1832E-03
            1666            2282     85.0862E-03     86.1832E-03
            1684            2282     85.0862E-03     86.1832E-03
            1665            2282     85.0862E-03     86.1832E-03
            1686            2283     24.4431E-03     22.3632E-03
            1668            2283     24.4431E-03     22.3632E-03
            1667            2283     24.4431E-03     22.3632E-03
            1685            2283     24.4431E-03     22.3632E-03
            1668            2284     19.7519E-03     17.8785E-03
            1687            2284     19.7519E-03     17.8785E-03
            1686            2284     19.7519E-03     17.8785E-03
            1669            2284     19.7519E-03     17.8785E-03
            1688            2285     15.3876E-03     13.8693E-03
            1669            2285     15.3876E-03     13.8693E-03
            1670            2285     15.3876E-03     13.8693E-03
            1687            2285     15.3876E-03     13.8693E-03
            1689            2286     12.3347E-03     11.6117E-03
            1688            2286     12.3347E-03     11.6117E-03
            1671            2286     12.3347E-03     11.6117E-03
            1670            2286     12.3347E-03     11.6117E-03
            1671            2287     12.1310E-03     12.3847E-03
            1689            2287     12.1310E-03     12.3847E-03
            1690            2287     12.1310E-03     12.3847E-03
            1672            2287     12.1310E-03     12.3847E-03
            1672            2288     15.2171E-03     16.1222E-03
            1691            2288     15.2171E-03     16.1222E-03
            1673            2288     15.2171E-03     16.1222E-03
            1690            2288     15.2171E-03     16.1222E-03
            1674            2289     20.2979E-03     21.4684E-03
            1691            2289     20.2979E-03     21.4684E-03
            1692            2289     20.2979E-03     21.4684E-03
            1673            2289     20.2979E-03     21.4684E-03
            1674            2290     26.2180E-03     27.5111E-03
            1692            2290     26.2180E-03     27.5111E-03
            1675            2290     26.2180E-03     27.5111E-03
            1693            2290     26.2180E-03     27.5111E-03
            1694            2291     32.5478E-03     33.9178E-03
            1675            2291     32.5478E-03     33.9178E-03
            1693            2291     32.5478E-03     33.9178E-03
            1676            2291     32.5478E-03     33.9178E-03
            1695            2292     39.0967E-03     40.5449E-03
            1676            2292     39.0967E-03     40.5449E-03
            1677            2292     39.0967E-03     40.5449E-03
            1694            2292     39.0967E-03     40.5449E-03
            1696            2293     45.8063E-03     47.3407E-03
            1677            2293     45.8063E-03     47.3407E-03
            1678            2293     45.8063E-03     47.3407E-03
            1695            2293     45.8063E-03     47.3407E-03
            1697            2294     52.6944E-03     54.3112E-03
            1696            2294     52.6944E-03     54.3112E-03
            1679            2294     52.6944E-03     54.3112E-03
            1678            2294     52.6944E-03     54.3112E-03
            1680            2295     59.7168E-03     61.4210E-03
            1679            2295     59.7168E-03     61.4210E-03
            1697            2295     59.7168E-03     61.4210E-03
            1698            2295     59.7168E-03     61.4210E-03
            1680            2296     67.0360E-03     68.6947E-03
            1681            2296     67.0360E-03     68.6947E-03
            1698            2296     67.0360E-03     68.6947E-03
            1699            2296     67.0360E-03     68.6947E-03
            1681            2297     74.3534E-03     75.9525E-03
            1682            2297     74.3534E-03     75.9525E-03
            1700            2297     74.3534E-03     75.9525E-03
            1699            2297     74.3534E-03     75.9525E-03
            1701            2298     81.2914E-03     82.7934E-03
            1683            2298     81.2914E-03     82.7934E-03
            1682            2298     81.2914E-03     82.7934E-03
            1700            2298     81.2914E-03     82.7934E-03
            1684            2299     87.8269E-03     88.6701E-03
            1701            2299     87.8269E-03     88.6701E-03
            1702            2299     87.8269E-03     88.6701E-03
            1683            2299     87.8269E-03     88.6701E-03
            1686            2300     25.3301E-03     23.2863E-03
            1685            2300     25.3301E-03     23.2863E-03
            1703            2300     25.3301E-03     23.2863E-03
            1704            2300     25.3301E-03     23.2863E-03
            1704            2301     20.2571E-03     18.1774E-03
            1687            2301     20.2571E-03     18.1774E-03
            1686            2301     20.2571E-03     18.1774E-03
            1705            2301     20.2571E-03     18.1774E-03
            1705            2302     14.9088E-03     13.1966E-03
            1688            2302     14.9088E-03     13.1966E-03
            1706            2302     14.9088E-03     13.1966E-03
            1687            2302     14.9088E-03     13.1966E-03
            1706            2303     10.8782E-03     10.0684E-03
            1689            2303     10.8782E-03     10.0684E-03
            1688            2303     10.8782E-03     10.0684E-03
            1707            2303     10.8782E-03     10.0684E-03
            1708            2304     10.5428E-03     10.8991E-03
            1690            2304     10.5428E-03     10.8991E-03
            1689            2304     10.5428E-03     10.8991E-03
            1707            2304     10.5428E-03     10.8991E-03
            1708            2305     13.9075E-03     15.0255E-03
            1691            2305     13.9075E-03     15.0255E-03
            1709            2305     13.9075E-03     15.0255E-03
            1690            2305     13.9075E-03     15.0255E-03
            1692            2306     19.1866E-03     20.6061E-03
            1709            2306     19.1866E-03     20.6061E-03
            1710            2306     19.1866E-03     20.6061E-03
            1691            2306     19.1866E-03     20.6061E-03
            1693            2307     25.2334E-03     26.7632E-03
            1711            2307     25.2334E-03     26.7632E-03
            1710            2307     25.2334E-03     26.7632E-03
            1692            2307     25.2334E-03     26.7632E-03
            1711            2308     31.5735E-03     33.1681E-03
            1693            2308     31.5735E-03     33.1681E-03
            1694            2308     31.5735E-03     33.1681E-03
            1712            2308     31.5735E-03     33.1681E-03
            1712            2309     38.1012E-03     39.7426E-03
            1713            2309     38.1012E-03     39.7426E-03
            1694            2309     38.1012E-03     39.7426E-03
            1695            2309     38.1012E-03     39.7426E-03
            1713            2310     44.7712E-03     46.4690E-03
            1714            2310     44.7712E-03     46.4690E-03
            1696            2310     44.7712E-03     46.4690E-03
            1695            2310     44.7712E-03     46.4690E-03
            1696            2311     51.6185E-03     53.3576E-03
            1697            2311     51.6185E-03     53.3576E-03
            1715            2311     51.6185E-03     53.3576E-03
            1714            2311     51.6185E-03     53.3576E-03
            1715            2312     58.7170E-03     60.4970E-03
            1697            2312     58.7170E-03     60.4970E-03
            1698            2312     58.7170E-03     60.4970E-03
            1716            2312     58.7170E-03     60.4970E-03
            1717            2313     66.1515E-03     67.9056E-03
            1698            2313     66.1515E-03     67.9056E-03
            1699            2313     66.1515E-03     67.9056E-03
            1716            2313     66.1515E-03     67.9056E-03
            1718            2314     74.3630E-03     75.8510E-03
            1717            2314     74.3630E-03     75.8510E-03
            1700            2314     74.3630E-03     75.8510E-03
            1699            2314     74.3630E-03     75.8510E-03
            1718            2315     82.7081E-03     83.9391E-03
            1719            2315     82.7081E-03     83.9391E-03
            1701            2315     82.7081E-03     83.9391E-03
            1700            2315     82.7081E-03     83.9391E-03
            1701            2316     90.0110E-03     91.3668E-03
            1720            2316     90.0110E-03     91.3668E-03
            1702            2316     90.0110E-03     91.3668E-03
            1719            2316     90.0110E-03     91.3668E-03
            1722            2317     27.3883E-03     25.0274E-03
            1703            2317     27.3883E-03     25.0274E-03
            1721            2317     27.3883E-03     25.0274E-03
            1704            2317     27.3883E-03     25.0274E-03
            1723            2318     20.6145E-03     18.5515E-03
            1704            2318     20.6145E-03     18.5515E-03
            1705            2318     20.6145E-03     18.5515E-03
            1722            2318     20.6145E-03     18.5515E-03
            1723            2319     13.4458E-03     11.7813E-03
            1724            2319     13.4458E-03     11.7813E-03
            1706            2319     13.4458E-03     11.7813E-03
            1705            2319     13.4458E-03     11.7813E-03
            1724            2320     8.83512E-03     8.10697E-03
            1707            2320     8.83512E-03     8.10697E-03
            1706            2320     8.83512E-03     8.10697E-03
            1725            2320     8.83512E-03     8.10697E-03
            1708            2321     8.59317E-03     9.21548E-03
            1725            2321     8.59317E-03     9.21548E-03
            1726            2321     8.59317E-03     9.21548E-03
            1707            2321     8.59317E-03     9.21548E-03
            1726            2322     12.3934E-03     13.8564E-03
            1709            2322     12.3934E-03     13.8564E-03
            1727            2322     12.3934E-03     13.8564E-03
            1708            2322     12.3934E-03     13.8564E-03
            1727            2323     18.0169E-03     19.7204E-03
            1728            2323     18.0169E-03     19.7204E-03
            1709            2323     18.0169E-03     19.7204E-03
            1710            2323     18.0169E-03     19.7204E-03
            1728            2324     24.1181E-03     25.8984E-03
            1711            2324     24.1181E-03     25.8984E-03
            1729            2324     24.1181E-03     25.8984E-03
            1710            2324     24.1181E-03     25.8984E-03
            1711            2325     30.4205E-03     32.2240E-03
            1729            2325     30.4205E-03     32.2240E-03
            1730            2325     30.4205E-03     32.2240E-03
            1712            2325     30.4205E-03     32.2240E-03
            1730            2326     36.8317E-03     38.6405E-03
            1712            2326     36.8317E-03     38.6405E-03
            1731            2326     36.8317E-03     38.6405E-03
            1713            2326     36.8317E-03     38.6405E-03
            1732            2327     43.3702E-03     45.1659E-03
            1713            2327     43.3702E-03     45.1659E-03
            1731            2327     43.3702E-03     45.1659E-03
            1714            2327     43.3702E-03     45.1659E-03
            1715            2328     50.0429E-03     51.8401E-03
            1732            2328     50.0429E-03     51.8401E-03
            1714            2328     50.0429E-03     51.8401E-03
            1733            2328     50.0429E-03     51.8401E-03
            1716            2329     57.0082E-03     58.7624E-03
            1715            2329     57.0082E-03     58.7624E-03
            1733            2329     57.0082E-03     58.7624E-03
            1734            2329     57.0082E-03     58.7624E-03
            1735            2330     64.3719E-03     66.1246E-03
            1717            2330     64.3719E-03     66.1246E-03
            1716            2330     64.3719E-03     66.1246E-03
            1734            2330     64.3719E-03     66.1246E-03
            1735            2331     72.5560E-03     74.1608E-03
            1736            2331     72.5560E-03     74.1608E-03
            1717            2331     72.5560E-03     74.1608E-03
            1718            2331     72.5560E-03     74.1608E-03
            1719            2332     82.6126E-03     83.6277E-03
            1718            2332     82.6126E-03     83.6277E-03
            1736            2332     82.6126E-03     83.6277E-03
            1737            2332     82.6126E-03     83.6277E-03
            1737            2333     92.5177E-03     92.6801E-03
            1720            2333     92.5177E-03     92.6801E-03
            1738            2333     92.5177E-03     92.6801E-03
            1719            2333     92.5177E-03     92.6801E-03
            1721            2334     28.5918E-03     27.1920E-03
            1740            2334     28.5918E-03     27.1920E-03
            1739            2334     28.5918E-03     27.1920E-03
            1722            2334     28.5918E-03     27.1920E-03
            1740            2335     18.7716E-03     17.2651E-03
            1722            2335     18.7716E-03     17.2651E-03
            1741            2335     18.7716E-03     17.2651E-03
            1723            2335     18.7716E-03     17.2651E-03
            1741            2336     11.1166E-03     9.54589E-03
            1742            2336     11.1166E-03     9.54589E-03
            1724            2336     11.1166E-03     9.54589E-03
            1723            2336     11.1166E-03     9.54589E-03
            1724            2337     6.13192E-03     5.70224E-03
            1725            2337     6.13192E-03     5.70224E-03
            1743            2337     6.13192E-03     5.70224E-03
            1742            2337     6.13192E-03     5.70224E-03
            1726            2338     6.18092E-03     7.42752E-03
            1744            2338     6.18092E-03     7.42752E-03
            1725            2338     6.18092E-03     7.42752E-03
            1743            2338     6.18092E-03     7.42752E-03
            1726            2339     10.9987E-03     12.9182E-03
            1727            2339     10.9987E-03     12.9182E-03
            1745            2339     10.9987E-03     12.9182E-03
            1744            2339     10.9987E-03     12.9182E-03
            1746            2340     16.9148E-03     18.9566E-03
            1745            2340     16.9148E-03     18.9566E-03
            1728            2340     16.9148E-03     18.9566E-03
            1727            2340     16.9148E-03     18.9566E-03
            1728            2341     23.0237E-03     25.0862E-03
            1747            2341     23.0237E-03     25.0862E-03
            1746            2341     23.0237E-03     25.0862E-03
            1729            2341     23.0237E-03     25.0862E-03
            1730            2342     29.2111E-03     31.2409E-03
            1748            2342     29.2111E-03     31.2409E-03
            1729            2342     29.2111E-03     31.2409E-03
            1747            2342     29.2111E-03     31.2409E-03
            1730            2343     35.4553E-03     37.4261E-03
            1749            2343     35.4553E-03     37.4261E-03
            1731            2343     35.4553E-03     37.4261E-03
            1748            2343     35.4553E-03     37.4261E-03
            1732            2344     41.7631E-03     43.6466E-03
            1750            2344     41.7631E-03     43.6466E-03
            1749            2344     41.7631E-03     43.6466E-03
            1731            2344     41.7631E-03     43.6466E-03
            1733            2345     48.2211E-03     49.9937E-03
            1751            2345     48.2211E-03     49.9937E-03
            1732            2345     48.2211E-03     49.9937E-03
            1750            2345     48.2211E-03     49.9937E-03
            1752            2346     54.8531E-03     56.5137E-03
            1751            2346     54.8531E-03     56.5137E-03
            1734            2346     54.8531E-03     56.5137E-03
            1733            2346     54.8531E-03     56.5137E-03
            1752            2347     61.9769E-03     63.5115E-03
            1734            2347     61.9769E-03     63.5115E-03
            1753            2347     61.9769E-03     63.5115E-03
            1735            2347     61.9769E-03     63.5115E-03
            1753            2348     69.6625E-03     71.1743E-03
            1736            2348     69.6625E-03     71.1743E-03
            1754            2348     69.6625E-03     71.1743E-03
            1735            2348     69.6625E-03     71.1743E-03
            1737            2349     79.2346E-03     80.7575E-03
            1754            2349     79.2346E-03     80.7575E-03
            1755            2349     79.2346E-03     80.7575E-03
            1736            2349     79.2346E-03     80.7575E-03
            1756            2350     92.1157E-03     93.0418E-03
            1737            2350     92.1157E-03     93.0418E-03
            1738            2350     92.1157E-03     93.0418E-03
            1755            2350     92.1157E-03     93.0418E-03
            2271            2785     301.024E-06     337.510E-06
            2290            2785     301.024E-06     337.510E-06
            2289            2785     301.024E-06     337.510E-06
            2272            2785     301.024E-06     337.510E-06
            2291            2786     279.324E-06     315.912E-06
            2290            2786     279.324E-06     315.912E-06
            2272            2786     279.324E-06     315.912E-06
            2273            2786     279.324E-06     315.912E-06
            2273            2787     280.035E-06     311.667E-06
            2291            2787     280.035E-06     311.667E-06
            2292            2787     280.035E-06     311.667E-06
            2274            2787     280.035E-06     311.667E-06
            2275            2788     277.396E-06     307.628E-06
            2292            2788     277.396E-06     307.628E-06
            2274            2788     277.396E-06     307.628E-06
            2293            2788     277.396E-06     307.628E-06
            2275            2789     270.926E-06     301.531E-06
            2294            2789     270.926E-06     301.531E-06
            2293            2789     270.926E-06     301.531E-06
            2276            2789     270.926E-06     301.531E-06
            2294            2790     268.363E-06     297.443E-06
            2295            2790     268.363E-06     297.443E-06
            2276            2790     268.363E-06     297.443E-06
            2277            2790     268.363E-06     297.443E-06
            2295            2791     265.160E-06     293.078E-06
            2278            2791     265.160E-06     293.078E-06
            2296            2791     265.160E-06     293.078E-06
            2277            2791     265.160E-06     293.078E-06
            2297            2792     263.362E-06     289.653E-06
            2296            2792     263.362E-06     289.653E-06
            2278            2792     263.362E-06     289.653E-06
            2279            2792     263.362E-06     289.653E-06
            2279            2793     261.517E-06     286.101E-06
            2298            2793     261.517E-06     286.101E-06
            2280            2793     261.517E-06     286.101E-06
            2297            2793     261.517E-06     286.101E-06
            2280            2794     260.358E-06     283.046E-06
            2281            2794     260.358E-06     283.046E-06
            2298            2794     260.358E-06     283.046E-06
            2299            2794     260.358E-06     283.046E-06
            2299            2795     259.408E-06     280.038E-06
            2282            2795     259.408E-06     280.038E-06
            2281            2795     259.408E-06     280.038E-06
            2300            2795     259.408E-06     280.038E-06
            2282            2796     258.916E-06     277.335E-06
            2283            2796     258.916E-06     277.335E-06
            2300            2796     258.916E-06     277.335E-06
            2301            2796     258.916E-06     277.335E-06
            2283            2797     258.718E-06     274.834E-06
            2301            2797     258.718E-06     274.834E-06
            2302            2797     258.718E-06     274.834E-06
            2284            2797     258.718E-06     274.834E-06
            2284            2798     258.975E-06     272.583E-06
            2285            2798     258.975E-06     272.583E-06
            2303            2798     258.975E-06     272.583E-06
            2302            2798     258.975E-06     272.583E-06
            2285            2799     259.799E-06     270.860E-06
            2303            2799     259.799E-06     270.860E-06
            2304            2799     259.799E-06     270.860E-06
            2286            2799     259.799E-06     270.860E-06
            2287            2800     261.364E-06     269.868E-06
            2305            2800     261.364E-06     269.868E-06
            2286            2800     261.364E-06     269.868E-06
            2304            2800     261.364E-06     269.868E-06
            2288            2801     264.008E-06     266.891E-06
            2305            2801     264.008E-06     266.891E-06
            2287            2801     264.008E-06     266.891E-06
            2306            2801     264.008E-06     266.891E-06
            2290            2802     219.076E-06     231.065E-06
            2308            2802     219.076E-06     231.065E-06
            2289            2802     219.076E-06     231.065E-06
            2307            2802     219.076E-06     231.065E-06
            2309            2803     303.588E-06     309.056E-06
            2291            2803     303.588E-06     309.056E-06
            2308            2803     303.588E-06     309.056E-06
            2290            2803     303.588E-06     309.056E-06
            2309            2804     305.289E-06     305.071E-06
            2292            2804     305.289E-06     305.071E-06
            2291            2804     305.289E-06     305.071E-06
            2310            2804     305.289E-06     305.071E-06
            2310            2805     290.372E-06     295.773E-06
            2293            2805     290.372E-06     295.773E-06
            2311            2805     290.372E-06     295.773E-06
            2292            2805     290.372E-06     295.773E-06
            2311            2806     286.734E-06     290.197E-06
            2312            2806     286.734E-06     290.197E-06
            2294            2806     286.734E-06     290.197E-06
            2293            2806     286.734E-06     290.197E-06
            2313            2807     282.080E-06     286.121E-06
            2294            2807     282.080E-06     286.121E-06
            2312            2807     282.080E-06     286.121E-06
            2295            2807     282.080E-06     286.121E-06
            2296            2808     279.528E-06     283.485E-06
            2313            2808     279.528E-06     283.485E-06
            2295            2808     279.528E-06     283.485E-06
            2314            2808     279.528E-06     283.485E-06
            2296            2809     276.502E-06     280.446E-06
            2315            2809     276.502E-06     280.446E-06
            2314            2809     276.502E-06     280.446E-06
            2297            2809     276.502E-06     280.446E-06
            2298            2810     274.187E-06     278.059E-06
            2315            2810     274.187E-06     278.059E-06
            2297            2810     274.187E-06     278.059E-06
            2316            2810     274.187E-06     278.059E-06
            2298            2811     271.796E-06     275.685E-06
            2299            2811     271.796E-06     275.685E-06
            2317            2811     271.796E-06     275.685E-06
            2316            2811     271.796E-06     275.685E-06
            2318            2812     269.900E-06     273.670E-06
            2317            2812     269.900E-06     273.670E-06
            2300            2812     269.900E-06     273.670E-06
            2299            2812     269.900E-06     273.670E-06
            2319            2813     268.130E-06     271.831E-06
            2301            2813     268.130E-06     271.831E-06
            2318            2813     268.130E-06     271.831E-06
            2300            2813     268.130E-06     271.831E-06
            2319            2814     266.477E-06     270.568E-06
            2320            2814     266.477E-06     270.568E-06
            2301            2814     266.477E-06     270.568E-06
            2302            2814     266.477E-06     270.568E-06
            2302            2815     266.050E-06     268.526E-06
            2321            2815     266.050E-06     268.526E-06
            2320            2815     266.050E-06     268.526E-06
            2303            2815     266.050E-06     268.526E-06
            2303            2816     264.298E-06     269.208E-06
            2322            2816     264.298E-06     269.208E-06
            2321            2816     264.298E-06     269.208E-06
            2304            2816     264.298E-06     269.208E-06
            2322            2817     265.174E-06     272.345E-06
            2305            2817     265.174E-06     272.345E-06
            2323            2817     265.174E-06     272.345E-06
            2304            2817     265.174E-06     272.345E-06
            2323            2818     282.360E-06     261.689E-06
            2305            2818     282.360E-06     261.689E-06
            2324            2818     282.360E-06     261.689E-06
            2306            2818     282.360E-06     261.689E-06
            2326            2819     167.460E-06     194.862E-06
            2307            2819     167.460E-06     194.862E-06
            2325            2819     167.460E-06     194.862E-06
            2308            2819     167.460E-06     194.862E-06
            2327            2820     293.417E-06     266.337E-06
            2309            2820     293.417E-06     266.337E-06
            2326            2820     293.417E-06     266.337E-06
            2308            2820     293.417E-06     266.337E-06
            2328            2821     311.925E-06     284.519E-06
            2309            2821     311.925E-06     284.519E-06
            2327            2821     311.925E-06     284.519E-06
            2310            2821     311.925E-06     284.519E-06
            2328            2822     308.478E-06     283.565E-06
            2311            2822     308.478E-06     283.565E-06
            2310            2822     308.478E-06     283.565E-06
            2329            2822     308.478E-06     283.565E-06
            2311            2823     304.189E-06     280.342E-06
            2330            2823     304.189E-06     280.342E-06
            2312            2823     304.189E-06     280.342E-06
            2329            2823     304.189E-06     280.342E-06
            2330            2824     301.098E-06     278.672E-06
            2312            2824     301.098E-06     278.672E-06
            2331            2824     301.098E-06     278.672E-06
            2313            2824     301.098E-06     278.672E-06
            2313            2825     297.781E-06     276.739E-06
            2314            2825     297.781E-06     276.739E-06
            2332            2825     297.781E-06     276.739E-06
            2331            2825     297.781E-06     276.739E-06
            2314            2826     294.878E-06     275.269E-06
            2315            2826     294.878E-06     275.269E-06
            2332            2826     294.878E-06     275.269E-06
            2333            2826     294.878E-06     275.269E-06
            2334            2827     291.778E-06     273.830E-06
            2316            2827     291.778E-06     273.830E-06
            2315            2827     291.778E-06     273.830E-06
            2333            2827     291.778E-06     273.830E-06
            2316            2828     288.970E-06     272.739E-06
            2335            2828     288.970E-06     272.739E-06
            2317            2828     288.970E-06     272.739E-06
            2334            2828     288.970E-06     272.739E-06
            2335            2829     286.197E-06     271.875E-06
            2317            2829     286.197E-06     271.875E-06
            2318            2829     286.197E-06     271.875E-06
            2336            2829     286.197E-06     271.875E-06
            2319            2830     283.650E-06     271.346E-06
            2336            2830     283.650E-06     271.346E-06
            2318            2830     283.650E-06     271.346E-06
            2337            2830     283.650E-06     271.346E-06
            2338            2831     281.283E-06     271.086E-06
            2320            2831     281.283E-06     271.086E-06
            2319            2831     281.283E-06     271.086E-06
            2337            2831     281.283E-06     271.086E-06
            2339            2832     279.162E-06     271.247E-06
            2320            2832     279.162E-06     271.247E-06
            2321            2832     279.162E-06     271.247E-06
            2338            2832     279.162E-06     271.247E-06
            2322            2833     277.297E-06     271.937E-06
            2339            2833     277.297E-06     271.937E-06
            2321            2833     277.297E-06     271.937E-06
            2340            2833     277.297E-06     271.937E-06
            2340            2834     275.959E-06     273.601E-06
            2323            2834     275.959E-06     273.601E-06
            2322            2834     275.959E-06     273.601E-06
            2341            2834     275.959E-06     273.601E-06
            2341            2835     275.173E-06     275.245E-06
            2342            2835     275.173E-06     275.245E-06
            2323            2835     275.173E-06     275.245E-06
            2324            2835     275.173E-06     275.245E-06
            3393            3784     28.7953E-03     32.6920E-03
            3394            3784     28.7953E-03     32.6920E-03
            3411            3784     28.7953E-03     32.6920E-03
            3412            3784     28.7953E-03     32.6920E-03
            3412            3785     28.1562E-03     32.6458E-03
            3395            3785     28.1562E-03     32.6458E-03
            3394            3785     28.1562E-03     32.6458E-03
            3413            3785     28.1562E-03     32.6458E-03
            3395            3786     30.3895E-03     34.9824E-03
            3396            3786     30.3895E-03     34.9824E-03
            3413            3786     30.3895E-03     34.9824E-03
            3414            3786     30.3895E-03     34.9824E-03
            3397            3787     33.8455E-03     38.4441E-03
            3396            3787     33.8455E-03     38.4441E-03
            3415            3787     33.8455E-03     38.4441E-03
            3414            3787     33.8455E-03     38.4441E-03
            3397            3788     37.5000E-03     42.0059E-03
            3398            3788     37.5000E-03     42.0059E-03
            3416            3788     37.5000E-03     42.0059E-03
            3415            3788     37.5000E-03     42.0059E-03
            3417            3789     41.3077E-03     45.7151E-03
            3416            3789     41.3077E-03     45.7151E-03
            3398            3789     41.3077E-03     45.7151E-03
            3399            3789     41.3077E-03     45.7151E-03
            3399            3790     45.0869E-03     49.3938E-03
            3417            3790     45.0869E-03     49.3938E-03
            3418            3790     45.0869E-03     49.3938E-03
            3400            3790     45.0869E-03     49.3938E-03
            3401            3791     48.8719E-03     53.0730E-03
            3400            3791     48.8719E-03     53.0730E-03
            3419            3791     48.8719E-03     53.0730E-03
            3418            3791     48.8719E-03     53.0730E-03
            3401            3792     52.6124E-03     56.7081E-03
            3419            3792     52.6124E-03     56.7081E-03
            3420            3792     52.6124E-03     56.7081E-03
            3402            3792     52.6124E-03     56.7081E-03
            3421            3793     56.3289E-03     60.3203E-03
            3403            3793     56.3289E-03     60.3203E-03
            3420            3793     56.3289E-03     60.3203E-03
            3402            3793     56.3289E-03     60.3203E-03
            3403            3794     59.9918E-03     63.8696E-03
            3404            3794     59.9918E-03     63.8696E-03
            3422            3794     59.9918E-03     63.8696E-03
            3421            3794     59.9918E-03     63.8696E-03
            3404            3795     63.6336E-03     67.3875E-03
            3422            3795     63.6336E-03     67.3875E-03
            3405            3795     63.6336E-03     67.3875E-03
            3423            3795     63.6336E-03     67.3875E-03
            3424            3796     67.2192E-03     70.8316E-03
            3423            3796     67.2192E-03     70.8316E-03
            3406            3796     67.2192E-03     70.8316E-03
            3405            3796     67.2192E-03     70.8316E-03
            3425            3797     70.9456E-03     74.3641E-03
            3407            3797     70.9456E-03     74.3641E-03
            3424            3797     70.9456E-03     74.3641E-03
            3406            3797     70.9456E-03     74.3641E-03
            3408            3798     74.8150E-03     78.0871E-03
            3426            3798     74.8150E-03     78.0871E-03
            3407            3798     74.8150E-03     78.0871E-03
            3425            3798     74.8150E-03     78.0871E-03
            3408            3799     79.9997E-03     83.1231E-03
            3426            3799     79.9997E-03     83.1231E-03
            3409            3799     79.9997E-03     83.1231E-03
            3427            3799     79.9997E-03     83.1231E-03
            3409            3800     88.7206E-03     90.9617E-03
            3427            3800     88.7206E-03     90.9617E-03
            3410            3800     88.7206E-03     90.9617E-03
            3428            3800     88.7206E-03     90.9617E-03
            3411            3801     26.7299E-03     29.1894E-03
            3430            3801     26.7299E-03     29.1894E-03
            3429            3801     26.7299E-03     29.1894E-03
            3412            3801     26.7299E-03     29.1894E-03
            3430            3802     28.9545E-03     31.8520E-03
            3412            3802     28.9545E-03     31.8520E-03
            3413            3802     28.9545E-03     31.8520E-03
            3431            3802     28.9545E-03     31.8520E-03
            3413            3803     31.3062E-03     34.4346E-03
            3431            3803     31.3062E-03     34.4346E-03
            3414            3803     31.3062E-03     34.4346E-03
            3432            3803     31.3062E-03     34.4346E-03
            3414            3804     34.8265E-03     37.7955E-03
            3415            3804     34.8265E-03     37.7955E-03
            3432            3804     34.8265E-03     37.7955E-03
            3433            3804     34.8265E-03     37.7955E-03
            3434            3805     38.4957E-03     41.4033E-03
            3415            3805     38.4957E-03     41.4033E-03
            3433            3805     38.4957E-03     41.4033E-03
            3416            3805     38.4957E-03     41.4033E-03
            3417            3806     42.2367E-03     45.1144E-03
            3435            3806     42.2367E-03     45.1144E-03
            3416            3806     42.2367E-03     45.1144E-03
            3434            3806     42.2367E-03     45.1144E-03
            3418            3807     46.0104E-03     48.8448E-03
            3435            3807     46.0104E-03     48.8448E-03
            3436            3807     46.0104E-03     48.8448E-03
            3417            3807     46.0104E-03     48.8448E-03
            3418            3808     49.7851E-03     52.5744E-03
            3436            3808     49.7851E-03     52.5744E-03
            3437            3808     49.7851E-03     52.5744E-03
            3419            3808     49.7851E-03     52.5744E-03
            3420            3809     53.5715E-03     56.3096E-03
            3419            3809     53.5715E-03     56.3096E-03
            3437            3809     53.5715E-03     56.3096E-03
            3438            3809     53.5715E-03     56.3096E-03
            3421            3810     57.3556E-03     60.0397E-03
            3438            3810     57.3556E-03     60.0397E-03
            3439            3810     57.3556E-03     60.0397E-03
            3420            3810     57.3556E-03     60.0397E-03
            3439            3811     61.1491E-03     63.7831E-03
            3421            3811     61.1491E-03     63.7831E-03
            3440            3811     61.1491E-03     63.7831E-03
            3422            3811     61.1491E-03     63.7831E-03
            3422            3812     64.9462E-03     67.5436E-03
            3441            3812     64.9462E-03     67.5436E-03
            3440            3812     64.9462E-03     67.5436E-03
            3423            3812     64.9462E-03     67.5436E-03
            3424            3813     68.7702E-03     71.3581E-03
            3423            3813     68.7702E-03     71.3581E-03
            3442            3813     68.7702E-03     71.3581E-03
            3441            3813     68.7702E-03     71.3581E-03
            3442            3814     72.7184E-03     75.3473E-03
            3443            3814     72.7184E-03     75.3473E-03
            3424            3814     72.7184E-03     75.3473E-03
            3425            3814     72.7184E-03     75.3473E-03
            3426            3815     76.9025E-03     79.6369E-03
            3444            3815     76.9025E-03     79.6369E-03
            3443            3815     76.9025E-03     79.6369E-03
            3425            3815     76.9025E-03     79.6369E-03
            3445            3816     82.7011E-03     85.0261E-03
            3426            3816     82.7011E-03     85.0261E-03
            3444            3816     82.7011E-03     85.0261E-03
            3427            3816     82.7011E-03     85.0261E-03
            3446            3817     88.9864E-03     89.9055E-03
            3428            3817     88.9864E-03     89.9055E-03
            3445            3817     88.9864E-03     89.9055E-03
            3427            3817     88.9864E-03     89.9055E-03
            3448            3818     24.7998E-03     26.5968E-03
            3429            3818     24.7998E-03     26.5968E-03
            3430            3818     24.7998E-03     26.5968E-03
            3447            3818     24.7998E-03     26.5968E-03
            3431            3819     28.7040E-03     30.6523E-03
            3430            3819     28.7040E-03     30.6523E-03
            3448            3819     28.7040E-03     30.6523E-03
            3449            3819     28.7040E-03     30.6523E-03
            3431            3820     32.3736E-03     33.8731E-03
            3449            3820     32.3736E-03     33.8731E-03
            3450            3820     32.3736E-03     33.8731E-03
            3432            3820     32.3736E-03     33.8731E-03
            3451            3821     35.8151E-03     37.1521E-03
            3450            3821     35.8151E-03     37.1521E-03
            3433            3821     35.8151E-03     37.1521E-03
            3432            3821     35.8151E-03     37.1521E-03
            3434            3822     39.4825E-03     40.8221E-03
            3452            3822     39.4825E-03     40.8221E-03
            3451            3822     39.4825E-03     40.8221E-03
            3433            3822     39.4825E-03     40.8221E-03
            3434            3823     43.1439E-03     44.5023E-03
            3435            3823     43.1439E-03     44.5023E-03
            3452            3823     43.1439E-03     44.5023E-03
            3453            3823     43.1439E-03     44.5023E-03
            3436            3824     46.8710E-03     48.2428E-03
            3435            3824     46.8710E-03     48.2428E-03
            3453            3824     46.8710E-03     48.2428E-03
            3454            3824     46.8710E-03     48.2428E-03
            3455            3825     50.6133E-03     51.9957E-03
            3437            3825     50.6133E-03     51.9957E-03
            3454            3825     50.6133E-03     51.9957E-03
            3436            3825     50.6133E-03     51.9957E-03
            3437            3826     54.3866E-03     55.7679E-03
            3456            3826     54.3866E-03     55.7679E-03
            3438            3826     54.3866E-03     55.7679E-03
            3455            3826     54.3866E-03     55.7679E-03
            3456            3827     58.1803E-03     59.5660E-03
            3438            3827     58.1803E-03     59.5660E-03
            3457            3827     58.1803E-03     59.5660E-03
            3439            3827     58.1803E-03     59.5660E-03
            3458            3828     62.0107E-03     63.4007E-03
            3439            3828     62.0107E-03     63.4007E-03
            3457            3828     62.0107E-03     63.4007E-03
            3440            3828     62.0107E-03     63.4007E-03
            3458            3829     65.8634E-03     67.2876E-03
            3459            3829     65.8634E-03     67.2876E-03
            3441            3829     65.8634E-03     67.2876E-03
            3440            3829     65.8634E-03     67.2876E-03
            3441            3830     69.8115E-03     71.3001E-03
            3459            3830     69.8115E-03     71.3001E-03
            3442            3830     69.8115E-03     71.3001E-03
            3460            3830     69.8115E-03     71.3001E-03
            3443            3831     73.7579E-03     75.4407E-03
            3442            3831     73.7579E-03     75.4407E-03
            3461            3831     73.7579E-03     75.4407E-03
            3460            3831     73.7579E-03     75.4407E-03
            3444            3832     78.2341E-03     79.9467E-03
            3443            3832     78.2341E-03     79.9467E-03
            3461            3832     78.2341E-03     79.9467E-03
            3462            3832     78.2341E-03     79.9467E-03
            3462            3833     82.7102E-03     84.4363E-03
            3445            3833     82.7102E-03     84.4363E-03
            3444            3833     82.7102E-03     84.4363E-03
            3463            3833     82.7102E-03     84.4363E-03
            3464            3834     86.1066E-03     88.2240E-03
            3463            3834     86.1066E-03     88.2240E-03
            3446            3834     86.1066E-03     88.2240E-03
            3445            3834     86.1066E-03     88.2240E-03
            3465            3835     24.2067E-03     26.0041E-03
            3466            3835     24.2067E-03     26.0041E-03
            3448            3835     24.2067E-03     26.0041E-03
            3447            3835     24.2067E-03     26.0041E-03
            3467            3836     28.9002E-03     29.4700E-03
            3466            3836     28.9002E-03     29.4700E-03
            3448            3836     28.9002E-03     29.4700E-03
            3449            3836     28.9002E-03     29.4700E-03
            3450            3837     33.1737E-03     32.9270E-03
            3467            3837     33.1737E-03     32.9270E-03
            3468            3837     33.1737E-03     32.9270E-03
            3449            3837     33.1737E-03     32.9270E-03
            3468            3838     36.7981E-03     36.5363E-03
            3469            3838     36.7981E-03     36.5363E-03
            3450            3838     36.7981E-03     36.5363E-03
            3451            3838     36.7981E-03     36.5363E-03
            3452            3839     40.3419E-03     40.1432E-03
            3469            3839     40.3419E-03     40.1432E-03
            3451            3839     40.3419E-03     40.1432E-03
            3470            3839     40.3419E-03     40.1432E-03
            3470            3840     43.9829E-03     43.8408E-03
            3453            3840     43.9829E-03     43.8408E-03
            3471            3840     43.9829E-03     43.8408E-03
            3452            3840     43.9829E-03     43.8408E-03
            3471            3841     47.6253E-03     47.5524E-03
            3453            3841     47.6253E-03     47.5524E-03
            3472            3841     47.6253E-03     47.5524E-03
            3454            3841     47.6253E-03     47.5524E-03
            3455            3842     51.3192E-03     51.2952E-03
            3472            3842     51.3192E-03     51.2952E-03
            3454            3842     51.3192E-03     51.2952E-03
            3473            3842     51.3192E-03     51.2952E-03
            3473            3843     55.0198E-03     55.0547E-03
            3455            3843     55.0198E-03     55.0547E-03
            3456            3843     55.0198E-03     55.0547E-03
            3474            3843     55.0198E-03     55.0547E-03
            3474            3844     58.7541E-03     58.8339E-03
            3456            3844     58.7541E-03     58.8339E-03
            3457            3844     58.7541E-03     58.8339E-03
            3475            3844     58.7541E-03     58.8339E-03
            3475            3845     62.4949E-03     62.6381E-03
            3476            3845     62.4949E-03     62.6381E-03
            3458            3845     62.4949E-03     62.6381E-03
            3457            3845     62.4949E-03     62.6381E-03
            3458            3846     66.2905E-03     66.4876E-03
            3476            3846     66.2905E-03     66.4876E-03
            3477            3846     66.2905E-03     66.4876E-03
            3459            3846     66.2905E-03     66.4876E-03
            3477            3847     70.0784E-03     70.3839E-03
            3459            3847     70.0784E-03     70.3839E-03
            3460            3847     70.0784E-03     70.3839E-03
            3478            3847     70.0784E-03     70.3839E-03
            3460            3848     73.9752E-03     74.3796E-03
            3478            3848     73.9752E-03     74.3796E-03
            3461            3848     73.9752E-03     74.3796E-03
            3479            3848     73.9752E-03     74.3796E-03
            3461            3849     77.7387E-03     78.3642E-03
            3480            3849     77.7387E-03     78.3642E-03
            3479            3849     77.7387E-03     78.3642E-03
            3462            3849     77.7387E-03     78.3642E-03
            3480            3850     80.9129E-03     81.9323E-03
            3462            3850     80.9129E-03     81.9323E-03
            3463            3850     80.9129E-03     81.9323E-03
            3481            3850     80.9129E-03     81.9323E-03
            3463            3851     83.2555E-03     83.8497E-03
            3481            3851     83.2555E-03     83.8497E-03
            3464            3851     83.2555E-03     83.8497E-03
            3482            3851     83.2555E-03     83.8497E-03
            3465            3852     25.3905E-03     25.5296E-03
            3466            3852     25.3905E-03     25.5296E-03
            3483            3852     25.3905E-03     25.5296E-03
            3484            3852     25.3905E-03     25.5296E-03
            3485            3853     30.0028E-03     28.3381E-03
            3466            3853     30.0028E-03     28.3381E-03
            3484            3853     30.0028E-03     28.3381E-03
            3467            3853     30.0028E-03     28.3381E-03
            3486            3854     33.8107E-03     31.9984E-03
            3468            3854     33.8107E-03     31.9984E-03
            3467            3854     33.8107E-03     31.9984E-03
            3485            3854     33.8107E-03     31.9984E-03
            3486            3855     37.5204E-03     35.7421E-03
            3469            3855     37.5204E-03     35.7421E-03
            3468            3855     37.5204E-03     35.7421E-03
            3487            3855     37.5204E-03     35.7421E-03
            3488            3856     41.0955E-03     39.3972E-03
            3469            3856     41.0955E-03     39.3972E-03
            3470            3856     41.0955E-03     39.3972E-03
            3487            3856     41.0955E-03     39.3972E-03
            3488            3857     44.6892E-03     43.0816E-03
            3471            3857     44.6892E-03     43.0816E-03
            3470            3857     44.6892E-03     43.0816E-03
            3489            3857     44.6892E-03     43.0816E-03
            3489            3858     48.3051E-03     46.7830E-03
            3472            3858     48.3051E-03     46.7830E-03
            3490            3858     48.3051E-03     46.7830E-03
            3471            3858     48.3051E-03     46.7830E-03
            3490            3859     51.9066E-03     50.4891E-03
            3491            3859     51.9066E-03     50.4891E-03
            3473            3859     51.9066E-03     50.4891E-03
            3472            3859     51.9066E-03     50.4891E-03
            3473            3860     55.5177E-03     54.1950E-03
            3491            3860     55.5177E-03     54.1950E-03
            3474            3860     55.5177E-03     54.1950E-03
            3492            3860     55.5177E-03     54.1950E-03
            3474            3861     59.0920E-03     57.8808E-03
            3492            3861     59.0920E-03     57.8808E-03
            3475            3861     59.0920E-03     57.8808E-03
            3493            3861     59.0920E-03     57.8808E-03
            3476            3862     62.6623E-03     61.5369E-03
            3494            3862     62.6623E-03     61.5369E-03
            3475            3862     62.6623E-03     61.5369E-03
            3493            3862     62.6623E-03     61.5369E-03
            3477            3863     66.1773E-03     65.1553E-03
            3476            3863     66.1773E-03     65.1553E-03
            3494            3863     66.1773E-03     65.1553E-03
            3495            3863     66.1773E-03     65.1553E-03
            3496            3864     69.6564E-03     68.6830E-03
            3478            3864     69.6564E-03     68.6830E-03
            3477            3864     69.6564E-03     68.6830E-03
            3495            3864     69.6564E-03     68.6830E-03
            3497            3865     73.0230E-03     72.0815E-03
            3496            3865     73.0230E-03     72.0815E-03
            3479            3865     73.0230E-03     72.0815E-03
            3478            3865     73.0230E-03     72.0815E-03
            3479            3866     75.9507E-03     75.1061E-03
            3498            3866     75.9507E-03     75.1061E-03
            3497            3866     75.9507E-03     75.1061E-03
            3480            3866     75.9507E-03     75.1061E-03
            3499            3867     78.2737E-03     77.4581E-03
            3480            3867     78.2737E-03     77.4581E-03
            3498            3867     78.2737E-03     77.4581E-03
            3481            3867     78.2737E-03     77.4581E-03
            3482            3868     79.2634E-03     78.3597E-03
            3499            3868     79.2634E-03     78.3597E-03
            3481            3868     79.2634E-03     78.3597E-03
            3500            3868     79.2634E-03     78.3597E-03
            3977            4243     38.8117E-03     54.4080E-03
            3959            4243     38.8117E-03     54.4080E-03
            3960            4243     38.8117E-03     54.4080E-03
            3978            4243     38.8117E-03     54.4080E-03
            3979            4244     31.2322E-03     30.0175E-03
            3978            4244     31.2322E-03     30.0175E-03
            3960            4244     31.2322E-03     30.0175E-03
            3961            4244     31.2322E-03     30.0175E-03
            3961            4245     34.4498E-03     23.4163E-03
            3980            4245     34.4498E-03     23.4163E-03
            3962            4245     34.4498E-03     23.4163E-03
            3979            4245     34.4498E-03     23.4163E-03
            3981            4246     37.3575E-03     23.8000E-03
            3980            4246     37.3575E-03     23.8000E-03
            3963            4246     37.3575E-03     23.8000E-03
            3962            4246     37.3575E-03     23.8000E-03
            3982            4247     39.8963E-03     26.7857E-03
            3963            4247     39.8963E-03     26.7857E-03
            3964            4247     39.8963E-03     26.7857E-03
            3981            4247     39.8963E-03     26.7857E-03
            3982            4248     42.8960E-03     30.7906E-03
            3983            4248     42.8960E-03     30.7906E-03
            3965            4248     42.8960E-03     30.7906E-03
            3964            4248     42.8960E-03     30.7906E-03
            3984            4249     46.3522E-03     35.3082E-03
            3966            4249     46.3522E-03     35.3082E-03
            3965            4249     46.3522E-03     35.3082E-03
            3983            4249     46.3522E-03     35.3082E-03
            3985            4250     50.2128E-03     40.1798E-03
            3966            4250     50.2128E-03     40.1798E-03
            3967            4250     50.2128E-03     40.1798E-03
            3984            4250     50.2128E-03     40.1798E-03
            3967            4251     54.3742E-03     45.3876E-03
            3985            4251     54.3742E-03     45.3876E-03
            3986            4251     54.3742E-03     45.3876E-03
            3968            4251     54.3742E-03     45.3876E-03
            3968            4252     58.7671E-03     50.7805E-03
            3986            4252     58.7671E-03     50.7805E-03
            3969            4252     58.7671E-03     50.7805E-03
            3987            4252     58.7671E-03     50.7805E-03
            3970            4253     63.3282E-03     56.3568E-03
            3987            4253     63.3282E-03     56.3568E-03
            3969            4253     63.3282E-03     56.3568E-03
            3988            4253     63.3282E-03     56.3568E-03
            3971            4254     67.9934E-03     62.0129E-03
            3970            4254     67.9934E-03     62.0129E-03
            3989            4254     67.9934E-03     62.0129E-03
            3988            4254     67.9934E-03     62.0129E-03
            3990            4255     72.7650E-03     67.7400E-03
            3971            4255     72.7650E-03     67.7400E-03
            3989            4255     72.7650E-03     67.7400E-03
            3972            4255     72.7650E-03     67.7400E-03
            3972            4256     77.5399E-03     73.4832E-03
            3990            4256     77.5399E-03     73.4832E-03
            3973            4256     77.5399E-03     73.4832E-03
            3991            4256     77.5399E-03     73.4832E-03
            3991            4257     82.2327E-03     79.0855E-03
            3973            4257     82.2327E-03     79.0855E-03
            3992            4257     82.2327E-03     79.0855E-03
            3974            4257     82.2327E-03     79.0855E-03
            3974            4258     86.6432E-03     84.3508E-03
            3993            4258     86.6432E-03     84.3508E-03
            3975            4258     86.6432E-03     84.3508E-03
            3992            4258     86.6432E-03     84.3508E-03
            3994            4259     90.4474E-03     89.5012E-03
            3976            4259     90.4474E-03     89.5012E-03
            3975            4259     90.4474E-03     89.5012E-03
            3993            4259     90.4474E-03     89.5012E-03
            3995            4260     37.4305E-03     66.1175E-03
            3996            4260     37.4305E-03     15.7704E-03
            3978            4260     37.4305E-03     31.7744E-03
            3977            4260     37.4305E-03     103.391E-03
            3996            4261     19.1513E-03     17.1122E-03
            3997            4261     19.1513E-03     17.1122E-03
            3978            4261     19.1513E-03     17.1122E-03
            3979            4261     19.1513E-03     17.1122E-03
            3998            4262     28.5368E-03     10.6680E-03
            3979            4262     28.5368E-03     10.6680E-03
            3980            4262     28.5368E-03     10.6680E-03
            3997            4262     28.5368E-03     10.6680E-03
            3980            4263     33.5223E-03     13.3086E-03
            3998            4263     33.5223E-03     13.3086E-03
            3999            4263     33.5223E-03     13.3086E-03
            3981            4263     33.5223E-03     13.3086E-03
            4000            4264     37.9553E-03     18.5700E-03
            3982            4264     37.9553E-03     18.5700E-03
            3981            4264     37.9553E-03     18.5700E-03
            3999            4264     37.9553E-03     18.5700E-03
            3982            4265     42.3095E-03     24.3271E-03
            4000            4265     42.3095E-03     24.3271E-03
            3983            4265     42.3095E-03     24.3271E-03
            4001            4265     42.3095E-03     24.3271E-03
            4002            4266     46.7264E-03     30.1959E-03
            4001            4266     46.7264E-03     30.1959E-03
            3983            4266     46.7264E-03     30.1959E-03
            3984            4266     46.7264E-03     30.1959E-03
            4003            4267     51.2260E-03     36.1440E-03
            4002            4267     51.2260E-03     36.1440E-03
            3985            4267     51.2260E-03     36.1440E-03
            3984            4267     51.2260E-03     36.1440E-03
            4004            4268     55.7299E-03     42.1124E-03
            3985            4268     55.7299E-03     42.1124E-03
            3986            4268     55.7299E-03     42.1124E-03
            4003            4268     55.7299E-03     42.1124E-03
            3986            4269     60.2623E-03     48.0868E-03
            4005            4269     60.2623E-03     48.0868E-03
            4004            4269     60.2623E-03     48.0868E-03
            3987            4269     60.2623E-03     48.0868E-03
            4006            4270     64.7533E-03     54.0445E-03
            3988            4270     64.7533E-03     54.0445E-03
            3987            4270     64.7533E-03     54.0445E-03
            4005            4270     64.7533E-03     54.0445E-03
            4006            4271     69.2864E-03     59.9917E-03
            3988            4271     69.2864E-03     59.9917E-03
            3989            4271     69.2864E-03     59.9917E-03
            4007            4271     69.2864E-03     59.9917E-03
            3990            4272     73.7360E-03     65.9179E-03
            4008            4272     73.7360E-03     65.9179E-03
            3989            4272     73.7360E-03     65.9179E-03
            4007            4272     73.7360E-03     65.9179E-03
            4009            4273     78.2802E-03     71.8138E-03
            3991            4273     78.2802E-03     71.8138E-03
            4008            4273     78.2802E-03     71.8138E-03
            3990            4273     78.2802E-03     71.8138E-03
            4010            4274     82.6404E-03     77.5526E-03
            3991            4274     82.6404E-03     77.5526E-03
            3992            4274     82.6404E-03     77.5526E-03
            4009            4274     82.6404E-03     77.5526E-03
            4011            4275     86.3803E-03     82.9562E-03
            3992            4275     86.3803E-03     82.9562E-03
            4010            4275     86.3803E-03     82.9562E-03
            3993            4275     86.3803E-03     82.9562E-03
            4012            4276     89.3404E-03     86.6766E-03
            3993            4276     89.3404E-03     86.6766E-03
            3994            4276     89.3404E-03     86.6766E-03
            4011            4276     89.3404E-03     86.6766E-03
            4013            4277     40.1392E-03     34.9997E-03
            3996            4277     40.1392E-03     34.9997E-03
            3995            4277     40.1392E-03     34.9997E-03
            4014            4277     40.1392E-03     34.9997E-03
            4015            4278     18.0449E-03     15.3717E-03
            3997            4278     18.0449E-03     15.3717E-03
            4014            4278     18.0449E-03     15.3717E-03
            3996            4278     18.0449E-03     15.3717E-03
            4015            4279     23.4962E-03     15.6973E-03
            3997            4279     23.4962E-03     15.6973E-03
            3998            4279     23.4962E-03     15.6973E-03
            4016            4279     23.4962E-03     15.6973E-03
            4017            4280     26.9247E-03     20.1919E-03
            3998            4280     26.9247E-03     20.1919E-03
            3999            4280     26.9247E-03     20.1919E-03
            4016            4280     26.9247E-03     20.1919E-03
            4017            4281     31.6091E-03     25.5170E-03
            3999            4281     31.6091E-03     25.5170E-03
            4000            4281     31.6091E-03     25.5170E-03
            4018            4281     31.6091E-03     25.5170E-03
            4000            4282     36.3017E-03     30.8107E-03
            4019            4282     36.3017E-03     30.8107E-03
            4001            4282     36.3017E-03     30.8107E-03
            4018            4282     36.3017E-03     30.8107E-03
            4020            4283     41.1765E-03     36.2407E-03
            4002            4283     41.1765E-03     36.2407E-03
            4001            4283     41.1765E-03     36.2407E-03
            4019            4283     41.1765E-03     36.2407E-03
            4003            4284     46.1512E-03     41.7559E-03
            4020            4284     46.1512E-03     41.7559E-03
            4002            4284     46.1512E-03     41.7559E-03
            4021            4284     46.1512E-03     41.7559E-03
            4022            4285     51.1656E-03     47.2784E-03
            4021            4285     51.1656E-03     47.2784E-03
            4003            4285     51.1656E-03     47.2784E-03
            4004            4285     51.1656E-03     47.2784E-03
            4023            4286     56.2032E-03     52.8294E-03
            4005            4286     56.2032E-03     52.8294E-03
            4004            4286     56.2032E-03     52.8294E-03
            4022            4286     56.2032E-03     52.8294E-03
            4024            4287     61.2809E-03     58.3963E-03
            4023            4287     61.2809E-03     58.3963E-03
            4006            4287     61.2809E-03     58.3963E-03
            4005            4287     61.2809E-03     58.3963E-03
            4025            4288     66.3669E-03     64.0033E-03
            4006            4288     66.3669E-03     64.0033E-03
            4007            4288     66.3669E-03     64.0033E-03
            4024            4288     66.3669E-03     64.0033E-03
            4026            4289     71.5580E-03     69.6790E-03
            4025            4289     71.5580E-03     69.6790E-03
            4008            4289     71.5580E-03     69.6790E-03
            4007            4289     71.5580E-03     69.6790E-03
            4008            4290     76.7222E-03     75.4534E-03
            4009            4290     76.7222E-03     75.4534E-03
            4026            4290     76.7222E-03     75.4534E-03
            4027            4290     76.7222E-03     75.4534E-03
            4028            4291     82.2891E-03     81.4939E-03
            4027            4291     82.2891E-03     81.4939E-03
            4010            4291     82.2891E-03     81.4939E-03
            4009            4291     82.2891E-03     81.4939E-03
            4029            4292     88.0584E-03     87.5649E-03
            4011            4292     88.0584E-03     87.5649E-03
            4028            4292     88.0584E-03     87.5649E-03
            4010            4292     88.0584E-03     87.5649E-03
            4011            4293     92.2298E-03     92.2814E-03
            4030            4293     92.2298E-03     92.2814E-03
            4012            4293     92.2298E-03     92.2814E-03
            4029            4293     92.2298E-03     92.2814E-03
            4032            4294     41.9757E-03     38.6205E-03
            4013            4294     41.9757E-03     38.6205E-03
            4014            4294     41.9757E-03     38.6205E-03
            4031            4294     41.9757E-03     38.6205E-03
            4033            4295     17.1664E-03     23.1759E-03
            4032            4295     17.1664E-03     23.1759E-03
            4015            4295     17.1664E-03     23.1759E-03
            4014            4295     17.1664E-03     23.1759E-03
            4033            4296     17.0112E-03     23.0686E-03
            4034            4296     17.0112E-03     23.0686E-03
            4016            4296     17.0112E-03     23.0686E-03
            4015            4296     17.0112E-03     23.0686E-03
            4017            4297     20.9271E-03     27.4779E-03
            4034            4297     20.9271E-03     27.4779E-03
            4035            4297     20.9271E-03     27.4779E-03
            4016            4297     20.9271E-03     27.4779E-03
            4035            4298     25.4876E-03     32.3697E-03
            4018            4298     25.4876E-03     32.3697E-03
            4036            4298     25.4876E-03     32.3697E-03
            4017            4298     25.4876E-03     32.3697E-03
            4019            4299     30.6018E-03     37.3730E-03
            4037            4299     30.6018E-03     37.3730E-03
            4036            4299     30.6018E-03     37.3730E-03
            4018            4299     30.6018E-03     37.3730E-03
            4038            4300     35.8849E-03     42.4222E-03
            4019            4300     35.8849E-03     42.4222E-03
            4020            4300     35.8849E-03     42.4222E-03
            4037            4300     35.8849E-03     42.4222E-03
            4021            4301     41.2483E-03     47.4295E-03
            4039            4301     41.2483E-03     47.4295E-03
            4020            4301     41.2483E-03     47.4295E-03
            4038            4301     41.2483E-03     47.4295E-03
            4022            4302     46.6599E-03     52.4645E-03
            4021            4302     46.6599E-03     52.4645E-03
            4039            4302     46.6599E-03     52.4645E-03
            4040            4302     46.6599E-03     52.4645E-03
            4022            4303     52.0981E-03     57.4876E-03
            4040            4303     52.0981E-03     57.4876E-03
            4041            4303     52.0981E-03     57.4876E-03
            4023            4303     52.0981E-03     57.4876E-03
            4042            4304     57.5647E-03     62.5344E-03
            4024            4304     57.5647E-03     62.5344E-03
            4023            4304     57.5647E-03     62.5344E-03
            4041            4304     57.5647E-03     62.5344E-03
            4042            4305     63.0445E-03     67.5931E-03
            4025            4305     63.0445E-03     67.5931E-03
            4043            4305     63.0445E-03     67.5931E-03
            4024            4305     63.0445E-03     67.5931E-03
            4025            4306     68.5615E-03     72.6886E-03
            4026            4306     68.5615E-03     72.6886E-03
            4043            4306     68.5615E-03     72.6886E-03
            4044            4306     68.5615E-03     72.6886E-03
            4026            4307     74.1178E-03     77.9039E-03
            4044            4307     74.1178E-03     77.9039E-03
            4027            4307     74.1178E-03     77.9039E-03
            4045            4307     74.1178E-03     77.9039E-03
            4028            4308     79.8401E-03     83.3342E-03
            4027            4308     79.8401E-03     83.3342E-03
            4046            4308     79.8401E-03     83.3342E-03
            4045            4308     79.8401E-03     83.3342E-03
            4046            4309     86.9320E-03     89.6194E-03
            4029            4309     86.9320E-03     89.6194E-03
            4028            4309     86.9320E-03     89.6194E-03
            4047            4309     86.9320E-03     89.6194E-03
            4029            4310     94.0425E-03     95.1823E-03
            4030            4310     94.0425E-03     95.1823E-03
            4048            4310     94.0425E-03     95.1823E-03
            4047            4310     94.0425E-03     95.1823E-03
            4031            4311     36.9271E-03     61.0408E-03
            4049            4311     36.9271E-03     61.0408E-03
            4032            4311     36.9271E-03     61.0408E-03
            4050            4311     36.9271E-03     61.0408E-03
            4032            4312     9.92834E-03     34.1935E-03
            4051            4312     9.92834E-03     34.1935E-03
            4050            4312     9.92834E-03     34.1935E-03
            4033            4312     9.92834E-03     34.1935E-03
            4033            4313     10.6473E-03     31.6370E-03
            4051            4313     10.6473E-03     31.6370E-03
            4052            4313     10.6473E-03     31.6370E-03
            4034            4313     10.6473E-03     31.6370E-03
            4035            4314     15.5570E-03     35.1453E-03
            4052            4314     15.5570E-03     35.1453E-03
            4053            4314     15.5570E-03     35.1453E-03
            4034            4314     15.5570E-03     35.1453E-03
            4053            4315     20.1821E-03     39.5938E-03
            4035            4315     20.1821E-03     39.5938E-03
            4054            4315     20.1821E-03     39.5938E-03
            4036            4315     20.1821E-03     39.5938E-03
            4037            4316     25.4068E-03     44.2332E-03
            4055            4316     25.4068E-03     44.2332E-03
            4036            4316     25.4068E-03     44.2332E-03
            4054            4316     25.4068E-03     44.2332E-03
            4056            4317     30.9035E-03     48.7702E-03
            4055            4317     30.9035E-03     48.7702E-03
            4038            4317     30.9035E-03     48.7702E-03
            4037            4317     30.9035E-03     48.7702E-03
            4038            4318     36.5003E-03     53.2623E-03
            4056            4318     36.5003E-03     53.2623E-03
            4057            4318     36.5003E-03     53.2623E-03
            4039            4318     36.5003E-03     53.2623E-03
            4058            4319     42.1873E-03     57.7081E-03
            4040            4319     42.1873E-03     57.7081E-03
            4057            4319     42.1873E-03     57.7081E-03
            4039            4319     42.1873E-03     57.7081E-03
            4041            4320     47.9027E-03     62.1429E-03
            4059            4320     47.9027E-03     62.1429E-03
            4040            4320     47.9027E-03     62.1429E-03
            4058            4320     47.9027E-03     62.1429E-03
            4042            4321     53.6098E-03     66.5231E-03
            4059            4321     53.6098E-03     66.5231E-03
            4041            4321     53.6098E-03     66.5231E-03
            4060            4321     53.6098E-03     66.5231E-03
            4060            4322     59.3212E-03     70.8661E-03
            4061            4322     59.3212E-03     70.8661E-03
            4043            4322     59.3212E-03     70.8661E-03
            4042            4322     59.3212E-03     70.8661E-03
            4044            4323     64.9176E-03     75.1188E-03
            4061            4323     64.9176E-03     75.1188E-03
            4062            4323     64.9176E-03     75.1188E-03
            4043            4323     64.9176E-03     75.1188E-03
            4062            4324     70.5954E-03     79.3454E-03
            4045            4324     70.5954E-03     79.3454E-03
            4044            4324     70.5954E-03     79.3454E-03
            4063            4324     70.5954E-03     79.3454E-03
            4045            4325     76.1981E-03     83.5728E-03
            4046            4325     76.1981E-03     83.5728E-03
            4064            4325     76.1981E-03     83.5728E-03
            4063            4325     76.1981E-03     83.5728E-03
            4064            4326     82.5754E-03     88.7874E-03
            4047            4326     82.5754E-03     88.7874E-03
            4046            4326     82.5754E-03     88.7874E-03
            4065            4326     82.5754E-03     88.7874E-03
            4048            4327     92.4445E-03     96.2217E-03
            4047            4327     92.4445E-03     96.2217E-03
            4066            4327     92.4445E-03     96.2217E-03
            4065            4327     92.4445E-03     96.2217E-03
            5085            5225     253.848E-06     270.947E-06
            5086            5225     253.848E-06     270.947E-06
            5067            5225     253.848E-06     270.947E-06
            5068            5225     253.848E-06     270.947E-06
            5069            5226     254.745E-06     270.690E-06
            5086            5226     254.745E-06     270.690E-06
            5087            5226     254.745E-06     270.690E-06
            5068            5226     254.745E-06     270.690E-06
            5069            5227     257.890E-06     271.378E-06
            5070            5227     257.890E-06     271.378E-06
            5087            5227     257.890E-06     271.378E-06
            5088            5227     257.890E-06     271.378E-06
            5070            5228     259.490E-06     276.635E-06
            5089            5228     259.490E-06     276.635E-06
            5071            5228     259.490E-06     276.635E-06
            5088            5228     259.490E-06     276.635E-06
            5090            5229     261.404E-06     282.389E-06
            5089            5229     261.404E-06     282.389E-06
            5071            5229     261.404E-06     282.389E-06
            5072            5229     261.404E-06     282.389E-06
            5072            5230     264.660E-06     288.554E-06
            5090            5230     264.660E-06     288.554E-06
            5091            5230     264.660E-06     288.554E-06
            5073            5230     264.660E-06     288.554E-06
            5091            5231     268.805E-06     295.484E-06
            5092            5231     268.805E-06     295.484E-06
            5073            5231     268.805E-06     295.484E-06
            5074            5231     268.805E-06     295.484E-06
            5075            5232     274.163E-06     303.082E-06
            5093            5232     274.163E-06     303.082E-06
            5074            5232     274.163E-06     303.082E-06
            5092            5232     274.163E-06     303.082E-06
            5093            5233     280.330E-06     311.222E-06
            5076            5233     280.330E-06     311.222E-06
            5075            5233     280.330E-06     311.222E-06
            5094            5233     280.330E-06     311.222E-06
            5077            5234     287.561E-06     320.089E-06
            5095            5234     287.561E-06     320.089E-06
            5094            5234     287.561E-06     320.089E-06
            5076            5234     287.561E-06     320.089E-06
            5077            5235     295.112E-06     329.009E-06
            5096            5235     295.112E-06     329.009E-06
            5095            5235     295.112E-06     329.009E-06
            5078            5235     295.112E-06     329.009E-06
            5097            5236     303.261E-06     338.404E-06
            5079            5236     303.261E-06     338.404E-06
            5078            5236     303.261E-06     338.404E-06
            5096            5236     303.261E-06     338.404E-06
            5080            5237     310.601E-06     347.027E-06
            5079            5237     310.601E-06     347.027E-06
            5097            5237     310.601E-06     347.027E-06
            5098            5237     310.601E-06     347.027E-06
            5080            5238     318.422E-06     356.975E-06
            5099            5238     318.422E-06     356.975E-06
            5081            5238     318.422E-06     356.975E-06
            5098            5238     318.422E-06     356.975E-06
            5081            5239     328.745E-06     369.229E-06
            5100            5239     328.745E-06     369.229E-06
            5082            5239     328.745E-06     369.229E-06
            5099            5239     328.745E-06     369.229E-06
            5101            5240     369.175E-06     410.445E-06
            5083            5240     369.175E-06     410.445E-06
            5100            5240     369.175E-06     410.445E-06
            5082            5240     369.175E-06     410.445E-06
            5101            5241     488.524E-06     524.295E-06
            5102            5241     488.524E-06     524.295E-06
            5083            5241     488.524E-06     524.295E-06
            5084            5241     488.524E-06     524.295E-06
            5086            5242     279.555E-06     264.570E-06
            5103            5242     279.555E-06     264.570E-06
            5085            5242     279.555E-06     264.570E-06
            5104            5242     279.555E-06     264.570E-06
            5104            5243     270.864E-06     273.371E-06
            5105            5243     270.864E-06     273.371E-06
            5086            5243     270.864E-06     273.371E-06
            5087            5243     270.864E-06     273.371E-06
            5106            5244     269.579E-06     277.877E-06
            5087            5244     269.579E-06     277.877E-06
            5088            5244     269.579E-06     277.877E-06
            5105            5244     269.579E-06     277.877E-06
            5088            5245     270.652E-06     281.678E-06
            5089            5245     270.652E-06     281.678E-06
            5106            5245     270.652E-06     281.678E-06
            5107            5245     270.652E-06     281.678E-06
            5107            5246     273.038E-06     286.124E-06
            5089            5246     273.038E-06     286.124E-06
            5108            5246     273.038E-06     286.124E-06
            5090            5246     273.038E-06     286.124E-06
            5091            5247     276.812E-06     291.164E-06
            5108            5247     276.812E-06     291.164E-06
            5090            5247     276.812E-06     291.164E-06
            5109            5247     276.812E-06     291.164E-06
            5091            5248     281.444E-06     297.284E-06
            5092            5248     281.444E-06     297.284E-06
            5110            5248     281.444E-06     297.284E-06
            5109            5248     281.444E-06     297.284E-06
            5111            5249     287.055E-06     304.055E-06
            5110            5249     287.055E-06     304.055E-06
            5093            5249     287.055E-06     304.055E-06
            5092            5249     287.055E-06     304.055E-06
            5094            5250     293.809E-06     311.836E-06
            5093            5250     293.809E-06     311.836E-06
            5112            5250     293.809E-06     311.836E-06
            5111            5250     293.809E-06     311.836E-06
            5112            5251     301.391E-06     320.336E-06
            5113            5251     301.391E-06     320.336E-06
            5095            5251     301.391E-06     320.336E-06
            5094            5251     301.391E-06     320.336E-06
            5113            5252     310.533E-06     330.047E-06
            5096            5252     310.533E-06     330.047E-06
            5114            5252     310.533E-06     330.047E-06
            5095            5252     310.533E-06     330.047E-06
            5114            5253     320.048E-06     340.542E-06
            5096            5253     320.048E-06     340.542E-06
            5115            5253     320.048E-06     340.542E-06
            5097            5253     320.048E-06     340.542E-06
            5115            5254     331.506E-06     351.992E-06
            5116            5254     331.506E-06     351.992E-06
            5098            5254     331.506E-06     351.992E-06
            5097            5254     331.506E-06     351.992E-06
            5117            5255     340.413E-06     362.998E-06
            5116            5255     340.413E-06     362.998E-06
            5099            5255     340.413E-06     362.998E-06
            5098            5255     340.413E-06     362.998E-06
            5099            5256     347.912E-06     370.832E-06
            5100            5256     347.912E-06     370.832E-06
            5118            5256     347.912E-06     370.832E-06
            5117            5256     347.912E-06     370.832E-06
            5100            5257     365.301E-06     382.338E-06
            5118            5257     365.301E-06     382.338E-06
            5101            5257     365.301E-06     382.338E-06
            5119            5257     365.301E-06     382.338E-06
            5102            5258     401.650E-06     405.809E-06
            5119            5258     401.650E-06     405.809E-06
            5101            5258     401.650E-06     405.809E-06
            5120            5258     401.650E-06     405.809E-06
            5103            5259     293.241E-06     263.843E-06
            5121            5259     293.241E-06     263.843E-06
            5104            5259     293.241E-06     263.843E-06
            5122            5259     293.241E-06     263.843E-06
            5104            5260     287.586E-06     276.371E-06
            5123            5260     287.586E-06     276.371E-06
            5105            5260     287.586E-06     276.371E-06
            5122            5260     287.586E-06     276.371E-06
            5123            5261     281.224E-06     284.983E-06
            5105            5261     281.224E-06     284.983E-06
            5106            5261     281.224E-06     284.983E-06
            5124            5261     281.224E-06     284.983E-06
            5125            5262     282.183E-06     287.206E-06
            5107            5262     282.183E-06     287.206E-06
            5106            5262     282.183E-06     287.206E-06
            5124            5262     282.183E-06     287.206E-06
            5108            5263     285.638E-06     290.007E-06
            5126            5263     285.638E-06     290.007E-06
            5107            5263     285.638E-06     290.007E-06
            5125            5263     285.638E-06     290.007E-06
            5108            5264     289.538E-06     294.272E-06
            5109            5264     289.538E-06     294.272E-06
            5127            5264     289.538E-06     294.272E-06
            5126            5264     289.538E-06     294.272E-06
            5128            5265     294.518E-06     299.108E-06
            5127            5265     294.518E-06     299.108E-06
            5110            5265     294.518E-06     299.108E-06
            5109            5265     294.518E-06     299.108E-06
            5110            5266     300.276E-06     305.071E-06
            5129            5266     300.276E-06     305.071E-06
            5111            5266     300.276E-06     305.071E-06
            5128            5266     300.276E-06     305.071E-06
            5111            5267     306.899E-06     311.772E-06
            5112            5267     306.899E-06     311.772E-06
            5130            5267     306.899E-06     311.772E-06
            5129            5267     306.899E-06     311.772E-06
            5112            5268     314.854E-06     319.725E-06
            5113            5268     314.854E-06     319.725E-06
            5131            5268     314.854E-06     319.725E-06
            5130            5268     314.854E-06     319.725E-06
            5113            5269     323.761E-06     328.884E-06
            5131            5269     323.761E-06     328.884E-06
            5114            5269     323.761E-06     328.884E-06
            5132            5269     323.761E-06     328.884E-06
            5133            5270     334.889E-06     339.574E-06
            5115            5270     334.889E-06     339.574E-06
            5132            5270     334.889E-06     339.574E-06
            5114            5270     334.889E-06     339.574E-06
            5115            5271     345.668E-06     351.269E-06
            5134            5271     345.668E-06     351.269E-06
            5116            5271     345.668E-06     351.269E-06
            5133            5271     345.668E-06     351.269E-06
            5135            5272     356.128E-06     360.576E-06
            5117            5272     356.128E-06     360.576E-06
            5134            5272     356.128E-06     360.576E-06
            5116            5272     356.128E-06     360.576E-06
            5118            5273     353.299E-06     361.834E-06
            5136            5273     353.299E-06     361.834E-06
            5135            5273     353.299E-06     361.834E-06
            5117            5273     353.299E-06     361.834E-06
            5136            5274     311.944E-06     328.248E-06
            5118            5274     311.944E-06     328.248E-06
            5137            5274     311.944E-06     328.248E-06
            5119            5274     311.944E-06     328.248E-06
            5119            5275     278.605E-06     288.392E-06
            5120            5275     278.605E-06     288.392E-06
            5137            5275     278.605E-06     288.392E-06
            5138            5275     278.605E-06     288.392E-06
            5139            5276     298.382E-06     285.029E-06
            5121            5276     298.382E-06     285.029E-06
            5122            5276     298.382E-06     285.029E-06
            5140            5276     298.382E-06     285.029E-06
            5122            5277     290.889E-06     291.016E-06
            5123            5277     290.889E-06     291.016E-06
            5140            5277     290.889E-06     291.016E-06
            5141            5277     290.889E-06     291.016E-06
            5142            5278     292.177E-06     291.207E-06
            5141            5278     292.177E-06     291.207E-06
            5124            5278     292.177E-06     291.207E-06
            5123            5278     292.177E-06     291.207E-06
            5125            5279     295.212E-06     292.393E-06
            5124            5279     295.212E-06     292.393E-06
            5143            5279     295.212E-06     292.393E-06
            5142            5279     295.212E-06     292.393E-06
            5144            5280     298.776E-06     294.710E-06
            5143            5280     298.776E-06     294.710E-06
            5126            5280     298.776E-06     294.710E-06
            5125            5280     298.776E-06     294.710E-06
            5127            5281     303.270E-06     297.630E-06
            5126            5281     303.270E-06     297.630E-06
            5145            5281     303.270E-06     297.630E-06
            5144            5281     303.270E-06     297.630E-06
            5146            5282     308.218E-06     301.608E-06
            5128            5282     308.218E-06     301.608E-06
            5145            5282     308.218E-06     301.608E-06
            5127            5282     308.218E-06     301.608E-06
            5147            5283     313.817E-06     306.143E-06
            5128            5283     313.817E-06     306.143E-06
            5146            5283     313.817E-06     306.143E-06
            5129            5283     313.817E-06     306.143E-06
            5129            5284     320.109E-06     311.539E-06
            5130            5284     320.109E-06     311.539E-06
            5147            5284     320.109E-06     311.539E-06
            5148            5284     320.109E-06     311.539E-06
            5130            5285     327.028E-06     317.618E-06
            5149            5285     327.028E-06     317.618E-06
            5131            5285     327.028E-06     317.618E-06
            5148            5285     327.028E-06     317.618E-06
            5150            5286     334.924E-06     324.693E-06
            5149            5286     334.924E-06     324.693E-06
            5131            5286     334.924E-06     324.693E-06
            5132            5286     334.924E-06     324.693E-06
            5151            5287     343.270E-06     332.356E-06
            5132            5287     343.270E-06     332.356E-06
            5133            5287     343.270E-06     332.356E-06
            5150            5287     343.270E-06     332.356E-06
            5151            5288     351.468E-06     339.564E-06
            5152            5288     351.468E-06     339.564E-06
            5134            5288     351.468E-06     339.564E-06
            5133            5288     351.468E-06     339.564E-06
            5135            5289     354.888E-06     342.629E-06
            5152            5289     354.888E-06     342.629E-06
            5134            5289     354.888E-06     342.629E-06
            5153            5289     354.888E-06     342.629E-06
            5135            5290     341.078E-06     330.262E-06
            5136            5290     341.078E-06     330.262E-06
            5154            5290     341.078E-06     330.262E-06
            5153            5290     341.078E-06     330.262E-06
            5137            5291     272.832E-06     273.619E-06
            5155            5291     272.832E-06     273.619E-06
            5154            5291     272.832E-06     273.619E-06
            5136            5291     272.832E-06     273.619E-06
            5155            5292     185.757E-06     183.206E-06
            5156            5292     185.757E-06     183.206E-06
            5138            5292     185.757E-06     183.206E-06
            5137            5292     185.757E-06     183.206E-06
            5157            5293     291.565E-06     309.545E-06
            5140            5293     291.565E-06     309.545E-06
            5158            5293     291.565E-06     309.545E-06
            5139            5293     291.565E-06     309.545E-06
            5141            5294     297.064E-06     302.078E-06
            5159            5294     297.064E-06     302.078E-06
            5140            5294     297.064E-06     302.078E-06
            5158            5294     297.064E-06     302.078E-06
            5159            5295     304.102E-06     297.506E-06
            5142            5295     304.102E-06     297.506E-06
            5141            5295     304.102E-06     297.506E-06
            5160            5295     304.102E-06     297.506E-06
            5142            5296     308.847E-06     298.188E-06
            5161            5296     308.847E-06     298.188E-06
            5160            5296     308.847E-06     298.188E-06
            5143            5296     308.847E-06     298.188E-06
            5143            5297     312.969E-06     299.821E-06
            5162            5297     312.969E-06     299.821E-06
            5161            5297     312.969E-06     299.821E-06
            5144            5297     312.969E-06     299.821E-06
            5144            5298     317.731E-06     301.917E-06
            5145            5298     317.731E-06     301.917E-06
            5162            5298     317.731E-06     301.917E-06
            5163            5298     317.731E-06     301.917E-06
            5145            5299     322.694E-06     304.719E-06
            5164            5299     322.694E-06     304.719E-06
            5146            5299     322.694E-06     304.719E-06
            5163            5299     322.694E-06     304.719E-06
            5164            5300     328.064E-06     307.948E-06
            5146            5300     328.064E-06     307.948E-06
            5165            5300     328.064E-06     307.948E-06
            5147            5300     328.064E-06     307.948E-06
            5166            5301     333.599E-06     311.573E-06
            5147            5301     333.599E-06     311.573E-06
            5148            5301     333.599E-06     311.573E-06
            5165            5301     333.599E-06     311.573E-06
            5149            5302     339.164E-06     315.375E-06
            5148            5302     339.164E-06     315.375E-06
            5167            5302     339.164E-06     315.375E-06
            5166            5302     339.164E-06     315.375E-06
            5168            5303     344.441E-06     318.798E-06
            5149            5303     344.441E-06     318.798E-06
            5150            5303     344.441E-06     318.798E-06
            5167            5303     344.441E-06     318.798E-06
            5151            5304     348.164E-06     321.136E-06
            5168            5304     348.164E-06     321.136E-06
            5150            5304     348.164E-06     321.136E-06
            5169            5304     348.164E-06     321.136E-06
            5170            5305     349.052E-06     319.671E-06
            5152            5305     349.052E-06     319.671E-06
            5151            5305     349.052E-06     319.671E-06
            5169            5305     349.052E-06     319.671E-06
            5152            5306     340.411E-06     310.197E-06
            5171            5306     340.411E-06     310.197E-06
            5170            5306     340.411E-06     310.197E-06
            5153            5306     340.411E-06     310.197E-06
            5172            5307     313.461E-06     280.364E-06
            5171            5307     313.461E-06     280.364E-06
            5153            5307     313.461E-06     280.364E-06
            5154            5307     313.461E-06     280.364E-06
            5154            5308     251.428E-06     216.487E-06
            5173            5308     251.428E-06     216.487E-06
            5172            5308     251.428E-06     216.487E-06
            5155            5308     251.428E-06     216.487E-06
            5156            5309     152.193E-06     162.930E-06
            5174            5309     152.193E-06     162.930E-06
            5173            5309     152.193E-06     162.930E-06
            5155            5309     152.193E-06     162.930E-06
            5865            5862     21.4487E-03     22.6362E-03
            5866            5862     21.4487E-03     22.6362E-03
            5848            5862     21.4487E-03     22.6362E-03
            5847            5862     21.4487E-03     22.6362E-03
            5848            5863     22.6369E-03     24.0927E-03
            5867            5863     22.6369E-03     24.0927E-03
            5866            5863     22.6369E-03     24.0927E-03
            5849            5863     22.6369E-03     24.0927E-03
            5849            5864     24.9736E-03     26.5798E-03
            5868            5864     24.9736E-03     26.5798E-03
            5850            5864     24.9736E-03     26.5798E-03
            5867            5864     24.9736E-03     26.5798E-03
            5868            5865     27.6248E-03     29.3232E-03
            5851            5865     27.6248E-03     29.3232E-03
            5850            5865     27.6248E-03     29.3232E-03
            5869            5865     27.6248E-03     29.3232E-03
            5870            5866     30.4517E-03     32.2062E-03
            5852            5866     30.4517E-03     32.2062E-03
            5851            5866     30.4517E-03     32.2062E-03
            5869            5866     30.4517E-03     32.2062E-03
            5870            5867     33.3697E-03     35.1544E-03
            5852            5867     33.3697E-03     35.1544E-03
            5853            5867     33.3697E-03     35.1544E-03
            5871            5867     33.3697E-03     35.1544E-03
            5853            5868     36.3488E-03     38.1367E-03
            5872            5868     36.3488E-03     38.1367E-03
            5871            5868     36.3488E-03     38.1367E-03
            5854            5868     36.3488E-03     38.1367E-03
            5854            5869     39.3589E-03     41.1366E-03
            5872            5869     39.3589E-03     41.1366E-03
            5855            5869     39.3589E-03     41.1366E-03
            5873            5869     39.3589E-03     41.1366E-03
            5874            5870     42.4054E-03     44.1454E-03
            5855            5870     42.4054E-03     44.1454E-03
            5873            5870     42.4054E-03     44.1454E-03
            5856            5870     42.4054E-03     44.1454E-03
            5874            5871     45.4734E-03     47.1708E-03
            5875            5871     45.4734E-03     47.1708E-03
            5857            5871     45.4734E-03     47.1708E-03
            5856            5871     45.4734E-03     47.1708E-03
            5876            5872     48.6015E-03     50.2193E-03
            5875            5872     48.6015E-03     50.2193E-03
            5857            5872     48.6015E-03     50.2193E-03
            5858            5872     48.6015E-03     50.2193E-03
            5858            5873     51.7798E-03     53.3298E-03
            5877            5873     51.7798E-03     53.3298E-03
            5876            5873     51.7798E-03     53.3298E-03
            5859            5873     51.7798E-03     53.3298E-03
            5878            5874     55.1105E-03     56.5445E-03
            5860            5874     55.1105E-03     56.5445E-03
            5877            5874     55.1105E-03     56.5445E-03
            5859            5874     55.1105E-03     56.5445E-03
            5861            5875     58.5829E-03     59.9699E-03
            5878            5875     58.5829E-03     59.9699E-03
            5879            5875     58.5829E-03     59.9699E-03
            5860            5875     58.5829E-03     59.9699E-03
            5879            5876     62.4880E-03     63.8154E-03
            5880            5876     62.4880E-03     63.8154E-03
            5861            5876     62.4880E-03     63.8154E-03
            5862            5876     62.4880E-03     63.8154E-03
            5880            5877     66.8241E-03     68.3495E-03
            5862            5877     66.8241E-03     68.3495E-03
            5863            5877     66.8241E-03     68.3495E-03
            5881            5877     66.8241E-03     68.3495E-03
            5863            5878     73.3968E-03     75.9740E-03
            5881            5878     73.3968E-03     75.9740E-03
            5864            5878     73.3968E-03     75.9740E-03
            5882            5878     73.3968E-03     75.9740E-03
            5865            5879     22.4144E-03     24.0607E-03
            5883            5879     22.4144E-03     24.0607E-03
            5866            5879     22.4144E-03     24.0607E-03
            5884            5879     22.4144E-03     24.0607E-03
            5884            5880     22.7521E-03     24.4931E-03
            5866            5880     22.7521E-03     24.4931E-03
            5867            5880     22.7521E-03     24.4931E-03
            5885            5880     22.7521E-03     24.4931E-03
            5868            5881     23.9981E-03     25.9561E-03
            5867            5881     23.9981E-03     25.9561E-03
            5885            5881     23.9981E-03     25.9561E-03
            5886            5881     23.9981E-03     25.9561E-03
            5868            5882     26.1052E-03     28.1995E-03
            5886            5882     26.1052E-03     28.1995E-03
            5869            5882     26.1052E-03     28.1995E-03
            5887            5882     26.1052E-03     28.1995E-03
            5888            5883     28.4469E-03     30.6376E-03
            5869            5883     28.4469E-03     30.6376E-03
            5887            5883     28.4469E-03     30.6376E-03
            5870            5883     28.4469E-03     30.6376E-03
            5888            5884     31.0234E-03     33.2587E-03
            5870            5884     31.0234E-03     33.2587E-03
            5871            5884     31.0234E-03     33.2587E-03
            5889            5884     31.0234E-03     33.2587E-03
            5872            5885     33.6825E-03     35.9326E-03
            5889            5885     33.6825E-03     35.9326E-03
            5890            5885     33.6825E-03     35.9326E-03
            5871            5885     33.6825E-03     35.9326E-03
            5891            5886     36.4310E-03     38.6597E-03
            5873            5886     36.4310E-03     38.6597E-03
            5872            5886     36.4310E-03     38.6597E-03
            5890            5886     36.4310E-03     38.6597E-03
            5873            5887     39.2211E-03     41.4053E-03
            5874            5887     39.2211E-03     41.4053E-03
            5891            5887     39.2211E-03     41.4053E-03
            5892            5887     39.2211E-03     41.4053E-03
            5893            5888     42.0886E-03     44.1975E-03
            5874            5888     42.0886E-03     44.1975E-03
            5875            5888     42.0886E-03     44.1975E-03
            5892            5888     42.0886E-03     44.1975E-03
            5876            5889     45.0302E-03     47.0454E-03
            5875            5889     45.0302E-03     47.0454E-03
            5894            5889     45.0302E-03     47.0454E-03
            5893            5889     45.0302E-03     47.0454E-03
            5895            5890     48.1476E-03     50.0432E-03
            5876            5890     48.1476E-03     50.0432E-03
            5894            5890     48.1476E-03     50.0432E-03
            5877            5890     48.1476E-03     50.0432E-03
            5878            5891     51.4784E-03     53.2593E-03
            5877            5891     51.4784E-03     53.2593E-03
            5896            5891     51.4784E-03     53.2593E-03
            5895            5891     51.4784E-03     53.2593E-03
            5879            5892     55.3114E-03     56.9849E-03
            5897            5892     55.3114E-03     56.9849E-03
            5878            5892     55.3114E-03     56.9849E-03
            5896            5892     55.3114E-03     56.9849E-03
            5879            5893     59.7752E-03     61.4358E-03
            5898            5893     59.7752E-03     61.4358E-03
            5897            5893     59.7752E-03     61.4358E-03
            5880            5893     59.7752E-03     61.4358E-03
            5881            5894     65.9873E-03     67.7773E-03
            5899            5894     65.9873E-03     67.7773E-03
            5880            5894     65.9873E-03     67.7773E-03
            5898            5894     65.9873E-03     67.7773E-03
            5900            5895     75.7242E-03     77.0720E-03
            5899            5895     75.7242E-03     77.0720E-03
            5882            5895     75.7242E-03     77.0720E-03
            5881            5895     75.7242E-03     77.0720E-03
            5902            5896     20.3469E-03     22.3542E-03
            5883            5896     20.3469E-03     22.3542E-03
            5901            5896     20.3469E-03     22.3542E-03
            5884            5896     20.3469E-03     22.3542E-03
            5903            5897     22.5938E-03     24.4213E-03
            5884            5897     22.5938E-03     24.4213E-03
            5902            5897     22.5938E-03     24.4213E-03
            5885            5897     22.5938E-03     24.4213E-03
            5903            5898     24.2536E-03     26.0843E-03
            5885            5898     24.2536E-03     26.0843E-03
            5904            5898     24.2536E-03     26.0843E-03
            5886            5898     24.2536E-03     26.0843E-03
            5886            5899     26.4806E-03     28.3750E-03
            5904            5899     26.4806E-03     28.3750E-03
            5905            5899     26.4806E-03     28.3750E-03
            5887            5899     26.4806E-03     28.3750E-03
            5905            5900     28.9914E-03     30.9256E-03
            5888            5900     28.9914E-03     30.9256E-03
            5887            5900     28.9914E-03     30.9256E-03
            5906            5900     28.9914E-03     30.9256E-03
            5888            5901     31.6562E-03     33.6225E-03
            5906            5901     31.6562E-03     33.6225E-03
            5889            5901     31.6562E-03     33.6225E-03
            5907            5901     31.6562E-03     33.6225E-03
            5907            5902     34.4379E-03     36.4113E-03
            5890            5902     34.4379E-03     36.4113E-03
            5908            5902     34.4379E-03     36.4113E-03
            5889            5902     34.4379E-03     36.4113E-03
            5908            5903     37.2750E-03     39.2495E-03
            5890            5903     37.2750E-03     39.2495E-03
            5891            5903     37.2750E-03     39.2495E-03
            5909            5903     37.2750E-03     39.2495E-03
            5909            5904     40.1795E-03     42.1369E-03
            5892            5904     40.1795E-03     42.1369E-03
            5910            5904     40.1795E-03     42.1369E-03
            5891            5904     40.1795E-03     42.1369E-03
            5893            5905     43.1356E-03     45.0776E-03
            5910            5905     43.1356E-03     45.0776E-03
            5911            5905     43.1356E-03     45.0776E-03
            5892            5905     43.1356E-03     45.0776E-03
            5911            5906     46.2042E-03     48.1135E-03
            5893            5906     46.2042E-03     48.1135E-03
            5912            5906     46.2042E-03     48.1135E-03
            5894            5906     46.2042E-03     48.1135E-03
            5912            5907     49.4158E-03     51.3078E-03
            5913            5907     49.4158E-03     51.3078E-03
            5894            5907     49.4158E-03     51.3078E-03
            5895            5907     49.4158E-03     51.3078E-03
            5913            5908     52.9310E-03     54.7822E-03
            5896            5908     52.9310E-03     54.7822E-03
            5895            5908     52.9310E-03     54.7822E-03
            5914            5908     52.9310E-03     54.7822E-03
            5914            5909     56.9134E-03     58.7456E-03
            5915            5909     56.9134E-03     58.7456E-03
            5897            5909     56.9134E-03     58.7456E-03
            5896            5909     56.9134E-03     58.7456E-03
            5898            5910     61.7212E-03     63.4881E-03
            5897            5910     61.7212E-03     63.4881E-03
            5915            5910     61.7212E-03     63.4881E-03
            5916            5910     61.7212E-03     63.4881E-03
            5917            5911     68.5292E-03     69.7792E-03
            5916            5911     68.5292E-03     69.7792E-03
            5898            5911     68.5292E-03     69.7792E-03
            5899            5911     68.5292E-03     69.7792E-03
            5918            5912     75.8812E-03     76.3314E-03
            5917            5912     75.8812E-03     76.3314E-03
            5900            5912     75.8812E-03     76.3314E-03
            5899            5912     75.8812E-03     76.3314E-03
            5901            5913     18.9974E-03     20.8056E-03
            5919            5913     18.9974E-03     20.8056E-03
            5920            5913     18.9974E-03     20.8056E-03
            5902            5913     18.9974E-03     20.8056E-03
            5902            5914     21.9051E-03     23.7402E-03
            5903            5914     21.9051E-03     23.7402E-03
            5920            5914     21.9051E-03     23.7402E-03
            5921            5914     21.9051E-03     23.7402E-03
            5904            5915     24.4094E-03     26.1647E-03
            5903            5915     24.4094E-03     26.1647E-03
            5921            5915     24.4094E-03     26.1647E-03
            5922            5915     24.4094E-03     26.1647E-03
            5923            5916     26.8486E-03     28.5769E-03
            5922            5916     26.8486E-03     28.5769E-03
            5904            5916     26.8486E-03     28.5769E-03
            5905            5916     26.8486E-03     28.5769E-03
            5906            5917     29.5291E-03     31.2599E-03
            5905            5917     29.5291E-03     31.2599E-03
            5923            5917     29.5291E-03     31.2599E-03
            5924            5917     29.5291E-03     31.2599E-03
            5907            5918     32.3142E-03     34.0415E-03
            5906            5918     32.3142E-03     34.0415E-03
            5924            5918     32.3142E-03     34.0415E-03
            5925            5918     32.3142E-03     34.0415E-03
            5926            5919     35.1865E-03     36.9222E-03
            5925            5919     35.1865E-03     36.9222E-03
            5907            5919     35.1865E-03     36.9222E-03
            5908            5919     35.1865E-03     36.9222E-03
            5927            5920     38.1212E-03     39.8622E-03
            5908            5920     38.1212E-03     39.8622E-03
            5926            5920     38.1212E-03     39.8622E-03
            5909            5920     38.1212E-03     39.8622E-03
            5909            5921     41.1050E-03     42.8641E-03
            5927            5921     41.1050E-03     42.8641E-03
            5928            5921     41.1050E-03     42.8641E-03
            5910            5921     41.1050E-03     42.8641E-03
            5911            5922     44.1606E-03     45.9357E-03
            5910            5922     44.1606E-03     45.9357E-03
            5928            5922     44.1606E-03     45.9357E-03
            5929            5922     44.1606E-03     45.9357E-03
            5912            5923     47.3076E-03     49.1160E-03
            5930            5923     47.3076E-03     49.1160E-03
            5929            5923     47.3076E-03     49.1160E-03
            5911            5923     47.3076E-03     49.1160E-03
            5912            5924     50.6193E-03     52.4504E-03
            5930            5924     50.6193E-03     52.4504E-03
            5931            5924     50.6193E-03     52.4504E-03
            5913            5924     50.6193E-03     52.4504E-03
            5914            5925     54.2136E-03     56.0599E-03
            5932            5925     54.2136E-03     56.0599E-03
            5913            5925     54.2136E-03     56.0599E-03
            5931            5925     54.2136E-03     56.0599E-03
            5914            5926     58.2047E-03     60.0402E-03
            5932            5926     58.2047E-03     60.0402E-03
            5933            5926     58.2047E-03     60.0402E-03
            5915            5926     58.2047E-03     60.0402E-03
            5934            5927     63.1204E-03     64.6956E-03
            5916            5927     63.1204E-03     64.6956E-03
            5933            5927     63.1204E-03     64.6956E-03
            5915            5927     63.1204E-03     64.6956E-03
            5917            5928     68.5717E-03     69.8941E-03
            5934            5928     68.5717E-03     69.8941E-03
            5935            5928     68.5717E-03     69.8941E-03
            5916            5928     68.5717E-03     69.8941E-03
            5936            5929     73.5943E-03     75.0155E-03
            5918            5929     73.5943E-03     75.0155E-03
            5917            5929     73.5943E-03     75.0155E-03
            5935            5929     73.5943E-03     75.0155E-03
            5938            5930     18.3844E-03     20.0845E-03
            5920            5930     18.3844E-03     20.0845E-03
            5937            5930     18.3844E-03     20.0845E-03
            5919            5930     18.3844E-03     20.0845E-03
            5939            5931     21.4223E-03     23.1176E-03
            5921            5931     21.4223E-03     23.1176E-03
            5938            5931     21.4223E-03     23.1176E-03
            5920            5931     21.4223E-03     23.1176E-03
            5921            5932     24.3503E-03     26.0045E-03
            5940            5932     24.3503E-03     26.0045E-03
            5922            5932     24.3503E-03     26.0045E-03
            5939            5932     24.3503E-03     26.0045E-03
            5940            5933     27.1719E-03     28.7609E-03
            5922            5933     27.1719E-03     28.7609E-03
            5923            5933     27.1719E-03     28.7609E-03
            5941            5933     27.1719E-03     28.7609E-03
            5923            5934     29.9957E-03     31.5307E-03
            5941            5934     29.9957E-03     31.5307E-03
            5924            5934     29.9957E-03     31.5307E-03
            5942            5934     29.9957E-03     31.5307E-03
            5942            5935     32.9086E-03     34.4205E-03
            5925            5935     32.9086E-03     34.4205E-03
            5943            5935     32.9086E-03     34.4205E-03
            5924            5935     32.9086E-03     34.4205E-03
            5944            5936     35.8616E-03     37.3639E-03
            5926            5936     35.8616E-03     37.3639E-03
            5943            5936     35.8616E-03     37.3639E-03
            5925            5936     35.8616E-03     37.3639E-03
            5927            5937     38.8671E-03     40.3838E-03
            5944            5937     38.8671E-03     40.3838E-03
            5945            5937     38.8671E-03     40.3838E-03
            5926            5937     38.8671E-03     40.3838E-03
            5927            5938     41.9185E-03     43.4648E-03
            5945            5938     41.9185E-03     43.4648E-03
            5928            5938     41.9185E-03     43.4648E-03
            5946            5938     41.9185E-03     43.4648E-03
            5947            5939     45.0305E-03     46.6282E-03
            5929            5939     45.0305E-03     46.6282E-03
            5946            5939     45.0305E-03     46.6282E-03
            5928            5939     45.0305E-03     46.6282E-03
            5947            5940     48.2246E-03     49.8831E-03
            5929            5940     48.2246E-03     49.8831E-03
            5930            5940     48.2246E-03     49.8831E-03
            5948            5940     48.2246E-03     49.8831E-03
            5948            5941     51.5632E-03     53.2836E-03
            5931            5941     51.5632E-03     53.2836E-03
            5949            5941     51.5632E-03     53.2836E-03
            5930            5941     51.5632E-03     53.2836E-03
            5950            5942     55.0739E-03     56.8520E-03
            5932            5942     55.0739E-03     56.8520E-03
            5949            5942     55.0739E-03     56.8520E-03
            5931            5942     55.0739E-03     56.8520E-03
            5951            5943     58.9725E-03     60.6801E-03
            5933            5943     58.9725E-03     60.6801E-03
            5950            5943     58.9725E-03     60.6801E-03
            5932            5943     58.9725E-03     60.6801E-03
            5951            5944     63.1384E-03     64.7585E-03
            5933            5944     63.1384E-03     64.7585E-03
            5952            5944     63.1384E-03     64.7585E-03
            5934            5944     63.1384E-03     64.7585E-03
            5935            5945     67.3512E-03     68.8410E-03
            5952            5945     67.3512E-03     68.8410E-03
            5934            5945     67.3512E-03     68.8410E-03
            5953            5945     67.3512E-03     68.8410E-03
            5936            5946     71.5372E-03     72.5136E-03
            5935            5946     71.5372E-03     72.5136E-03
            5953            5946     71.5372E-03     72.5136E-03
            5954            5946     71.5372E-03     72.5136E-03
            5956            5947     18.0895E-03     19.6768E-03
            5938            5947     18.0895E-03     19.6768E-03
            5937            5947     18.0895E-03     19.6768E-03
            5955            5947     18.0895E-03     19.6768E-03
            5939            5948     21.2275E-03     22.8042E-03
            5957            5948     21.2275E-03     22.8042E-03
            5938            5948     21.2275E-03     22.8042E-03
            5956            5948     21.2275E-03     22.8042E-03
            5957            5949     24.3224E-03     25.8516E-03
            5958            5949     24.3224E-03     25.8516E-03
            5939            5949     24.3224E-03     25.8516E-03
            5940            5949     24.3224E-03     25.8516E-03
            5958            5950     27.3766E-03     28.8000E-03
            5959            5950     27.3766E-03     28.8000E-03
            5940            5950     27.3766E-03     28.8000E-03
            5941            5950     27.3766E-03     28.8000E-03
            5960            5951     30.3779E-03     31.7191E-03
            5959            5951     30.3779E-03     31.7191E-03
            5941            5951     30.3779E-03     31.7191E-03
            5942            5951     30.3779E-03     31.7191E-03
            5960            5952     33.3678E-03     34.6499E-03
            5961            5952     33.3678E-03     34.6499E-03
            5943            5952     33.3678E-03     34.6499E-03
            5942            5952     33.3678E-03     34.6499E-03
            5962            5953     36.3900E-03     37.6493E-03
            5943            5953     36.3900E-03     37.6493E-03
            5961            5953     36.3900E-03     37.6493E-03
            5944            5953     36.3900E-03     37.6493E-03
            5962            5954     39.4326E-03     40.7040E-03
            5945            5954     39.4326E-03     40.7040E-03
            5963            5954     39.4326E-03     40.7040E-03
            5944            5954     39.4326E-03     40.7040E-03
            5963            5955     42.5181E-03     43.8287E-03
            5946            5955     42.5181E-03     43.8287E-03
            5964            5955     42.5181E-03     43.8287E-03
            5945            5955     42.5181E-03     43.8287E-03
            5964            5956     45.6429E-03     47.0186E-03
            5946            5956     45.6429E-03     47.0186E-03
            5947            5956     45.6429E-03     47.0186E-03
            5965            5956     45.6429E-03     47.0186E-03
            5947            5957     48.8364E-03     50.2932E-03
            5948            5957     48.8364E-03     50.2932E-03
            5966            5957     48.8364E-03     50.2932E-03
            5965            5957     48.8364E-03     50.2932E-03
            5949            5958     52.0889E-03     53.6454E-03
            5966            5958     52.0889E-03     53.6454E-03
            5967            5958     52.0889E-03     53.6454E-03
            5948            5958     52.0889E-03     53.6454E-03
            5968            5959     55.4702E-03     57.0853E-03
            5949            5959     55.4702E-03     57.0853E-03
            5950            5959     55.4702E-03     57.0853E-03
            5967            5959     55.4702E-03     57.0853E-03
            5969            5960     58.9211E-03     60.5757E-03
            5951            5960     58.9211E-03     60.5757E-03
            5968            5960     58.9211E-03     60.5757E-03
            5950            5960     58.9211E-03     60.5757E-03
            5969            5961     62.3961E-03     63.9839E-03
            5970            5961     62.3961E-03     63.9839E-03
            5952            5961     62.3961E-03     63.9839E-03
            5951            5961     62.3961E-03     63.9839E-03
            5971            5962     65.8536E-03     67.1604E-03
            5952            5962     65.8536E-03     67.1604E-03
            5953            5962     65.8536E-03     67.1604E-03
            5970            5962     65.8536E-03     67.1604E-03
            5953            5963     69.1076E-03     70.1467E-03
            5972            5963     69.1076E-03     70.1467E-03
            5971            5963     69.1076E-03     70.1467E-03
            5954            5963     69.1076E-03     70.1467E-03
            5973            5964     18.1010E-03     19.5431E-03
            5955            5964     18.1010E-03     19.5431E-03
            5974            5964     18.1010E-03     19.5431E-03
            5956            5964     18.1010E-03     19.5431E-03
            5974            5965     21.1770E-03     22.6852E-03
            5956            5965     21.1770E-03     22.6852E-03
            5975            5965     21.1770E-03     22.6852E-03
            5957            5965     21.1770E-03     22.6852E-03
            5957            5966     24.4006E-03     25.7665E-03
            5975            5966     24.4006E-03     25.7665E-03
            5958            5966     24.4006E-03     25.7665E-03
            5976            5966     24.4006E-03     25.7665E-03
            5977            5967     27.5446E-03     28.7898E-03
            5959            5967     27.5446E-03     28.7898E-03
            5958            5967     27.5446E-03     28.7898E-03
            5976            5967     27.5446E-03     28.7898E-03
            5959            5968     30.6296E-03     31.7381E-03
            5960            5968     30.6296E-03     31.7381E-03
            5977            5968     30.6296E-03     31.7381E-03
            5978            5968     30.6296E-03     31.7381E-03
            5979            5969     33.6737E-03     34.6920E-03
            5960            5969     33.6737E-03     34.6920E-03
            5978            5969     33.6737E-03     34.6920E-03
            5961            5969     33.6737E-03     34.6920E-03
            5961            5970     36.7041E-03     37.6941E-03
            5980            5970     36.7041E-03     37.6941E-03
            5979            5970     36.7041E-03     37.6941E-03
            5962            5970     36.7041E-03     37.6941E-03
            5962            5971     39.7547E-03     40.7494E-03
            5980            5971     39.7547E-03     40.7494E-03
            5981            5971     39.7547E-03     40.7494E-03
            5963            5971     39.7547E-03     40.7494E-03
            5981            5972     42.8212E-03     43.8578E-03
            5982            5972     42.8212E-03     43.8578E-03
            5964            5972     42.8212E-03     43.8578E-03
            5963            5972     42.8212E-03     43.8578E-03
            5964            5973     45.9232E-03     47.0237E-03
            5982            5973     45.9232E-03     47.0237E-03
            5983            5973     45.9232E-03     47.0237E-03
            5965            5973     45.9232E-03     47.0237E-03
            5965            5974     49.0380E-03     50.2357E-03
            5966            5974     49.0380E-03     50.2357E-03
            5984            5974     49.0380E-03     50.2357E-03
            5983            5974     49.0380E-03     50.2357E-03
            5967            5975     52.1795E-03     53.4807E-03
            5985            5975     52.1795E-03     53.4807E-03
            5966            5975     52.1795E-03     53.4807E-03
            5984            5975     52.1795E-03     53.4807E-03
            5967            5976     55.2902E-03     56.7113E-03
            5986            5976     55.2902E-03     56.7113E-03
            5985            5976     55.2902E-03     56.7113E-03
            5968            5976     55.2902E-03     56.7113E-03
            5986            5977     58.3175E-03     59.8277E-03
            5968            5977     58.3175E-03     59.8277E-03
            5969            5977     58.3175E-03     59.8277E-03
            5987            5977     58.3175E-03     59.8277E-03
            5987            5978     61.2315E-03     62.6976E-03
            5988            5978     61.2315E-03     62.6976E-03
            5969            5978     61.2315E-03     62.6976E-03
            5970            5978     61.2315E-03     62.6976E-03
            5989            5979     63.9560E-03     65.2499E-03
            5988            5979     63.9560E-03     65.2499E-03
            5971            5979     63.9560E-03     65.2499E-03
            5970            5979     63.9560E-03     65.2499E-03
            5972            5980     66.6730E-03     67.5534E-03
            5990            5980     66.6730E-03     67.5534E-03
            5989            5980     66.6730E-03     67.5534E-03
            5971            5980     66.6730E-03     67.5534E-03
            5974            5981     18.2704E-03     19.7391E-03
            5973            5981     18.2704E-03     19.7391E-03
            5992            5981     18.2704E-03     19.7391E-03
            5991            5981     18.2704E-03     19.7391E-03
            5993            5982     21.3755E-03     22.7160E-03
            5975            5982     21.3755E-03     22.7160E-03
            5974            5982     21.3755E-03     22.7160E-03
            5992            5982     21.3755E-03     22.7160E-03
            5993            5983     24.5613E-03     25.8108E-03
            5994            5983     24.5613E-03     25.8108E-03
            5976            5983     24.5613E-03     25.8108E-03
            5975            5983     24.5613E-03     25.8108E-03
            5977            5984     27.7189E-03     28.7163E-03
            5994            5984     27.7189E-03     28.7163E-03
            5995            5984     27.7189E-03     28.7163E-03
            5976            5984     27.7189E-03     28.7163E-03
            5977            5985     30.7810E-03     31.5854E-03
            5978            5985     30.7810E-03     31.5854E-03
            5995            5985     30.7810E-03     31.5854E-03
            5996            5985     30.7810E-03     31.5854E-03
            5978            5986     33.7923E-03     34.5140E-03
            5996            5986     33.7923E-03     34.5140E-03
            5997            5986     33.7923E-03     34.5140E-03
            5979            5986     33.7923E-03     34.5140E-03
            5979            5987     36.7865E-03     37.4700E-03
            5980            5987     36.7865E-03     37.4700E-03
            5998            5987     36.7865E-03     37.4700E-03
            5997            5987     36.7865E-03     37.4700E-03
            5998            5988     39.7807E-03     40.4713E-03
            5981            5988     39.7807E-03     40.4713E-03
            5999            5988     39.7807E-03     40.4713E-03
            5980            5988     39.7807E-03     40.4713E-03
            6000            5989     42.7928E-03     43.5115E-03
            5999            5989     42.7928E-03     43.5115E-03
            5981            5989     42.7928E-03     43.5115E-03
            5982            5989     42.7928E-03     43.5115E-03
            5983            5990     45.8040E-03     46.5836E-03
            5982            5990     45.8040E-03     46.5836E-03
            6001            5990     45.8040E-03     46.5836E-03
            6000            5990     45.8040E-03     46.5836E-03
            6001            5991     48.8166E-03     49.6725E-03
            5983            5991     48.8166E-03     49.6725E-03
            6002            5991     48.8166E-03     49.6725E-03
            5984            5991     48.8166E-03     49.6725E-03
            5985            5992     51.7760E-03     52.7470E-03
            5984            5992     51.7760E-03     52.7470E-03
            6002            5992     51.7760E-03     52.7470E-03
            6003            5992     51.7760E-03     52.7470E-03
            6003            5993     54.6295E-03     55.7374E-03
            5985            5993     54.6295E-03     55.7374E-03
            5986            5993     54.6295E-03     55.7374E-03
            6004            5993     54.6295E-03     55.7374E-03
            5987            5994     57.2997E-03     58.5320E-03
            6004            5994     57.2997E-03     58.5320E-03
            5986            5994     57.2997E-03     58.5320E-03
            6005            5994     57.2997E-03     58.5320E-03
            6005            5995     59.6609E-03     61.0006E-03
            5988            5995     59.6609E-03     61.0006E-03
            6006            5995     59.6609E-03     61.0006E-03
            5987            5995     59.6609E-03     61.0006E-03
            6006            5996     61.8471E-03     63.0439E-03
            5988            5996     61.8471E-03     63.0439E-03
            5989            5996     61.8471E-03     63.0439E-03
            6007            5996     61.8471E-03     63.0439E-03
            6008            5997     64.0160E-03     64.7797E-03
            6007            5997     64.0160E-03     64.7797E-03
            5989            5997     64.0160E-03     64.7797E-03
            5990            5997     64.0160E-03     64.7797E-03
            6010            5998     18.8373E-03     20.0940E-03
            5991            5998     18.8373E-03     20.0940E-03
            5992            5998     18.8373E-03     20.0940E-03
            6009            5998     18.8373E-03     20.0940E-03
            6011            5999     21.7824E-03     23.2018E-03
            6010            5999     21.7824E-03     23.2018E-03
            5992            5999     21.7824E-03     23.2018E-03
            5993            5999     21.7824E-03     23.2018E-03
            6012            6000     24.9080E-03     25.8993E-03
            6011            6000     24.9080E-03     25.8993E-03
            5993            6000     24.9080E-03     25.8993E-03
            5994            6000     24.9080E-03     25.8993E-03
            6013            6001     27.9131E-03     28.5219E-03
            6012            6001     27.9131E-03     28.5219E-03
            5994            6001     27.9131E-03     28.5219E-03
            5995            6001     27.9131E-03     28.5219E-03
            5995            6002     30.8460E-03     31.3044E-03
            6014            6002     30.8460E-03     31.3044E-03
            5996            6002     30.8460E-03     31.3044E-03
            6013            6002     30.8460E-03     31.3044E-03
            5996            6003     33.7390E-03     34.1248E-03
            6014            6003     33.7390E-03     34.1248E-03
            6015            6003     33.7390E-03     34.1248E-03
            5997            6003     33.7390E-03     34.1248E-03
            5998            6004     36.6259E-03     36.9908E-03
            6016            6004     36.6259E-03     36.9908E-03
            5997            6004     36.6259E-03     36.9908E-03
            6015            6004     36.6259E-03     36.9908E-03
            6017            6005     39.5184E-03     39.8812E-03
            6016            6005     39.5184E-03     39.8812E-03
            5998            6005     39.5184E-03     39.8812E-03
            5999            6005     39.5184E-03     39.8812E-03
            6017            6006     42.4084E-03     42.7897E-03
            5999            6006     42.4084E-03     42.7897E-03
            6000            6006     42.4084E-03     42.7897E-03
            6018            6006     42.4084E-03     42.7897E-03
            6019            6007     45.2974E-03     45.7029E-03
            6000            6007     45.2974E-03     45.7029E-03
            6018            6007     45.2974E-03     45.7029E-03
            6001            6007     45.2974E-03     45.7029E-03
            6020            6008     48.1431E-03     48.6016E-03
            6019            6008     48.1431E-03     48.6016E-03
            6002            6008     48.1431E-03     48.6016E-03
            6001            6008     48.1431E-03     48.6016E-03
            6020            6009     50.9142E-03     51.4423E-03
            6002            6009     50.9142E-03     51.4423E-03
            6021            6009     50.9142E-03     51.4423E-03
            6003            6009     50.9142E-03     51.4423E-03
            6021            6010     53.5284E-03     54.1685E-03
            6022            6010     53.5284E-03     54.1685E-03
            6003            6010     53.5284E-03     54.1685E-03
            6004            6010     53.5284E-03     54.1685E-03
            6004            6011     55.8711E-03     56.6772E-03
            6022            6011     55.8711E-03     56.6772E-03
            6023            6011     55.8711E-03     56.6772E-03
            6005            6011     55.8711E-03     56.6772E-03
            6024            6012     57.8616E-03     58.8057E-03
            6023            6012     57.8616E-03     58.8057E-03
            6006            6012     57.8616E-03     58.8057E-03
            6005            6012     57.8616E-03     58.8057E-03
            6024            6013     59.4266E-03     60.4537E-03
            6025            6013     59.4266E-03     60.4537E-03
            6006            6013     59.4266E-03     60.4537E-03
            6007            6013     59.4266E-03     60.4537E-03
            6025            6014     61.0808E-03     61.8123E-03
            6008            6014     61.0808E-03     61.8123E-03
            6026            6014     61.0808E-03     61.8123E-03
            6007            6014     61.0808E-03     61.8123E-03
            6009            6015     19.7237E-03     21.5833E-03
            6027            6015     19.7237E-03     21.5833E-03
            6028            6015     19.7237E-03     21.5833E-03
            6010            6015     19.7237E-03     21.5833E-03
            6010            6016     22.6723E-03     23.8221E-03
            6029            6016     22.6723E-03     23.8221E-03
            6028            6016     22.6723E-03     23.8221E-03
            6011            6016     22.6723E-03     23.8221E-03
            6029            6017     25.4551E-03     25.8459E-03
            6030            6017     25.4551E-03     25.8459E-03
            6012            6017     25.4551E-03     25.8459E-03
            6011            6017     25.4551E-03     25.8459E-03
            6012            6018     28.1478E-03     28.3024E-03
            6030            6018     28.1478E-03     28.3024E-03
            6031            6018     28.1478E-03     28.3024E-03
            6013            6018     28.1478E-03     28.3024E-03
            6032            6019     30.8381E-03     30.9203E-03
            6031            6019     30.8381E-03     30.9203E-03
            6014            6019     30.8381E-03     30.9203E-03
            6013            6019     30.8381E-03     30.9203E-03
            6014            6020     33.5440E-03     33.6041E-03
            6032            6020     33.5440E-03     33.6041E-03
            6033            6020     33.5440E-03     33.6041E-03
            6015            6020     33.5440E-03     33.6041E-03
            6015            6021     36.2684E-03     36.3217E-03
            6033            6021     36.2684E-03     36.3217E-03
            6034            6021     36.2684E-03     36.3217E-03
            6016            6021     36.2684E-03     36.3217E-03
            6017            6022     38.9961E-03     39.0449E-03
            6016            6022     38.9961E-03     39.0449E-03
            6035            6022     38.9961E-03     39.0449E-03
            6034            6022     38.9961E-03     39.0449E-03
            6035            6023     41.7254E-03     41.7599E-03
            6036            6023     41.7254E-03     41.7599E-03
            6017            6023     41.7254E-03     41.7599E-03
            6018            6023     41.7254E-03     41.7599E-03
            6019            6024     44.4234E-03     44.4473E-03
            6018            6024     44.4234E-03     44.4473E-03
            6037            6024     44.4234E-03     44.4473E-03
            6036            6024     44.4234E-03     44.4473E-03
            6020            6025     47.0741E-03     47.0788E-03
            6019            6025     47.0741E-03     47.0788E-03
            6037            6025     47.0741E-03     47.0788E-03
            6038            6025     47.0741E-03     47.0788E-03
            6021            6026     49.6166E-03     49.6209E-03
            6020            6026     49.6166E-03     49.6209E-03
            6039            6026     49.6166E-03     49.6209E-03
            6038            6026     49.6166E-03     49.6209E-03
            6040            6027     51.9919E-03     52.0125E-03
            6021            6027     51.9919E-03     52.0125E-03
            6022            6027     51.9919E-03     52.0125E-03
            6039            6027     51.9919E-03     52.0125E-03
            6041            6028     54.0914E-03     54.1814E-03
            6040            6028     54.0914E-03     54.1814E-03
            6023            6028     54.0914E-03     54.1814E-03
            6022            6028     54.0914E-03     54.1814E-03
            6041            6029     55.7715E-03     56.0112E-03
            6024            6029     55.7715E-03     56.0112E-03
            6023            6029     55.7715E-03     56.0112E-03
            6042            6029     55.7715E-03     56.0112E-03
            6043            6030     56.8928E-03     57.2769E-03
            6042            6030     56.8928E-03     57.2769E-03
            6024            6030     56.8928E-03     57.2769E-03
            6025            6030     56.8928E-03     57.2769E-03
            6026            6031     57.8436E-03     58.0781E-03
            6025            6031     57.8436E-03     58.0781E-03
            6044            6031     57.8436E-03     58.0781E-03
            6043            6031     57.8436E-03     58.0781E-03
            6046            6032     21.8380E-03     22.8695E-03
            6045            6032     21.8380E-03     22.8695E-03
            6028            6032     21.8380E-03     22.8695E-03
            6027            6032     21.8380E-03     22.8695E-03
            6047            6033     24.0989E-03     24.0050E-03
            6028            6033     24.0989E-03     24.0050E-03
            6029            6033     24.0989E-03     24.0050E-03
            6046            6033     24.0989E-03     24.0050E-03
            6047            6034     26.1198E-03     25.8045E-03
            6048            6034     26.1198E-03     25.8045E-03
            6030            6034     26.1198E-03     25.8045E-03
            6029            6034     26.1198E-03     25.8045E-03
            6048            6035     28.4106E-03     28.1218E-03
            6049            6035     28.4106E-03     28.1218E-03
            6031            6035     28.4106E-03     28.1218E-03
            6030            6035     28.4106E-03     28.1218E-03
            6050            6036     30.7895E-03     30.5497E-03
            6049            6036     30.7895E-03     30.5497E-03
            6032            6036     30.7895E-03     30.5497E-03
            6031            6036     30.7895E-03     30.5497E-03
            6033            6037     33.2749E-03     33.0621E-03
            6051            6037     33.2749E-03     33.0621E-03
            6050            6037     33.2749E-03     33.0621E-03
            6032            6037     33.2749E-03     33.0621E-03
            6051            6038     35.7881E-03     35.5823E-03
            6033            6038     35.7881E-03     35.5823E-03
            6034            6038     35.7881E-03     35.5823E-03
            6052            6038     35.7881E-03     35.5823E-03
            6053            6039     38.3209E-03     38.0913E-03
            6052            6039     38.3209E-03     38.0913E-03
            6034            6039     38.3209E-03     38.0913E-03
            6035            6039     38.3209E-03     38.0913E-03
            6053            6040     40.8294E-03     40.5581E-03
            6036            6040     40.8294E-03     40.5581E-03
            6054            6040     40.8294E-03     40.5581E-03
            6035            6040     40.8294E-03     40.5581E-03
            6054            6041     43.3003E-03     42.9565E-03
            6036            6041     43.3003E-03     42.9565E-03
            6055            6041     43.3003E-03     42.9565E-03
            6037            6041     43.3003E-03     42.9565E-03
            6055            6042     45.6904E-03     45.2536E-03
            6056            6042     45.6904E-03     45.2536E-03
            6037            6042     45.6904E-03     45.2536E-03
            6038            6042     45.6904E-03     45.2536E-03
            6039            6043     47.9679E-03     47.4097E-03
            6057            6043     47.9679E-03     47.4097E-03
            6056            6043     47.9679E-03     47.4097E-03
            6038            6043     47.9679E-03     47.4097E-03
            6057            6044     50.0719E-03     49.3698E-03
            6058            6044     50.0719E-03     49.3698E-03
            6039            6044     50.0719E-03     49.3698E-03
            6040            6044     50.0719E-03     49.3698E-03
            6059            6045     51.9308E-03     51.0830E-03
            6040            6045     51.9308E-03     51.0830E-03
            6058            6045     51.9308E-03     51.0830E-03
            6041            6045     51.9308E-03     51.0830E-03
            6059            6046     53.4198E-03     52.4412E-03
            6042            6046     53.4198E-03     52.4412E-03
            6060            6046     53.4198E-03     52.4412E-03
            6041            6046     53.4198E-03     52.4412E-03
            6060            6047     54.3420E-03     53.3420E-03
            6061            6047     54.3420E-03     53.3420E-03
            6043            6047     54.3420E-03     53.3420E-03
            6042            6047     54.3420E-03     53.3420E-03
            6061            6048     54.4759E-03     53.2978E-03
            6062            6048     54.4759E-03     53.2978E-03
            6044            6048     54.4759E-03     53.2978E-03
            6043            6048     54.4759E-03     53.2978E-03
            6063            6049     19.8724E-03     20.2377E-03
            6045            6049     19.8724E-03     20.2377E-03
            6046            6049     19.8724E-03     20.2377E-03
            6064            6049     19.8724E-03     20.2377E-03
            6065            6050     19.8876E-03     20.2416E-03
            6046            6050     19.8876E-03     20.2416E-03
            6064            6050     19.8876E-03     20.2416E-03
            6047            6050     19.8876E-03     20.2416E-03
            6065            6051     21.0101E-03     21.5038E-03
            6066            6051     21.0101E-03     21.5038E-03
            6047            6051     21.0101E-03     21.5038E-03
            6048            6051     21.0101E-03     21.5038E-03
            6049            6052     22.5641E-03     23.1971E-03
            6067            6052     22.5641E-03     23.1971E-03
            6066            6052     22.5641E-03     23.1971E-03
            6048            6052     22.5641E-03     23.1971E-03
            6068            6053     24.3523E-03     25.0629E-03
            6067            6053     24.3523E-03     25.0629E-03
            6049            6053     24.3523E-03     25.0629E-03
            6050            6053     24.3523E-03     25.0629E-03
            6068            6054     26.2797E-03     27.0312E-03
            6051            6054     26.2797E-03     27.0312E-03
            6050            6054     26.2797E-03     27.0312E-03
            6069            6054     26.2797E-03     27.0312E-03
            6051            6055     28.2849E-03     29.0379E-03
            6069            6055     28.2849E-03     29.0379E-03
            6070            6055     28.2849E-03     29.0379E-03
            6052            6055     28.2849E-03     29.0379E-03
            6070            6056     30.3324E-03     31.0626E-03
            6071            6056     30.3324E-03     31.0626E-03
            6052            6056     30.3324E-03     31.0626E-03
            6053            6056     30.3324E-03     31.0626E-03
            6071            6057     32.4070E-03     33.0778E-03
            6054            6057     32.4070E-03     33.0778E-03
            6072            6057     32.4070E-03     33.0778E-03
            6053            6057     32.4070E-03     33.0778E-03
            6055            6058     34.4872E-03     35.0838E-03
            6073            6058     34.4872E-03     35.0838E-03
            6054            6058     34.4872E-03     35.0838E-03
            6072            6058     34.4872E-03     35.0838E-03
            6056            6059     36.5894E-03     37.0626E-03
            6055            6059     36.5894E-03     37.0626E-03
            6073            6059     36.5894E-03     37.0626E-03
            6074            6059     36.5894E-03     37.0626E-03
            6074            6060     38.6912E-03     39.0402E-03
            6056            6060     38.6912E-03     39.0402E-03
            6075            6060     38.6912E-03     39.0402E-03
            6057            6060     38.6912E-03     39.0402E-03
            6075            6061     40.8576E-03     41.0180E-03
            6076            6061     40.8576E-03     41.0180E-03
            6057            6061     40.8576E-03     41.0180E-03
            6058            6061     40.8576E-03     41.0180E-03
            6058            6062     43.0526E-03     43.0713E-03
            6077            6062     43.0526E-03     43.0713E-03
            6059            6062     43.0526E-03     43.0713E-03
            6076            6062     43.0526E-03     43.0713E-03
            6060            6063     45.4777E-03     45.3243E-03
            6077            6063     45.4777E-03     45.3243E-03
            6059            6063     45.4777E-03     45.3243E-03
            6078            6063     45.4777E-03     45.3243E-03
            6079            6064     48.0490E-03     47.9488E-03
            6061            6064     48.0490E-03     47.9488E-03
            6078            6064     48.0490E-03     47.9488E-03
            6060            6064     48.0490E-03     47.9488E-03
            6061            6065     51.9061E-03     52.7093E-03
            6079            6065     51.9061E-03     52.7093E-03
            6080            6065     51.9061E-03     52.7093E-03
            6062            6065     51.9061E-03     52.7093E-03
            6081            6066     15.7107E-03     17.0066E-03
            6082            6066     15.7107E-03     17.0066E-03
            6064            6066     15.7107E-03     17.0066E-03
            6063            6066     15.7107E-03     17.0066E-03
            6082            6067     15.1882E-03     16.6253E-03
            6064            6067     15.1882E-03     16.6253E-03
            6083            6067     15.1882E-03     16.6253E-03
            6065            6067     15.1882E-03     16.6253E-03
            6083            6068     15.6342E-03     17.2012E-03
            6065            6068     15.6342E-03     17.2012E-03
            6084            6068     15.6342E-03     17.2012E-03
            6066            6068     15.6342E-03     17.2012E-03
            6084            6069     16.7674E-03     18.4042E-03
            6066            6069     16.7674E-03     18.4042E-03
            6067            6069     16.7674E-03     18.4042E-03
            6085            6069     16.7674E-03     18.4042E-03
            6086            6070     18.1057E-03     19.7947E-03
            6067            6070     18.1057E-03     19.7947E-03
            6068            6070     18.1057E-03     19.7947E-03
            6085            6070     18.1057E-03     19.7947E-03
            6086            6071     19.6386E-03     21.3514E-03
            6087            6071     19.6386E-03     21.3514E-03
            6068            6071     19.6386E-03     21.3514E-03
            6069            6071     19.6386E-03     21.3514E-03
            6088            6072     21.2575E-03     22.9751E-03
            6069            6072     21.2575E-03     22.9751E-03
            6070            6072     21.2575E-03     22.9751E-03
            6087            6072     21.2575E-03     22.9751E-03
            6089            6073     22.9663E-03     24.6680E-03
            6088            6073     22.9663E-03     24.6680E-03
            6071            6073     22.9663E-03     24.6680E-03
            6070            6073     22.9663E-03     24.6680E-03
            6071            6074     24.7343E-03     26.4040E-03
            6072            6074     24.7343E-03     26.4040E-03
            6089            6074     24.7343E-03     26.4040E-03
            6090            6074     24.7343E-03     26.4040E-03
            6091            6075     26.5931E-03     28.2132E-03
            6072            6075     26.5931E-03     28.2132E-03
            6073            6075     26.5931E-03     28.2132E-03
            6090            6075     26.5931E-03     28.2132E-03
            6092            6076     28.5480E-03     30.1093E-03
            6073            6076     28.5480E-03     30.1093E-03
            6074            6076     28.5480E-03     30.1093E-03
            6091            6076     28.5480E-03     30.1093E-03
            6093            6077     30.6868E-03     32.1774E-03
            6075            6077     30.6868E-03     32.1774E-03
            6092            6077     30.6868E-03     32.1774E-03
            6074            6077     30.6868E-03     32.1774E-03
            6076            6078     33.0522E-03     34.4867E-03
            6075            6078     33.0522E-03     34.4867E-03
            6093            6078     33.0522E-03     34.4867E-03
            6094            6078     33.0522E-03     34.4867E-03
            6095            6079     35.8832E-03     37.2756E-03
            6077            6079     35.8832E-03     37.2756E-03
            6076            6079     35.8832E-03     37.2756E-03
            6094            6079     35.8832E-03     37.2756E-03
            6077            6080     39.3112E-03     40.7440E-03
            6096            6080     39.3112E-03     40.7440E-03
            6078            6080     39.3112E-03     40.7440E-03
            6095            6080     39.3112E-03     40.7440E-03
            6096            6081     44.2358E-03     45.8220E-03
            6097            6081     44.2358E-03     45.8220E-03
            6078            6081     44.2358E-03     45.8220E-03
            6079            6081     44.2358E-03     45.8220E-03
            6079            6082     52.2932E-03     53.5741E-03
            6097            6082     52.2932E-03     53.5741E-03
            6080            6082     52.2932E-03     53.5741E-03
            6098            6082     52.2932E-03     53.5741E-03
            6081            6083     14.4796E-03     15.6764E-03
            6082            6083     14.4796E-03     15.6764E-03
            6100            6083     14.4796E-03     15.6764E-03
            6099            6083     14.4796E-03     15.6764E-03
            6083            6084     15.3072E-03     16.5776E-03
            6100            6084     15.3072E-03     16.5776E-03
            6101            6084     15.3072E-03     16.5776E-03
            6082            6084     15.3072E-03     16.5776E-03
            6102            6085     15.9110E-03     17.2821E-03
            6083            6085     15.9110E-03     17.2821E-03
            6084            6085     15.9110E-03     17.2821E-03
            6101            6085     15.9110E-03     17.2821E-03
            6085            6086     17.0732E-03     18.5099E-03
            6102            6086     17.0732E-03     18.5099E-03
            6103            6086     17.0732E-03     18.5099E-03
            6084            6086     17.0732E-03     18.5099E-03
            6104            6087     18.4922E-03     19.9670E-03
            6086            6087     18.4922E-03     19.9670E-03
            6103            6087     18.4922E-03     19.9670E-03
            6085            6087     18.4922E-03     19.9670E-03
            6105            6088     20.0633E-03     21.5610E-03
            6087            6088     20.0633E-03     21.5610E-03
            6086            6088     20.0633E-03     21.5610E-03
            6104            6088     20.0633E-03     21.5610E-03
            6105            6089     21.7467E-03     23.2518E-03
            6087            6089     21.7467E-03     23.2518E-03
            6088            6089     21.7467E-03     23.2518E-03
            6106            6089     21.7467E-03     23.2518E-03
            6088            6090     23.4973E-03     25.0014E-03
            6089            6090     23.4973E-03     25.0014E-03
            6107            6090     23.4973E-03     25.0014E-03
            6106            6090     23.4973E-03     25.0014E-03
            6089            6091     25.3233E-03     26.8151E-03
            6108            6091     25.3233E-03     26.8151E-03
            6090            6091     25.3233E-03     26.8151E-03
            6107            6091     25.3233E-03     26.8151E-03
            6091            6092     27.2193E-03     28.6976E-03
            6108            6092     27.2193E-03     28.6976E-03
            6109            6092     27.2193E-03     28.6976E-03
            6090            6092     27.2193E-03     28.6976E-03
            6092            6093     29.2379E-03     30.6911E-03
            6091            6093     29.2379E-03     30.6911E-03
            6110            6093     29.2379E-03     30.6911E-03
            6109            6093     29.2379E-03     30.6911E-03
            6110            6094     31.4170E-03     32.8547E-03
            6093            6094     31.4170E-03     32.8547E-03
            6111            6094     31.4170E-03     32.8547E-03
            6092            6094     31.4170E-03     32.8547E-03
            6111            6095     33.8943E-03     35.2990E-03
            6094            6095     33.8943E-03     35.2990E-03
            6093            6095     33.8943E-03     35.2990E-03
            6112            6095     33.8943E-03     35.2990E-03
            6094            6096     36.8214E-03     38.2079E-03
            6112            6096     36.8214E-03     38.2079E-03
            6113            6096     36.8214E-03     38.2079E-03
            6095            6096     36.8214E-03     38.2079E-03
            6113            6097     40.5039E-03     41.8343E-03
            6096            6097     40.5039E-03     41.8343E-03
            6095            6097     40.5039E-03     41.8343E-03
            6114            6097     40.5039E-03     41.8343E-03
            6096            6098     45.9407E-03     46.8578E-03
            6115            6098     45.9407E-03     46.8578E-03
            6097            6098     45.9407E-03     46.8578E-03
            6114            6098     45.9407E-03     46.8578E-03
            6115            6099     52.1021E-03     52.3869E-03
            6098            6099     52.1021E-03     52.3869E-03
            6116            6099     52.1021E-03     52.3869E-03
            6097            6099     52.1021E-03     52.3869E-03
            6099            6100     13.4635E-03     14.5802E-03
            6117            6100     13.4635E-03     14.5802E-03
            6118            6100     13.4635E-03     14.5802E-03
            6100            6100     13.4635E-03     14.5802E-03
            6119            6101     14.8887E-03     16.0616E-03
            6118            6101     14.8887E-03     16.0616E-03
            6100            6101     14.8887E-03     16.0616E-03
            6101            6101     14.8887E-03     16.0616E-03
            6102            6102     16.1022E-03     17.3183E-03
            6119            6102     16.1022E-03     17.3183E-03
            6120            6102     16.1022E-03     17.3183E-03
            6101            6102     16.1022E-03     17.3183E-03
            6102            6103     17.3659E-03     18.6306E-03
            6120            6103     17.3659E-03     18.6306E-03
            6121            6103     17.3659E-03     18.6306E-03
            6103            6103     17.3659E-03     18.6306E-03
            6103            6104     18.8897E-03     20.1779E-03
            6122            6104     18.8897E-03     20.1779E-03
            6121            6104     18.8897E-03     20.1779E-03
            6104            6104     18.8897E-03     20.1779E-03
            6123            6105     20.5289E-03     21.8336E-03
            6104            6105     20.5289E-03     21.8336E-03
            6105            6105     20.5289E-03     21.8336E-03
            6122            6105     20.5289E-03     21.8336E-03
            6106            6106     22.2661E-03     23.5807E-03
            6123            6106     22.2661E-03     23.5807E-03
            6105            6106     22.2661E-03     23.5807E-03
            6124            6106     22.2661E-03     23.5807E-03
            6106            6107     24.0732E-03     25.3943E-03
            6124            6107     24.0732E-03     25.3943E-03
            6107            6107     24.0732E-03     25.3943E-03
            6125            6107     24.0732E-03     25.3943E-03
            6108            6108     25.9416E-03     27.2716E-03
            6125            6108     25.9416E-03     27.2716E-03
            6107            6108     25.9416E-03     27.2716E-03
            6126            6108     25.9416E-03     27.2716E-03
            6108            6109     27.8896E-03     29.2245E-03
            6126            6109     27.8896E-03     29.2245E-03
            6109            6109     27.8896E-03     29.2245E-03
            6127            6109     27.8896E-03     29.2245E-03
            6109            6110     29.9434E-03     31.2886E-03
            6127            6110     29.9434E-03     31.2886E-03
            6110            6110     29.9434E-03     31.2886E-03
            6128            6110     29.9434E-03     31.2886E-03
            6110            6111     32.1688E-03     33.5122E-03
            6128            6111     32.1688E-03     33.5122E-03
            6111            6111     32.1688E-03     33.5122E-03
            6129            6111     32.1688E-03     33.5122E-03
            6111            6112     34.6788E-03     36.0072E-03
            6112            6112     34.6788E-03     36.0072E-03
            6129            6112     34.6788E-03     36.0072E-03
            6130            6112     34.6788E-03     36.0072E-03
            6130            6113     37.5855E-03     38.8742E-03
            6131            6113     37.5855E-03     38.8742E-03
            6112            6113     37.5855E-03     38.8742E-03
            6113            6113     37.5855E-03     38.8742E-03
            6113            6114     41.3381E-03     42.4015E-03
            6132            6114     41.3381E-03     42.4015E-03
            6131            6114     41.3381E-03     42.4015E-03
            6114            6114     41.3381E-03     42.4015E-03
            6114            6115     45.7042E-03     46.5543E-03
            6133            6115     45.7042E-03     46.5543E-03
            6115            6115     45.7042E-03     46.5543E-03
            6132            6115     45.7042E-03     46.5543E-03
            6134            6116     49.9537E-03     50.9361E-03
            6133            6116     49.9537E-03     50.9361E-03
            6115            6116     49.9537E-03     50.9361E-03
            6116            6116     49.9537E-03     50.9361E-03
            6118            6117     12.9855E-03     13.9750E-03
            6117            6117     12.9855E-03     13.9750E-03
            6136            6117     12.9855E-03     13.9750E-03
            6135            6117     12.9855E-03     13.9750E-03
            6136            6118     14.5178E-03     15.5846E-03
            6118            6118     14.5178E-03     15.5846E-03
            6119            6118     14.5178E-03     15.5846E-03
            6137            6118     14.5178E-03     15.5846E-03
            6120            6119     16.0663E-03     17.1691E-03
            6119            6119     16.0663E-03     17.1691E-03
            6138            6119     16.0663E-03     17.1691E-03
            6137            6119     16.0663E-03     17.1691E-03
            6139            6120     17.6242E-03     18.7355E-03
            6138            6120     17.6242E-03     18.7355E-03
            6120            6120     17.6242E-03     18.7355E-03
            6121            6120     17.6242E-03     18.7355E-03
            6140            6121     19.2426E-03     20.3669E-03
            6121            6121     19.2426E-03     20.3669E-03
            6122            6121     19.2426E-03     20.3669E-03
            6139            6121     19.2426E-03     20.3669E-03
            6122            6122     20.9795E-03     22.1049E-03
            6141            6122     20.9795E-03     22.1049E-03
            6140            6122     20.9795E-03     22.1049E-03
            6123            6122     20.9795E-03     22.1049E-03
            6141            6123     22.7742E-03     23.9065E-03
            6123            6123     22.7742E-03     23.9065E-03
            6142            6123     22.7742E-03     23.9065E-03
            6124            6123     22.7742E-03     23.9065E-03
            6125            6124     24.6312E-03     25.7755E-03
            6142            6124     24.6312E-03     25.7755E-03
            6124            6124     24.6312E-03     25.7755E-03
            6143            6124     24.6312E-03     25.7755E-03
            6144            6125     26.5403E-03     27.7017E-03
            6126            6125     26.5403E-03     27.7017E-03
            6143            6125     26.5403E-03     27.7017E-03
            6125            6125     26.5403E-03     27.7017E-03
            6145            6126     28.5172E-03     29.7036E-03
            6127            6126     28.5172E-03     29.7036E-03
            6126            6126     28.5172E-03     29.7036E-03
            6144            6126     28.5172E-03     29.7036E-03
            6127            6127     30.5816E-03     31.7936E-03
            6145            6127     30.5816E-03     31.7936E-03
            6128            6127     30.5816E-03     31.7936E-03
            6146            6127     30.5816E-03     31.7936E-03
            6128            6128     32.7997E-03     34.0252E-03
            6146            6128     32.7997E-03     34.0252E-03
            6129            6128     32.7997E-03     34.0252E-03
            6147            6128     32.7997E-03     34.0252E-03
            6148            6129     35.2067E-03     36.4364E-03
            6130            6129     35.2067E-03     36.4364E-03
            6129            6129     35.2067E-03     36.4364E-03
            6147            6129     35.2067E-03     36.4364E-03
            6148            6130     38.0038E-03     39.1370E-03
            6130            6130     38.0038E-03     39.1370E-03
            6131            6130     38.0038E-03     39.1370E-03
            6149            6130     38.0038E-03     39.1370E-03
            6149            6131     41.1396E-03     42.1699E-03
            6150            6131     41.1396E-03     42.1699E-03
            6131            6131     41.1396E-03     42.1699E-03
            6132            6131     41.1396E-03     42.1699E-03
            6133            6132     44.4721E-03     45.4259E-03
            6132            6132     44.4721E-03     45.4259E-03
            6150            6132     44.4721E-03     45.4259E-03
            6151            6132     44.4721E-03     45.4259E-03
            6151            6133     48.0135E-03     48.6404E-03
            6152            6133     48.0135E-03     48.6404E-03
            6134            6133     48.0135E-03     48.6404E-03
            6133            6133     48.0135E-03     48.6404E-03
            6136            6134     12.6955E-03     13.5855E-03
            6153            6134     12.6955E-03     13.5855E-03
            6135            6134     12.6955E-03     13.5855E-03
            6154            6134     12.6955E-03     13.5855E-03
            6136            6135     14.3090E-03     15.2757E-03
            6154            6135     14.3090E-03     15.2757E-03
            6137            6135     14.3090E-03     15.2757E-03
            6155            6135     14.3090E-03     15.2757E-03
            6138            6136     16.0149E-03     16.9999E-03
            6156            6136     16.0149E-03     16.9999E-03
            6155            6136     16.0149E-03     16.9999E-03
            6137            6136     16.0149E-03     16.9999E-03
            6139            6137     17.7645E-03     18.7504E-03
            6157            6137     17.7645E-03     18.7504E-03
            6138            6137     17.7645E-03     18.7504E-03
            6156            6137     17.7645E-03     18.7504E-03
            6140            6138     19.5463E-03     20.5081E-03
            6158            6138     19.5463E-03     20.5081E-03
            6157            6138     19.5463E-03     20.5081E-03
            6139            6138     19.5463E-03     20.5081E-03
            6140            6139     21.3575E-03     22.3091E-03
            6158            6139     21.3575E-03     22.3091E-03
            6159            6139     21.3575E-03     22.3091E-03
            6141            6139     21.3575E-03     22.3091E-03
            6159            6140     23.2200E-03     24.1672E-03
            6160            6140     23.2200E-03     24.1672E-03
            6141            6140     23.2200E-03     24.1672E-03
            6142            6140     23.2200E-03     24.1672E-03
            6160            6141     25.1123E-03     26.0696E-03
            6142            6141     25.1123E-03     26.0696E-03
            6161            6141     25.1123E-03     26.0696E-03
            6143            6141     25.1123E-03     26.0696E-03
            6143            6142     27.0490E-03     28.0299E-03
            6144            6142     27.0490E-03     28.0299E-03
            6162            6142     27.0490E-03     28.0299E-03
            6161            6142     27.0490E-03     28.0299E-03
            6145            6143     29.0245E-03     30.0412E-03
            6144            6143     29.0245E-03     30.0412E-03
            6162            6143     29.0245E-03     30.0412E-03
            6163            6143     29.0245E-03     30.0412E-03
            6145            6144     31.0711E-03     32.1242E-03
            6146            6144     31.0711E-03     32.1242E-03
            6163            6144     31.0711E-03     32.1242E-03
            6164            6144     31.0711E-03     32.1242E-03
            6165            6145     33.1849E-03     34.2812E-03
            6164            6145     33.1849E-03     34.2812E-03
            6147            6145     33.1849E-03     34.2812E-03
            6146            6145     33.1849E-03     34.2812E-03
            6147            6146     35.4509E-03     36.5408E-03
            6165            6146     35.4509E-03     36.5408E-03
            6148            6146     35.4509E-03     36.5408E-03
            6166            6146     35.4509E-03     36.5408E-03
            6148            6147     37.8446E-03     38.9141E-03
            6167            6147     37.8446E-03     38.9141E-03
            6149            6147     37.8446E-03     38.9141E-03
            6166            6147     37.8446E-03     38.9141E-03
            6149            6148     40.3787E-03     41.3679E-03
            6167            6148     40.3787E-03     41.3679E-03
            6150            6148     40.3787E-03     41.3679E-03
            6168            6148     40.3787E-03     41.3679E-03
            6151            6149     43.0789E-03     43.8554E-03
            6150            6149     43.0789E-03     43.8554E-03
            6168            6149     43.0789E-03     43.8554E-03
            6169            6149     43.0789E-03     43.8554E-03
            6169            6150     45.8172E-03     46.4824E-03
            6170            6150     45.8172E-03     46.4824E-03
            6151            6150     45.8172E-03     46.4824E-03
            6152            6150     45.8172E-03     46.4824E-03
            6171            6151     12.5448E-03     13.3467E-03
            6153            6151     12.5448E-03     13.3467E-03
            6154            6151     12.5448E-03     13.3467E-03
            6172            6151     12.5448E-03     13.3467E-03
            6154            6152     14.1733E-03     15.0431E-03
            6172            6152     14.1733E-03     15.0431E-03
            6155            6152     14.1733E-03     15.0431E-03
            6173            6152     14.1733E-03     15.0431E-03
            6174            6153     15.9844E-03     16.8776E-03
            6155            6153     15.9844E-03     16.8776E-03
            6156            6153     15.9844E-03     16.8776E-03
            6173            6153     15.9844E-03     16.8776E-03
            6175            6154     17.8626E-03     18.7074E-03
            6174            6154     17.8626E-03     18.7074E-03
            6157            6154     17.8626E-03     18.7074E-03
            6156            6154     17.8626E-03     18.7074E-03
            6158            6155     19.7527E-03     20.5564E-03
            6175            6155     19.7527E-03     20.5564E-03
            6157            6155     19.7527E-03     20.5564E-03
            6176            6155     19.7527E-03     20.5564E-03
            6159            6156     21.6477E-03     22.4113E-03
            6158            6156     21.6477E-03     22.4113E-03
            6177            6156     21.6477E-03     22.4113E-03
            6176            6156     21.6477E-03     22.4113E-03
            6159            6157     23.5469E-03     24.2938E-03
            6160            6157     23.5469E-03     24.2938E-03
            6177            6157     23.5469E-03     24.2938E-03
            6178            6157     23.5469E-03     24.2938E-03
            6178            6158     25.4668E-03     26.2191E-03
            6161            6158     25.4668E-03     26.2191E-03
            6179            6158     25.4668E-03     26.2191E-03
            6160            6158     25.4668E-03     26.2191E-03
            6161            6159     27.3978E-03     28.1760E-03
            6179            6159     27.3978E-03     28.1760E-03
            6180            6159     27.3978E-03     28.1760E-03
            6162            6159     27.3978E-03     28.1760E-03
            6162            6160     29.3575E-03     30.1739E-03
            6180            6160     29.3575E-03     30.1739E-03
            6181            6160     29.3575E-03     30.1739E-03
            6163            6160     29.3575E-03     30.1739E-03
            6163            6161     31.3252E-03     32.1992E-03
            6182            6161     31.3252E-03     32.1992E-03
            6181            6161     31.3252E-03     32.1992E-03
            6164            6161     31.3252E-03     32.1992E-03
            6164            6162     33.3258E-03     34.2460E-03
            6182            6162     33.3258E-03     34.2460E-03
            6183            6162     33.3258E-03     34.2460E-03
            6165            6162     33.3258E-03     34.2460E-03
            6166            6163     35.3202E-03     36.2930E-03
            6183            6163     35.3202E-03     36.2930E-03
            6184            6163     35.3202E-03     36.2930E-03
            6165            6163     35.3202E-03     36.2930E-03
            6185            6164     37.3233E-03     38.2984E-03
            6166            6164     37.3233E-03     38.2984E-03
            6184            6164     37.3233E-03     38.2984E-03
            6167            6164     37.3233E-03     38.2984E-03
            6185            6165     39.3478E-03     40.2357E-03
            6186            6165     39.3478E-03     40.2357E-03
            6167            6165     39.3478E-03     40.2357E-03
            6168            6165     39.3478E-03     40.2357E-03
            6169            6166     41.3994E-03     42.1669E-03
            6187            6166     41.3994E-03     42.1669E-03
            6168            6166     41.3994E-03     42.1669E-03
            6186            6166     41.3994E-03     42.1669E-03
            6169            6167     43.6876E-03     44.1894E-03
            6188            6167     43.6876E-03     44.1894E-03
            6187            6167     43.6876E-03     44.1894E-03
            6170            6167     43.6876E-03     44.1894E-03
            6189            6168     12.5236E-03     13.2334E-03
            6172            6168     12.5236E-03     13.2334E-03
            6171            6168     12.5236E-03     13.2334E-03
            6190            6168     12.5236E-03     13.2334E-03
            6173            6169     14.1025E-03     14.9300E-03
            6190            6169     14.1025E-03     14.9300E-03
            6191            6169     14.1025E-03     14.9300E-03
            6172            6169     14.1025E-03     14.9300E-03
            6174            6170     15.9809E-03     16.7548E-03
            6173            6170     15.9809E-03     16.7548E-03
            6191            6170     15.9809E-03     16.7548E-03
            6192            6170     15.9809E-03     16.7548E-03
            6193            6171     17.9338E-03     18.6442E-03
            6174            6171     17.9338E-03     18.6442E-03
            6192            6171     17.9338E-03     18.6442E-03
            6175            6171     17.9338E-03     18.6442E-03
            6194            6172     19.8851E-03     20.5011E-03
            6176            6172     19.8851E-03     20.5011E-03
            6193            6172     19.8851E-03     20.5011E-03
            6175            6172     19.8851E-03     20.5011E-03
            6194            6173     21.8159E-03     22.3661E-03
            6177            6173     21.8159E-03     22.3661E-03
            6195            6173     21.8159E-03     22.3661E-03
            6176            6173     21.8159E-03     22.3661E-03
            6178            6174     23.7320E-03     24.2553E-03
            6195            6174     23.7320E-03     24.2553E-03
            6196            6174     23.7320E-03     24.2553E-03
            6177            6174     23.7320E-03     24.2553E-03
            6196            6175     25.6385E-03     26.1624E-03
            6179            6175     25.6385E-03     26.1624E-03
            6178            6175     25.6385E-03     26.1624E-03
            6197            6175     25.6385E-03     26.1624E-03
            6179            6176     27.5507E-03     28.0955E-03
            6180            6176     27.5507E-03     28.0955E-03
            6198            6176     27.5507E-03     28.0955E-03
            6197            6176     27.5507E-03     28.0955E-03
            6180            6177     29.4493E-03     30.0389E-03
            6181            6177     29.4493E-03     30.0389E-03
            6198            6177     29.4493E-03     30.0389E-03
            6199            6177     29.4493E-03     30.0389E-03
            6181            6178     31.3376E-03     31.9812E-03
            6200            6178     31.3376E-03     31.9812E-03
            6199            6178     31.3376E-03     31.9812E-03
            6182            6178     31.3376E-03     31.9812E-03
            6183            6179     33.1695E-03     33.8914E-03
            6200            6179     33.1695E-03     33.8914E-03
            6201            6179     33.1695E-03     33.8914E-03
            6182            6179     33.1695E-03     33.8914E-03
            6202            6180     34.9188E-03     35.7142E-03
            6183            6180     34.9188E-03     35.7142E-03
            6201            6180     34.9188E-03     35.7142E-03
            6184            6180     34.9188E-03     35.7142E-03
            6185            6181     36.5446E-03     37.3932E-03
            6203            6181     36.5446E-03     37.3932E-03
            6202            6181     36.5446E-03     37.3932E-03
            6184            6181     36.5446E-03     37.3932E-03
            6203            6182     38.0622E-03     38.9003E-03
            6204            6182     38.0622E-03     38.9003E-03
            6186            6182     38.0622E-03     38.9003E-03
            6185            6182     38.0622E-03     38.9003E-03
            6186            6183     39.6224E-03     40.2888E-03
            6205            6183     39.6224E-03     40.2888E-03
            6204            6183     39.6224E-03     40.2888E-03
            6187            6183     39.6224E-03     40.2888E-03
            6187            6184     41.3832E-03     41.8344E-03
            6206            6184     41.3832E-03     41.8344E-03
            6205            6184     41.3832E-03     41.8344E-03
            6188            6184     41.3832E-03     41.8344E-03
            6190            6185     12.5602E-03     13.3020E-03
            6208            6185     12.5602E-03     13.3020E-03
            6189            6185     12.5602E-03     13.3020E-03
            6207            6185     12.5602E-03     13.3020E-03
            6209            6186     14.1434E-03     14.8718E-03
            6191            6186     14.1434E-03     14.8718E-03
            6190            6186     14.1434E-03     14.8718E-03
            6208            6186     14.1434E-03     14.8718E-03
            6192            6187     16.0249E-03     16.7234E-03
            6191            6187     16.0249E-03     16.7234E-03
            6209            6187     16.0249E-03     16.7234E-03
            6210            6187     16.0249E-03     16.7234E-03
            6193            6188     17.9989E-03     18.5259E-03
            6192            6188     17.9989E-03     18.5259E-03
            6210            6188     17.9989E-03     18.5259E-03
            6211            6188     17.9989E-03     18.5259E-03
            6212            6189     19.9541E-03     20.3327E-03
            6211            6189     19.9541E-03     20.3327E-03
            6193            6189     19.9541E-03     20.3327E-03
            6194            6189     19.9541E-03     20.3327E-03
            6194            6190     21.8636E-03     22.1711E-03
            6195            6190     21.8636E-03     22.1711E-03
            6212            6190     21.8636E-03     22.1711E-03
            6213            6190     21.8636E-03     22.1711E-03
            6196            6191     23.7441E-03     24.0190E-03
            6213            6191     23.7441E-03     24.0190E-03
            6214            6191     23.7441E-03     24.0190E-03
            6195            6191     23.7441E-03     24.0190E-03
            6197            6192     25.6124E-03     25.8826E-03
            6214            6192     25.6124E-03     25.8826E-03
            6196            6192     25.6124E-03     25.8826E-03
            6215            6192     25.6124E-03     25.8826E-03
            6215            6193     27.4604E-03     27.7495E-03
            6216            6193     27.4604E-03     27.7495E-03
            6197            6193     27.4604E-03     27.7495E-03
            6198            6193     27.4604E-03     27.7495E-03
            6217            6194     29.2900E-03     29.6108E-03
            6199            6194     29.2900E-03     29.6108E-03
            6198            6194     29.2900E-03     29.6108E-03
            6216            6194     29.2900E-03     29.6108E-03
            6200            6195     31.0639E-03     31.4414E-03
            6217            6195     31.0639E-03     31.4414E-03
            6218            6195     31.0639E-03     31.4414E-03
            6199            6195     31.0639E-03     31.4414E-03
            6201            6196     32.7487E-03     33.1991E-03
            6218            6196     32.7487E-03     33.1991E-03
            6200            6196     32.7487E-03     33.1991E-03
            6219            6196     32.7487E-03     33.1991E-03
            6202            6197     34.2783E-03     34.8263E-03
            6220            6197     34.2783E-03     34.8263E-03
            6201            6197     34.2783E-03     34.8263E-03
            6219            6197     34.2783E-03     34.8263E-03
            6221            6198     35.5701E-03     36.2303E-03
            6220            6198     35.5701E-03     36.2303E-03
            6203            6198     35.5701E-03     36.2303E-03
            6202            6198     35.5701E-03     36.2303E-03
            6222            6199     36.6352E-03     37.3510E-03
            6221            6199     36.6352E-03     37.3510E-03
            6203            6199     36.6352E-03     37.3510E-03
            6204            6199     36.6352E-03     37.3510E-03
            6222            6200     37.6510E-03     38.2885E-03
            6204            6200     37.6510E-03     38.2885E-03
            6205            6200     37.6510E-03     38.2885E-03
            6223            6200     37.6510E-03     38.2885E-03
            6224            6201     39.0003E-03     39.3311E-03
            6206            6201     39.0003E-03     39.3311E-03
            6223            6201     39.0003E-03     39.3311E-03
            6205            6201     39.0003E-03     39.3311E-03
            6207            6202     12.8152E-03     13.4374E-03
            6208            6202     12.8152E-03     13.4374E-03
            6226            6202     12.8152E-03     13.4374E-03
            6225            6202     12.8152E-03     13.4374E-03
            6226            6203     14.2963E-03     15.1074E-03
            6208            6203     14.2963E-03     15.1074E-03
            6227            6203     14.2963E-03     15.1074E-03
            6209            6203     14.2963E-03     15.1074E-03
            6209            6204     16.1752E-03     16.7146E-03
            6227            6204     16.1752E-03     16.7146E-03
            6228            6204     16.1752E-03     16.7146E-03
            6210            6204     16.1752E-03     16.7146E-03
            6228            6205     18.1024E-03     18.3373E-03
            6210            6205     18.1024E-03     18.3373E-03
            6211            6205     18.1024E-03     18.3373E-03
            6229            6205     18.1024E-03     18.3373E-03
            6211            6206     19.9670E-03     20.0696E-03
            6212            6206     19.9670E-03     20.0696E-03
            6230            6206     19.9670E-03     20.0696E-03
            6229            6206     19.9670E-03     20.0696E-03
            6212            6207     21.7896E-03     21.8281E-03
            6231            6207     21.7896E-03     21.8281E-03
            6213            6207     21.7896E-03     21.8281E-03
            6230            6207     21.7896E-03     21.8281E-03
            6213            6208     23.5907E-03     23.6018E-03
            6231            6208     23.5907E-03     23.6018E-03
            6214            6208     23.5907E-03     23.6018E-03
            6232            6208     23.5907E-03     23.6018E-03
            6215            6209     25.3703E-03     25.3774E-03
            6232            6209     25.3703E-03     25.3774E-03
            6233            6209     25.3703E-03     25.3774E-03
            6214            6209     25.3703E-03     25.3774E-03
            6234            6210     27.1325E-03     27.1432E-03
            6233            6210     27.1325E-03     27.1432E-03
            6215            6210     27.1325E-03     27.1432E-03
            6216            6210     27.1325E-03     27.1432E-03
            6216            6211     28.8542E-03     28.8837E-03
            6235            6211     28.8542E-03     28.8837E-03
            6217            6211     28.8542E-03     28.8837E-03
            6234            6211     28.8542E-03     28.8837E-03
            6218            6212     30.5122E-03     30.5710E-03
            6217            6212     30.5122E-03     30.5710E-03
            6235            6212     30.5122E-03     30.5710E-03
            6236            6212     30.5122E-03     30.5710E-03
            6219            6213     32.0539E-03     32.1647E-03
            6236            6213     32.0539E-03     32.1647E-03
            6218            6213     32.0539E-03     32.1647E-03
            6237            6213     32.0539E-03     32.1647E-03
            6219            6214     33.4018E-03     33.5983E-03
            6237            6214     33.4018E-03     33.5983E-03
            6220            6214     33.4018E-03     33.5983E-03
            6238            6214     33.4018E-03     33.5983E-03
            6238            6215     34.4730E-03     34.7871E-03
            6220            6215     34.4730E-03     34.7871E-03
            6221            6215     34.4730E-03     34.7871E-03
            6239            6215     34.4730E-03     34.7871E-03
            6221            6216     35.1274E-03     35.5997E-03
            6239            6216     35.1274E-03     35.5997E-03
            6240            6216     35.1274E-03     35.5997E-03
            6222            6216     35.1274E-03     35.5997E-03
            6241            6217     35.5450E-03     36.0680E-03
            6222            6217     35.5450E-03     36.0680E-03
            6240            6217     35.5450E-03     36.0680E-03
            6223            6217     35.5450E-03     36.0680E-03
            6242            6218     36.4394E-03     36.7050E-03
            6223            6218     36.4394E-03     36.7050E-03
            6224            6218     36.4394E-03     36.7050E-03
            6241            6218     36.4394E-03     36.7050E-03
            6244            6219     13.2344E-03     14.3272E-03
            6226            6219     13.2344E-03     14.3272E-03
            6243            6219     13.2344E-03     14.3272E-03
            6225            6219     13.2344E-03     14.3272E-03
            6227            6220     14.7364E-03     15.4544E-03
            6226            6220     14.7364E-03     15.4544E-03
            6244            6220     14.7364E-03     15.4544E-03
            6245            6220     14.7364E-03     15.4544E-03
            6245            6221     16.5271E-03     16.6346E-03
            6228            6221     16.5271E-03     16.6346E-03
            6227            6221     16.5271E-03     16.6346E-03
            6246            6221     16.5271E-03     16.6346E-03
            6229            6222     18.2484E-03     18.1298E-03
            6247            6222     18.2484E-03     18.1298E-03
            6228            6222     18.2484E-03     18.1298E-03
            6246            6222     18.2484E-03     18.1298E-03
            6248            6223     19.9374E-03     19.7411E-03
            6229            6223     19.9374E-03     19.7411E-03
            6247            6223     19.9374E-03     19.7411E-03
            6230            6223     19.9374E-03     19.7411E-03
            6249            6224     21.6166E-03     21.3864E-03
            6230            6224     21.6166E-03     21.3864E-03
            6231            6224     21.6166E-03     21.3864E-03
            6248            6224     21.6166E-03     21.3864E-03
            6231            6225     23.2871E-03     23.0462E-03
            6232            6225     23.2871E-03     23.0462E-03
            6250            6225     23.2871E-03     23.0462E-03
            6249            6225     23.2871E-03     23.0462E-03
            6250            6226     24.9457E-03     24.6924E-03
            6251            6226     24.9457E-03     24.6924E-03
            6232            6226     24.9457E-03     24.6924E-03
            6233            6226     24.9457E-03     24.6924E-03
            6251            6227     26.5792E-03     26.3162E-03
            6252            6227     26.5792E-03     26.3162E-03
            6233            6227     26.5792E-03     26.3162E-03
            6234            6227     26.5792E-03     26.3162E-03
            6234            6228     28.1702E-03     27.8929E-03
            6235            6228     28.1702E-03     27.8929E-03
            6253            6228     28.1702E-03     27.8929E-03
            6252            6228     28.1702E-03     27.8929E-03
            6253            6229     29.6867E-03     29.3985E-03
            6236            6229     29.6867E-03     29.3985E-03
            6235            6229     29.6867E-03     29.3985E-03
            6254            6229     29.6867E-03     29.3985E-03
            6237            6230     31.0809E-03     30.7911E-03
            6254            6230     31.0809E-03     30.7911E-03
            6255            6230     31.0809E-03     30.7911E-03
            6236            6230     31.0809E-03     30.7911E-03
            6255            6231     32.2886E-03     32.0128E-03
            6237            6231     32.2886E-03     32.0128E-03
            6238            6231     32.2886E-03     32.0128E-03
            6256            6231     32.2886E-03     32.0128E-03
            6238            6232     33.1955E-03     32.9853E-03
            6256            6232     33.1955E-03     32.9853E-03
            6239            6232     33.1955E-03     32.9853E-03
            6257            6232     33.1955E-03     32.9853E-03
            6257            6233     33.6788E-03     33.5846E-03
            6258            6233     33.6788E-03     33.5846E-03
            6240            6233     33.6788E-03     33.5846E-03
            6239            6233     33.6788E-03     33.5846E-03
            6258            6234     33.5120E-03     33.6152E-03
            6241            6234     33.5120E-03     33.6152E-03
            6259            6234     33.5120E-03     33.6152E-03
            6240            6234     33.5120E-03     33.6152E-03
            6242            6235     33.6179E-03     33.6459E-03
            6260            6235     33.6179E-03     33.6459E-03
            6241            6235     33.6179E-03     33.6459E-03
            6259            6235     33.6179E-03     33.6459E-03
            6261            6236     14.3199E-03     15.1625E-03
            6262            6236     14.3199E-03     15.1625E-03
            6244            6236     14.3199E-03     15.1625E-03
            6243            6236     14.3199E-03     15.1625E-03
            6244            6237     15.7064E-03     15.5596E-03
            6245            6237     15.7064E-03     15.5596E-03
            6262            6237     15.7064E-03     15.5596E-03
            6263            6237     15.7064E-03     15.5596E-03
            6245            6238     17.0248E-03     16.5861E-03
            6246            6238     17.0248E-03     16.5861E-03
            6263            6238     17.0248E-03     16.5861E-03
            6264            6238     17.0248E-03     16.5861E-03
            6247            6239     18.4347E-03     17.9642E-03
            6246            6239     18.4347E-03     17.9642E-03
            6264            6239     18.4347E-03     17.9642E-03
            6265            6239     18.4347E-03     17.9642E-03
            6265            6240     19.8839E-03     19.4229E-03
            6266            6240     19.8839E-03     19.4229E-03
            6247            6240     19.8839E-03     19.4229E-03
            6248            6240     19.8839E-03     19.4229E-03
            6266            6241     21.3853E-03     20.9315E-03
            6249            6241     21.3853E-03     20.9315E-03
            6267            6241     21.3853E-03     20.9315E-03
            6248            6241     21.3853E-03     20.9315E-03
            6250            6242     22.8931E-03     22.4347E-03
            6267            6242     22.8931E-03     22.4347E-03
            6249            6242     22.8931E-03     22.4347E-03
            6268            6242     22.8931E-03     22.4347E-03
            6251            6243     24.3987E-03     23.9204E-03
            6268            6243     24.3987E-03     23.9204E-03
            6250            6243     24.3987E-03     23.9204E-03
            6269            6243     24.3987E-03     23.9204E-03
            6252            6244     25.8730E-03     25.3584E-03
            6251            6244     25.8730E-03     25.3584E-03
            6270            6244     25.8730E-03     25.3584E-03
            6269            6244     25.8730E-03     25.3584E-03
            6271            6245     27.2974E-03     26.7320E-03
            6253            6245     27.2974E-03     26.7320E-03
            6270            6245     27.2974E-03     26.7320E-03
            6252            6245     27.2974E-03     26.7320E-03
            6272            6246     28.6392E-03     28.0060E-03
            6254            6246     28.6392E-03     28.0060E-03
            6271            6246     28.6392E-03     28.0060E-03
            6253            6246     28.6392E-03     28.0060E-03
            6273            6247     29.8636E-03     29.1467E-03
            6255            6247     29.8636E-03     29.1467E-03
            6254            6247     29.8636E-03     29.1467E-03
            6272            6247     29.8636E-03     29.1467E-03
            6256            6248     30.9143E-03     30.1030E-03
            6274            6248     30.9143E-03     30.1030E-03
            6273            6248     30.9143E-03     30.1030E-03
            6255            6248     30.9143E-03     30.1030E-03
            6256            6249     31.7140E-03     30.8009E-03
            6275            6249     31.7140E-03     30.8009E-03
            6257            6249     31.7140E-03     30.8009E-03
            6274            6249     31.7140E-03     30.8009E-03
            6276            6250     32.1518E-03     31.1582E-03
            6275            6250     32.1518E-03     31.1582E-03
            6258            6250     32.1518E-03     31.1582E-03
            6257            6250     32.1518E-03     31.1582E-03
            6277            6251     31.9316E-03     30.9284E-03
            6258            6251     31.9316E-03     30.9284E-03
            6259            6251     31.9316E-03     30.9284E-03
            6276            6251     31.9316E-03     30.9284E-03
            6259            6252     31.0296E-03     29.9831E-03
            6260            6252     31.0296E-03     29.9831E-03
            6278            6252     31.0296E-03     29.9831E-03
            6277            6252     31.0296E-03     29.9831E-03
            6279            6253     11.9488E-03     12.8219E-03
            6261            6253     11.9488E-03     12.8219E-03
            6262            6253     11.9488E-03     12.8219E-03
            6280            6253     11.9488E-03     12.8219E-03
            6281            6254     11.7844E-03     12.1926E-03
            6262            6254     11.7844E-03     12.1926E-03
            6280            6254     11.7844E-03     12.1926E-03
            6263            6254     11.7844E-03     12.1926E-03
            6264            6255     12.3099E-03     12.6812E-03
            6282            6255     12.3099E-03     12.6812E-03
            6263            6255     12.3099E-03     12.6812E-03
            6281            6255     12.3099E-03     12.6812E-03
            6264            6256     13.0836E-03     13.5021E-03
            6283            6256     13.0836E-03     13.5021E-03
            6265            6256     13.0836E-03     13.5021E-03
            6282            6256     13.0836E-03     13.5021E-03
            6283            6257     14.0213E-03     14.4634E-03
            6284            6257     14.0213E-03     14.4634E-03
            6265            6257     14.0213E-03     14.4634E-03
            6266            6257     14.0213E-03     14.4634E-03
            6285            6258     15.0409E-03     15.5006E-03
            6284            6258     15.0409E-03     15.5006E-03
            6266            6258     15.0409E-03     15.5006E-03
            6267            6258     15.0409E-03     15.5006E-03
            6286            6259     16.1161E-03     16.5701E-03
            6285            6259     16.1161E-03     16.5701E-03
            6267            6259     16.1161E-03     16.5701E-03
            6268            6259     16.1161E-03     16.5701E-03
            6286            6260     17.2088E-03     17.6460E-03
            6268            6260     17.2088E-03     17.6460E-03
            6269            6260     17.2088E-03     17.6460E-03
            6287            6260     17.2088E-03     17.6460E-03
            6269            6261     18.3183E-03     18.7172E-03
            6287            6261     18.3183E-03     18.7172E-03
            6270            6261     18.3183E-03     18.7172E-03
            6288            6261     18.3183E-03     18.7172E-03
            6270            6262     19.4184E-03     19.7704E-03
            6289            6262     19.4184E-03     19.7704E-03
            6271            6262     19.4184E-03     19.7704E-03
            6288            6262     19.4184E-03     19.7704E-03
            6272            6263     20.5309E-03     20.8076E-03
            6271            6263     20.5309E-03     20.8076E-03
            6290            6263     20.5309E-03     20.8076E-03
            6289            6263     20.5309E-03     20.8076E-03
            6272            6264     21.6287E-03     21.8310E-03
            6290            6264     21.6287E-03     21.8310E-03
            6273            6264     21.6287E-03     21.8310E-03
            6291            6264     21.6287E-03     21.8310E-03
            6273            6265     22.7739E-03     22.8614E-03
            6291            6265     22.7739E-03     22.8614E-03
            6292            6265     22.7739E-03     22.8614E-03
            6274            6265     22.7739E-03     22.8614E-03
            6274            6266     23.9247E-03     23.9363E-03
            6292            6266     23.9247E-03     23.9363E-03
            6275            6266     23.9247E-03     23.9363E-03
            6293            6266     23.9247E-03     23.9363E-03
            6276            6267     25.2453E-03     25.1557E-03
            6275            6267     25.2453E-03     25.1557E-03
            6293            6267     25.2453E-03     25.1557E-03
            6294            6267     25.2453E-03     25.1557E-03
            6295            6268     26.6353E-03     26.6197E-03
            6277            6268     26.6353E-03     26.6197E-03
            6276            6268     26.6353E-03     26.6197E-03
            6294            6268     26.6353E-03     26.6197E-03
            6277            6269     28.9827E-03     29.5569E-03
            6278            6269     28.9827E-03     29.5569E-03
            6296            6269     28.9827E-03     29.5569E-03
            6295            6269     28.9827E-03     29.5569E-03
            6298            6270     8.76481E-03     9.90796E-03
            6279            6270     8.76481E-03     9.90796E-03
            6297            6270     8.76481E-03     9.90796E-03
            6280            6270     8.76481E-03     9.90796E-03
            6280            6271     7.54220E-03     8.84938E-03
            6281            6271     7.54220E-03     8.84938E-03
            6298            6271     7.54220E-03     8.84938E-03
            6299            6271     7.54220E-03     8.84938E-03
            6281            6272     7.40067E-03     8.72297E-03
            6299            6272     7.40067E-03     8.72297E-03
            6300            6272     7.40067E-03     8.72297E-03
            6282            6272     7.40067E-03     8.72297E-03
            6300            6273     7.75508E-03     9.08635E-03
            6283            6273     7.75508E-03     9.08635E-03
            6282            6273     7.75508E-03     9.08635E-03
            6301            6273     7.75508E-03     9.08635E-03
            6301            6274     8.27600E-03     9.61857E-03
            6283            6274     8.27600E-03     9.61857E-03
            6284            6274     8.27600E-03     9.61857E-03
            6302            6274     8.27600E-03     9.61857E-03
            6284            6275     8.93638E-03     10.2824E-03
            6285            6275     8.93638E-03     10.2824E-03
            6303            6275     8.93638E-03     10.2824E-03
            6302            6275     8.93638E-03     10.2824E-03
            6303            6276     9.65812E-03     11.0039E-03
            6304            6276     9.65812E-03     11.0039E-03
            6286            6276     9.65812E-03     11.0039E-03
            6285            6276     9.65812E-03     11.0039E-03
            6305            6277     10.4404E-03     11.7770E-03
            6304            6277     10.4404E-03     11.7770E-03
            6287            6277     10.4404E-03     11.7770E-03
            6286            6277     10.4404E-03     11.7770E-03
            6287            6278     11.2619E-03     12.5836E-03
            6288            6278     11.2619E-03     12.5836E-03
            6305            6278     11.2619E-03     12.5836E-03
            6306            6278     11.2619E-03     12.5836E-03
            6307            6279     12.1447E-03     13.4432E-03
            6289            6279     12.1447E-03     13.4432E-03
            6288            6279     12.1447E-03     13.4432E-03
            6306            6279     12.1447E-03     13.4432E-03
            6290            6280     13.0983E-03     14.3704E-03
            6289            6280     13.0983E-03     14.3704E-03
            6308            6280     13.0983E-03     14.3704E-03
            6307            6280     13.0983E-03     14.3704E-03
            6290            6281     14.1910E-03     15.4307E-03
            6291            6281     14.1910E-03     15.4307E-03
            6308            6281     14.1910E-03     15.4307E-03
            6309            6281     14.1910E-03     15.4307E-03
            6309            6282     15.4687E-03     16.6884E-03
            6310            6282     15.4687E-03     16.6884E-03
            6291            6282     15.4687E-03     16.6884E-03
            6292            6282     15.4687E-03     16.6884E-03
            6311            6283     17.1174E-03     18.3297E-03
            6292            6283     17.1174E-03     18.3297E-03
            6293            6283     17.1174E-03     18.3297E-03
            6310            6283     17.1174E-03     18.3297E-03
            6294            6284     19.2767E-03     20.5386E-03
            6293            6284     19.2767E-03     20.5386E-03
            6312            6284     19.2767E-03     20.5386E-03
            6311            6284     19.2767E-03     20.5386E-03
            6313            6285     22.6185E-03     24.0232E-03
            6294            6285     22.6185E-03     24.0232E-03
            6295            6285     22.6185E-03     24.0232E-03
            6312            6285     22.6185E-03     24.0232E-03
            6314            6286     28.7040E-03     29.9038E-03
            6295            6286     28.7040E-03     29.9038E-03
            6313            6286     28.7040E-03     29.9038E-03
            6296            6286     28.7040E-03     29.9038E-03
            6297            6287     8.38627E-03     8.87466E-03
            6316            6287     8.38627E-03     8.87466E-03
            6315            6287     8.38627E-03     8.87466E-03
            6298            6287     8.38627E-03     8.87466E-03
            6298            6288     7.87203E-03     8.70708E-03
            6316            6288     7.87203E-03     8.70708E-03
            6299            6288     7.87203E-03     8.70708E-03
            6317            6288     7.87203E-03     8.70708E-03
            6317            6289     7.63757E-03     8.66000E-03
            6299            6289     7.63757E-03     8.66000E-03
            6318            6289     7.63757E-03     8.66000E-03
            6300            6289     7.63757E-03     8.66000E-03
            6318            6290     7.96252E-03     9.03703E-03
            6319            6290     7.96252E-03     9.03703E-03
            6301            6290     7.96252E-03     9.03703E-03
            6300            6290     7.96252E-03     9.03703E-03
            6301            6291     8.50522E-03     9.60371E-03
            6319            6291     8.50522E-03     9.60371E-03
            6320            6291     8.50522E-03     9.60371E-03
            6302            6291     8.50522E-03     9.60371E-03
            6303            6292     9.17068E-03     10.2815E-03
            6302            6292     9.17068E-03     10.2815E-03
            6320            6292     9.17068E-03     10.2815E-03
            6321            6292     9.17068E-03     10.2815E-03
            6322            6293     9.91785E-03     11.0300E-03
            6321            6293     9.91785E-03     11.0300E-03
            6303            6293     9.91785E-03     11.0300E-03
            6304            6293     9.91785E-03     11.0300E-03
            6322            6294     10.7092E-03     11.8207E-03
            6304            6294     10.7092E-03     11.8207E-03
            6323            6294     10.7092E-03     11.8207E-03
            6305            6294     10.7092E-03     11.8207E-03
            6323            6295     11.5462E-03     12.6515E-03
            6324            6295     11.5462E-03     12.6515E-03
            6306            6295     11.5462E-03     12.6515E-03
            6305            6295     11.5462E-03     12.6515E-03
            6325            6296     12.4261E-03     13.5254E-03
            6307            6296     12.4261E-03     13.5254E-03
            6306            6296     12.4261E-03     13.5254E-03
            6324            6296     12.4261E-03     13.5254E-03
            6308            6297     13.3861E-03     14.4736E-03
            6326            6297     13.3861E-03     14.4736E-03
            6325            6297     13.3861E-03     14.4736E-03
            6307            6297     13.3861E-03     14.4736E-03
            6327            6298     14.4615E-03     15.5408E-03
            6308            6298     14.4615E-03     15.5408E-03
            6326            6298     14.4615E-03     15.5408E-03
            6309            6298     14.4615E-03     15.5408E-03
            6327            6299     15.7597E-03     16.8185E-03
            6310            6299     15.7597E-03     16.8185E-03
            6328            6299     15.7597E-03     16.8185E-03
            6309            6299     15.7597E-03     16.8185E-03
            6310            6300     17.4176E-03     18.4538E-03
            6328            6300     17.4176E-03     18.4538E-03
            6311            6300     17.4176E-03     18.4538E-03
            6329            6300     17.4176E-03     18.4538E-03
            6312            6301     19.6886E-03     20.6702E-03
            6311            6301     19.6886E-03     20.6702E-03
            6330            6301     19.6886E-03     20.6702E-03
            6329            6301     19.6886E-03     20.6702E-03
            6331            6302     23.4243E-03     24.0619E-03
            6330            6302     23.4243E-03     24.0619E-03
            6312            6302     23.4243E-03     24.0619E-03
            6313            6302     23.4243E-03     24.0619E-03
            6331            6303     28.1554E-03     28.2702E-03
            6313            6303     28.1554E-03     28.2702E-03
            6314            6303     28.1554E-03     28.2702E-03
            6332            6303     28.1554E-03     28.2702E-03
            6316            6304     7.72134E-03     8.15594E-03
            6334            6304     7.72134E-03     8.15594E-03
            6315            6304     7.72134E-03     8.15594E-03
            6333            6304     7.72134E-03     8.15594E-03
            6316            6305     7.74243E-03     8.30602E-03
            6334            6305     7.74243E-03     8.30602E-03
            6317            6305     7.74243E-03     8.30602E-03
            6335            6305     7.74243E-03     8.30602E-03
            6317            6306     7.83883E-03     8.57560E-03
            6318            6306     7.83883E-03     8.57560E-03
            6335            6306     7.83883E-03     8.57560E-03
            6336            6306     7.83883E-03     8.57560E-03
            6337            6307     8.16623E-03     8.99822E-03
            6318            6307     8.16623E-03     8.99822E-03
            6319            6307     8.16623E-03     8.99822E-03
            6336            6307     8.16623E-03     8.99822E-03
            6319            6308     8.75173E-03     9.61731E-03
            6338            6308     8.75173E-03     9.61731E-03
            6320            6308     8.75173E-03     9.61731E-03
            6337            6308     8.75173E-03     9.61731E-03
            6321            6309     9.44451E-03     10.3247E-03
            6339            6309     9.44451E-03     10.3247E-03
            6338            6309     9.44451E-03     10.3247E-03
            6320            6309     9.44451E-03     10.3247E-03
            6322            6310     10.2131E-03     11.1003E-03
            6340            6310     10.2131E-03     11.1003E-03
            6339            6310     10.2131E-03     11.1003E-03
            6321            6310     10.2131E-03     11.1003E-03
            6341            6311     11.0272E-03     11.9172E-03
            6340            6311     11.0272E-03     11.9172E-03
            6323            6311     11.0272E-03     11.9172E-03
            6322            6311     11.0272E-03     11.9172E-03
            6342            6312     11.8769E-03     12.7714E-03
            6341            6312     11.8769E-03     12.7714E-03
            6323            6312     11.8769E-03     12.7714E-03
            6324            6312     11.8769E-03     12.7714E-03
            6324            6313     12.7704E-03     13.6680E-03
            6325            6313     12.7704E-03     13.6680E-03
            6343            6313     12.7704E-03     13.6680E-03
            6342            6313     12.7704E-03     13.6680E-03
            6325            6314     13.7274E-03     14.6302E-03
            6326            6314     13.7274E-03     14.6302E-03
            6343            6314     13.7274E-03     14.6302E-03
            6344            6314     13.7274E-03     14.6302E-03
            6345            6315     14.7968E-03     15.6962E-03
            6326            6315     14.7968E-03     15.6962E-03
            6327            6315     14.7968E-03     15.6962E-03
            6344            6315     14.7968E-03     15.6962E-03
            6345            6316     16.0703E-03     16.9509E-03
            6346            6316     16.0703E-03     16.9509E-03
            6328            6316     16.0703E-03     16.9509E-03
            6327            6316     16.0703E-03     16.9509E-03
            6329            6317     17.6563E-03     18.4919E-03
            6328            6317     17.6563E-03     18.4919E-03
            6347            6317     17.6563E-03     18.4919E-03
            6346            6317     17.6563E-03     18.4919E-03
            6348            6318     19.9413E-03     20.5821E-03
            6347            6318     19.9413E-03     20.5821E-03
            6329            6318     19.9413E-03     20.5821E-03
            6330            6318     19.9413E-03     20.5821E-03
            6331            6319     22.9122E-03     23.3418E-03
            6348            6319     22.9122E-03     23.3418E-03
            6349            6319     22.9122E-03     23.3418E-03
            6330            6319     22.9122E-03     23.3418E-03
            6350            6320     26.1810E-03     26.6935E-03
            6349            6320     26.1810E-03     26.6935E-03
            6332            6320     26.1810E-03     26.6935E-03
            6331            6320     26.1810E-03     26.6935E-03
            6351            6321     7.41713E-03     7.69208E-03
            6333            6321     7.41713E-03     7.69208E-03
            6334            6321     7.41713E-03     7.69208E-03
            6352            6321     7.41713E-03     7.69208E-03
            6352            6322     7.49371E-03     7.94416E-03
            6353            6322     7.49371E-03     7.94416E-03
            6334            6322     7.49371E-03     7.94416E-03
            6335            6322     7.49371E-03     7.94416E-03
            6335            6323     7.84869E-03     8.38770E-03
            6353            6323     7.84869E-03     8.38770E-03
            6336            6323     7.84869E-03     8.38770E-03
            6354            6323     7.84869E-03     8.38770E-03
            6336            6324     8.34616E-03     8.96226E-03
            6355            6324     8.34616E-03     8.96226E-03
            6354            6324     8.34616E-03     8.96226E-03
            6337            6324     8.34616E-03     8.96226E-03
            6356            6325     8.97853E-03     9.62680E-03
            6355            6325     8.97853E-03     9.62680E-03
            6338            6325     8.97853E-03     9.62680E-03
            6337            6325     8.97853E-03     9.62680E-03
            6356            6326     9.72662E-03     10.3855E-03
            6338            6326     9.72662E-03     10.3855E-03
            6339            6326     9.72662E-03     10.3855E-03
            6357            6326     9.72662E-03     10.3855E-03
            6339            6327     10.5232E-03     11.1879E-03
            6340            6327     10.5232E-03     11.1879E-03
            6358            6327     10.5232E-03     11.1879E-03
            6357            6327     10.5232E-03     11.1879E-03
            6358            6328     11.3626E-03     12.0329E-03
            6340            6328     11.3626E-03     12.0329E-03
            6359            6328     11.3626E-03     12.0329E-03
            6341            6328     11.3626E-03     12.0329E-03
            6341            6329     12.2279E-03     12.9077E-03
            6342            6329     12.2279E-03     12.9077E-03
            6360            6329     12.2279E-03     12.9077E-03
            6359            6329     12.2279E-03     12.9077E-03
            6361            6330     13.1285E-03     13.8212E-03
            6342            6330     13.1285E-03     13.8212E-03
            6343            6330     13.1285E-03     13.8212E-03
            6360            6330     13.1285E-03     13.8212E-03
            6362            6331     14.0723E-03     14.7799E-03
            6344            6331     14.0723E-03     14.7799E-03
            6361            6331     14.0723E-03     14.7799E-03
            6343            6331     14.0723E-03     14.7799E-03
            6345            6332     15.1052E-03     15.8189E-03
            6363            6332     15.1052E-03     15.8189E-03
            6362            6332     15.1052E-03     15.8189E-03
            6344            6332     15.1052E-03     15.8189E-03
            6363            6333     16.2612E-03     16.9725E-03
            6364            6333     16.2612E-03     16.9725E-03
            6346            6333     16.2612E-03     16.9725E-03
            6345            6333     16.2612E-03     16.9725E-03
            6346            6334     17.7103E-03     18.3440E-03
            6365            6334     17.7103E-03     18.3440E-03
            6364            6334     17.7103E-03     18.3440E-03
            6347            6334     17.7103E-03     18.3440E-03
            6347            6335     19.5047E-03     20.0381E-03
            6365            6335     19.5047E-03     20.0381E-03
            6348            6335     19.5047E-03     20.0381E-03
            6366            6335     19.5047E-03     20.0381E-03
            6348            6336     21.6699E-03     22.1293E-03
            6349            6336     21.6699E-03     22.1293E-03
            6367            6336     21.6699E-03     22.1293E-03
            6366            6336     21.6699E-03     22.1293E-03
            6367            6337     24.3841E-03     24.6386E-03
            6349            6337     24.3841E-03     24.6386E-03
            6350            6337     24.3841E-03     24.6386E-03
            6368            6337     24.3841E-03     24.6386E-03
            6370            6338     7.17608E-03     7.35390E-03
            6351            6338     7.17608E-03     7.35390E-03
            6369            6338     7.17608E-03     7.35390E-03
            6352            6338     7.17608E-03     7.35390E-03
            6353            6339     7.34518E-03     7.65246E-03
            6370            6339     7.34518E-03     7.65246E-03
            6352            6339     7.34518E-03     7.65246E-03
            6371            6339     7.34518E-03     7.65246E-03
            6371            6340     7.78878E-03     8.20281E-03
            6353            6340     7.78878E-03     8.20281E-03
            6354            6340     7.78878E-03     8.20281E-03
            6372            6340     7.78878E-03     8.20281E-03
            6355            6341     8.44086E-03     8.87603E-03
            6372            6341     8.44086E-03     8.87603E-03
            6373            6341     8.44086E-03     8.87603E-03
            6354            6341     8.44086E-03     8.87603E-03
            6355            6342     9.18291E-03     9.62931E-03
            6374            6342     9.18291E-03     9.62931E-03
            6373            6342     9.18291E-03     9.62931E-03
            6356            6342     9.18291E-03     9.62931E-03
            6374            6343     9.97798E-03     10.4223E-03
            6375            6343     9.97798E-03     10.4223E-03
            6356            6343     9.97798E-03     10.4223E-03
            6357            6343     9.97798E-03     10.4223E-03
            6375            6344     10.8186E-03     11.2597E-03
            6357            6344     10.8186E-03     11.2597E-03
            6376            6344     10.8186E-03     11.2597E-03
            6358            6344     10.8186E-03     11.2597E-03
            6377            6345     11.6743E-03     12.1219E-03
            6358            6345     11.6743E-03     12.1219E-03
            6359            6345     11.6743E-03     12.1219E-03
            6376            6345     11.6743E-03     12.1219E-03
            6377            6346     12.5543E-03     13.0127E-03
            6378            6346     12.5543E-03     13.0127E-03
            6360            6346     12.5543E-03     13.0127E-03
            6359            6346     12.5543E-03     13.0127E-03
            6379            6347     13.4454E-03     13.9240E-03
            6360            6347     13.4454E-03     13.9240E-03
            6378            6347     13.4454E-03     13.9240E-03
            6361            6347     13.4454E-03     13.9240E-03
            6362            6348     14.3661E-03     14.8654E-03
            6380            6348     14.3661E-03     14.8654E-03
            6379            6348     14.3661E-03     14.8654E-03
            6361            6348     14.3661E-03     14.8654E-03
            6363            6349     15.3030E-03     15.8325E-03
            6380            6349     15.3030E-03     15.8325E-03
            6362            6349     15.3030E-03     15.8325E-03
            6381            6349     15.3030E-03     15.8325E-03
            6381            6350     16.3147E-03     16.8457E-03
            6364            6350     16.3147E-03     16.8457E-03
            6382            6350     16.3147E-03     16.8457E-03
            6363            6350     16.3147E-03     16.8457E-03
            6382            6351     17.4142E-03     17.9362E-03
            6383            6351     17.4142E-03     17.9362E-03
            6364            6351     17.4142E-03     17.9362E-03
            6365            6351     17.4142E-03     17.9362E-03
            6366            6352     18.6883E-03     19.1566E-03
            6384            6352     18.6883E-03     19.1566E-03
            6365            6352     18.6883E-03     19.1566E-03
            6383            6352     18.6883E-03     19.1566E-03
            6367            6353     20.3310E-03     20.6436E-03
            6384            6353     20.3310E-03     20.6436E-03
            6366            6353     20.3310E-03     20.6436E-03
            6385            6353     20.3310E-03     20.6436E-03
            6367            6354     22.4431E-03     22.6897E-03
            6386            6354     22.4431E-03     22.6897E-03
            6368            6354     22.4431E-03     22.6897E-03
            6385            6354     22.4431E-03     22.6897E-03
            6369            6355     7.04506E-03     7.12605E-03
            6387            6355     7.04506E-03     7.12605E-03
            6388            6355     7.04506E-03     7.12605E-03
            6370            6355     7.04506E-03     7.12605E-03
            6371            6356     7.18070E-03     7.42644E-03
            6389            6356     7.18070E-03     7.42644E-03
            6370            6356     7.18070E-03     7.42644E-03
            6388            6356     7.18070E-03     7.42644E-03
            6372            6357     7.74457E-03     8.02481E-03
            6390            6357     7.74457E-03     8.02481E-03
            6389            6357     7.74457E-03     8.02481E-03
            6371            6357     7.74457E-03     8.02481E-03
            6390            6358     8.49648E-03     8.78308E-03
            6372            6358     8.49648E-03     8.78308E-03
            6391            6358     8.49648E-03     8.78308E-03
            6373            6358     8.49648E-03     8.78308E-03
            6391            6359     9.33264E-03     9.58421E-03
            6373            6359     9.33264E-03     9.58421E-03
            6392            6359     9.33264E-03     9.58421E-03
            6374            6359     9.33264E-03     9.58421E-03
            6393            6360     10.1930E-03     10.4169E-03
            6392            6360     10.1930E-03     10.4169E-03
            6374            6360     10.1930E-03     10.4169E-03
            6375            6360     10.1930E-03     10.4169E-03
            6393            6361     11.0536E-03     11.2697E-03
            6375            6361     11.0536E-03     11.2697E-03
            6376            6361     11.0536E-03     11.2697E-03
            6394            6361     11.0536E-03     11.2697E-03
            6377            6362     11.9273E-03     12.1435E-03
            6394            6362     11.9273E-03     12.1435E-03
            6395            6362     11.9273E-03     12.1435E-03
            6376            6362     11.9273E-03     12.1435E-03
            6395            6363     12.7994E-03     13.0291E-03
            6377            6363     12.7994E-03     13.0291E-03
            6396            6363     12.7994E-03     13.0291E-03
            6378            6363     12.7994E-03     13.0291E-03
            6396            6364     13.6793E-03     13.9275E-03
            6397            6364     13.6793E-03     13.9275E-03
            6378            6364     13.6793E-03     13.9275E-03
            6379            6364     13.6793E-03     13.9275E-03
            6379            6365     14.5402E-03     14.8226E-03
            6380            6365     14.5402E-03     14.8226E-03
            6398            6365     14.5402E-03     14.8226E-03
            6397            6365     14.5402E-03     14.8226E-03
            6399            6366     15.3900E-03     15.7046E-03
            6380            6366     15.3900E-03     15.7046E-03
            6398            6366     15.3900E-03     15.7046E-03
            6381            6366     15.3900E-03     15.7046E-03
            6382            6367     16.1780E-03     16.5451E-03
            6381            6367     16.1780E-03     16.5451E-03
            6400            6367     16.1780E-03     16.5451E-03
            6399            6367     16.1780E-03     16.5451E-03
            6383            6368     16.9218E-03     17.3217E-03
            6401            6368     16.9218E-03     17.3217E-03
            6400            6368     16.9218E-03     17.3217E-03
            6382            6368     16.9218E-03     17.3217E-03
            6383            6369     17.7295E-03     18.0915E-03
            6401            6369     17.7295E-03     18.0915E-03
            6384            6369     17.7295E-03     18.0915E-03
            6402            6369     17.7295E-03     18.0915E-03
            6384            6370     18.7942E-03     19.0855E-03
            6403            6370     18.7942E-03     19.0855E-03
            6385            6370     18.7942E-03     19.0855E-03
            6402            6370     18.7942E-03     19.0855E-03
            6385            6371     20.5622E-03     20.6707E-03
            6403            6371     20.5622E-03     20.6707E-03
            6404            6371     20.5622E-03     20.6707E-03
            6386            6371     20.5622E-03     20.6707E-03
            6405            6372     6.93980E-03     7.02434E-03
            6406            6372     6.93980E-03     7.02434E-03
            6388            6372     6.93980E-03     7.02434E-03
            6387            6372     6.93980E-03     7.02434E-03
            6388            6373     7.07508E-03     7.24149E-03
            6389            6373     7.07508E-03     7.24149E-03
            6407            6373     7.07508E-03     7.24149E-03
            6406            6373     7.07508E-03     7.24149E-03
            6389            6374     7.69461E-03     7.89870E-03
            6407            6374     7.69461E-03     7.89870E-03
            6408            6374     7.69461E-03     7.89870E-03
            6390            6374     7.69461E-03     7.89870E-03
            6409            6375     8.55019E-03     8.67263E-03
            6391            6375     8.55019E-03     8.67263E-03
            6390            6375     8.55019E-03     8.67263E-03
            6408            6375     8.55019E-03     8.67263E-03
            6409            6376     9.45522E-03     9.49354E-03
            6392            6376     9.45522E-03     9.49354E-03
            6410            6376     9.45522E-03     9.49354E-03
            6391            6376     9.45522E-03     9.49354E-03
            6410            6377     10.3393E-03     10.3386E-03
            6393            6377     10.3393E-03     10.3386E-03
            6392            6377     10.3393E-03     10.3386E-03
            6411            6377     10.3393E-03     10.3386E-03
            6411            6378     11.2118E-03     11.1925E-03
            6394            6378     11.2118E-03     11.1925E-03
            6412            6378     11.2118E-03     11.1925E-03
            6393            6378     11.2118E-03     11.1925E-03
            6412            6379     12.0727E-03     12.0529E-03
            6394            6379     12.0727E-03     12.0529E-03
            6395            6379     12.0727E-03     12.0529E-03
            6413            6379     12.0727E-03     12.0529E-03
            6396            6380     12.9313E-03     12.9187E-03
            6413            6380     12.9313E-03     12.9187E-03
            6395            6380     12.9313E-03     12.9187E-03
            6414            6380     12.9313E-03     12.9187E-03
            6397            6381     13.7695E-03     13.7772E-03
            6415            6381     13.7695E-03     13.7772E-03
            6414            6381     13.7695E-03     13.7772E-03
            6396            6381     13.7695E-03     13.7772E-03
            6416            6382     14.5814E-03     14.6152E-03
            6415            6382     14.5814E-03     14.6152E-03
            6398            6382     14.5814E-03     14.6152E-03
            6397            6382     14.5814E-03     14.6152E-03
            6399            6383     15.3131E-03     15.3965E-03
            6398            6383     15.3131E-03     15.3965E-03
            6417            6383     15.3131E-03     15.3965E-03
            6416            6383     15.3131E-03     15.3965E-03
            6417            6384     15.9300E-03     16.0750E-03
            6418            6384     15.9300E-03     16.0750E-03
            6400            6384     15.9300E-03     16.0750E-03
            6399            6384     15.9300E-03     16.0750E-03
            6419            6385     16.3513E-03     16.5812E-03
            6401            6385     16.3513E-03     16.5812E-03
            6418            6385     16.3513E-03     16.5812E-03
            6400            6385     16.3513E-03     16.5812E-03
            6420            6386     16.6417E-03     16.9309E-03
            6402            6386     16.6417E-03     16.9309E-03
            6401            6386     16.6417E-03     16.9309E-03
            6419            6386     16.6417E-03     16.9309E-03
            6402            6387     17.2099E-03     17.4002E-03
            6421            6387     17.2099E-03     17.4002E-03
            6420            6387     17.2099E-03     17.4002E-03
            6403            6387     17.2099E-03     17.4002E-03
            6403            6388     18.5791E-03     18.6188E-03
            6421            6388     18.5791E-03     18.6188E-03
            6404            6388     18.5791E-03     18.6188E-03
            6422            6388     18.5791E-03     18.6188E-03
            6406            6389     6.92957E-03     6.96534E-03
            6424            6389     6.92957E-03     6.96534E-03
            6423            6389     6.92957E-03     6.96534E-03
            6405            6389     6.92957E-03     6.96534E-03
            6425            6390     6.99897E-03     7.21860E-03
            6407            6390     6.99897E-03     7.21860E-03
            6424            6390     6.99897E-03     7.21860E-03
            6406            6390     6.99897E-03     7.21860E-03
            6408            6391     7.70484E-03     7.80904E-03
            6426            6391     7.70484E-03     7.80904E-03
            6407            6391     7.70484E-03     7.80904E-03
            6425            6391     7.70484E-03     7.80904E-03
            6408            6392     8.64341E-03     8.54519E-03
            6409            6392     8.64341E-03     8.54519E-03
            6427            6392     8.64341E-03     8.54519E-03
            6426            6392     8.64341E-03     8.54519E-03
            6427            6393     9.55127E-03     9.35778E-03
            6428            6393     9.55127E-03     9.35778E-03
            6409            6393     9.55127E-03     9.35778E-03
            6410            6393     9.55127E-03     9.35778E-03
            6428            6394     10.4198E-03     10.1814E-03
            6429            6394     10.4198E-03     10.1814E-03
            6411            6394     10.4198E-03     10.1814E-03
            6410            6394     10.4198E-03     10.1814E-03
            6411            6395     11.2654E-03     11.0083E-03
            6430            6395     11.2654E-03     11.0083E-03
            6429            6395     11.2654E-03     11.0083E-03
            6412            6395     11.2654E-03     11.0083E-03
            6430            6396     12.0954E-03     11.8330E-03
            6412            6396     12.0954E-03     11.8330E-03
            6413            6396     12.0954E-03     11.8330E-03
            6431            6396     12.0954E-03     11.8330E-03
            6414            6397     12.9091E-03     12.6497E-03
            6432            6397     12.9091E-03     12.6497E-03
            6431            6397     12.9091E-03     12.6497E-03
            6413            6397     12.9091E-03     12.6497E-03
            6415            6398     13.7004E-03     13.4487E-03
            6414            6398     13.7004E-03     13.4487E-03
            6432            6398     13.7004E-03     13.4487E-03
            6433            6398     13.7004E-03     13.4487E-03
            6416            6399     14.4380E-03     14.2062E-03
            6433            6399     14.4380E-03     14.2062E-03
            6415            6399     14.4380E-03     14.2062E-03
            6434            6399     14.4380E-03     14.2062E-03
            6417            6400     15.0842E-03     14.8853E-03
            6434            6400     15.0842E-03     14.8853E-03
            6435            6400     15.0842E-03     14.8853E-03
            6416            6400     15.0842E-03     14.8853E-03
            6435            6401     15.5583E-03     15.4197E-03
            6418            6401     15.5583E-03     15.4197E-03
            6436            6401     15.5583E-03     15.4197E-03
            6417            6401     15.5583E-03     15.4197E-03
            6436            6402     15.7761E-03     15.7379E-03
            6419            6402     15.7761E-03     15.7379E-03
            6437            6402     15.7761E-03     15.7379E-03
            6418            6402     15.7761E-03     15.7379E-03
            6438            6403     15.6216E-03     15.7210E-03
            6420            6403     15.6216E-03     15.7210E-03
            6437            6403     15.6216E-03     15.7210E-03
            6419            6403     15.6216E-03     15.7210E-03
            6439            6404     15.4925E-03     15.6393E-03
            6420            6404     15.4925E-03     15.6393E-03
            6438            6404     15.4925E-03     15.6393E-03
            6421            6404     15.4925E-03     15.6393E-03
            6440            6405     16.5425E-03     16.4385E-03
            6439            6405     16.5425E-03     16.4385E-03
            6421            6405     16.5425E-03     16.4385E-03
            6422            6405     16.5425E-03     16.4385E-03
            6442            6406     6.98053E-03     7.31106E-03
            6423            6406     6.98053E-03     7.31106E-03
            6424            6406     6.98053E-03     7.31106E-03
            6441            6406     6.98053E-03     7.31106E-03
            6442            6407     7.01883E-03     7.30472E-03
            6443            6407     7.01883E-03     7.30472E-03
            6425            6407     7.01883E-03     7.30472E-03
            6424            6407     7.01883E-03     7.30472E-03
            6425            6408     7.89367E-03     7.73830E-03
            6426            6408     7.89367E-03     7.73830E-03
            6444            6408     7.89367E-03     7.73830E-03
            6443            6408     7.89367E-03     7.73830E-03
            6445            6409     8.78894E-03     8.42887E-03
            6426            6409     8.78894E-03     8.42887E-03
            6444            6409     8.78894E-03     8.42887E-03
            6427            6409     8.78894E-03     8.42887E-03
            6445            6410     9.62320E-03     9.18597E-03
            6428            6410     9.62320E-03     9.18597E-03
            6427            6410     9.62320E-03     9.18597E-03
            6446            6410     9.62320E-03     9.18597E-03
            6429            6411     10.4332E-03     9.95829E-03
            6428            6411     10.4332E-03     9.95829E-03
            6446            6411     10.4332E-03     9.95829E-03
            6447            6411     10.4332E-03     9.95829E-03
            6430            6412     11.2173E-03     10.7272E-03
            6429            6412     11.2173E-03     10.7272E-03
            6447            6412     11.2173E-03     10.7272E-03
            6448            6412     11.2173E-03     10.7272E-03
            6448            6413     11.9868E-03     11.4866E-03
            6431            6413     11.9868E-03     11.4866E-03
            6449            6413     11.9868E-03     11.4866E-03
            6430            6413     11.9868E-03     11.4866E-03
            6431            6414     12.7356E-03     12.2272E-03
            6449            6414     12.7356E-03     12.2272E-03
            6450            6414     12.7356E-03     12.2272E-03
            6432            6414     12.7356E-03     12.2272E-03
            6433            6415     13.4514E-03     12.9369E-03
            6450            6415     13.4514E-03     12.9369E-03
            6451            6415     13.4514E-03     12.9369E-03
            6432            6415     13.4514E-03     12.9369E-03
            6433            6416     14.1081E-03     13.5897E-03
            6451            6416     14.1081E-03     13.5897E-03
            6452            6416     14.1081E-03     13.5897E-03
            6434            6416     14.1081E-03     13.5897E-03
            6434            6417     14.6651E-03     14.1495E-03
            6435            6417     14.6651E-03     14.1495E-03
            6453            6417     14.6651E-03     14.1495E-03
            6452            6417     14.6651E-03     14.1495E-03
            6453            6418     15.0451E-03     14.5542E-03
            6436            6418     15.0451E-03     14.5542E-03
            6454            6418     15.0451E-03     14.5542E-03
            6435            6418     15.0451E-03     14.5542E-03
            6454            6419     15.1544E-03     14.7147E-03
            6436            6419     15.1544E-03     14.7147E-03
            6455            6419     15.1544E-03     14.7147E-03
            6437            6419     15.1544E-03     14.7147E-03
            6437            6420     14.8349E-03     14.5269E-03
            6438            6420     14.8349E-03     14.5269E-03
            6456            6420     14.8349E-03     14.5269E-03
            6455            6420     14.8349E-03     14.5269E-03
            6457            6421     13.9591E-03     13.8636E-03
            6439            6421     13.9591E-03     13.8636E-03
            6456            6421     13.9591E-03     13.8636E-03
            6438            6421     13.9591E-03     13.8636E-03
            6457            6422     14.3215E-03     14.1470E-03
            6458            6422     14.3215E-03     14.1470E-03
            6439            6422     14.3215E-03     14.1470E-03
            6440            6422     14.3215E-03     14.1470E-03
            6460            6423     7.06836E-03     7.84197E-03
            6459            6423     7.06836E-03     7.84197E-03
            6442            6423     7.06836E-03     7.84197E-03
            6441            6423     7.06836E-03     7.84197E-03
            6460            6424     7.49873E-03     7.38245E-03
            6442            6424     7.49873E-03     7.38245E-03
            6461            6424     7.49873E-03     7.38245E-03
            6443            6424     7.49873E-03     7.38245E-03
            6461            6425     8.25477E-03     7.74741E-03
            6443            6425     8.25477E-03     7.74741E-03
            6444            6425     8.25477E-03     7.74741E-03
            6462            6425     8.25477E-03     7.74741E-03
            6445            6426     8.96264E-03     8.34594E-03
            6463            6426     8.96264E-03     8.34594E-03
            6462            6426     8.96264E-03     8.34594E-03
            6444            6426     8.96264E-03     8.34594E-03
            6445            6427     9.67874E-03     9.01764E-03
            6446            6427     9.67874E-03     9.01764E-03
            6463            6427     9.67874E-03     9.01764E-03
            6464            6427     9.67874E-03     9.01764E-03
            6465            6428     10.3891E-03     9.70409E-03
            6464            6428     10.3891E-03     9.70409E-03
            6446            6428     10.3891E-03     9.70409E-03
            6447            6428     10.3891E-03     9.70409E-03
            6466            6429     11.0926E-03     10.3901E-03
            6465            6429     11.0926E-03     10.3901E-03
            6448            6429     11.0926E-03     10.3901E-03
            6447            6429     11.0926E-03     10.3901E-03
            6448            6430     11.7793E-03     11.0564E-03
            6466            6430     11.7793E-03     11.0564E-03
            6467            6430     11.7793E-03     11.0564E-03
            6449            6430     11.7793E-03     11.0564E-03
            6468            6431     12.4392E-03     11.6952E-03
            6449            6431     12.4392E-03     11.6952E-03
            6450            6431     12.4392E-03     11.6952E-03
            6467            6431     12.4392E-03     11.6952E-03
            6451            6432     13.0550E-03     12.2833E-03
            6468            6432     13.0550E-03     12.2833E-03
            6450            6432     13.0550E-03     12.2833E-03
            6469            6432     13.0550E-03     12.2833E-03
            6470            6433     13.6065E-03     12.8026E-03
            6452            6433     13.6065E-03     12.8026E-03
            6469            6433     13.6065E-03     12.8026E-03
            6451            6433     13.6065E-03     12.8026E-03
            6453            6434     14.0500E-03     13.2084E-03
            6452            6434     14.0500E-03     13.2084E-03
            6470            6434     14.0500E-03     13.2084E-03
            6471            6434     14.0500E-03     13.2084E-03
            6453            6435     14.3521E-03     13.4637E-03
            6471            6435     14.3521E-03     13.4637E-03
            6454            6435     14.3521E-03     13.4637E-03
            6472            6435     14.3521E-03     13.4637E-03
            6473            6436     14.3976E-03     13.4758E-03
            6455            6436     14.3976E-03     13.4758E-03
            6472            6436     14.3976E-03     13.4758E-03
            6454            6436     14.3976E-03     13.4758E-03
            6455            6437     14.1388E-03     13.1906E-03
            6474            6437     14.1388E-03     13.1906E-03
            6473            6437     14.1388E-03     13.1906E-03
            6456            6437     14.1388E-03     13.1906E-03
            6474            6438     13.1895E-03     12.3510E-03
            6475            6438     13.1895E-03     12.3510E-03
            6456            6438     13.1895E-03     12.3510E-03
            6457            6438     13.1895E-03     12.3510E-03
            6458            6439     12.4939E-03     11.9743E-03
            6457            6439     12.4939E-03     11.9743E-03
            6475            6439     12.4939E-03     11.9743E-03
            6476            6439     12.4939E-03     11.9743E-03
            6460            6440     4.75981E-03     6.26384E-03
            6459            6440     4.75981E-03     6.26384E-03
            6478            6440     4.75981E-03     6.26384E-03
            6477            6440     4.75981E-03     6.26384E-03
            6478            6441     4.46699E-03     5.18049E-03
            6479            6441     4.46699E-03     5.18049E-03
            6460            6441     4.46699E-03     5.18049E-03
            6461            6441     4.46699E-03     5.18049E-03
            6461            6442     4.68728E-03     5.25052E-03
            6462            6442     4.68728E-03     5.25052E-03
            6479            6442     4.68728E-03     5.25052E-03
            6480            6442     4.68728E-03     5.25052E-03
            6480            6443     5.01918E-03     5.58174E-03
            6463            6443     5.01918E-03     5.58174E-03
            6481            6443     5.01918E-03     5.58174E-03
            6462            6443     5.01918E-03     5.58174E-03
            6464            6444     5.44308E-03     5.98616E-03
            6463            6444     5.44308E-03     5.98616E-03
            6481            6444     5.44308E-03     5.98616E-03
            6482            6444     5.44308E-03     5.98616E-03
            6465            6445     5.88107E-03     6.41553E-03
            6464            6445     5.88107E-03     6.41553E-03
            6483            6445     5.88107E-03     6.41553E-03
            6482            6445     5.88107E-03     6.41553E-03
            6465            6446     6.31838E-03     6.83815E-03
            6466            6446     6.31838E-03     6.83815E-03
            6483            6446     6.31838E-03     6.83815E-03
            6484            6446     6.31838E-03     6.83815E-03
            6466            6447     6.74570E-03     7.25356E-03
            6467            6447     6.74570E-03     7.25356E-03
            6484            6447     6.74570E-03     7.25356E-03
            6485            6447     6.74570E-03     7.25356E-03
            6485            6448     7.15493E-03     7.64360E-03
            6486            6448     7.15493E-03     7.64360E-03
            6468            6448     7.15493E-03     7.64360E-03
            6467            6448     7.15493E-03     7.64360E-03
            6468            6449     7.53740E-03     8.00859E-03
            6487            6449     7.53740E-03     8.00859E-03
            6469            6449     7.53740E-03     8.00859E-03
            6486            6449     7.53740E-03     8.00859E-03
            6469            6450     7.88002E-03     8.32183E-03
            6487            6450     7.88002E-03     8.32183E-03
            6470            6450     7.88002E-03     8.32183E-03
            6488            6450     7.88002E-03     8.32183E-03
            6471            6451     8.16728E-03     8.58109E-03
            6489            6451     8.16728E-03     8.58109E-03
            6470            6451     8.16728E-03     8.58109E-03
            6488            6451     8.16728E-03     8.58109E-03
            6489            6452     8.38464E-03     8.74849E-03
            6490            6452     8.38464E-03     8.74849E-03
            6471            6452     8.38464E-03     8.74849E-03
            6472            6452     8.38464E-03     8.74849E-03
            6473            6453     8.50922E-03     8.83108E-03
            6491            6453     8.50922E-03     8.83108E-03
            6490            6453     8.50922E-03     8.83108E-03
            6472            6453     8.50922E-03     8.83108E-03
            6473            6454     8.66416E-03     8.88406E-03
            6492            6454     8.66416E-03     8.88406E-03
            6474            6454     8.66416E-03     8.88406E-03
            6491            6454     8.66416E-03     8.88406E-03
            6493            6455     8.78694E-03     9.06688E-03
            6475            6455     8.78694E-03     9.06688E-03
            6492            6455     8.78694E-03     9.06688E-03
            6474            6455     8.78694E-03     9.06688E-03
            6494            6456     10.0452E-03     10.8345E-03
            6493            6456     10.0452E-03     10.8345E-03
            6476            6456     10.0452E-03     10.8345E-03
            6475            6456     10.0452E-03     10.8345E-03
            6477            6457     2.69657E-03     3.88354E-03
            6496            6457     2.69657E-03     3.88354E-03
            6478            6457     2.69657E-03     3.88354E-03
            6495            6457     2.69657E-03     3.88354E-03
            6479            6458     1.25982E-03     2.64939E-03
            6497            6458     1.25982E-03     2.64939E-03
            6478            6458     1.25982E-03     2.64939E-03
            6496            6458     1.25982E-03     2.64939E-03
            6480            6459     1.06681E-03     2.48110E-03
            6479            6459     1.06681E-03     2.48110E-03
            6498            6459     1.06681E-03     2.48110E-03
            6497            6459     1.06681E-03     2.48110E-03
            6480            6460     1.20721E-03     2.61606E-03
            6499            6460     1.20721E-03     2.61606E-03
            6498            6460     1.20721E-03     2.61606E-03
            6481            6460     1.20721E-03     2.61606E-03
            6500            6461     1.41384E-03     2.81866E-03
            6481            6461     1.41384E-03     2.81866E-03
            6482            6461     1.41384E-03     2.81866E-03
            6499            6461     1.41384E-03     2.81866E-03
            6500            6462     1.63320E-03     3.03770E-03
            6482            6462     1.63320E-03     3.03770E-03
            6501            6462     1.63320E-03     3.03770E-03
            6483            6462     1.63320E-03     3.03770E-03
            6502            6463     1.85013E-03     3.25103E-03
            6501            6463     1.85013E-03     3.25103E-03
            6484            6463     1.85013E-03     3.25103E-03
            6483            6463     1.85013E-03     3.25103E-03
            6485            6464     2.06250E-03     3.46275E-03
            6484            6464     2.06250E-03     3.46275E-03
            6502            6464     2.06250E-03     3.46275E-03
            6503            6464     2.06250E-03     3.46275E-03
            6503            6465     2.27267E-03     3.66879E-03
            6485            6465     2.27267E-03     3.66879E-03
            6486            6465     2.27267E-03     3.66879E-03
            6504            6465     2.27267E-03     3.66879E-03
            6504            6466     2.47832E-03     3.87405E-03
            6487            6466     2.47832E-03     3.87405E-03
            6505            6466     2.47832E-03     3.87405E-03
            6486            6466     2.47832E-03     3.87405E-03
            6488            6467     2.67993E-03     4.07051E-03
            6487            6467     2.67993E-03     4.07051E-03
            6505            6467     2.67993E-03     4.07051E-03
            6506            6467     2.67993E-03     4.07051E-03
            6506            6468     2.87207E-03     4.26205E-03
            6488            6468     2.87207E-03     4.26205E-03
            6489            6468     2.87207E-03     4.26205E-03
            6507            6468     2.87207E-03     4.26205E-03
            6490            6469     3.05533E-03     4.43905E-03
            6489            6469     3.05533E-03     4.43905E-03
            6508            6469     3.05533E-03     4.43905E-03
            6507            6469     3.05533E-03     4.43905E-03
            6508            6470     3.26812E-03     4.65359E-03
            6491            6470     3.26812E-03     4.65359E-03
            6509            6470     3.26812E-03     4.65359E-03
            6490            6470     3.26812E-03     4.65359E-03
            6509            6471     3.62283E-03     5.01025E-03
            6510            6471     3.62283E-03     5.01025E-03
            6492            6471     3.62283E-03     5.01025E-03
            6491            6471     3.62283E-03     5.01025E-03
            6493            6472     4.68401E-03     6.07437E-03
            6511            6472     4.68401E-03     6.07437E-03
            6510            6472     4.68401E-03     6.07437E-03
            6492            6472     4.68401E-03     6.07437E-03
            6494            6473     8.29475E-03     9.43615E-03
            6512            6473     8.29475E-03     9.43615E-03
            6511            6473     8.29475E-03     9.43615E-03
            6493            6473     8.29475E-03     9.43615E-03
            6514            6474     2.94281E-03     2.70661E-03
            6513            6474     2.94281E-03     2.70661E-03
            6495            6474     2.94281E-03     2.70661E-03
            6496            6474     2.94281E-03     2.70661E-03
            6496            6475     1.68779E-03     2.10150E-03
            6515            6475     1.68779E-03     2.10150E-03
            6497            6475     1.68779E-03     2.10150E-03
            6514            6475     1.68779E-03     2.10150E-03
            6515            6476     1.47336E-03     2.01300E-03
            6498            6476     1.47336E-03     2.01300E-03
            6516            6476     1.47336E-03     2.01300E-03
            6497            6476     1.47336E-03     2.01300E-03
            6516            6477     1.67459E-03     2.19085E-03
            6498            6477     1.67459E-03     2.19085E-03
            6499            6477     1.67459E-03     2.19085E-03
            6517            6477     1.67459E-03     2.19085E-03
            6518            6478     1.88242E-03     2.39967E-03
            6517            6478     1.88242E-03     2.39967E-03
            6499            6478     1.88242E-03     2.39967E-03
            6500            6478     1.88242E-03     2.39967E-03
            6519            6479     2.09591E-03     2.61290E-03
            6518            6479     2.09591E-03     2.61290E-03
            6500            6479     2.09591E-03     2.61290E-03
            6501            6479     2.09591E-03     2.61290E-03
            6520            6480     2.30820E-03     2.82633E-03
            6501            6480     2.30820E-03     2.82633E-03
            6502            6480     2.30820E-03     2.82633E-03
            6519            6480     2.30820E-03     2.82633E-03
            6503            6481     2.51876E-03     3.03483E-03
            6520            6481     2.51876E-03     3.03483E-03
            6502            6481     2.51876E-03     3.03483E-03
            6521            6481     2.51876E-03     3.03483E-03
            6521            6482     2.72840E-03     3.24503E-03
            6522            6482     2.72840E-03     3.24503E-03
            6503            6482     2.72840E-03     3.24503E-03
            6504            6482     2.72840E-03     3.24503E-03
            6522            6483     2.93810E-03     3.45210E-03
            6523            6483     2.93810E-03     3.45210E-03
            6504            6483     2.93810E-03     3.45210E-03
            6505            6483     2.93810E-03     3.45210E-03
            6523            6484     3.14625E-03     3.66131E-03
            6505            6484     3.14625E-03     3.66131E-03
            6506            6484     3.14625E-03     3.66131E-03
            6524            6484     3.14625E-03     3.66131E-03
            6524            6485     3.35302E-03     3.86490E-03
            6525            6485     3.35302E-03     3.86490E-03
            6506            6485     3.35302E-03     3.86490E-03
            6507            6485     3.35302E-03     3.86490E-03
            6507            6486     3.55395E-03     4.06907E-03
            6525            6486     3.55395E-03     4.06907E-03
            6508            6486     3.55395E-03     4.06907E-03
            6526            6486     3.55395E-03     4.06907E-03
            6526            6487     3.77458E-03     4.29193E-03
            6508            6487     3.77458E-03     4.29193E-03
            6527            6487     3.77458E-03     4.29193E-03
            6509            6487     3.77458E-03     4.29193E-03
            6528            6488     3.99243E-03     4.54682E-03
            6527            6488     3.99243E-03     4.54682E-03
            6510            6488     3.99243E-03     4.54682E-03
            6509            6488     3.99243E-03     4.54682E-03
            6528            6489     4.87215E-03     5.23540E-03
            6529            6489     4.87215E-03     5.23540E-03
            6510            6489     4.87215E-03     5.23540E-03
            6511            6489     4.87215E-03     5.23540E-03
            6529            6490     7.58144E-03     7.33070E-03
            6512            6490     7.58144E-03     7.33070E-03
            6511            6490     7.58144E-03     7.33070E-03
            6530            6490     7.58144E-03     7.33070E-03
            6514            6491     2.67314E-03     2.24889E-03
            6532            6491     2.67314E-03     2.24889E-03
            6531            6491     2.67314E-03     2.24889E-03
            6513            6491     2.67314E-03     2.24889E-03
            6514            6492     1.84701E-03     1.55692E-03
            6532            6492     1.84701E-03     1.55692E-03
            6533            6492     1.84701E-03     1.55692E-03
            6515            6492     1.84701E-03     1.55692E-03
            6516            6493     1.99705E-03     1.63758E-03
            6533            6493     1.99705E-03     1.63758E-03
            6515            6493     1.99705E-03     1.63758E-03
            6534            6493     1.99705E-03     1.63758E-03
            6534            6494     2.16207E-03     1.80053E-03
            6517            6494     2.16207E-03     1.80053E-03
            6535            6494     2.16207E-03     1.80053E-03
            6516            6494     2.16207E-03     1.80053E-03
            6535            6495     2.36239E-03     2.00075E-03
            6518            6495     2.36239E-03     2.00075E-03
            6517            6495     2.36239E-03     2.00075E-03
            6536            6495     2.36239E-03     2.00075E-03
            6537            6496     2.56183E-03     2.19943E-03
            6519            6496     2.56183E-03     2.19943E-03
            6536            6496     2.56183E-03     2.19943E-03
            6518            6496     2.56183E-03     2.19943E-03
            6520            6497     2.76498E-03     2.40195E-03
            6537            6497     2.76498E-03     2.40195E-03
            6538            6497     2.76498E-03     2.40195E-03
            6519            6497     2.76498E-03     2.40195E-03
            6520            6498     2.97004E-03     2.60829E-03
            6521            6498     2.97004E-03     2.60829E-03
            6539            6498     2.97004E-03     2.60829E-03
            6538            6498     2.97004E-03     2.60829E-03
            6521            6499     3.17797E-03     2.81495E-03
            6522            6499     3.17797E-03     2.81495E-03
            6539            6499     3.17797E-03     2.81495E-03
            6540            6499     3.17797E-03     2.81495E-03
            6522            6500     3.38687E-03     3.02558E-03
            6540            6500     3.38687E-03     3.02558E-03
            6523            6500     3.38687E-03     3.02558E-03
            6541            6500     3.38687E-03     3.02558E-03
            6541            6501     3.60098E-03     3.23820E-03
            6523            6501     3.60098E-03     3.23820E-03
            6542            6501     3.60098E-03     3.23820E-03
            6524            6501     3.60098E-03     3.23820E-03
            6525            6502     3.82042E-03     3.46082E-03
            6542            6502     3.82042E-03     3.46082E-03
            6524            6502     3.82042E-03     3.46082E-03
            6543            6502     3.82042E-03     3.46082E-03
            6526            6503     4.05713E-03     3.70109E-03
            6543            6503     4.05713E-03     3.70109E-03
            6544            6503     4.05713E-03     3.70109E-03
            6525            6503     4.05713E-03     3.70109E-03
            6545            6504     4.28299E-03     3.92978E-03
            6526            6504     4.28299E-03     3.92978E-03
            6544            6504     4.28299E-03     3.92978E-03
            6527            6504     4.28299E-03     3.92978E-03
            6545            6505     4.57184E-03     4.19980E-03
            6546            6505     4.57184E-03     4.19980E-03
            6528            6505     4.57184E-03     4.19980E-03
            6527            6505     4.57184E-03     4.19980E-03
            6546            6506     4.54285E-03     4.22472E-03
            6547            6506     4.54285E-03     4.22472E-03
            6528            6506     4.54285E-03     4.22472E-03
            6529            6506     4.54285E-03     4.22472E-03
            6530            6507     5.99423E-03     5.71040E-03
            6529            6507     5.99423E-03     5.71040E-03
            6548            6507     5.99423E-03     5.71040E-03
            6547            6507     5.99423E-03     5.71040E-03
            6531            6508     2.36713E-03     2.70537E-03
            6549            6508     2.36713E-03     2.70537E-03
            6532            6508     2.36713E-03     2.70537E-03
            6550            6508     2.36713E-03     2.70537E-03
            6551            6509     2.03448E-03     1.39729E-03
            6550            6509     2.03448E-03     1.39729E-03
            6532            6509     2.03448E-03     1.39729E-03
            6533            6509     2.03448E-03     1.39729E-03
            6534            6510     2.42564E-03     1.34490E-03
            6533            6510     2.42564E-03     1.34490E-03
            6552            6510     2.42564E-03     1.34490E-03
            6551            6510     2.42564E-03     1.34490E-03
            6535            6511     2.62634E-03     1.45201E-03
            6534            6511     2.62634E-03     1.45201E-03
            6552            6511     2.62634E-03     1.45201E-03
            6553            6511     2.62634E-03     1.45201E-03
            6536            6512     2.82042E-03     1.61001E-03
            6535            6512     2.82042E-03     1.61001E-03
            6554            6512     2.82042E-03     1.61001E-03
            6553            6512     2.82042E-03     1.61001E-03
            6537            6513     3.01622E-03     1.79338E-03
            6536            6513     3.01622E-03     1.79338E-03
            6554            6513     3.01622E-03     1.79338E-03
            6555            6513     3.01622E-03     1.79338E-03
            6538            6514     3.21286E-03     1.98476E-03
            6537            6514     3.21286E-03     1.98476E-03
            6556            6514     3.21286E-03     1.98476E-03
            6555            6514     3.21286E-03     1.98476E-03
            6556            6515     3.41580E-03     2.18383E-03
            6557            6515     3.41580E-03     2.18383E-03
            6538            6515     3.41580E-03     2.18383E-03
            6539            6515     3.41580E-03     2.18383E-03
            6557            6516     3.61775E-03     2.38602E-03
            6539            6516     3.61775E-03     2.38602E-03
            6558            6516     3.61775E-03     2.38602E-03
            6540            6516     3.61775E-03     2.38602E-03
            6541            6517     3.82455E-03     2.59016E-03
            6540            6517     3.82455E-03     2.59016E-03
            6558            6517     3.82455E-03     2.59016E-03
            6559            6517     3.82455E-03     2.59016E-03
            6560            6518     4.03095E-03     2.79919E-03
            6559            6518     4.03095E-03     2.79919E-03
            6541            6518     4.03095E-03     2.79919E-03
            6542            6518     4.03095E-03     2.79919E-03
            6543            6519     4.24791E-03     3.01300E-03
            6542            6519     4.24791E-03     3.01300E-03
            6561            6519     4.24791E-03     3.01300E-03
            6560            6519     4.24791E-03     3.01300E-03
            6544            6520     4.46462E-03     3.23566E-03
            6543            6520     4.46462E-03     3.23566E-03
            6561            6520     4.46462E-03     3.23566E-03
            6562            6520     4.46462E-03     3.23566E-03
            6545            6521     4.66680E-03     3.43966E-03
            6544            6521     4.66680E-03     3.43966E-03
            6563            6521     4.66680E-03     3.43966E-03
            6562            6521     4.66680E-03     3.43966E-03
            6546            6522     4.78485E-03     3.57425E-03
            6545            6522     4.78485E-03     3.57425E-03
            6563            6522     4.78485E-03     3.57425E-03
            6564            6522     4.78485E-03     3.57425E-03
            6547            6523     4.28218E-03     3.38265E-03
            6546            6523     4.28218E-03     3.38265E-03
            6565            6523     4.28218E-03     3.38265E-03
            6564            6523     4.28218E-03     3.38265E-03
            6547            6524     4.98726E-03     4.93228E-03
            6565            6524     4.98726E-03     4.93228E-03
            6548            6524     4.98726E-03     4.93228E-03
            6566            6524     4.98726E-03     4.93228E-03


  Minimum                            59.9919E-06     137.597E-06
      At Element                            2325            5156
            Node                              40             768

  Maximum                            99.3194E-03     103.391E-03
      At Element                            1756            3977
            Node                             102            4260

           Total                         204.011         208.250


Field Output reported at element nodes for region: A320-1.Region_2
   Computation algorithm: EXTRAPOLATE_COMPUTE_AVERAGE
   Averaged at nodes
   Averaging regions: ODB_REGIONS

   Element Label      Node Label         S.Mises         S.Mises
                                          @Loc 1          @Loc 2
-----------------------------------------------------------------
            2235               3     4.43946E-03     4.48179E-03
            1793               3     4.43946E-03     4.48179E-03
            2262               4     533.122E-06     532.352E-06
            3913               6     94.2187E-03     89.7738E-03
            2234               6     94.2187E-03     89.7738E-03
            3958               8     96.9349E-03     93.3669E-03
            3859               8     96.9349E-03     93.3669E-03
            3904              10     68.0814E-03     64.1799E-03
            5387              10     68.0814E-03     64.1799E-03
            5325              13     5.93519E-03     5.93522E-03
            5730              13     5.93519E-03     5.93522E-03
            5370              14     534.010E-06     537.608E-06
            5738              15     6.12814E-03     6.15928E-03
            5333              15     6.12814E-03     6.15928E-03
            1785              17     4.86893E-03     4.99101E-03
            2243              17     4.86893E-03     4.99101E-03
            2270              18     533.122E-06     532.352E-06
            2226              21     76.3479E-03     73.4892E-03
            3905              21     76.3479E-03     73.4892E-03
            3851              22     116.469E-03     90.5743E-03
            3950              22     116.469E-03     90.5743E-03
            3896              25     78.8437E-03     77.3330E-03
            5379              25     78.8437E-03     77.3330E-03
            5378              27     534.010E-06     537.608E-06
            2235              38     629.091E-06     623.318E-06
            2244              38     629.091E-06     623.318E-06
            2244              39     516.672E-06     522.656E-06
            2253              39     516.672E-06     522.656E-06
            2262              40     508.748E-06     511.984E-06
            2253              40     508.748E-06     511.984E-06
            2225             102     99.6898E-03     95.8581E-03
            2234             102     99.6898E-03     95.8581E-03
            2225             103     93.3967E-03     93.1157E-03
            2216             103     93.3967E-03     93.1157E-03
            2207             104     89.6602E-03     88.4638E-03
            2216             104     89.6602E-03     88.4638E-03
            2207             105     86.8791E-03     85.7454E-03
            2198             105     86.8791E-03     85.7454E-03
            2198             106     83.7979E-03     82.6059E-03
            2189             106     83.7979E-03     82.6059E-03
            2189             107     80.6507E-03     79.7774E-03
            2180             107     80.6507E-03     79.7774E-03
            2180             108     77.0768E-03     76.4597E-03
            2171             108     77.0768E-03     76.4597E-03
            2162             109     73.3788E-03     73.7547E-03
            2171             109     73.3788E-03     73.7547E-03
            2162             110     68.8407E-03     66.6870E-03
            2153             110     68.8407E-03     66.6870E-03
            2153             111     73.5656E-03     67.4432E-03
            2144             111     73.5656E-03     67.4432E-03
            2144             112     77.6951E-03     74.7085E-03
            2135             112     77.6951E-03     74.7085E-03
            2126             113     72.0847E-03     71.8098E-03
            2135             113     72.0847E-03     71.8098E-03
            2117             114     68.6875E-03     67.7401E-03
            2126             114     68.6875E-03     67.7401E-03
            2117             115     66.1359E-03     65.1753E-03
            2108             115     66.1359E-03     65.1753E-03
            2108             116     63.3701E-03     62.4004E-03
            2099             116     63.3701E-03     62.4004E-03
            2090             117     60.6486E-03     59.7912E-03
            2099             117     60.6486E-03     59.7912E-03
            2081             118     57.8205E-03     57.1117E-03
            2090             118     57.8205E-03     57.1117E-03
            2081             119     54.6491E-03     54.2729E-03
            2072             119     54.6491E-03     54.2729E-03
            2072             120     51.3069E-03     51.6134E-03
            2063             120     51.3069E-03     51.6134E-03
            2063             121     47.0495E-03     45.7111E-03
            2054             121     47.0495E-03     45.7111E-03
            2054             122     51.2086E-03     47.0158E-03
            2045             122     51.2086E-03     47.0158E-03
            2045             123     54.9769E-03     52.8430E-03
            2036             123     54.9769E-03     52.8430E-03
            2036             124     50.0448E-03     49.8152E-03
            2027             124     50.0448E-03     49.8152E-03
            2027             125     46.9675E-03     46.2785E-03
            2018             125     46.9675E-03     46.2785E-03
            2018             126     44.5759E-03     43.9163E-03
            2009             126     44.5759E-03     43.9163E-03
            2009             127     42.0668E-03     41.4137E-03
            2000             127     42.0668E-03     41.4137E-03
            1991             128     39.6094E-03     39.0620E-03
            2000             128     39.6094E-03     39.0620E-03
            1982             129     37.0782E-03     36.6447E-03
            1991             129     37.0782E-03     36.6447E-03
            1982             130     34.3057E-03     34.1493E-03
            1973             130     34.3057E-03     34.1493E-03
            1973             131     31.3418E-03     31.6373E-03
            1964             131     31.3418E-03     31.6373E-03
            1955             132     27.3882E-03     26.8719E-03
            1964             132     27.3882E-03     26.8719E-03
            1955             133     30.8435E-03     28.5204E-03
            1946             133     30.8435E-03     28.5204E-03
            1946             134     34.1867E-03     32.8542E-03
            1937             134     34.1867E-03     32.8542E-03
            1928             135     29.9607E-03     29.7915E-03
            1937             135     29.9607E-03     29.7915E-03
            1919             136     27.2414E-03     26.7990E-03
            1928             136     27.2414E-03     26.7990E-03
            1919             137     25.0611E-03     24.6807E-03
            1910             137     25.0611E-03     24.6807E-03
            1910             138     22.8627E-03     22.4988E-03
            1901             138     22.8627E-03     22.4988E-03
            1892             139     20.7388E-03     20.4721E-03
            1901             139     20.7388E-03     20.4721E-03
            1883             140     18.6055E-03     18.4211E-03
            1892             140     18.6055E-03     18.4211E-03
            1883             141     16.3645E-03     16.4081E-03
            1874             141     16.3645E-03     16.4081E-03
            1865             142     14.0503E-03     14.3560E-03
            1874             142     14.0503E-03     14.3560E-03
            1856             143     11.0865E-03     11.4236E-03
            1865             143     11.0865E-03     11.4236E-03
            1847             144     13.2403E-03     12.6962E-03
            1856             144     13.2403E-03     12.6962E-03
            1838             145     15.2001E-03     14.5825E-03
            1847             145     15.2001E-03     14.5825E-03
            1829             146     11.8896E-03     11.7693E-03
            1838             146     11.8896E-03     11.7693E-03
            1820             147     9.86619E-03     9.61297E-03
            1829             147     9.86619E-03     9.61297E-03
            1811             148     8.39075E-03     8.29513E-03
            1820             148     8.39075E-03     8.29513E-03
            1811             149     7.52458E-03     7.55189E-03
            1802             149     7.52458E-03     7.55189E-03
            1802             150     7.79147E-03     7.87425E-03
            1793             150     7.79147E-03     7.87425E-03
            3958             162     96.0949E-03     96.8407E-03
            3949             162     96.0949E-03     96.8407E-03
            3940             163     90.5491E-03     92.7322E-03
            3949             163     90.5491E-03     92.7322E-03
            3940             164     85.8893E-03     88.0584E-03
            3931             164     85.8893E-03     88.0584E-03
            3922             165     82.2716E-03     78.3655E-03
            3931             165     82.2716E-03     78.3655E-03
            3922             166     82.5763E-03     77.0068E-03
            3913             166     82.5763E-03     77.0068E-03
            3904             178     70.8215E-03     68.3279E-03
            3895             178     70.8215E-03     68.3279E-03
            3886             179     76.5645E-03     78.1972E-03
            3895             179     76.5645E-03     78.1972E-03
            3886             180     80.9260E-03     81.5012E-03
            3877             180     80.9260E-03     81.5012E-03
            3868             181     85.9517E-03     86.8980E-03
            3877             181     85.9517E-03     86.8980E-03
            3859             182     92.2882E-03     90.0241E-03
            3868             182     92.2882E-03     90.0241E-03
            5325             194     790.233E-06     775.372E-06
            5334             194     790.233E-06     775.372E-06
            5334             195     610.496E-06     612.815E-06
            5343             195     610.496E-06     612.815E-06
            5343             196     503.562E-06     509.094E-06
            5352             196     503.562E-06     509.094E-06
            5352             197     462.302E-06     473.587E-06
            5361             197     462.302E-06     473.587E-06
            5370             198     494.344E-06     503.544E-06
            5361             198     494.344E-06     503.544E-06
            5738             250     10.7969E-03     11.0275E-03
            5729             250     10.7969E-03     11.0275E-03
            5720             251     10.2210E-03     10.6582E-03
            5729             251     10.2210E-03     10.6582E-03
            5720             252     11.8269E-03     12.0543E-03
            5711             252     11.8269E-03     12.0543E-03
            5711             253     15.2557E-03     15.2940E-03
            5702             253     15.2557E-03     15.2940E-03
            5702             254     14.2017E-03     13.9512E-03
            5693             254     14.2017E-03     13.9512E-03
            5693             255     11.6078E-03     12.0045E-03
            5684             255     11.6078E-03     12.0045E-03
            5684             256     12.9950E-03     13.8652E-03
            5675             256     12.9950E-03     13.8652E-03
            5666             257     15.2064E-03     15.5352E-03
            5675             257     15.2064E-03     15.5352E-03
            5666             258     17.4805E-03     17.6039E-03
            5657             258     17.4805E-03     17.6039E-03
            5657             259     19.8502E-03     19.7610E-03
            5648             259     19.8502E-03     19.7610E-03
            5648             260     22.2116E-03     22.0655E-03
            5639             260     22.2116E-03     22.0655E-03
            5639             261     24.7931E-03     24.5414E-03
            5630             261     24.7931E-03     24.5414E-03
            5630             262     27.2864E-03     27.1276E-03
            5621             262     27.2864E-03     27.1276E-03
            5621             263     30.6629E-03     30.5084E-03
            5612             263     30.6629E-03     30.5084E-03
            5603             264     35.3582E-03     34.6038E-03
            5612             264     35.3582E-03     34.6038E-03
            5594             265     30.2162E-03     27.3280E-03
            5603             265     30.2162E-03     27.3280E-03
            5585             266     24.5833E-03     23.4021E-03
            5594             266     24.5833E-03     23.4021E-03
            5576             267     28.6534E-03     29.6870E-03
            5585             267     28.6534E-03     29.6870E-03
            5567             268     32.3290E-03     32.3789E-03
            5576             268     32.3290E-03     32.3789E-03
            5567             269     35.3835E-03     35.2914E-03
            5558             269     35.3835E-03     35.2914E-03
            5549             270     38.3247E-03     37.8968E-03
            5558             270     38.3247E-03     37.8968E-03
            5549             271     41.1331E-03     40.6876E-03
            5540             271     41.1331E-03     40.6876E-03
            5531             272     43.9304E-03     43.3980E-03
            5540             272     43.9304E-03     43.3980E-03
            5522             273     46.8768E-03     46.3394E-03
            5531             273     46.8768E-03     46.3394E-03
            5522             274     49.6341E-03     49.2094E-03
            5513             274     49.6341E-03     49.2094E-03
            5504             275     53.3670E-03     53.1971E-03
            5513             275     53.3670E-03     53.1971E-03
            5504             276     58.6769E-03     57.0064E-03
            5495             276     58.6769E-03     57.0064E-03
            5486             277     52.6605E-03     47.3860E-03
            5495             277     52.6605E-03     47.3860E-03
            5486             278     46.1473E-03     43.9406E-03
            5477             278     46.1473E-03     43.9406E-03
            5468             279     50.9661E-03     52.0855E-03
            5477             279     50.9661E-03     52.0855E-03
            5468             280     55.2448E-03     55.1076E-03
            5459             280     55.2448E-03     55.1076E-03
            5459             281     58.7877E-03     58.4454E-03
            5450             281     58.7877E-03     58.4454E-03
            5450             282     62.1406E-03     61.4705E-03
            5441             282     62.1406E-03     61.4705E-03
            5441             283     65.2792E-03     64.5501E-03
            5432             283     65.2792E-03     64.5501E-03
            5423             284     68.5701E-03     67.7802E-03
            5432             284     68.5701E-03     67.7802E-03
            5414             285     71.5533E-03     70.9155E-03
            5423             285     71.5533E-03     70.9155E-03
            5414             286     75.5836E-03     75.4499E-03
            5405             286     75.5836E-03     75.4499E-03
            5396             287     81.4976E-03     78.8705E-03
            5405             287     81.4976E-03     78.8705E-03
            5387             288     76.5687E-03     73.7776E-03
            5396             288     76.5687E-03     73.7776E-03
            2243             306     629.091E-06     623.318E-06
            2252             306     629.091E-06     623.318E-06
            2252             307     516.672E-06     522.656E-06
            2261             307     516.672E-06     522.656E-06
            2261             308     508.748E-06     511.984E-06
            2270             308     508.748E-06     511.984E-06
            1786             424     5.40038E-03     5.40179E-03
            2242             424     5.40038E-03     5.40179E-03
            2243             424     5.40038E-03     5.40179E-03
            1785             424     5.40038E-03     5.40179E-03
            1787             425     6.05386E-03     5.97323E-03
            2242             425     6.05386E-03     5.97323E-03
            2241             425     6.05386E-03     5.97323E-03
            1786             425     6.05386E-03     5.97323E-03
            2241             426     6.36867E-03     6.32396E-03
            2240             426     6.36867E-03     6.32396E-03
            1787             426     6.36867E-03     6.32396E-03
            1788             426     6.36867E-03     6.32396E-03
            2239             427     6.57408E-03     6.54449E-03
            2240             427     6.57408E-03     6.54449E-03
            1789             427     6.57408E-03     6.54449E-03
            1788             427     6.57408E-03     6.54449E-03
            2238             428     6.54500E-03     6.54339E-03
            1790             428     6.54500E-03     6.54339E-03
            2239             428     6.54500E-03     6.54339E-03
            1789             428     6.54500E-03     6.54339E-03
            1790             429     6.29239E-03     6.29666E-03
            2238             429     6.29239E-03     6.29666E-03
            2237             429     6.29239E-03     6.29666E-03
            1791             429     6.29239E-03     6.29666E-03
            1791             430     5.86373E-03     5.91601E-03
            1792             430     5.86373E-03     5.91601E-03
            2237             430     5.86373E-03     5.91601E-03
            2236             430     5.86373E-03     5.91601E-03
            1793             431     5.04270E-03     5.11615E-03
            2235             431     5.04270E-03     5.11615E-03
            2236             431     5.04270E-03     5.11615E-03
            1792             431     5.04270E-03     5.11615E-03
            2233             432     81.3700E-03     77.4665E-03
            3913             432     81.3700E-03     77.4665E-03
            3912             432     81.3700E-03     77.4665E-03
            2234             432     81.3700E-03     77.4665E-03
            2233             433     58.4562E-03     55.5973E-03
            2232             433     58.4562E-03     55.5973E-03
            3912             433     58.4562E-03     55.5973E-03
            3911             433     58.4562E-03     55.5973E-03
            3910             434     39.2233E-03     37.4566E-03
            3911             434     39.2233E-03     37.4566E-03
            2232             434     39.2233E-03     37.4566E-03
            2231             434     39.2233E-03     37.4566E-03
            3910             435     22.4362E-03     21.8055E-03
            2231             435     22.4362E-03     21.8055E-03
            3909             435     22.4362E-03     21.8055E-03
            2230             435     22.4362E-03     21.8055E-03
            2229             436     15.8617E-03     15.8441E-03
            2230             436     15.8617E-03     15.8441E-03
            3908             436     15.8617E-03     15.8441E-03
            3909             436     15.8617E-03     15.8441E-03
            2229             437     24.8758E-03     24.2828E-03
            3908             437     24.8758E-03     24.2828E-03
            2228             437     24.8758E-03     24.2828E-03
            3907             437     24.8758E-03     24.2828E-03
            2228             438     42.5365E-03     40.8641E-03
            2227             438     42.5365E-03     40.8641E-03
            3906             438     42.5365E-03     40.8641E-03
            3907             438     42.5365E-03     40.8641E-03
            2226             439     64.2880E-03     61.8033E-03
            2227             439     64.2880E-03     61.8033E-03
            3906             439     64.2880E-03     61.8033E-03
            3905             439     64.2880E-03     61.8033E-03
            2217             440     79.7161E-03     77.1764E-03
            2226             440     79.7161E-03     77.1764E-03
            2208             441     74.6771E-03     74.7234E-03
            2217             441     74.6771E-03     74.7234E-03
            2199             442     71.1957E-03     70.6272E-03
            2208             442     71.1957E-03     70.6272E-03
            2190             443     68.5591E-03     67.9660E-03
            2199             443     68.5591E-03     67.9660E-03
            2190             444     65.6305E-03     64.9817E-03
            2181             444     65.6305E-03     64.9817E-03
            2172             445     62.6336E-03     62.3936E-03
            2181             445     62.6336E-03     62.3936E-03
            2163             446     59.4266E-03     59.2396E-03
            2172             446     59.4266E-03     59.2396E-03
            2154             447     55.5119E-03     56.7454E-03
            2163             447     55.5119E-03     56.7454E-03
            2145             448     51.1866E-03     48.7246E-03
            2154             448     51.1866E-03     48.7246E-03
            2145             449     56.8439E-03     50.8787E-03
            2136             449     56.8439E-03     50.8787E-03
            2127             450     62.1677E-03     60.3275E-03
            2136             450     62.1677E-03     60.3275E-03
            2118             451     57.6223E-03     57.5695E-03
            2127             451     57.6223E-03     57.5695E-03
            2118             452     54.4219E-03     54.0021E-03
            2109             452     54.4219E-03     54.0021E-03
            2100             453     52.0328E-03     51.4714E-03
            2109             453     52.0328E-03     51.4714E-03
            2091             454     49.3826E-03     48.8846E-03
            2100             454     49.3826E-03     48.8846E-03
            2082             455     46.8863E-03     46.4128E-03
            2091             455     46.8863E-03     46.4128E-03
            2073             456     44.2068E-03     44.0250E-03
            2082             456     44.2068E-03     44.0250E-03
            2064             457     41.4302E-03     41.3705E-03
            2073             457     41.4302E-03     41.3705E-03
            2064             458     37.9589E-03     39.0184E-03
            2055             458     37.9589E-03     39.0184E-03
            2055             459     34.1703E-03     32.3702E-03
            2046             459     34.1703E-03     32.3702E-03
            2046             460     39.3684E-03     35.1727E-03
            2037             460     39.3684E-03     35.1727E-03
            2037             461     44.1991E-03     43.0699E-03
            2028             461     44.1991E-03     43.0699E-03
            2028             462     40.1603E-03     40.0600E-03
            2019             462     40.1603E-03     40.0600E-03
            2019             463     37.2326E-03     36.9807E-03
            2010             463     37.2326E-03     36.9807E-03
            2010             464     35.0539E-03     34.6813E-03
            2001             464     35.0539E-03     34.6813E-03
            2001             465     32.6820E-03     32.3942E-03
            1992             465     32.6820E-03     32.3942E-03
            1983             466     30.4662E-03     30.1991E-03
            1992             466     30.4662E-03     30.1991E-03
            1983             467     28.1027E-03     28.0814E-03
            1974             467     28.1027E-03     28.0814E-03
            1974             468     25.7083E-03     25.7905E-03
            1965             468     25.7083E-03     25.7905E-03
            1956             469     22.7430E-03     23.6914E-03
            1965             469     22.7430E-03     23.6914E-03
            1956             470     19.6117E-03     18.5661E-03
            1947             470     19.6117E-03     18.5661E-03
            1947             471     24.1048E-03     21.6811E-03
            1938             471     24.1048E-03     21.6811E-03
            1929             472     28.1981E-03     27.7089E-03
            1938             472     28.1981E-03     27.7089E-03
            1929             473     24.6825E-03     24.5779E-03
            1920             473     24.6825E-03     24.5779E-03
            1911             474     22.0861E-03     22.0092E-03
            1920             474     22.0861E-03     22.0092E-03
            1902             475     20.1900E-03     20.0065E-03
            1911             475     20.1900E-03     20.0065E-03
            1902             476     18.1832E-03     18.0967E-03
            1893             476     18.1832E-03     18.0967E-03
            1884             477     16.3556E-03     16.2926E-03
            1893             477     16.3556E-03     16.2926E-03
            1875             478     14.4774E-03     14.6090E-03
            1884             478     14.4774E-03     14.6090E-03
            1866             479     12.6721E-03     12.9382E-03
            1875             479     12.6721E-03     12.9382E-03
            1866             480     10.7614E-03     11.5652E-03
            1857             480     10.7614E-03     11.5652E-03
            1848             481     9.46260E-03     9.63976E-03
            1857             481     9.46260E-03     9.63976E-03
            1839             482     12.0542E-03     11.6770E-03
            1848             482     12.0542E-03     11.6770E-03
            1839             483     13.4983E-03     13.5172E-03
            1830             483     13.4983E-03     13.5172E-03
            1830             484     10.6661E-03     10.7224E-03
            1821             484     10.6661E-03     10.7224E-03
            1812             485     8.76225E-03     9.03392E-03
            1821             485     8.76225E-03     9.03392E-03
            1812             486     7.70184E-03     7.98324E-03
            1803             486     7.70184E-03     7.98324E-03
            1794             487     7.30257E-03     7.69352E-03
            1803             487     7.30257E-03     7.69352E-03
            1794             488     8.26522E-03     8.58319E-03
            1785             488     8.26522E-03     8.58319E-03
            2269             489     613.643E-06     615.529E-06
            2270             489     613.643E-06     615.529E-06
            2269             490     706.635E-06     708.275E-06
            2268             490     706.635E-06     708.275E-06
            2267             491     742.442E-06     743.664E-06
            2268             491     742.442E-06     743.664E-06
            2267             492     754.300E-06     757.362E-06
            2266             492     754.300E-06     757.362E-06
            2266             493     754.300E-06     757.362E-06
            2265             493     754.300E-06     757.362E-06
            2265             494     742.442E-06     743.664E-06
            2264             494     742.442E-06     743.664E-06
            2264             495     706.635E-06     708.275E-06
            2263             495     706.635E-06     708.275E-06
            2262             496     613.643E-06     615.529E-06
            2263             496     613.643E-06     615.529E-06
            3905             520     64.7813E-03     82.2086E-03
            3914             520     64.7813E-03     82.2086E-03
            3914             521     74.9463E-03     88.3452E-03
            3923             521     74.9463E-03     88.3452E-03
            3932             522     89.9714E-03     85.5581E-03
            3923             522     89.9714E-03     85.5581E-03
            3932             523     89.7603E-03     95.0251E-03
            3941             523     89.7603E-03     95.0251E-03
            3941             524     105.229E-03     90.5340E-03
            3950             524     105.229E-03     90.5340E-03
            3951             609     97.3691E-03     75.5259E-03
            3851             609     97.3691E-03     75.5259E-03
            3852             609     97.3691E-03     75.5259E-03
            3950             609     97.3691E-03     75.5259E-03
            3951             610     65.8582E-03     50.0702E-03
            3952             610     65.8582E-03     50.0702E-03
            3853             610     65.8582E-03     50.0702E-03
            3852             610     65.8582E-03     50.0702E-03
            3952             611     42.9000E-03     31.5099E-03
            3854             611     42.9000E-03     31.5099E-03
            3953             611     42.9000E-03     31.5099E-03
            3853             611     42.9000E-03     31.5099E-03
            3953             612     23.0029E-03     18.6893E-03
            3855             612     23.0029E-03     18.6893E-03
            3954             612     23.0029E-03     18.6893E-03
            3854             612     23.0029E-03     18.6893E-03
            3955             613     15.8951E-03     19.5568E-03
            3855             613     15.8951E-03     19.5568E-03
            3856             613     15.8951E-03     19.5568E-03
            3954             613     15.8951E-03     19.5568E-03
            3856             614     27.9416E-03     33.4097E-03
            3955             614     27.9416E-03     33.4097E-03
            3857             614     27.9416E-03     33.4097E-03
            3956             614     27.9416E-03     33.4097E-03
            3956             615     49.7358E-03     51.8806E-03
            3858             615     49.7358E-03     51.8806E-03
            3857             615     49.7358E-03     51.8806E-03
            3957             615     49.7358E-03     51.8806E-03
            3957             616     79.3301E-03     77.7005E-03
            3859             616     79.3301E-03     77.7005E-03
            3958             616     79.3301E-03     77.7005E-03
            3858             616     79.3301E-03     77.7005E-03
            5386             617     60.1589E-03     56.4179E-03
            3904             617     60.1589E-03     56.4179E-03
            3903             617     60.1589E-03     56.4179E-03
            5387             617     60.1589E-03     56.4179E-03
            3903             618     44.9122E-03     42.1725E-03
            5385             618     44.9122E-03     42.1725E-03
            5386             618     44.9122E-03     42.1725E-03
            3902             618     44.9122E-03     42.1725E-03
            5384             619     31.4570E-03     30.0498E-03
            3901             619     31.4570E-03     30.0498E-03
            3902             619     31.4570E-03     30.0498E-03
            5385             619     31.4570E-03     30.0498E-03
            5383             620     23.6885E-03     23.1260E-03
            5384             620     23.6885E-03     23.1260E-03
            3901             620     23.6885E-03     23.1260E-03
            3900             620     23.6885E-03     23.1260E-03
            5383             621     27.1205E-03     26.8884E-03
            3900             621     27.1205E-03     26.8884E-03
            5382             621     27.1205E-03     26.8884E-03
            3899             621     27.1205E-03     26.8884E-03
            5381             622     39.4359E-03     38.8725E-03
            5382             622     39.4359E-03     38.8725E-03
            3898             622     39.4359E-03     38.8725E-03
            3899             622     39.4359E-03     38.8725E-03
            3898             623     54.2857E-03     52.8728E-03
            5380             623     54.2857E-03     52.8728E-03
            3897             623     54.2857E-03     52.8728E-03
            5381             623     54.2857E-03     52.8728E-03
            3896             624     70.3667E-03     68.6346E-03
            5379             624     70.3667E-03     68.6346E-03
            5380             624     70.3667E-03     68.6346E-03
            3897             624     70.3667E-03     68.6346E-03
            3887             625     83.7348E-03     82.6094E-03
            3896             625     83.7348E-03     82.6094E-03
            3887             626     90.2378E-03     91.0565E-03
            3878             626     90.2378E-03     91.0565E-03
            3869             627     94.3889E-03     94.4460E-03
            3878             627     94.3889E-03     94.4460E-03
            3860             628     99.7753E-03     100.371E-03
            3869             628     99.7753E-03     100.371E-03
            3860             629     107.716E-03     103.253E-03
            3851             629     107.716E-03     103.253E-03
            5388             636     87.5091E-03     83.6048E-03
            5379             636     87.5091E-03     83.6048E-03
            5397             637     92.3453E-03     88.8782E-03
            5388             637     92.3453E-03     88.8782E-03
            5406             638     85.6654E-03     85.3782E-03
            5397             638     85.6654E-03     85.3782E-03
            5415             639     81.4968E-03     80.4829E-03
            5406             639     81.4968E-03     80.4829E-03
            5424             640     78.3920E-03     77.3208E-03
            5415             640     78.3920E-03     77.3208E-03
            5433             641     75.0191E-03     73.9565E-03
            5424             641     75.0191E-03     73.9565E-03
            5442             642     71.7217E-03     70.7814E-03
            5433             642     71.7217E-03     70.7814E-03
            5451             643     68.2664E-03     67.5538E-03
            5442             643     68.2664E-03     67.5538E-03
            5460             644     64.4502E-03     64.0970E-03
            5451             644     64.4502E-03     64.0970E-03
            5460             645     60.2768E-03     60.8649E-03
            5469             645     60.2768E-03     60.8649E-03
            5478             646     55.1184E-03     53.2854E-03
            5469             646     55.1184E-03     53.2854E-03
            5487             647     60.8250E-03     55.5682E-03
            5478             647     60.8250E-03     55.5682E-03
            5496             648     66.0262E-03     63.6148E-03
            5487             648     66.0262E-03     63.6148E-03
            5496             649     60.0789E-03     59.8257E-03
            5505             649     60.0789E-03     59.8257E-03
            5514             650     56.2474E-03     55.5140E-03
            5505             650     56.2474E-03     55.5140E-03
            5514             651     53.3295E-03     52.5937E-03
            5523             651     53.3295E-03     52.5937E-03
            5523             652     50.2853E-03     49.5152E-03
            5532             652     50.2853E-03     49.5152E-03
            5541             653     47.3332E-03     46.6771E-03
            5532             653     47.3332E-03     46.6771E-03
            5550             654     44.3675E-03     43.7388E-03
            5541             654     44.3675E-03     43.7388E-03
            5550             655     41.2777E-03     40.9138E-03
            5559             655     41.2777E-03     40.9138E-03
            5559             656     37.9545E-03     37.8418E-03
            5568             656     37.9545E-03     37.8418E-03
            5577             657     34.2641E-03     34.8358E-03
            5568             657     34.2641E-03     34.8358E-03
            5586             658     29.5380E-03     28.7939E-03
            5577             658     29.5380E-03     28.7939E-03
            5595             659     34.4054E-03     31.6376E-03
            5586             659     34.4054E-03     31.6376E-03
            5604             660     39.0303E-03     37.6762E-03
            5595             660     39.0303E-03     37.6762E-03
            5604             661     33.8428E-03     33.6464E-03
            5613             661     33.8428E-03     33.6464E-03
            5613             662     30.3837E-03     29.9635E-03
            5622             662     30.3837E-03     29.9635E-03
            5622             663     27.6756E-03     27.2860E-03
            5631             663     27.6756E-03     27.2860E-03
            5631             664     24.9477E-03     24.6057E-03
            5640             664     24.9477E-03     24.6057E-03
            5640             665     22.3637E-03     22.1278E-03
            5649             665     22.3637E-03     22.1278E-03
            5658             666     19.7900E-03     19.6923E-03
            5649             666     19.7900E-03     19.6923E-03
            5658             667     17.1861E-03     17.3458E-03
            5667             667     17.1861E-03     17.3458E-03
            5676             668     14.5910E-03     15.1467E-03
            5667             668     14.5910E-03     15.1467E-03
            5685             669     11.9473E-03     12.4008E-03
            5676             669     11.9473E-03     12.4008E-03
            5694             670     14.4402E-03     14.0046E-03
            5685             670     14.4402E-03     14.0046E-03
            5703             671     16.1317E-03     15.6229E-03
            5694             671     16.1317E-03     15.6229E-03
            5703             672     12.3901E-03     12.3113E-03
            5712             672     12.3901E-03     12.3113E-03
            5721             673     10.6255E-03     10.5612E-03
            5712             673     10.6255E-03     10.5612E-03
            5730             674     10.7044E-03     10.6938E-03
            5721             674     10.7044E-03     10.6938E-03
            5333             765     790.233E-06     775.372E-06
            5342             765     790.233E-06     775.372E-06
            5342             766     610.496E-06     612.815E-06
            5351             766     610.496E-06     612.815E-06
            5351             767     503.562E-06     509.094E-06
            5360             767     503.562E-06     509.094E-06
            5369             768     462.302E-06     473.587E-06
            5360             768     462.302E-06     473.587E-06
            5378             769     494.344E-06     503.544E-06
            5369             769     494.344E-06     503.544E-06
            5326             792     6.80156E-03     6.83028E-03
            5325             792     6.80156E-03     6.83028E-03
            5731             792     6.80156E-03     6.83028E-03
            5730             792     6.80156E-03     6.83028E-03
            5327             793     7.93955E-03     7.96592E-03
            5731             793     7.93955E-03     7.96592E-03
            5732             793     7.93955E-03     7.96592E-03
            5326             793     7.93955E-03     7.96592E-03
            5327             794     8.42679E-03     8.42783E-03
            5328             794     8.42679E-03     8.42783E-03
            5732             794     8.42679E-03     8.42783E-03
            5733             794     8.42679E-03     8.42783E-03
            5734             795     8.72239E-03     8.72589E-03
            5328             795     8.72239E-03     8.72589E-03
            5733             795     8.72239E-03     8.72589E-03
            5329             795     8.72239E-03     8.72589E-03
            5735             796     8.73603E-03     8.71968E-03
            5330             796     8.73603E-03     8.71968E-03
            5329             796     8.73603E-03     8.71968E-03
            5734             796     8.73603E-03     8.71968E-03
            5735             797     8.45950E-03     8.41961E-03
            5331             797     8.45950E-03     8.41961E-03
            5736             797     8.45950E-03     8.41961E-03
            5330             797     8.45950E-03     8.41961E-03
            5332             798     8.03161E-03     7.95182E-03
            5331             798     8.03161E-03     7.95182E-03
            5737             798     8.03161E-03     7.95182E-03
            5736             798     8.03161E-03     7.95182E-03
            5737             799     6.97103E-03     6.93022E-03
            5738             799     6.97103E-03     6.93022E-03
            5333             799     6.97103E-03     6.93022E-03
            5332             799     6.97103E-03     6.93022E-03
            5378             800     603.521E-06     606.129E-06
            5377             800     603.521E-06     606.129E-06
            5376             801     691.570E-06     691.031E-06
            5377             801     691.570E-06     691.031E-06
            5376             802     740.568E-06     738.878E-06
            5375             802     740.568E-06     738.878E-06
            5375             803     766.204E-06     764.909E-06
            5374             803     766.204E-06     764.909E-06
            5374             804     766.204E-06     764.909E-06
            5373             804     766.204E-06     764.909E-06
            5372             805     740.568E-06     738.878E-06
            5373             805     740.568E-06     738.878E-06
            5371             806     691.570E-06     691.031E-06
            5372             806     691.570E-06     691.031E-06
            5370             807     603.521E-06     606.129E-06
            5371             807     603.521E-06     606.129E-06
            1795            2369     9.76538E-03     9.78858E-03
            1794            2369     9.76538E-03     9.78858E-03
            1785            2369     9.76538E-03     9.78858E-03
            1786            2369     9.76538E-03     9.78858E-03
            1795            2370     11.6217E-03     11.4023E-03
            1786            2370     11.6217E-03     11.4023E-03
            1796            2370     11.6217E-03     11.4023E-03
            1787            2370     11.6217E-03     11.4023E-03
            1797            2371     12.2802E-03     12.1372E-03
            1788            2371     12.2802E-03     12.1372E-03
            1787            2371     12.2802E-03     12.1372E-03
            1796            2371     12.2802E-03     12.1372E-03
            1797            2372     12.6150E-03     12.5161E-03
            1789            2372     12.6150E-03     12.5161E-03
            1798            2372     12.6150E-03     12.5161E-03
            1788            2372     12.6150E-03     12.5161E-03
            1789            2373     12.5788E-03     12.5236E-03
            1790            2373     12.5788E-03     12.5236E-03
            1798            2373     12.5788E-03     12.5236E-03
            1799            2373     12.5788E-03     12.5236E-03
            1791            2374     12.1647E-03     12.1511E-03
            1800            2374     12.1647E-03     12.1511E-03
            1790            2374     12.1647E-03     12.1511E-03
            1799            2374     12.1647E-03     12.1511E-03
            1792            2375     11.3063E-03     11.3926E-03
            1801            2375     11.3063E-03     11.3926E-03
            1800            2375     11.3063E-03     11.3926E-03
            1791            2375     11.3063E-03     11.3926E-03
            1802            2376     9.29247E-03     9.41802E-03
            1801            2376     9.29247E-03     9.41802E-03
            1792            2376     9.29247E-03     9.41802E-03
            1793            2376     9.29247E-03     9.41802E-03
            1795            2377     9.11212E-03     9.31555E-03
            1794            2377     9.11212E-03     9.31555E-03
            1803            2377     9.11212E-03     9.31555E-03
            1804            2377     9.11212E-03     9.31555E-03
            1796            2378     11.7167E-03     11.6349E-03
            1804            2378     11.7167E-03     11.6349E-03
            1795            2378     11.7167E-03     11.6349E-03
            1805            2378     11.7167E-03     11.6349E-03
            1805            2379     12.7140E-03     12.5656E-03
            1797            2379     12.7140E-03     12.5656E-03
            1806            2379     12.7140E-03     12.5656E-03
            1796            2379     12.7140E-03     12.5656E-03
            1797            2380     13.0461E-03     12.9318E-03
            1806            2380     13.0461E-03     12.9318E-03
            1798            2380     13.0461E-03     12.9318E-03
            1807            2380     13.0461E-03     12.9318E-03
            1807            2381     13.0597E-03     12.9578E-03
            1799            2381     13.0597E-03     12.9578E-03
            1798            2381     13.0597E-03     12.9578E-03
            1808            2381     13.0597E-03     12.9578E-03
            1808            2382     12.7125E-03     12.6597E-03
            1799            2382     12.7125E-03     12.6597E-03
            1809            2382     12.7125E-03     12.6597E-03
            1800            2382     12.7125E-03     12.6597E-03
            1810            2383     11.7218E-03     11.6988E-03
            1801            2383     11.7218E-03     11.6988E-03
            1809            2383     11.7218E-03     11.6988E-03
            1800            2383     11.7218E-03     11.6988E-03
            1811            2384     9.24344E-03     9.24045E-03
            1802            2384     9.24344E-03     9.24045E-03
            1801            2384     9.24344E-03     9.24045E-03
            1810            2384     9.24344E-03     9.24045E-03
            1803            2385     9.13123E-03     9.42036E-03
            1812            2385     9.13123E-03     9.42036E-03
            1813            2385     9.13123E-03     9.42036E-03
            1804            2385     9.13123E-03     9.42036E-03
            1804            2386     11.5270E-03     11.7036E-03
            1805            2386     11.5270E-03     11.7036E-03
            1814            2386     11.5270E-03     11.7036E-03
            1813            2386     11.5270E-03     11.7036E-03
            1805            2387     12.9068E-03     12.9064E-03
            1815            2387     12.9068E-03     12.9064E-03
            1806            2387     12.9068E-03     12.9064E-03
            1814            2387     12.9068E-03     12.9064E-03
            1806            2388     13.4009E-03     13.3529E-03
            1816            2388     13.4009E-03     13.3529E-03
            1807            2388     13.4009E-03     13.3529E-03
            1815            2388     13.4009E-03     13.3529E-03
            1807            2389     13.4501E-03     13.4103E-03
            1817            2389     13.4501E-03     13.4103E-03
            1816            2389     13.4501E-03     13.4103E-03
            1808            2389     13.4501E-03     13.4103E-03
            1808            2390     13.0967E-03     13.0115E-03
            1809            2390     13.0967E-03     13.0115E-03
            1818            2390     13.0967E-03     13.0115E-03
            1817            2390     13.0967E-03     13.0115E-03
            1819            2391     11.9386E-03     11.7982E-03
            1810            2391     11.9386E-03     11.7982E-03
            1818            2391     11.9386E-03     11.7982E-03
            1809            2391     11.9386E-03     11.7982E-03
            1820            2392     9.74656E-03     9.62318E-03
            1819            2392     9.74656E-03     9.62318E-03
            1810            2392     9.74656E-03     9.62318E-03
            1811            2392     9.74656E-03     9.62318E-03
            1813            2393     9.85555E-03     10.1080E-03
            1812            2393     9.85555E-03     10.1080E-03
            1822            2393     9.85555E-03     10.1080E-03
            1821            2393     9.85555E-03     10.1080E-03
            1822            2394     11.7523E-03     11.9577E-03
            1813            2394     11.7523E-03     11.9577E-03
            1823            2394     11.7523E-03     11.9577E-03
            1814            2394     11.7523E-03     11.9577E-03
            1823            2395     12.9225E-03     13.0536E-03
            1824            2395     12.9225E-03     13.0536E-03
            1815            2395     12.9225E-03     13.0536E-03
            1814            2395     12.9225E-03     13.0536E-03
            1816            2396     13.3624E-03     13.4296E-03
            1815            2396     13.3624E-03     13.4296E-03
            1824            2396     13.3624E-03     13.4296E-03
            1825            2396     13.3624E-03     13.4296E-03
            1817            2397     13.4501E-03     13.5015E-03
            1825            2397     13.4501E-03     13.5015E-03
            1826            2397     13.4501E-03     13.5015E-03
            1816            2397     13.4501E-03     13.5015E-03
            1817            2398     13.2470E-03     13.2463E-03
            1827            2398     13.2470E-03     13.2463E-03
            1826            2398     13.2470E-03     13.2463E-03
            1818            2398     13.2470E-03     13.2463E-03
            1827            2399     12.3716E-03     12.2539E-03
            1828            2399     12.3716E-03     12.2539E-03
            1819            2399     12.3716E-03     12.2539E-03
            1818            2399     12.3716E-03     12.2539E-03
            1820            2400     10.7899E-03     10.5730E-03
            1828            2400     10.7899E-03     10.5730E-03
            1829            2400     10.7899E-03     10.5730E-03
            1819            2400     10.7899E-03     10.5730E-03
            1821            2401     11.3413E-03     11.4458E-03
            1822            2401     11.3413E-03     11.4458E-03
            1830            2401     11.3413E-03     11.4458E-03
            1831            2401     11.3413E-03     11.4458E-03
            1822            2402     12.2936E-03     12.4644E-03
            1832            2402     12.2936E-03     12.4644E-03
            1823            2402     12.2936E-03     12.4644E-03
            1831            2402     12.2936E-03     12.4644E-03
            1833            2403     12.6339E-03     12.8203E-03
            1824            2403     12.6339E-03     12.8203E-03
            1832            2403     12.6339E-03     12.8203E-03
            1823            2403     12.6339E-03     12.8203E-03
            1833            2404     12.8551E-03     13.0069E-03
            1825            2404     12.8551E-03     13.0069E-03
            1834            2404     12.8551E-03     13.0069E-03
            1824            2404     12.8551E-03     13.0069E-03
            1835            2405     12.9921E-03     13.0872E-03
            1826            2405     12.9921E-03     13.0872E-03
            1834            2405     12.9921E-03     13.0872E-03
            1825            2405     12.9921E-03     13.0872E-03
            1836            2406     13.0241E-03     13.1169E-03
            1827            2406     13.0241E-03     13.1169E-03
            1826            2406     13.0241E-03     13.1169E-03
            1835            2406     13.0241E-03     13.1169E-03
            1827            2407     13.0001E-03     13.0275E-03
            1837            2407     13.0001E-03     13.0275E-03
            1828            2407     13.0001E-03     13.0275E-03
            1836            2407     13.0001E-03     13.0275E-03
            1837            2408     12.4065E-03     12.3160E-03
            1828            2408     12.4065E-03     12.3160E-03
            1838            2408     12.4065E-03     12.3160E-03
            1829            2408     12.4065E-03     12.3160E-03
            1840            2409     13.0358E-03     13.1252E-03
            1831            2409     13.0358E-03     13.1252E-03
            1839            2409     13.0358E-03     13.1252E-03
            1830            2409     13.0358E-03     13.1252E-03
            1841            2410     12.1708E-03     12.3640E-03
            1831            2410     12.1708E-03     12.3640E-03
            1840            2410     12.1708E-03     12.3640E-03
            1832            2410     12.1708E-03     12.3640E-03
            1832            2411     11.8768E-03     12.0661E-03
            1841            2411     11.8768E-03     12.0661E-03
            1842            2411     11.8768E-03     12.0661E-03
            1833            2411     11.8768E-03     12.0661E-03
            1842            2412     12.0134E-03     12.1330E-03
            1833            2412     12.0134E-03     12.1330E-03
            1843            2412     12.0134E-03     12.1330E-03
            1834            2412     12.0134E-03     12.1330E-03
            1844            2413     12.1830E-03     12.2306E-03
            1834            2413     12.1830E-03     12.2306E-03
            1843            2413     12.1830E-03     12.2306E-03
            1835            2413     12.1830E-03     12.2306E-03
            1844            2414     12.4007E-03     12.3597E-03
            1835            2414     12.4007E-03     12.3597E-03
            1845            2414     12.4007E-03     12.3597E-03
            1836            2414     12.4007E-03     12.3597E-03
            1845            2415     13.0667E-03     12.9675E-03
            1836            2415     13.0667E-03     12.9675E-03
            1846            2415     13.0667E-03     12.9675E-03
            1837            2415     13.0667E-03     12.9675E-03
            1838            2416     14.4284E-03     14.0653E-03
            1837            2416     14.4284E-03     14.0653E-03
            1847            2416     14.4284E-03     14.0653E-03
            1846            2416     14.4284E-03     14.0653E-03
            1849            2417     12.4380E-03     11.9962E-03
            1840            2417     12.4380E-03     11.9962E-03
            1848            2417     12.4380E-03     11.9962E-03
            1839            2417     12.4380E-03     11.9962E-03
            1849            2418     12.6718E-03     12.3306E-03
            1840            2418     12.6718E-03     12.3306E-03
            1850            2418     12.6718E-03     12.3306E-03
            1841            2418     12.6718E-03     12.3306E-03
            1841            2419     12.7781E-03     12.6174E-03
            1851            2419     12.7781E-03     12.6174E-03
            1842            2419     12.7781E-03     12.6174E-03
            1850            2419     12.7781E-03     12.6174E-03
            1852            2420     13.0418E-03     12.9237E-03
            1843            2420     13.0418E-03     12.9237E-03
            1851            2420     13.0418E-03     12.9237E-03
            1842            2420     13.0418E-03     12.9237E-03
            1843            2421     13.1834E-03     13.0654E-03
            1853            2421     13.1834E-03     13.0654E-03
            1844            2421     13.1834E-03     13.0654E-03
            1852            2421     13.1834E-03     13.0654E-03
            1844            2422     13.2536E-03     13.0253E-03
            1854            2422     13.2536E-03     13.0253E-03
            1845            2422     13.2536E-03     13.0253E-03
            1853            2422     13.2536E-03     13.0253E-03
            1845            2423     13.3707E-03     13.0247E-03
            1854            2423     13.3707E-03     13.0247E-03
            1846            2423     13.3707E-03     13.0247E-03
            1855            2423     13.3707E-03     13.0247E-03
            1847            2424     13.3960E-03     12.9337E-03
            1846            2424     13.3960E-03     12.9337E-03
            1856            2424     13.3960E-03     12.9337E-03
            1855            2424     13.3960E-03     12.9337E-03
            1848            2425     11.4487E-03     11.0726E-03
            1849            2425     11.4487E-03     11.0726E-03
            1857            2425     11.4487E-03     11.0726E-03
            1858            2425     11.4487E-03     11.0726E-03
            1858            2426     13.7526E-03     12.9107E-03
            1859            2426     13.7526E-03     12.9107E-03
            1850            2426     13.7526E-03     12.9107E-03
            1849            2426     13.7526E-03     12.9107E-03
            1851            2427     14.2752E-03     13.6187E-03
            1860            2427     14.2752E-03     13.6187E-03
            1859            2427     14.2752E-03     13.6187E-03
            1850            2427     14.2752E-03     13.6187E-03
            1860            2428     14.5697E-03     14.0655E-03
            1852            2428     14.5697E-03     14.0655E-03
            1851            2428     14.5697E-03     14.0655E-03
            1861            2428     14.5697E-03     14.0655E-03
            1852            2429     14.7449E-03     14.3431E-03
            1861            2429     14.7449E-03     14.3431E-03
            1853            2429     14.7449E-03     14.3431E-03
            1862            2429     14.7449E-03     14.3431E-03
            1863            2430     14.7899E-03     14.4536E-03
            1854            2430     14.7899E-03     14.4536E-03
            1853            2430     14.7899E-03     14.4536E-03
            1862            2430     14.7899E-03     14.4536E-03
            1864            2431     14.4582E-03     14.2497E-03
            1855            2431     14.4582E-03     14.2497E-03
            1854            2431     14.4582E-03     14.2497E-03
            1863            2431     14.4582E-03     14.2497E-03
            1855            2432     12.6268E-03     12.7463E-03
            1864            2432     12.6268E-03     12.7463E-03
            1856            2432     12.6268E-03     12.7463E-03
            1865            2432     12.6268E-03     12.7463E-03
            1858            2433     12.0293E-03     12.4256E-03
            1867            2433     12.0293E-03     12.4256E-03
            1857            2433     12.0293E-03     12.4256E-03
            1866            2433     12.0293E-03     12.4256E-03
            1858            2434     13.8719E-03     13.5119E-03
            1868            2434     13.8719E-03     13.5119E-03
            1867            2434     13.8719E-03     13.5119E-03
            1859            2434     13.8719E-03     13.5119E-03
            1860            2435     14.5272E-03     13.8094E-03
            1868            2435     14.5272E-03     13.8094E-03
            1859            2435     14.5272E-03     13.8094E-03
            1869            2435     14.5272E-03     13.8094E-03
            1870            2436     14.7709E-03     14.0678E-03
            1861            2436     14.7709E-03     14.0678E-03
            1869            2436     14.7709E-03     14.0678E-03
            1860            2436     14.7709E-03     14.0678E-03
            1871            2437     15.0921E-03     14.5077E-03
            1861            2437     15.0921E-03     14.5077E-03
            1862            2437     15.0921E-03     14.5077E-03
            1870            2437     15.0921E-03     14.5077E-03
            1872            2438     15.4393E-03     15.0872E-03
            1863            2438     15.4393E-03     15.0872E-03
            1871            2438     15.4393E-03     15.0872E-03
            1862            2438     15.4393E-03     15.0872E-03
            1872            2439     15.4594E-03     15.4662E-03
            1873            2439     15.4594E-03     15.4662E-03
            1864            2439     15.4594E-03     15.4662E-03
            1863            2439     15.4594E-03     15.4662E-03
            1873            2440     14.6704E-03     14.9373E-03
            1874            2440     14.6704E-03     14.9373E-03
            1865            2440     14.6704E-03     14.9373E-03
            1864            2440     14.6704E-03     14.9373E-03
            1866            2441     13.0212E-03     13.3664E-03
            1876            2441     13.0212E-03     13.3664E-03
            1875            2441     13.0212E-03     13.3664E-03
            1867            2441     13.0212E-03     13.3664E-03
            1867            2442     13.9040E-03     14.0217E-03
            1876            2442     13.9040E-03     14.0217E-03
            1877            2442     13.9040E-03     14.0217E-03
            1868            2442     13.9040E-03     14.0217E-03
            1869            2443     14.6946E-03     14.3035E-03
            1878            2443     14.6946E-03     14.3035E-03
            1877            2443     14.6946E-03     14.3035E-03
            1868            2443     14.6946E-03     14.3035E-03
            1870            2444     15.1251E-03     14.5306E-03
            1878            2444     15.1251E-03     14.5306E-03
            1879            2444     15.1251E-03     14.5306E-03
            1869            2444     15.1251E-03     14.5306E-03
            1879            2445     15.5762E-03     15.0615E-03
            1870            2445     15.5762E-03     15.0615E-03
            1871            2445     15.5762E-03     15.0615E-03
            1880            2445     15.5762E-03     15.0615E-03
            1871            2446     16.0759E-03     15.8023E-03
            1880            2446     16.0759E-03     15.8023E-03
            1872            2446     16.0759E-03     15.8023E-03
            1881            2446     16.0759E-03     15.8023E-03
            1872            2447     16.2951E-03     16.3177E-03
            1873            2447     16.2951E-03     16.3177E-03
            1882            2447     16.2951E-03     16.3177E-03
            1881            2447     16.2951E-03     16.3177E-03
            1873            2448     16.3284E-03     16.4296E-03
            1874            2448     16.3284E-03     16.4296E-03
            1883            2448     16.3284E-03     16.4296E-03
            1882            2448     16.3284E-03     16.4296E-03
            1885            2449     14.3020E-03     14.5071E-03
            1876            2449     14.3020E-03     14.5071E-03
            1884            2449     14.3020E-03     14.5071E-03
            1875            2449     14.3020E-03     14.5071E-03
            1877            2450     14.3168E-03     14.5070E-03
            1885            2450     14.3168E-03     14.5070E-03
            1876            2450     14.3168E-03     14.5070E-03
            1886            2450     14.3168E-03     14.5070E-03
            1878            2451     14.7951E-03     14.7172E-03
            1877            2451     14.7951E-03     14.7172E-03
            1887            2451     14.7951E-03     14.7172E-03
            1886            2451     14.7951E-03     14.7172E-03
            1887            2452     15.3745E-03     15.0473E-03
            1888            2452     15.3745E-03     15.0473E-03
            1878            2452     15.3745E-03     15.0473E-03
            1879            2452     15.3745E-03     15.0473E-03
            1889            2453     15.9714E-03     15.6286E-03
            1880            2453     15.9714E-03     15.6286E-03
            1888            2453     15.9714E-03     15.6286E-03
            1879            2453     15.9714E-03     15.6286E-03
            1881            2454     16.5835E-03     16.3839E-03
            1880            2454     16.5835E-03     16.3839E-03
            1890            2454     16.5835E-03     16.3839E-03
            1889            2454     16.5835E-03     16.3839E-03
            1881            2455     17.1983E-03     17.1406E-03
            1882            2455     17.1983E-03     17.1406E-03
            1891            2455     17.1983E-03     17.1406E-03
            1890            2455     17.1983E-03     17.1406E-03
            1882            2456     18.0561E-03     17.9613E-03
            1891            2456     18.0561E-03     17.9613E-03
            1883            2456     18.0561E-03     17.9613E-03
            1892            2456     18.0561E-03     17.9613E-03
            1893            2457     15.7051E-03     15.7895E-03
            1894            2457     15.7051E-03     15.7895E-03
            1885            2457     15.7051E-03     15.7895E-03
            1884            2457     15.7051E-03     15.7895E-03
            1895            2458     14.9512E-03     15.1602E-03
            1886            2458     14.9512E-03     15.1602E-03
            1885            2458     14.9512E-03     15.1602E-03
            1894            2458     14.9512E-03     15.1602E-03
            1886            2459     15.0246E-03     15.1216E-03
            1896            2459     15.0246E-03     15.1216E-03
            1895            2459     15.0246E-03     15.1216E-03
            1887            2459     15.0246E-03     15.1216E-03
            1887            2460     15.5031E-03     15.4378E-03
            1896            2460     15.5031E-03     15.4378E-03
            1897            2460     15.5031E-03     15.4378E-03
            1888            2460     15.5031E-03     15.4378E-03
            1888            2461     16.2201E-03     16.0798E-03
            1897            2461     16.2201E-03     16.0798E-03
            1898            2461     16.2201E-03     16.0798E-03
            1889            2461     16.2201E-03     16.0798E-03
            1898            2462     17.1138E-03     16.9889E-03
            1899            2462     17.1138E-03     16.9889E-03
            1890            2462     17.1138E-03     16.9889E-03
            1889            2462     17.1138E-03     16.9889E-03
            1890            2463     18.2147E-03     18.0922E-03
            1899            2463     18.2147E-03     18.0922E-03
            1891            2463     18.2147E-03     18.0922E-03
            1900            2463     18.2147E-03     18.0922E-03
            1900            2464     19.7881E-03     19.5859E-03
            1891            2464     19.7881E-03     19.5859E-03
            1892            2464     19.7881E-03     19.5859E-03
            1901            2464     19.7881E-03     19.5859E-03
            1894            2465     17.2053E-03     17.2289E-03
            1902            2465     17.2053E-03     17.2289E-03
            1903            2465     17.2053E-03     17.2289E-03
            1893            2465     17.2053E-03     17.2289E-03
            1894            2466     15.7700E-03     15.9709E-03
            1903            2466     15.7700E-03     15.9709E-03
            1895            2466     15.7700E-03     15.9709E-03
            1904            2466     15.7700E-03     15.9709E-03
            1895            2467     15.2928E-03     15.5320E-03
            1904            2467     15.2928E-03     15.5320E-03
            1905            2467     15.2928E-03     15.5320E-03
            1896            2467     15.2928E-03     15.5320E-03
            1906            2468     15.5877E-03     15.7527E-03
            1897            2468     15.5877E-03     15.7527E-03
            1905            2468     15.5877E-03     15.7527E-03
            1896            2468     15.5877E-03     15.7527E-03
            1906            2469     16.4053E-03     16.4728E-03
            1907            2469     16.4053E-03     16.4728E-03
            1898            2469     16.4053E-03     16.4728E-03
            1897            2469     16.4053E-03     16.4728E-03
            1898            2470     17.6399E-03     17.6147E-03
            1899            2470     17.6399E-03     17.6147E-03
            1908            2470     17.6399E-03     17.6147E-03
            1907            2470     17.6399E-03     17.6147E-03
            1908            2471     19.3299E-03     19.2103E-03
            1899            2471     19.3299E-03     19.2103E-03
            1900            2471     19.3299E-03     19.2103E-03
            1909            2471     19.3299E-03     19.2103E-03
            1901            2472     21.5755E-03     21.3067E-03
            1900            2472     21.5755E-03     21.3067E-03
            1909            2472     21.5755E-03     21.3067E-03
            1910            2472     21.5755E-03     21.3067E-03
            1912            2473     18.8158E-03     18.7885E-03
            1902            2473     18.8158E-03     18.7885E-03
            1911            2473     18.8158E-03     18.7885E-03
            1903            2473     18.8158E-03     18.7885E-03
            1904            2474     16.6286E-03     16.8538E-03
            1912            2474     16.6286E-03     16.8538E-03
            1913            2474     16.6286E-03     16.8538E-03
            1903            2474     16.6286E-03     16.8538E-03
            1904            2475     15.5853E-03     15.9540E-03
            1913            2475     15.5853E-03     15.9540E-03
            1905            2475     15.5853E-03     15.9540E-03
            1914            2475     15.5853E-03     15.9540E-03
            1915            2476     15.5968E-03     16.0037E-03
            1914            2476     15.5968E-03     16.0037E-03
            1905            2476     15.5968E-03     16.0037E-03
            1906            2476     15.5968E-03     16.0037E-03
            1907            2477     16.5080E-03     16.8376E-03
            1906            2477     16.5080E-03     16.8376E-03
            1916            2477     16.5080E-03     16.8376E-03
            1915            2477     16.5080E-03     16.8376E-03
            1907            2478     18.1547E-03     18.2935E-03
            1917            2478     18.1547E-03     18.2935E-03
            1908            2478     18.1547E-03     18.2935E-03
            1916            2478     18.1547E-03     18.2935E-03
            1909            2479     20.4567E-03     20.3692E-03
            1918            2479     20.4567E-03     20.3692E-03
            1917            2479     20.4567E-03     20.3692E-03
            1908            2479     20.4567E-03     20.3692E-03
            1910            2480     23.4213E-03     23.1355E-03
            1919            2480     23.4213E-03     23.1355E-03
            1918            2480     23.4213E-03     23.1355E-03
            1909            2480     23.4213E-03     23.1355E-03
            1921            2481     20.4283E-03     20.4458E-03
            1911            2481     20.4283E-03     20.4458E-03
            1912            2481     20.4283E-03     20.4458E-03
            1920            2481     20.4283E-03     20.4458E-03
            1922            2482     17.6166E-03     17.9132E-03
            1912            2482     17.6166E-03     17.9132E-03
            1913            2482     17.6166E-03     17.9132E-03
            1921            2482     17.6166E-03     17.9132E-03
            1922            2483     15.8364E-03     16.4040E-03
            1913            2483     15.8364E-03     16.4040E-03
            1923            2483     15.8364E-03     16.4040E-03
            1914            2483     15.8364E-03     16.4040E-03
            1923            2484     15.2947E-03     15.9256E-03
            1914            2484     15.2947E-03     15.9256E-03
            1924            2484     15.2947E-03     15.9256E-03
            1915            2484     15.2947E-03     15.9256E-03
            1924            2485     16.2646E-03     16.8260E-03
            1916            2485     16.2646E-03     16.8260E-03
            1925            2485     16.2646E-03     16.8260E-03
            1915            2485     16.2646E-03     16.8260E-03
            1916            2486     18.5856E-03     18.9928E-03
            1925            2486     18.5856E-03     18.9928E-03
            1926            2486     18.5856E-03     18.9928E-03
            1917            2486     18.5856E-03     18.9928E-03
            1926            2487     21.6669E-03     21.7683E-03
            1917            2487     21.6669E-03     21.7683E-03
            1918            2487     21.6669E-03     21.7683E-03
            1927            2487     21.6669E-03     21.7683E-03
            1927            2488     25.2771E-03     25.0074E-03
            1928            2488     25.2771E-03     25.0074E-03
            1918            2488     25.2771E-03     25.0074E-03
            1919            2488     25.2771E-03     25.0074E-03
            1929            2489     22.6207E-03     22.7130E-03
            1921            2489     22.6207E-03     22.7130E-03
            1930            2489     22.6207E-03     22.7130E-03
            1920            2489     22.6207E-03     22.7130E-03
            1921            2490     18.5448E-03     19.0047E-03
            1930            2490     18.5448E-03     19.0047E-03
            1922            2490     18.5448E-03     19.0047E-03
            1931            2490     18.5448E-03     19.0047E-03
            1923            2491     15.4101E-03     16.1008E-03
            1922            2491     15.4101E-03     16.1008E-03
            1931            2491     15.4101E-03     16.1008E-03
            1932            2491     15.4101E-03     16.1008E-03
            1933            2492     14.4244E-03     15.1487E-03
            1923            2492     14.4244E-03     15.1487E-03
            1932            2492     14.4244E-03     15.1487E-03
            1924            2492     14.4244E-03     15.1487E-03
            1925            2493     15.5007E-03     16.0843E-03
            1933            2493     15.5007E-03     16.0843E-03
            1924            2493     15.5007E-03     16.0843E-03
            1934            2493     15.5007E-03     16.0843E-03
            1935            2494     18.3357E-03     18.7541E-03
            1934            2494     18.3357E-03     18.7541E-03
            1926            2494     18.3357E-03     18.7541E-03
            1925            2494     18.3357E-03     18.7541E-03
            1927            2495     22.7861E-03     23.0660E-03
            1926            2495     22.7861E-03     23.0660E-03
            1936            2495     22.7861E-03     23.0660E-03
            1935            2495     22.7861E-03     23.0660E-03
            1936            2496     27.6518E-03     27.6633E-03
            1928            2496     27.6518E-03     27.6633E-03
            1927            2496     27.6518E-03     27.6633E-03
            1937            2496     27.6518E-03     27.6633E-03
            1938            2497     24.5406E-03     24.3505E-03
            1939            2497     24.5406E-03     24.3505E-03
            1929            2497     24.5406E-03     24.3505E-03
            1930            2497     24.5406E-03     24.3505E-03
            1930            2498     18.0685E-03     18.2994E-03
            1931            2498     18.0685E-03     18.2994E-03
            1939            2498     18.0685E-03     18.2994E-03
            1940            2498     18.0685E-03     18.2994E-03
            1931            2499     14.0581E-03     14.5022E-03
            1941            2499     14.0581E-03     14.5022E-03
            1932            2499     14.0581E-03     14.5022E-03
            1940            2499     14.0581E-03     14.5022E-03
            1942            2500     12.7772E-03     13.2681E-03
            1933            2500     12.7772E-03     13.2681E-03
            1932            2500     12.7772E-03     13.2681E-03
            1941            2500     12.7772E-03     13.2681E-03
            1933            2501     13.9700E-03     14.2121E-03
            1942            2501     13.9700E-03     14.2121E-03
            1934            2501     13.9700E-03     14.2121E-03
            1943            2501     13.9700E-03     14.2121E-03
            1943            2502     17.2583E-03     17.0552E-03
            1934            2502     17.2583E-03     17.0552E-03
            1935            2502     17.2583E-03     17.0552E-03
            1944            2502     17.2583E-03     17.0552E-03
            1944            2503     22.6228E-03     22.0773E-03
            1936            2503     22.6228E-03     22.0773E-03
            1945            2503     22.6228E-03     22.0773E-03
            1935            2503     22.6228E-03     22.0773E-03
            1937            2504     30.0819E-03     29.0921E-03
            1936            2504     30.0819E-03     29.0921E-03
            1945            2504     30.0819E-03     29.0921E-03
            1946            2504     30.0819E-03     29.0921E-03
            1938            2505     21.9400E-03     19.8333E-03
            1948            2505     21.9400E-03     19.8333E-03
            1947            2505     21.9400E-03     19.8333E-03
            1939            2505     21.9400E-03     19.8333E-03
            1949            2506     17.9851E-03     16.7073E-03
            1948            2506     17.9851E-03     16.7073E-03
            1939            2506     17.9851E-03     16.7073E-03
            1940            2506     17.9851E-03     16.7073E-03
            1950            2507     15.4626E-03     14.9453E-03
            1941            2507     15.4626E-03     14.9453E-03
            1949            2507     15.4626E-03     14.9453E-03
            1940            2507     15.4626E-03     14.9453E-03
            1951            2508     14.7141E-03     14.5114E-03
            1941            2508     14.7141E-03     14.5114E-03
            1942            2508     14.7141E-03     14.5114E-03
            1950            2508     14.7141E-03     14.5114E-03
            1951            2509     15.8056E-03     15.4802E-03
            1943            2509     15.8056E-03     15.4802E-03
            1942            2509     15.8056E-03     15.4802E-03
            1952            2509     15.8056E-03     15.4802E-03
            1943            2510     18.5385E-03     17.6953E-03
            1953            2510     18.5385E-03     17.6953E-03
            1944            2510     18.5385E-03     17.6953E-03
            1952            2510     18.5385E-03     17.6953E-03
            1945            2511     22.4022E-03     20.8836E-03
            1954            2511     22.4022E-03     20.8836E-03
            1953            2511     22.4022E-03     20.8836E-03
            1944            2511     22.4022E-03     20.8836E-03
            1946            2512     27.7421E-03     25.6481E-03
            1945            2512     27.7421E-03     25.6481E-03
            1954            2512     27.7421E-03     25.6481E-03
            1955            2512     27.7421E-03     25.6481E-03
            1956            2513     19.7157E-03     18.2300E-03
            1947            2513     19.7157E-03     18.2300E-03
            1948            2513     19.7157E-03     18.2300E-03
            1957            2513     19.7157E-03     18.2300E-03
            1948            2514     18.9477E-03     17.1738E-03
            1957            2514     18.9477E-03     17.1738E-03
            1958            2514     18.9477E-03     17.1738E-03
            1949            2514     18.9477E-03     17.1738E-03
            1950            2515     17.5696E-03     16.1868E-03
            1949            2515     17.5696E-03     16.1868E-03
            1959            2515     17.5696E-03     16.1868E-03
            1958            2515     17.5696E-03     16.1868E-03
            1960            2516     17.2850E-03     16.2568E-03
            1959            2516     17.2850E-03     16.2568E-03
            1951            2516     17.2850E-03     16.2568E-03
            1950            2516     17.2850E-03     16.2568E-03
            1960            2517     18.4537E-03     17.5778E-03
            1951            2517     18.4537E-03     17.5778E-03
            1952            2517     18.4537E-03     17.5778E-03
            1961            2517     18.4537E-03     17.5778E-03
            1962            2518     20.8318E-03     19.9155E-03
            1953            2518     20.8318E-03     19.9155E-03
            1952            2518     20.8318E-03     19.9155E-03
            1961            2518     20.8318E-03     19.9155E-03
            1954            2519     23.8003E-03     22.8705E-03
            1962            2519     23.8003E-03     22.8705E-03
            1963            2519     23.8003E-03     22.8705E-03
            1953            2519     23.8003E-03     22.8705E-03
            1963            2520     26.3629E-03     25.6718E-03
            1955            2520     26.3629E-03     25.6718E-03
            1954            2520     26.3629E-03     25.6718E-03
            1964            2520     26.3629E-03     25.6718E-03
            1965            2521     21.5654E-03     22.2053E-03
            1966            2521     21.5654E-03     22.2053E-03
            1956            2521     21.5654E-03     22.2053E-03
            1957            2521     21.5654E-03     22.2053E-03
            1966            2522     19.3236E-03     18.9479E-03
            1958            2522     19.3236E-03     18.9479E-03
            1957            2522     19.3236E-03     18.9479E-03
            1967            2522     19.3236E-03     18.9479E-03
            1967            2523     17.4588E-03     16.2145E-03
            1968            2523     17.4588E-03     16.2145E-03
            1959            2523     17.4588E-03     16.2145E-03
            1958            2523     17.4588E-03     16.2145E-03
            1960            2524     16.9141E-03     15.5404E-03
            1959            2524     16.9141E-03     15.5404E-03
            1969            2524     16.9141E-03     15.5404E-03
            1968            2524     16.9141E-03     15.5404E-03
            1970            2525     18.4572E-03     17.3374E-03
            1969            2525     18.4572E-03     17.3374E-03
            1961            2525     18.4572E-03     17.3374E-03
            1960            2525     18.4572E-03     17.3374E-03
            1962            2526     21.6592E-03     21.0356E-03
            1970            2526     21.6592E-03     21.0356E-03
            1971            2526     21.6592E-03     21.0356E-03
            1961            2526     21.6592E-03     21.0356E-03
            1972            2527     25.6058E-03     25.6940E-03
            1962            2527     25.6058E-03     25.6940E-03
            1971            2527     25.6058E-03     25.6940E-03
            1963            2527     25.6058E-03     25.6940E-03
            1964            2528     29.4897E-03     29.9000E-03
            1973            2528     29.4897E-03     29.9000E-03
            1963            2528     29.4897E-03     29.9000E-03
            1972            2528     29.4897E-03     29.9000E-03
            1975            2529     23.4501E-03     23.8714E-03
            1966            2529     23.4501E-03     23.8714E-03
            1974            2529     23.4501E-03     23.8714E-03
            1965            2529     23.4501E-03     23.8714E-03
            1976            2530     19.7941E-03     20.1155E-03
            1967            2530     19.7941E-03     20.1155E-03
            1975            2530     19.7941E-03     20.1155E-03
            1966            2530     19.7941E-03     20.1155E-03
            1977            2531     17.5886E-03     16.9737E-03
            1968            2531     17.5886E-03     16.9737E-03
            1967            2531     17.5886E-03     16.9737E-03
            1976            2531     17.5886E-03     16.9737E-03
            1978            2532     17.0958E-03     15.9541E-03
            1977            2532     17.0958E-03     15.9541E-03
            1968            2532     17.0958E-03     15.9541E-03
            1969            2532     17.0958E-03     15.9541E-03
            1969            2533     18.9168E-03     17.9817E-03
            1978            2533     18.9168E-03     17.9817E-03
            1970            2533     18.9168E-03     17.9817E-03
            1979            2533     18.9168E-03     17.9817E-03
            1971            2534     22.5982E-03     22.2792E-03
            1970            2534     22.5982E-03     22.2792E-03
            1979            2534     22.5982E-03     22.2792E-03
            1980            2534     22.5982E-03     22.2792E-03
            1980            2535     27.0269E-03     27.2488E-03
            1981            2535     27.0269E-03     27.2488E-03
            1972            2535     27.0269E-03     27.2488E-03
            1971            2535     27.0269E-03     27.2488E-03
            1973            2536     31.7930E-03     31.9062E-03
            1982            2536     31.7930E-03     31.9062E-03
            1972            2536     31.7930E-03     31.9062E-03
            1981            2536     31.7930E-03     31.9062E-03
            1983            2537     25.3433E-03     25.5176E-03
            1974            2537     25.3433E-03     25.5176E-03
            1984            2537     25.3433E-03     25.5176E-03
            1975            2537     25.3433E-03     25.5176E-03
            1985            2538     20.6389E-03     20.9321E-03
            1976            2538     20.6389E-03     20.9321E-03
            1975            2538     20.6389E-03     20.9321E-03
            1984            2538     20.6389E-03     20.9321E-03
            1976            2539     17.8074E-03     17.6656E-03
            1986            2539     17.8074E-03     17.6656E-03
            1977            2539     17.8074E-03     17.6656E-03
            1985            2539     17.8074E-03     17.6656E-03
            1986            2540     17.3559E-03     16.7142E-03
            1977            2540     17.3559E-03     16.7142E-03
            1978            2540     17.3559E-03     16.7142E-03
            1987            2540     17.3559E-03     16.7142E-03
            1978            2541     19.4285E-03     18.8371E-03
            1987            2541     19.4285E-03     18.8371E-03
            1979            2541     19.4285E-03     18.8371E-03
            1988            2541     19.4285E-03     18.8371E-03
            1989            2542     23.3852E-03     23.1832E-03
            1979            2542     23.3852E-03     23.1832E-03
            1980            2542     23.3852E-03     23.1832E-03
            1988            2542     23.3852E-03     23.1832E-03
            1989            2543     28.3706E-03     28.3680E-03
            1980            2543     28.3706E-03     28.3680E-03
            1981            2543     28.3706E-03     28.3680E-03
            1990            2543     28.3706E-03     28.3680E-03
            1990            2544     34.0574E-03     33.8407E-03
            1981            2544     34.0574E-03     33.8407E-03
            1991            2544     34.0574E-03     33.8407E-03
            1982            2544     34.0574E-03     33.8407E-03
            1992            2545     27.2403E-03     27.2364E-03
            1984            2545     27.2403E-03     27.2364E-03
            1983            2545     27.2403E-03     27.2364E-03
            1993            2545     27.2403E-03     27.2364E-03
            1994            2546     21.6790E-03     21.9493E-03
            1985            2546     21.6790E-03     21.9493E-03
            1993            2546     21.6790E-03     21.9493E-03
            1984            2546     21.6790E-03     21.9493E-03
            1995            2547     18.2368E-03     18.3622E-03
            1985            2547     18.2368E-03     18.3622E-03
            1994            2547     18.2368E-03     18.3622E-03
            1986            2547     18.2368E-03     18.3622E-03
            1996            2548     17.5580E-03     17.4026E-03
            1986            2548     17.5580E-03     17.4026E-03
            1987            2548     17.5580E-03     17.4026E-03
            1995            2548     17.5580E-03     17.4026E-03
            1997            2549     19.8038E-03     19.5786E-03
            1988            2549     19.8038E-03     19.5786E-03
            1996            2549     19.8038E-03     19.5786E-03
            1987            2549     19.8038E-03     19.5786E-03
            1997            2550     24.1932E-03     24.0708E-03
            1989            2550     24.1932E-03     24.0708E-03
            1998            2550     24.1932E-03     24.0708E-03
            1988            2550     24.1932E-03     24.0708E-03
            1998            2551     29.7801E-03     29.6403E-03
            1989            2551     29.7801E-03     29.6403E-03
            1999            2551     29.7801E-03     29.6403E-03
            1990            2551     29.7801E-03     29.6403E-03
            1991            2552     36.2024E-03     35.8262E-03
            1999            2552     36.2024E-03     35.8262E-03
            1990            2552     36.2024E-03     35.8262E-03
            2000            2552     36.2024E-03     35.8262E-03
            2002            2553     29.1675E-03     29.0885E-03
            1992            2553     29.1675E-03     29.0885E-03
            1993            2553     29.1675E-03     29.0885E-03
            2001            2553     29.1675E-03     29.0885E-03
            1993            2554     22.8977E-03     23.1697E-03
            1994            2554     22.8977E-03     23.1697E-03
            2002            2554     22.8977E-03     23.1697E-03
            2003            2554     22.8977E-03     23.1697E-03
            2004            2555     18.7103E-03     19.0972E-03
            1994            2555     18.7103E-03     19.0972E-03
            2003            2555     18.7103E-03     19.0972E-03
            1995            2555     18.7103E-03     19.0972E-03
            1996            2556     17.7256E-03     18.0136E-03
            2004            2556     17.7256E-03     18.0136E-03
            2005            2556     17.7256E-03     18.0136E-03
            1995            2556     17.7256E-03     18.0136E-03
            2006            2557     20.1207E-03     20.2763E-03
            1996            2557     20.1207E-03     20.2763E-03
            2005            2557     20.1207E-03     20.2763E-03
            1997            2557     20.1207E-03     20.2763E-03
            2007            2558     24.9725E-03     25.0126E-03
            1997            2558     24.9725E-03     25.0126E-03
            1998            2558     24.9725E-03     25.0126E-03
            2006            2558     24.9725E-03     25.0126E-03
            2008            2559     31.2491E-03     31.1136E-03
            2007            2559     31.2491E-03     31.1136E-03
            1998            2559     31.2491E-03     31.1136E-03
            1999            2559     31.2491E-03     31.1136E-03
            2000            2560     38.3443E-03     37.8895E-03
            2009            2560     38.3443E-03     37.8895E-03
            1999            2560     38.3443E-03     37.8895E-03
            2008            2560     38.3443E-03     37.8895E-03
            2011            2561     31.1556E-03     31.0525E-03
            2002            2561     31.1556E-03     31.0525E-03
            2001            2561     31.1556E-03     31.0525E-03
            2010            2561     31.1556E-03     31.0525E-03
            2011            2562     24.0976E-03     24.4630E-03
            2012            2562     24.0976E-03     24.4630E-03
            2002            2562     24.0976E-03     24.4630E-03
            2003            2562     24.0976E-03     24.4630E-03
            2003            2563     19.2079E-03     19.8888E-03
            2012            2563     19.2079E-03     19.8888E-03
            2004            2563     19.2079E-03     19.8888E-03
            2013            2563     19.2079E-03     19.8888E-03
            2005            2564     17.7978E-03     18.5723E-03
            2013            2564     17.7978E-03     18.5723E-03
            2014            2564     17.7978E-03     18.5723E-03
            2004            2564     17.7978E-03     18.5723E-03
            2005            2565     20.3331E-03     20.9711E-03
            2006            2565     20.3331E-03     20.9711E-03
            2015            2565     20.3331E-03     20.9711E-03
            2014            2565     20.3331E-03     20.9711E-03
            2006            2566     25.7228E-03     26.0660E-03
            2015            2566     25.7228E-03     26.0660E-03
            2007            2566     25.7228E-03     26.0660E-03
            2016            2566     25.7228E-03     26.0660E-03
            2017            2567     32.6659E-03     32.6282E-03
            2016            2567     32.6659E-03     32.6282E-03
            2008            2567     32.6659E-03     32.6282E-03
            2007            2567     32.6659E-03     32.6282E-03
            2018            2568     40.5052E-03     40.0567E-03
            2008            2568     40.5052E-03     40.0567E-03
            2009            2568     40.5052E-03     40.0567E-03
            2017            2568     40.5052E-03     40.0567E-03
            2011            2569     33.0666E-03     33.0816E-03
            2010            2569     33.0666E-03     33.0816E-03
            2019            2569     33.0666E-03     33.0816E-03
            2020            2569     33.0666E-03     33.0816E-03
            2021            2570     25.3964E-03     26.0129E-03
            2012            2570     25.3964E-03     26.0129E-03
            2011            2570     25.3964E-03     26.0129E-03
            2020            2570     25.3964E-03     26.0129E-03
            2012            2571     19.6111E-03     20.7316E-03
            2021            2571     19.6111E-03     20.7316E-03
            2022            2571     19.6111E-03     20.7316E-03
            2013            2571     19.6111E-03     20.7316E-03
            2023            2572     17.4423E-03     18.6670E-03
            2014            2572     17.4423E-03     18.6670E-03
            2013            2572     17.4423E-03     18.6670E-03
            2022            2572     17.4423E-03     18.6670E-03
            2015            2573     20.0508E-03     21.0876E-03
            2024            2573     20.0508E-03     21.0876E-03
            2023            2573     20.0508E-03     21.0876E-03
            2014            2573     20.0508E-03     21.0876E-03
            2016            2574     26.3207E-03     27.0941E-03
            2015            2574     26.3207E-03     27.0941E-03
            2024            2574     26.3207E-03     27.0941E-03
            2025            2574     26.3207E-03     27.0941E-03
            2025            2575     34.1548E-03     34.4786E-03
            2017            2575     34.1548E-03     34.4786E-03
            2026            2575     34.1548E-03     34.4786E-03
            2016            2575     34.1548E-03     34.4786E-03
            2018            2576     42.5914E-03     42.2541E-03
            2026            2576     42.5914E-03     42.2541E-03
            2017            2576     42.5914E-03     42.2541E-03
            2027            2576     42.5914E-03     42.2541E-03
            2019            2577     35.6002E-03     35.8777E-03
            2028            2577     35.6002E-03     35.8777E-03
            2020            2577     35.6002E-03     35.8777E-03
            2029            2577     35.6002E-03     35.8777E-03
            2020            2578     26.4764E-03     27.3678E-03
            2030            2578     26.4764E-03     27.3678E-03
            2021            2578     26.4764E-03     27.3678E-03
            2029            2578     26.4764E-03     27.3678E-03
            2030            2579     19.0120E-03     20.2943E-03
            2031            2579     19.0120E-03     20.2943E-03
            2021            2579     19.0120E-03     20.2943E-03
            2022            2579     19.0120E-03     20.2943E-03
            2032            2580     16.2710E-03     17.6586E-03
            2022            2580     16.2710E-03     17.6586E-03
            2031            2580     16.2710E-03     17.6586E-03
            2023            2580     16.2710E-03     17.6586E-03
            2032            2581     19.0444E-03     20.0994E-03
            2023            2581     19.0444E-03     20.0994E-03
            2033            2581     19.0444E-03     20.0994E-03
            2024            2581     19.0444E-03     20.0994E-03
            2025            2582     25.9162E-03     26.5813E-03
            2024            2582     25.9162E-03     26.5813E-03
            2034            2582     25.9162E-03     26.5813E-03
            2033            2582     25.9162E-03     26.5813E-03
            2035            2583     35.3956E-03     35.9031E-03
            2025            2583     35.3956E-03     35.9031E-03
            2034            2583     35.3956E-03     35.9031E-03
            2026            2583     35.3956E-03     35.9031E-03
            2035            2584     45.3309E-03     45.4445E-03
            2027            2584     45.3309E-03     45.4445E-03
            2036            2584     45.3309E-03     45.4445E-03
            2026            2584     45.3309E-03     45.4445E-03
            2029            2585     37.6335E-03     36.9492E-03
            2037            2585     37.6335E-03     36.9492E-03
            2038            2585     37.6335E-03     36.9492E-03
            2028            2585     37.6335E-03     36.9492E-03
            2038            2586     25.6541E-03     25.6509E-03
            2030            2586     25.6541E-03     25.6509E-03
            2039            2586     25.6541E-03     25.6509E-03
            2029            2586     25.6541E-03     25.6509E-03
            2039            2587     17.1384E-03     17.7216E-03
            2031            2587     17.1384E-03     17.7216E-03
            2030            2587     17.1384E-03     17.7216E-03
            2040            2587     17.1384E-03     17.7216E-03
            2041            2588     13.8723E-03     14.7641E-03
            2040            2588     13.8723E-03     14.7641E-03
            2031            2588     13.8723E-03     14.7641E-03
            2032            2588     13.8723E-03     14.7641E-03
            2033            2589     16.8468E-03     17.2240E-03
            2032            2589     16.8468E-03     17.2240E-03
            2041            2589     16.8468E-03     17.2240E-03
            2042            2589     16.8468E-03     17.2240E-03
            2042            2590     24.3449E-03     23.8112E-03
            2033            2590     24.3449E-03     23.8112E-03
            2034            2590     24.3449E-03     23.8112E-03
            2043            2590     24.3449E-03     23.8112E-03
            2034            2591     34.7612E-03     33.6397E-03
            2035            2591     34.7612E-03     33.6397E-03
            2043            2591     34.7612E-03     33.6397E-03
            2044            2591     34.7612E-03     33.6397E-03
            2045            2592     47.8975E-03     46.1948E-03
            2036            2592     47.8975E-03     46.1948E-03
            2035            2592     47.8975E-03     46.1948E-03
            2044            2592     47.8975E-03     46.1948E-03
            2047            2593     34.2507E-03     30.4790E-03
            2037            2593     34.2507E-03     30.4790E-03
            2038            2593     34.2507E-03     30.4790E-03
            2046            2593     34.2507E-03     30.4790E-03
            2039            2594     25.2640E-03     22.7571E-03
            2038            2594     25.2640E-03     22.7571E-03
            2047            2594     25.2640E-03     22.7571E-03
            2048            2594     25.2640E-03     22.7571E-03
            2048            2595     19.0633E-03     17.9940E-03
            2049            2595     19.0633E-03     17.9940E-03
            2040            2595     19.0633E-03     17.9940E-03
            2039            2595     19.0633E-03     17.9940E-03
            2050            2596     16.7165E-03     16.3777E-03
            2040            2596     16.7165E-03     16.3777E-03
            2049            2596     16.7165E-03     16.3777E-03
            2041            2596     16.7165E-03     16.3777E-03
            2042            2597     19.3280E-03     18.6929E-03
            2041            2597     19.3280E-03     18.6929E-03
            2050            2597     19.3280E-03     18.6929E-03
            2051            2597     19.3280E-03     18.6929E-03
            2042            2598     25.7318E-03     24.0766E-03
            2051            2598     25.7318E-03     24.0766E-03
            2043            2598     25.7318E-03     24.0766E-03
            2052            2598     25.7318E-03     24.0766E-03
            2043            2599     34.0018E-03     31.1247E-03
            2044            2599     34.0018E-03     31.1247E-03
            2052            2599     34.0018E-03     31.1247E-03
            2053            2599     34.0018E-03     31.1247E-03
            2054            2600     44.8515E-03     41.0008E-03
            2053            2600     44.8515E-03     41.0008E-03
            2044            2600     44.8515E-03     41.0008E-03
            2045            2600     44.8515E-03     41.0008E-03
            2047            2601     31.7264E-03     29.4271E-03
            2055            2601     31.7264E-03     29.4271E-03
            2056            2601     31.7264E-03     29.4271E-03
            2046            2601     31.7264E-03     29.4271E-03
            2057            2602     26.4322E-03     23.7836E-03
            2056            2602     26.4322E-03     23.7836E-03
            2047            2602     26.4322E-03     23.7836E-03
            2048            2602     26.4322E-03     23.7836E-03
            2049            2603     21.7685E-03     19.6204E-03
            2058            2603     21.7685E-03     19.6204E-03
            2048            2603     21.7685E-03     19.6204E-03
            2057            2603     21.7685E-03     19.6204E-03
            2050            2604     20.2663E-03     18.6564E-03
            2059            2604     20.2663E-03     18.6564E-03
            2058            2604     20.2663E-03     18.6564E-03
            2049            2604     20.2663E-03     18.6564E-03
            2059            2605     22.8474E-03     21.4449E-03
            2060            2605     22.8474E-03     21.4449E-03
            2051            2605     22.8474E-03     21.4449E-03
            2050            2605     22.8474E-03     21.4449E-03
            2060            2606     28.5295E-03     26.9642E-03
            2051            2606     28.5295E-03     26.9642E-03
            2052            2606     28.5295E-03     26.9642E-03
            2061            2606     28.5295E-03     26.9642E-03
            2062            2607     35.7855E-03     34.0776E-03
            2052            2607     35.7855E-03     34.0776E-03
            2061            2607     35.7855E-03     34.0776E-03
            2053            2607     35.7855E-03     34.0776E-03
            2053            2608     43.3394E-03     41.8363E-03
            2054            2608     43.3394E-03     41.8363E-03
            2062            2608     43.3394E-03     41.8363E-03
            2063            2608     43.3394E-03     41.8363E-03
            2065            2609     34.2438E-03     35.1414E-03
            2055            2609     34.2438E-03     35.1414E-03
            2064            2609     34.2438E-03     35.1414E-03
            2056            2609     34.2438E-03     35.1414E-03
            2065            2610     27.1296E-03     26.8643E-03
            2066            2610     27.1296E-03     26.8643E-03
            2057            2610     27.1296E-03     26.8643E-03
            2056            2610     27.1296E-03     26.8643E-03
            2057            2611     21.3632E-03     19.6820E-03
            2066            2611     21.3632E-03     19.6820E-03
            2067            2611     21.3632E-03     19.6820E-03
            2058            2611     21.3632E-03     19.6820E-03
            2068            2612     19.2928E-03     17.2215E-03
            2067            2612     19.2928E-03     17.2215E-03
            2059            2612     19.2928E-03     17.2215E-03
            2058            2612     19.2928E-03     17.2215E-03
            2069            2613     22.5351E-03     20.8919E-03
            2068            2613     22.5351E-03     20.8919E-03
            2060            2613     22.5351E-03     20.8919E-03
            2059            2613     22.5351E-03     20.8919E-03
            2060            2614     29.6250E-03     28.7998E-03
            2070            2614     29.6250E-03     28.7998E-03
            2061            2614     29.6250E-03     28.7998E-03
            2069            2614     29.6250E-03     28.7998E-03
            2070            2615     38.3088E-03     38.5191E-03
            2061            2615     38.3088E-03     38.5191E-03
            2062            2615     38.3088E-03     38.5191E-03
            2071            2615     38.3088E-03     38.5191E-03
            2071            2616     47.0775E-03     47.6462E-03
            2072            2616     47.0775E-03     47.6462E-03
            2062            2616     47.0775E-03     47.6462E-03
            2063            2616     47.0775E-03     47.6462E-03
            2074            2617     36.5733E-03     37.0816E-03
            2073            2617     36.5733E-03     37.0816E-03
            2065            2617     36.5733E-03     37.0816E-03
            2064            2617     36.5733E-03     37.0816E-03
            2066            2618     27.8861E-03     28.4825E-03
            2074            2618     27.8861E-03     28.4825E-03
            2075            2618     27.8861E-03     28.4825E-03
            2065            2618     27.8861E-03     28.4825E-03
            2067            2619     21.4686E-03     20.7265E-03
            2066            2619     21.4686E-03     20.7265E-03
            2075            2619     21.4686E-03     20.7265E-03
            2076            2619     21.4686E-03     20.7265E-03
            2077            2620     19.2925E-03     17.6028E-03
            2076            2620     19.2925E-03     17.6028E-03
            2067            2620     19.2925E-03     17.6028E-03
            2068            2620     19.2925E-03     17.6028E-03
            2077            2621     22.9827E-03     21.6628E-03
            2069            2621     22.9827E-03     21.6628E-03
            2068            2621     22.9827E-03     21.6628E-03
            2078            2621     22.9827E-03     21.6628E-03
            2079            2622     30.8435E-03     30.5612E-03
            2078            2622     30.8435E-03     30.5612E-03
            2069            2622     30.8435E-03     30.5612E-03
            2070            2622     30.8435E-03     30.5612E-03
            2071            2623     40.0959E-03     40.5342E-03
            2079            2623     40.0959E-03     40.5342E-03
            2070            2623     40.0959E-03     40.5342E-03
            2080            2623     40.0959E-03     40.5342E-03
            2080            2624     49.7079E-03     49.8098E-03
            2072            2624     49.7079E-03     49.8098E-03
            2081            2624     49.7079E-03     49.8098E-03
            2071            2624     49.7079E-03     49.8098E-03
            2083            2625     38.8438E-03     38.9858E-03
            2082            2625     38.8438E-03     38.9858E-03
            2073            2625     38.8438E-03     38.9858E-03
            2074            2625     38.8438E-03     38.9858E-03
            2084            2626     28.9925E-03     29.4275E-03
            2075            2626     28.9925E-03     29.4275E-03
            2074            2626     28.9925E-03     29.4275E-03
            2083            2626     28.9925E-03     29.4275E-03
            2075            2627     21.7678E-03     21.6188E-03
            2076            2627     21.7678E-03     21.6188E-03
            2085            2627     21.7678E-03     21.6188E-03
            2084            2627     21.7678E-03     21.6188E-03
            2086            2628     19.5649E-03     18.6162E-03
            2076            2628     19.5649E-03     18.6162E-03
            2085            2628     19.5649E-03     18.6162E-03
            2077            2628     19.5649E-03     18.6162E-03
            2087            2629     23.6017E-03     22.7827E-03
            2086            2629     23.6017E-03     22.7827E-03
            2077            2629     23.6017E-03     22.7827E-03
            2078            2629     23.6017E-03     22.7827E-03
            2088            2630     31.8187E-03     31.6538E-03
            2087            2630     31.8187E-03     31.6538E-03
            2078            2630     31.8187E-03     31.6538E-03
            2079            2630     31.8187E-03     31.6538E-03
            2079            2631     41.6905E-03     41.7385E-03
            2088            2631     41.6905E-03     41.7385E-03
            2080            2631     41.6905E-03     41.7385E-03
            2089            2631     41.6905E-03     41.7385E-03
            2080            2632     52.3344E-03     51.9718E-03
            2081            2632     52.3344E-03     51.9718E-03
            2090            2632     52.3344E-03     51.9718E-03
            2089            2632     52.3344E-03     51.9718E-03
            2082            2633     41.0485E-03     40.9575E-03
            2092            2633     41.0485E-03     40.9575E-03
            2083            2633     41.0485E-03     40.9575E-03
            2091            2633     41.0485E-03     40.9575E-03
            2084            2634     30.2999E-03     30.6539E-03
            2092            2634     30.2999E-03     30.6539E-03
            2093            2634     30.2999E-03     30.6539E-03
            2083            2634     30.2999E-03     30.6539E-03
            2084            2635     22.3616E-03     22.5503E-03
            2093            2635     22.3616E-03     22.5503E-03
            2085            2635     22.3616E-03     22.5503E-03
            2094            2635     22.3616E-03     22.5503E-03
            2095            2636     19.8436E-03     19.6053E-03
            2086            2636     19.8436E-03     19.6053E-03
            2094            2636     19.8436E-03     19.6053E-03
            2085            2636     19.8436E-03     19.6053E-03
            2087            2637     24.0763E-03     23.7675E-03
            2095            2637     24.0763E-03     23.7675E-03
            2086            2637     24.0763E-03     23.7675E-03
            2096            2637     24.0763E-03     23.7675E-03
            2087            2638     32.8113E-03     32.7004E-03
            2096            2638     32.8113E-03     32.7004E-03
            2088            2638     32.8113E-03     32.7004E-03
            2097            2638     32.8113E-03     32.7004E-03
            2097            2639     43.3464E-03     43.1804E-03
            2088            2639     43.3464E-03     43.1804E-03
            2089            2639     43.3464E-03     43.1804E-03
            2098            2639     43.3464E-03     43.1804E-03
            2089            2640     54.7590E-03     54.1853E-03
            2090            2640     54.7590E-03     54.1853E-03
            2098            2640     54.7590E-03     54.1853E-03
            2099            2640     54.7590E-03     54.1853E-03
            2091            2641     43.2634E-03     43.0868E-03
            2092            2641     43.2634E-03     43.0868E-03
            2101            2641     43.2634E-03     43.0868E-03
            2100            2641     43.2634E-03     43.0868E-03
            2102            2642     31.7962E-03     32.1607E-03
            2092            2642     31.7962E-03     32.1607E-03
            2101            2642     31.7962E-03     32.1607E-03
            2093            2642     31.7962E-03     32.1607E-03
            2094            2643     23.0095E-03     23.5724E-03
            2102            2643     23.0095E-03     23.5724E-03
            2093            2643     23.0095E-03     23.5724E-03
            2103            2643     23.0095E-03     23.5724E-03
            2104            2644     20.1016E-03     20.5265E-03
            2094            2644     20.1016E-03     20.5265E-03
            2095            2644     20.1016E-03     20.5265E-03
            2103            2644     20.1016E-03     20.5265E-03
            2105            2645     24.5039E-03     24.7433E-03
            2096            2645     24.5039E-03     24.7433E-03
            2095            2645     24.5039E-03     24.7433E-03
            2104            2645     24.5039E-03     24.7433E-03
            2105            2646     33.7612E-03     33.8620E-03
            2097            2646     33.7612E-03     33.8620E-03
            2096            2646     33.7612E-03     33.8620E-03
            2106            2646     33.7612E-03     33.8620E-03
            2106            2647     45.0454E-03     44.8851E-03
            2107            2647     45.0454E-03     44.8851E-03
            2097            2647     45.0454E-03     44.8851E-03
            2098            2647     45.0454E-03     44.8851E-03
            2108            2648     57.1570E-03     56.4961E-03
            2098            2648     57.1570E-03     56.4961E-03
            2099            2648     57.1570E-03     56.4961E-03
            2107            2648     57.1570E-03     56.4961E-03
            2100            2649     45.5244E-03     45.3578E-03
            2110            2649     45.5244E-03     45.3578E-03
            2101            2649     45.5244E-03     45.3578E-03
            2109            2649     45.5244E-03     45.3578E-03
            2111            2650     33.2458E-03     33.7770E-03
            2101            2650     33.2458E-03     33.7770E-03
            2102            2650     33.2458E-03     33.7770E-03
            2110            2650     33.2458E-03     33.7770E-03
            2103            2651     23.6941E-03     24.7246E-03
            2112            2651     23.6941E-03     24.7246E-03
            2102            2651     23.6941E-03     24.7246E-03
            2111            2651     23.6941E-03     24.7246E-03
            2113            2652     20.2473E-03     21.4190E-03
            2112            2652     20.2473E-03     21.4190E-03
            2103            2652     20.2473E-03     21.4190E-03
            2104            2652     20.2473E-03     21.4190E-03
            2113            2653     24.8017E-03     25.7477E-03
            2104            2653     24.8017E-03     25.7477E-03
            2114            2653     24.8017E-03     25.7477E-03
            2105            2653     24.8017E-03     25.7477E-03
            2105            2654     34.6757E-03     35.2176E-03
            2115            2654     34.6757E-03     35.2176E-03
            2106            2654     34.6757E-03     35.2176E-03
            2114            2654     34.6757E-03     35.2176E-03
            2107            2655     46.6546E-03     46.6665E-03
            2116            2655     46.6546E-03     46.6665E-03
            2115            2655     46.6546E-03     46.6665E-03
            2106            2655     46.6546E-03     46.6665E-03
            2107            2656     59.5575E-03     58.9350E-03
            2116            2656     59.5575E-03     58.9350E-03
            2117            2656     59.5575E-03     58.9350E-03
            2108            2656     59.5575E-03     58.9350E-03
            2118            2657     47.6497E-03     47.6908E-03
            2110            2657     47.6497E-03     47.6908E-03
            2119            2657     47.6497E-03     47.6908E-03
            2109            2657     47.6497E-03     47.6908E-03
            2119            2658     34.7929E-03     35.7643E-03
            2111            2658     34.7929E-03     35.7643E-03
            2110            2658     34.7929E-03     35.7643E-03
            2120            2658     34.7929E-03     35.7643E-03
            2120            2659     24.2427E-03     25.9493E-03
            2111            2659     24.2427E-03     25.9493E-03
            2121            2659     24.2427E-03     25.9493E-03
            2112            2659     24.2427E-03     25.9493E-03
            2121            2660     19.8411E-03     21.6964E-03
            2113            2660     19.8411E-03     21.6964E-03
            2112            2660     19.8411E-03     21.6964E-03
            2122            2660     19.8411E-03     21.6964E-03
            2114            2661     24.4508E-03     25.9621E-03
            2122            2661     24.4508E-03     25.9621E-03
            2123            2661     24.4508E-03     25.9621E-03
            2113            2661     24.4508E-03     25.9621E-03
            2115            2662     35.3758E-03     36.5065E-03
            2124            2662     35.3758E-03     36.5065E-03
            2114            2662     35.3758E-03     36.5065E-03
            2123            2662     35.3758E-03     36.5065E-03
            2115            2663     48.3447E-03     48.9055E-03
            2124            2663     48.3447E-03     48.9055E-03
            2125            2663     48.3447E-03     48.9055E-03
            2116            2663     48.3447E-03     48.9055E-03
            2125            2664     61.8109E-03     61.4096E-03
            2116            2664     61.8109E-03     61.4096E-03
            2117            2664     61.8109E-03     61.4096E-03
            2126            2664     61.8109E-03     61.4096E-03
            2127            2665     50.4748E-03     50.9713E-03
            2119            2665     50.4748E-03     50.9713E-03
            2128            2665     50.4748E-03     50.9713E-03
            2118            2665     50.4748E-03     50.9713E-03
            2119            2666     35.9913E-03     37.2878E-03
            2128            2666     35.9913E-03     37.2878E-03
            2120            2666     35.9913E-03     37.2878E-03
            2129            2666     35.9913E-03     37.2878E-03
            2120            2667     23.4684E-03     25.3082E-03
            2130            2667     23.4684E-03     25.3082E-03
            2121            2667     23.4684E-03     25.3082E-03
            2129            2667     23.4684E-03     25.3082E-03
            2131            2668     18.3692E-03     20.4412E-03
            2130            2668     18.3692E-03     20.4412E-03
            2121            2668     18.3692E-03     20.4412E-03
            2122            2668     18.3692E-03     20.4412E-03
            2123            2669     23.1775E-03     24.6948E-03
            2132            2669     23.1775E-03     24.6948E-03
            2122            2669     23.1775E-03     24.6948E-03
            2131            2669     23.1775E-03     24.6948E-03
            2123            2670     34.7584E-03     35.6386E-03
            2124            2670     34.7584E-03     35.6386E-03
            2132            2670     34.7584E-03     35.6386E-03
            2133            2670     34.7584E-03     35.6386E-03
            2124            2671     49.6380E-03     50.3842E-03
            2125            2671     49.6380E-03     50.3842E-03
            2133            2671     49.6380E-03     50.3842E-03
            2134            2671     49.6380E-03     50.3842E-03
            2126            2672     64.8711E-03     65.1110E-03
            2125            2672     64.8711E-03     65.1110E-03
            2135            2672     64.8711E-03     65.1110E-03
            2134            2672     64.8711E-03     65.1110E-03
            2136            2673     52.5887E-03     51.2936E-03
            2128            2673     52.5887E-03     51.2936E-03
            2127            2673     52.5887E-03     51.2936E-03
            2137            2673     52.5887E-03     51.2936E-03
            2128            2674     34.8091E-03     34.3824E-03
            2137            2674     34.8091E-03     34.3824E-03
            2129            2674     34.8091E-03     34.3824E-03
            2138            2674     34.8091E-03     34.3824E-03
            2129            2675     21.0988E-03     21.6670E-03
            2139            2675     21.0988E-03     21.6670E-03
            2130            2675     21.0988E-03     21.6670E-03
            2138            2675     21.0988E-03     21.6670E-03
            2131            2676     15.2329E-03     16.4842E-03
            2140            2676     15.2329E-03     16.4842E-03
            2139            2676     15.2329E-03     16.4842E-03
            2130            2676     15.2329E-03     16.4842E-03
            2131            2677     20.3133E-03     20.7882E-03
            2141            2677     20.3133E-03     20.7882E-03
            2140            2677     20.3133E-03     20.7882E-03
            2132            2677     20.3133E-03     20.7882E-03
            2132            2678     32.6515E-03     31.7144E-03
            2133            2678     32.6515E-03     31.7144E-03
            2142            2678     32.6515E-03     31.7144E-03
            2141            2678     32.6515E-03     31.7144E-03
            2142            2679     48.4400E-03     46.6881E-03
            2133            2679     48.4400E-03     46.6881E-03
            2143            2679     48.4400E-03     46.6881E-03
            2134            2679     48.4400E-03     46.6881E-03
            2144            2680     67.5109E-03     65.0465E-03
            2143            2680     67.5109E-03     65.0465E-03
            2135            2680     67.5109E-03     65.0465E-03
            2134            2680     67.5109E-03     65.0465E-03
            2146            2681     48.6060E-03     43.1477E-03
            2137            2681     48.6060E-03     43.1477E-03
            2145            2681     48.6060E-03     43.1477E-03
            2136            2681     48.6060E-03     43.1477E-03
            2146            2682     34.1428E-03     30.3079E-03
            2138            2682     34.1428E-03     30.3079E-03
            2137            2682     34.1428E-03     30.3079E-03
            2147            2682     34.1428E-03     30.3079E-03
            2138            2683     23.5812E-03     21.8363E-03
            2139            2683     23.5812E-03     21.8363E-03
            2148            2683     23.5812E-03     21.8363E-03
            2147            2683     23.5812E-03     21.8363E-03
            2148            2684     19.0705E-03     18.5346E-03
            2140            2684     19.0705E-03     18.5346E-03
            2149            2684     19.0705E-03     18.5346E-03
            2139            2684     19.0705E-03     18.5346E-03
            2149            2685     23.4422E-03     22.4464E-03
            2150            2685     23.4422E-03     22.4464E-03
            2141            2685     23.4422E-03     22.4464E-03
            2140            2685     23.4422E-03     22.4464E-03
            2151            2686     34.1078E-03     31.5637E-03
            2142            2686     34.1078E-03     31.5637E-03
            2141            2686     34.1078E-03     31.5637E-03
            2150            2686     34.1078E-03     31.5637E-03
            2143            2687     47.1420E-03     42.8313E-03
            2151            2687     47.1420E-03     42.8313E-03
            2152            2687     47.1420E-03     42.8313E-03
            2142            2687     47.1420E-03     42.8313E-03
            2153            2688     63.8110E-03     58.1378E-03
            2143            2688     63.8110E-03     58.1378E-03
            2152            2688     63.8110E-03     58.1378E-03
            2144            2688     63.8110E-03     58.1378E-03
            2155            2689     46.0335E-03     43.0482E-03
            2146            2689     46.0335E-03     43.0482E-03
            2154            2689     46.0335E-03     43.0482E-03
            2145            2689     46.0335E-03     43.0482E-03
            2147            2690     35.6792E-03     32.2839E-03
            2156            2690     35.6792E-03     32.2839E-03
            2155            2690     35.6792E-03     32.2839E-03
            2146            2690     35.6792E-03     32.2839E-03
            2156            2691     26.9012E-03     24.0390E-03
            2157            2691     26.9012E-03     24.0390E-03
            2148            2691     26.9012E-03     24.0390E-03
            2147            2691     26.9012E-03     24.0390E-03
            2158            2692     23.6467E-03     21.4625E-03
            2157            2692     23.6467E-03     21.4625E-03
            2149            2692     23.6467E-03     21.4625E-03
            2148            2692     23.6467E-03     21.4625E-03
            2149            2693     27.8590E-03     25.9361E-03
            2150            2693     27.8590E-03     25.9361E-03
            2159            2693     27.8590E-03     25.9361E-03
            2158            2693     27.8590E-03     25.9361E-03
            2151            2694     37.3976E-03     35.1874E-03
            2159            2694     37.3976E-03     35.1874E-03
            2160            2694     37.3976E-03     35.1874E-03
            2150            2694     37.3976E-03     35.1874E-03
            2152            2695     49.4264E-03     46.9616E-03
            2151            2695     49.4264E-03     46.9616E-03
            2160            2695     49.4264E-03     46.9616E-03
            2161            2695     49.4264E-03     46.9616E-03
            2162            2696     62.3235E-03     60.0322E-03
            2161            2696     62.3235E-03     60.0322E-03
            2152            2696     62.3235E-03     60.0322E-03
            2153            2696     62.3235E-03     60.0322E-03
            2164            2697     49.1840E-03     50.4035E-03
            2155            2697     49.1840E-03     50.4035E-03
            2154            2697     49.1840E-03     50.4035E-03
            2163            2697     49.1840E-03     50.4035E-03
            2156            2698     36.8092E-03     36.7992E-03
            2165            2698     36.8092E-03     36.7992E-03
            2155            2698     36.8092E-03     36.7992E-03
            2164            2698     36.8092E-03     36.7992E-03
            2157            2699     26.3139E-03     24.3741E-03
            2156            2699     26.3139E-03     24.3741E-03
            2166            2699     26.3139E-03     24.3741E-03
            2165            2699     26.3139E-03     24.3741E-03
            2157            2700     22.0404E-03     19.3645E-03
            2158            2700     22.0404E-03     19.3645E-03
            2167            2700     22.0404E-03     19.3645E-03
            2166            2700     22.0404E-03     19.3645E-03
            2159            2701     27.2014E-03     25.1203E-03
            2167            2701     27.2014E-03     25.1203E-03
            2158            2701     27.2014E-03     25.1203E-03
            2168            2701     27.2014E-03     25.1203E-03
            2168            2702     38.8445E-03     37.9315E-03
            2160            2702     38.8445E-03     37.9315E-03
            2159            2702     38.8445E-03     37.9315E-03
            2169            2702     38.8445E-03     37.9315E-03
            2161            2703     52.7225E-03     53.1415E-03
            2160            2703     52.7225E-03     53.1415E-03
            2170            2703     52.7225E-03     53.1415E-03
            2169            2703     52.7225E-03     53.1415E-03
            2171            2704     66.6611E-03     67.4488E-03
            2170            2704     66.6611E-03     67.4488E-03
            2161            2704     66.6611E-03     67.4488E-03
            2162            2704     66.6611E-03     67.4488E-03
            2163            2705     51.9026E-03     52.5525E-03
            2172            2705     51.9026E-03     52.5525E-03
            2164            2705     51.9026E-03     52.5525E-03
            2173            2705     51.9026E-03     52.5525E-03
            2165            2706     37.8511E-03     38.8744E-03
            2173            2706     37.8511E-03     38.8744E-03
            2164            2706     37.8511E-03     38.8744E-03
            2174            2706     37.8511E-03     38.8744E-03
            2166            2707     26.3876E-03     25.7450E-03
            2165            2707     26.3876E-03     25.7450E-03
            2174            2707     26.3876E-03     25.7450E-03
            2175            2707     26.3876E-03     25.7450E-03
            2175            2708     21.8817E-03     19.8432E-03
            2167            2708     21.8817E-03     19.8432E-03
            2176            2708     21.8817E-03     19.8432E-03
            2166            2708     21.8817E-03     19.8432E-03
            2177            2709     27.7008E-03     26.1775E-03
            2167            2709     27.7008E-03     26.1775E-03
            2176            2709     27.7008E-03     26.1775E-03
            2168            2709     27.7008E-03     26.1775E-03
            2168            2710     40.3340E-03     40.2689E-03
            2177            2710     40.3340E-03     40.2689E-03
            2178            2710     40.3340E-03     40.2689E-03
            2169            2710     40.3340E-03     40.2689E-03
            2179            2711     54.8505E-03     55.6370E-03
            2178            2711     54.8505E-03     55.6370E-03
            2169            2711     54.8505E-03     55.6370E-03
            2170            2711     54.8505E-03     55.6370E-03
            2170            2712     69.5997E-03     69.7356E-03
            2171            2712     69.5997E-03     69.7356E-03
            2179            2712     69.5997E-03     69.7356E-03
            2180            2712     69.5997E-03     69.7356E-03
            2181            2713     54.5044E-03     54.7287E-03
            2172            2713     54.5044E-03     54.7287E-03
            2173            2713     54.5044E-03     54.7287E-03
            2182            2713     54.5044E-03     54.7287E-03
            2173            2714     39.1605E-03     39.9318E-03
            2183            2714     39.1605E-03     39.9318E-03
            2182            2714     39.1605E-03     39.9318E-03
            2174            2714     39.1605E-03     39.9318E-03
            2175            2715     26.8511E-03     27.0006E-03
            2184            2715     26.8511E-03     27.0006E-03
            2183            2715     26.8511E-03     27.0006E-03
            2174            2715     26.8511E-03     27.0006E-03
            2185            2716     22.1602E-03     21.2066E-03
            2184            2716     22.1602E-03     21.2066E-03
            2176            2716     22.1602E-03     21.2066E-03
            2175            2716     22.1602E-03     21.2066E-03
            2186            2717     28.3745E-03     27.6069E-03
            2176            2717     28.3745E-03     27.6069E-03
            2177            2717     28.3745E-03     27.6069E-03
            2185            2717     28.3745E-03     27.6069E-03
            2187            2718     41.5379E-03     41.6877E-03
            2186            2718     41.5379E-03     41.6877E-03
            2177            2718     41.5379E-03     41.6877E-03
            2178            2718     41.5379E-03     41.6877E-03
            2179            2719     56.6534E-03     56.9389E-03
            2187            2719     56.6534E-03     56.9389E-03
            2178            2719     56.6534E-03     56.9389E-03
            2188            2719     56.6534E-03     56.9389E-03
            2188            2720     72.5334E-03     72.1408E-03
            2189            2720     72.5334E-03     72.1408E-03
            2180            2720     72.5334E-03     72.1408E-03
            2179            2720     72.5334E-03     72.1408E-03
            2190            2721     57.0729E-03     57.0390E-03
            2181            2721     57.0729E-03     57.0390E-03
            2182            2721     57.0729E-03     57.0390E-03
            2191            2721     57.0729E-03     57.0390E-03
            2182            2722     40.7635E-03     41.5104E-03
            2192            2722     40.7635E-03     41.5104E-03
            2183            2722     40.7635E-03     41.5104E-03
            2191            2722     40.7635E-03     41.5104E-03
            2183            2723     27.5044E-03     28.1891E-03
            2193            2723     27.5044E-03     28.1891E-03
            2192            2723     27.5044E-03     28.1891E-03
            2184            2723     27.5044E-03     28.1891E-03
            2193            2724     22.5274E-03     22.7130E-03
            2194            2724     22.5274E-03     22.7130E-03
            2184            2724     22.5274E-03     22.7130E-03
            2185            2724     22.5274E-03     22.7130E-03
            2186            2725     28.9691E-03     29.0484E-03
            2195            2725     28.9691E-03     29.0484E-03
            2185            2725     28.9691E-03     29.0484E-03
            2194            2725     28.9691E-03     29.0484E-03
            2196            2726     42.6139E-03     42.9085E-03
            2186            2726     42.6139E-03     42.9085E-03
            2187            2726     42.6139E-03     42.9085E-03
            2195            2726     42.6139E-03     42.9085E-03
            2188            2727     58.5822E-03     58.7155E-03
            2197            2727     58.5822E-03     58.7155E-03
            2196            2727     58.5822E-03     58.7155E-03
            2187            2727     58.5822E-03     58.7155E-03
            2188            2728     75.3076E-03     74.6721E-03
            2189            2728     75.3076E-03     74.6721E-03
            2198            2728     75.3076E-03     74.6721E-03
            2197            2728     75.3076E-03     74.6721E-03
            2191            2729     59.5776E-03     59.5152E-03
            2199            2729     59.5776E-03     59.5152E-03
            2190            2729     59.5776E-03     59.5152E-03
            2200            2729     59.5776E-03     59.5152E-03
            2201            2730     42.3918E-03     43.2665E-03
            2200            2730     42.3918E-03     43.2665E-03
            2191            2730     42.3918E-03     43.2665E-03
            2192            2730     42.3918E-03     43.2665E-03
            2202            2731     28.2773E-03     29.6716E-03
            2192            2731     28.2773E-03     29.6716E-03
            2193            2731     28.2773E-03     29.6716E-03
            2201            2731     28.2773E-03     29.6716E-03
            2194            2732     22.7426E-03     24.1073E-03
            2202            2732     22.7426E-03     24.1073E-03
            2203            2732     22.7426E-03     24.1073E-03
            2193            2732     22.7426E-03     24.1073E-03
            2195            2733     29.3779E-03     30.4781E-03
            2204            2733     29.3779E-03     30.4781E-03
            2203            2733     29.3779E-03     30.4781E-03
            2194            2733     29.3779E-03     30.4781E-03
            2205            2734     43.6719E-03     44.4784E-03
            2196            2734     43.6719E-03     44.4784E-03
            2195            2734     43.6719E-03     44.4784E-03
            2204            2734     43.6719E-03     44.4784E-03
            2205            2735     60.3680E-03     60.6025E-03
            2206            2735     60.3680E-03     60.6025E-03
            2196            2735     60.3680E-03     60.6025E-03
            2197            2735     60.3680E-03     60.6025E-03
            2198            2736     77.9544E-03     77.3049E-03
            2207            2736     77.9544E-03     77.3049E-03
            2197            2736     77.9544E-03     77.3049E-03
            2206            2736     77.9544E-03     77.3049E-03
            2208            2737     61.9386E-03     62.0926E-03
            2209            2737     61.9386E-03     62.0926E-03
            2200            2737     61.9386E-03     62.0926E-03
            2199            2737     61.9386E-03     62.0926E-03
            2210            2738     44.1383E-03     45.5785E-03
            2200            2738     44.1383E-03     45.5785E-03
            2209            2738     44.1383E-03     45.5785E-03
            2201            2738     44.1383E-03     45.5785E-03
            2210            2739     28.9447E-03     31.2506E-03
            2211            2739     28.9447E-03     31.2506E-03
            2202            2739     28.9447E-03     31.2506E-03
            2201            2739     28.9447E-03     31.2506E-03
            2211            2740     22.2836E-03     24.6674E-03
            2212            2740     22.2836E-03     24.6674E-03
            2203            2740     22.2836E-03     24.6674E-03
            2202            2740     22.2836E-03     24.6674E-03
            2212            2741     28.9497E-03     30.8378E-03
            2203            2741     28.9497E-03     30.8378E-03
            2213            2741     28.9497E-03     30.8378E-03
            2204            2741     28.9497E-03     30.8378E-03
            2214            2742     44.4519E-03     45.9503E-03
            2205            2742     44.4519E-03     45.9503E-03
            2204            2742     44.4519E-03     45.9503E-03
            2213            2742     44.4519E-03     45.9503E-03
            2205            2743     62.2425E-03     63.1222E-03
            2206            2743     62.2425E-03     63.1222E-03
            2214            2743     62.2425E-03     63.1222E-03
            2215            2743     62.2425E-03     63.1222E-03
            2215            2744     80.4340E-03     80.0253E-03
            2207            2744     80.4340E-03     80.0253E-03
            2206            2744     80.4340E-03     80.0253E-03
            2216            2744     80.4340E-03     80.0253E-03
            2218            2745     65.0515E-03     65.8167E-03
            2209            2745     65.0515E-03     65.8167E-03
            2217            2745     65.0515E-03     65.8167E-03
            2208            2745     65.0515E-03     65.8167E-03
            2209            2746     45.4646E-03     47.2007E-03
            2218            2746     45.4646E-03     47.2007E-03
            2219            2746     45.4646E-03     47.2007E-03
            2210            2746     45.4646E-03     47.2007E-03
            2219            2747     28.0028E-03     30.3875E-03
            2210            2747     28.0028E-03     30.3875E-03
            2211            2747     28.0028E-03     30.3875E-03
            2220            2747     28.0028E-03     30.3875E-03
            2211            2748     20.5331E-03     23.2304E-03
            2220            2748     20.5331E-03     23.2304E-03
            2221            2748     20.5331E-03     23.2304E-03
            2212            2748     20.5331E-03     23.2304E-03
            2221            2749     27.4179E-03     29.3326E-03
            2222            2749     27.4179E-03     29.3326E-03
            2213            2749     27.4179E-03     29.3326E-03
            2212            2749     27.4179E-03     29.3326E-03
            2223            2750     43.6154E-03     44.6926E-03
            2222            2750     43.6154E-03     44.6926E-03
            2213            2750     43.6154E-03     44.6926E-03
            2214            2750     43.6154E-03     44.6926E-03
            2224            2751     63.5989E-03     64.6030E-03
            2215            2751     63.5989E-03     64.6030E-03
            2214            2751     63.5989E-03     64.6030E-03
            2223            2751     63.5989E-03     64.6030E-03
            2216            2752     83.8178E-03     84.2124E-03
            2224            2752     83.8178E-03     84.2124E-03
            2225            2752     83.8178E-03     84.2124E-03
            2215            2752     83.8178E-03     84.2124E-03
            2218            2753     67.2658E-03     65.3627E-03
            2226            2753     67.2658E-03     65.3627E-03
            2227            2753     67.2658E-03     65.3627E-03
            2217            2753     67.2658E-03     65.3627E-03
            2219            2754     43.9663E-03     43.0960E-03
            2218            2754     43.9663E-03     43.0960E-03
            2228            2754     43.9663E-03     43.0960E-03
            2227            2754     43.9663E-03     43.0960E-03
            2228            2755     25.2249E-03     25.7262E-03
            2220            2755     25.2249E-03     25.7262E-03
            2229            2755     25.2249E-03     25.7262E-03
            2219            2755     25.2249E-03     25.7262E-03
            2221            2756     16.7658E-03     18.3068E-03
            2230            2756     16.7658E-03     18.3068E-03
            2229            2756     16.7658E-03     18.3068E-03
            2220            2756     16.7658E-03     18.3068E-03
            2230            2757     23.9658E-03     24.4810E-03
            2222            2757     23.9658E-03     24.4810E-03
            2221            2757     23.9658E-03     24.4810E-03
            2231            2757     23.9658E-03     24.4810E-03
            2231            2758     41.0169E-03     39.6442E-03
            2232            2758     41.0169E-03     39.6442E-03
            2222            2758     41.0169E-03     39.6442E-03
            2223            2758     41.0169E-03     39.6442E-03
            2223            2759     61.8656E-03     59.4758E-03
            2232            2759     61.8656E-03     59.4758E-03
            2224            2759     61.8656E-03     59.4758E-03
            2233            2759     61.8656E-03     59.4758E-03
            2224            2760     86.5599E-03     83.3395E-03
            2225            2760     86.5599E-03     83.3395E-03
            2234            2760     86.5599E-03     83.3395E-03
            2233            2760     86.5599E-03     83.3395E-03
            2245            2761     680.642E-06     681.526E-06
            2244            2761     680.642E-06     681.526E-06
            2236            2761     680.642E-06     681.526E-06
            2235            2761     680.642E-06     681.526E-06
            2237            2762     731.923E-06     738.000E-06
            2245            2762     731.923E-06     738.000E-06
            2236            2762     731.923E-06     738.000E-06
            2246            2762     731.923E-06     738.000E-06
            2238            2763     733.758E-06     738.233E-06
            2246            2763     733.758E-06     738.233E-06
            2247            2763     733.758E-06     738.233E-06
            2237            2763     733.758E-06     738.233E-06
            2248            2764     730.520E-06     734.557E-06
            2238            2764     730.520E-06     734.557E-06
            2239            2764     730.520E-06     734.557E-06
            2247            2764     730.520E-06     734.557E-06
            2249            2765     730.520E-06     734.557E-06
            2248            2765     730.520E-06     734.557E-06
            2239            2765     730.520E-06     734.557E-06
            2240            2765     730.520E-06     734.557E-06
            2249            2766     733.758E-06     738.233E-06
            2241            2766     733.758E-06     738.233E-06
            2240            2766     733.758E-06     738.233E-06
            2250            2766     733.758E-06     738.233E-06
            2242            2767     731.923E-06     738.000E-06
            2250            2767     731.923E-06     738.000E-06
            2251            2767     731.923E-06     738.000E-06
            2241            2767     731.923E-06     738.000E-06
            2243            2768     680.642E-06     681.526E-06
            2242            2768     680.642E-06     681.526E-06
            2252            2768     680.642E-06     681.526E-06
            2251            2768     680.642E-06     681.526E-06
            2254            2769     627.627E-06     631.767E-06
            2253            2769     627.627E-06     631.767E-06
            2245            2769     627.627E-06     631.767E-06
            2244            2769     627.627E-06     631.767E-06
            2246            2770     750.269E-06     755.515E-06
            2254            2770     750.269E-06     755.515E-06
            2245            2770     750.269E-06     755.515E-06
            2255            2770     750.269E-06     755.515E-06
            2255            2771     750.177E-06     756.965E-06
            2247            2771     750.177E-06     756.965E-06
            2256            2771     750.177E-06     756.965E-06
            2246            2771     750.177E-06     756.965E-06
            2247            2772     741.374E-06     746.949E-06
            2248            2772     741.374E-06     746.949E-06
            2257            2772     741.374E-06     746.949E-06
            2256            2772     741.374E-06     746.949E-06
            2257            2773     741.374E-06     746.949E-06
            2258            2773     741.374E-06     746.949E-06
            2249            2773     741.374E-06     746.949E-06
            2248            2773     741.374E-06     746.949E-06
            2258            2774     750.177E-06     756.965E-06
            2259            2774     750.177E-06     756.965E-06
            2250            2774     750.177E-06     756.965E-06
            2249            2774     750.177E-06     756.965E-06
            2251            2775     750.269E-06     755.515E-06
            2260            2775     750.269E-06     755.515E-06
            2259            2775     750.269E-06     755.515E-06
            2250            2775     750.269E-06     755.515E-06
            2251            2776     627.627E-06     631.767E-06
            2252            2776     627.627E-06     631.767E-06
            2260            2776     627.627E-06     631.767E-06
            2261            2776     627.627E-06     631.767E-06
            2254            2777     610.215E-06     612.452E-06
            2253            2777     610.215E-06     612.452E-06
            2263            2777     610.215E-06     612.452E-06
            2262            2777     610.215E-06     612.452E-06
            2264            2778     727.152E-06     729.291E-06
            2263            2778     727.152E-06     729.291E-06
            2254            2778     727.152E-06     729.291E-06
            2255            2778     727.152E-06     729.291E-06
            2256            2779     748.166E-06     752.021E-06
            2255            2779     748.166E-06     752.021E-06
            2265            2779     748.166E-06     752.021E-06
            2264            2779     748.166E-06     752.021E-06
            2265            2780     749.820E-06     754.184E-06
            2266            2780     749.820E-06     754.184E-06
            2256            2780     749.820E-06     754.184E-06
            2257            2780     749.820E-06     754.184E-06
            2267            2781     749.820E-06     754.184E-06
            2258            2781     749.820E-06     754.184E-06
            2257            2781     749.820E-06     754.184E-06
            2266            2781     749.820E-06     754.184E-06
            2267            2782     748.166E-06     752.021E-06
            2259            2782     748.166E-06     752.021E-06
            2268            2782     748.166E-06     752.021E-06
            2258            2782     748.166E-06     752.021E-06
            2268            2783     727.152E-06     729.291E-06
            2269            2783     727.152E-06     729.291E-06
            2260            2783     727.152E-06     729.291E-06
            2259            2783     727.152E-06     729.291E-06
            2261            2784     610.215E-06     612.452E-06
            2269            2784     610.215E-06     612.452E-06
            2260            2784     610.215E-06     612.452E-06
            2270            2784     610.215E-06     612.452E-06
            3851            4163     93.1576E-03     89.5584E-03
            3860            4163     93.1576E-03     89.5584E-03
            3852            4163     93.1576E-03     89.5584E-03
            3861            4163     93.1576E-03     89.5584E-03
            3852            4164     66.0006E-03     63.4425E-03
            3853            4164     66.0006E-03     63.4425E-03
            3862            4164     66.0006E-03     63.4425E-03
            3861            4164     66.0006E-03     63.4425E-03
            3862            4165     43.5160E-03     41.7721E-03
            3853            4165     43.5160E-03     41.7721E-03
            3854            4165     43.5160E-03     41.7721E-03
            3863            4165     43.5160E-03     41.7721E-03
            3854            4166     25.7153E-03     25.4947E-03
            3855            4166     25.7153E-03     25.4947E-03
            3864            4166     25.7153E-03     25.4947E-03
            3863            4166     25.7153E-03     25.4947E-03
            3864            4167     19.7732E-03     21.0129E-03
            3855            4167     19.7732E-03     21.0129E-03
            3856            4167     19.7732E-03     21.0129E-03
            3865            4167     19.7732E-03     21.0129E-03
            3856            4168     30.4988E-03     31.8394E-03
            3866            4168     30.4988E-03     31.8394E-03
            3857            4168     30.4988E-03     31.8394E-03
            3865            4168     30.4988E-03     31.8394E-03
            3867            4169     51.4259E-03     51.9371E-03
            3857            4169     51.4259E-03     51.9371E-03
            3866            4169     51.4259E-03     51.9371E-03
            3858            4169     51.4259E-03     51.9371E-03
            3858            4170     77.9440E-03     76.8895E-03
            3868            4170     77.9440E-03     76.8895E-03
            3867            4170     77.9440E-03     76.8895E-03
            3859            4170     77.9440E-03     76.8895E-03
            3860            4171     89.4626E-03     91.0532E-03
            3870            4171     89.4626E-03     91.0532E-03
            3869            4171     89.4626E-03     91.0532E-03
            3861            4171     89.4626E-03     91.0532E-03
            3871            4172     67.7687E-03     69.9684E-03
            3861            4172     67.7687E-03     69.9684E-03
            3870            4172     67.7687E-03     69.9684E-03
            3862            4172     67.7687E-03     69.9684E-03
            3871            4173     46.3790E-03     47.7190E-03
            3863            4173     46.3790E-03     47.7190E-03
            3862            4173     46.3790E-03     47.7190E-03
            3872            4173     46.3790E-03     47.7190E-03
            3872            4174     29.4744E-03     30.4981E-03
            3863            4174     29.4744E-03     30.4981E-03
            3873            4174     29.4744E-03     30.4981E-03
            3864            4174     29.4744E-03     30.4981E-03
            3873            4175     24.0801E-03     25.8442E-03
            3864            4175     24.0801E-03     25.8442E-03
            3865            4175     24.0801E-03     25.8442E-03
            3874            4175     24.0801E-03     25.8442E-03
            3865            4176     34.2099E-03     37.0900E-03
            3866            4176     34.2099E-03     37.0900E-03
            3875            4176     34.2099E-03     37.0900E-03
            3874            4176     34.2099E-03     37.0900E-03
            3866            4177     53.8337E-03     57.2137E-03
            3876            4177     53.8337E-03     57.2137E-03
            3867            4177     53.8337E-03     57.2137E-03
            3875            4177     53.8337E-03     57.2137E-03
            3868            4178     75.3906E-03     77.5369E-03
            3867            4178     75.3906E-03     77.5369E-03
            3876            4178     75.3906E-03     77.5369E-03
            3877            4178     75.3906E-03     77.5369E-03
            3870            4179     85.0852E-03     86.5771E-03
            3879            4179     85.0852E-03     86.5771E-03
            3869            4179     85.0852E-03     86.5771E-03
            3878            4179     85.0852E-03     86.5771E-03
            3879            4180     66.4566E-03     69.5047E-03
            3870            4180     66.4566E-03     69.5047E-03
            3871            4180     66.4566E-03     69.5047E-03
            3880            4180     66.4566E-03     69.5047E-03
            3880            4181     47.3394E-03     49.5734E-03
            3871            4181     47.3394E-03     49.5734E-03
            3872            4181     47.3394E-03     49.5734E-03
            3881            4181     47.3394E-03     49.5734E-03
            3882            4182     31.0675E-03     31.9168E-03
            3872            4182     31.0675E-03     31.9168E-03
            3881            4182     31.0675E-03     31.9168E-03
            3873            4182     31.0675E-03     31.9168E-03
            3883            4183     26.3047E-03     27.1287E-03
            3882            4183     26.3047E-03     27.1287E-03
            3873            4183     26.3047E-03     27.1287E-03
            3874            4183     26.3047E-03     27.1287E-03
            3875            4184     36.1486E-03     38.3941E-03
            3883            4184     36.1486E-03     38.3941E-03
            3874            4184     36.1486E-03     38.3941E-03
            3884            4184     36.1486E-03     38.3941E-03
            3875            4185     53.1214E-03     56.4605E-03
            3876            4185     53.1214E-03     56.4605E-03
            3884            4185     53.1214E-03     56.4605E-03
            3885            4185     53.1214E-03     56.4605E-03
            3877            4186     71.4466E-03     73.4516E-03
            3876            4186     71.4466E-03     73.4516E-03
            3885            4186     71.4466E-03     73.4516E-03
            3886            4186     71.4466E-03     73.4516E-03
            3888            4187     81.6731E-03     83.4188E-03
            3878            4187     81.6731E-03     83.4188E-03
            3887            4187     81.6731E-03     83.4188E-03
            3879            4187     81.6731E-03     83.4188E-03
            3888            4188     63.7628E-03     65.8707E-03
            3880            4188     63.7628E-03     65.8707E-03
            3879            4188     63.7628E-03     65.8707E-03
            3889            4188     63.7628E-03     65.8707E-03
            3890            4189     46.0897E-03     47.1482E-03
            3880            4189     46.0897E-03     47.1482E-03
            3881            4189     46.0897E-03     47.1482E-03
            3889            4189     46.0897E-03     47.1482E-03
            3890            4190     32.0062E-03     32.0729E-03
            3881            4190     32.0062E-03     32.0729E-03
            3891            4190     32.0062E-03     32.0729E-03
            3882            4190     32.0062E-03     32.0729E-03
            3891            4191     27.8674E-03     27.3771E-03
            3892            4191     27.8674E-03     27.3771E-03
            3883            4191     27.8674E-03     27.3771E-03
            3882            4191     27.8674E-03     27.3771E-03
            3892            4192     36.3333E-03     36.1803E-03
            3893            4192     36.3333E-03     36.1803E-03
            3883            4192     36.3333E-03     36.1803E-03
            3884            4192     36.3333E-03     36.1803E-03
            3893            4193     51.6198E-03     52.9054E-03
            3885            4193     51.6198E-03     52.9054E-03
            3884            4193     51.6198E-03     52.9054E-03
            3894            4193     51.6198E-03     52.9054E-03
            3895            4194     68.3111E-03     70.2959E-03
            3885            4194     68.3111E-03     70.2959E-03
            3886            4194     68.3111E-03     70.2959E-03
            3894            4194     68.3111E-03     70.2959E-03
            3888            4195     75.4998E-03     74.6705E-03
            3887            4195     75.4998E-03     74.6705E-03
            3896            4195     75.4998E-03     74.6705E-03
            3897            4195     75.4998E-03     74.6705E-03
            3897            4196     59.3721E-03     58.7731E-03
            3889            4196     59.3721E-03     58.7731E-03
            3898            4196     59.3721E-03     58.7731E-03
            3888            4196     59.3721E-03     58.7731E-03
            3889            4197     44.6665E-03     44.2421E-03
            3899            4197     44.6665E-03     44.2421E-03
            3890            4197     44.6665E-03     44.2421E-03
            3898            4197     44.6665E-03     44.2421E-03
            3900            4198     33.7513E-03     33.3761E-03
            3899            4198     33.7513E-03     33.3761E-03
            3891            4198     33.7513E-03     33.3761E-03
            3890            4198     33.7513E-03     33.3761E-03
            3891            4199     30.5645E-03     29.4812E-03
            3892            4199     30.5645E-03     29.4812E-03
            3901            4199     30.5645E-03     29.4812E-03
            3900            4199     30.5645E-03     29.4812E-03
            3893            4200     36.8836E-03     34.6622E-03
            3892            4200     36.8836E-03     34.6622E-03
            3901            4200     36.8836E-03     34.6622E-03
            3902            4200     36.8836E-03     34.6622E-03
            3902            4201     49.4443E-03     46.4415E-03
            3894            4201     49.4443E-03     46.4415E-03
            3893            4201     49.4443E-03     46.4415E-03
            3903            4201     49.4443E-03     46.4415E-03
            3895            4202     63.7114E-03     60.8832E-03
            3894            4202     63.7114E-03     60.8832E-03
            3904            4202     63.7114E-03     60.8832E-03
            3903            4202     63.7114E-03     60.8832E-03
            3905            4203     56.8734E-03     71.7833E-03
            3906            4203     56.8734E-03     71.7833E-03
            3915            4203     56.8734E-03     71.7833E-03
            3914            4203     56.8734E-03     71.7833E-03
            3915            4204     42.3833E-03     52.8750E-03
            3916            4204     42.3833E-03     52.8750E-03
            3907            4204     42.3833E-03     52.8750E-03
            3906            4204     42.3833E-03     52.8750E-03
            3907            4205     29.5245E-03     36.9939E-03
            3917            4205     29.5245E-03     36.9939E-03
            3916            4205     29.5245E-03     36.9939E-03
            3908            4205     29.5245E-03     36.9939E-03
            3909            4206     23.4774E-03     26.9342E-03
            3917            4206     23.4774E-03     26.9342E-03
            3918            4206     23.4774E-03     26.9342E-03
            3908            4206     23.4774E-03     26.9342E-03
            3918            4207     28.7535E-03     27.1181E-03
            3910            4207     28.7535E-03     27.1181E-03
            3919            4207     28.7535E-03     27.1181E-03
            3909            4207     28.7535E-03     27.1181E-03
            3919            4208     41.5146E-03     36.9414E-03
            3910            4208     41.5146E-03     36.9414E-03
            3920            4208     41.5146E-03     36.9414E-03
            3911            4208     41.5146E-03     36.9414E-03
            3921            4209     57.1069E-03     51.3325E-03
            3911            4209     57.1069E-03     51.3325E-03
            3920            4209     57.1069E-03     51.3325E-03
            3912            4209     57.1069E-03     51.3325E-03
            3913            4210     73.7804E-03     67.8763E-03
            3921            4210     73.7804E-03     67.8763E-03
            3912            4210     73.7804E-03     67.8763E-03
            3922            4210     73.7804E-03     67.8763E-03
            3915            4211     64.7708E-03     80.5682E-03
            3923            4211     64.7708E-03     80.5682E-03
            3924            4211     64.7708E-03     80.5682E-03
            3914            4211     64.7708E-03     80.5682E-03
            3916            4212     47.0400E-03     64.0050E-03
            3925            4212     47.0400E-03     64.0050E-03
            3915            4212     47.0400E-03     64.0050E-03
            3924            4212     47.0400E-03     64.0050E-03
            3916            4213     33.6877E-03     47.4473E-03
            3917            4213     33.6877E-03     47.4473E-03
            3925            4213     33.6877E-03     47.4473E-03
            3926            4213     33.6877E-03     47.4473E-03
            3926            4214     26.9551E-03     34.5969E-03
            3918            4214     26.9551E-03     34.5969E-03
            3917            4214     26.9551E-03     34.5969E-03
            3927            4214     26.9551E-03     34.5969E-03
            3919            4215     30.7275E-03     30.3387E-03
            3928            4215     30.7275E-03     30.3387E-03
            3918            4215     30.7275E-03     30.3387E-03
            3927            4215     30.7275E-03     30.3387E-03
            3929            4216     42.6949E-03     37.2937E-03
            3920            4216     42.6949E-03     37.2937E-03
            3928            4216     42.6949E-03     37.2937E-03
            3919            4216     42.6949E-03     37.2937E-03
            3930            4217     57.9508E-03     51.6402E-03
            3920            4217     57.9508E-03     51.6402E-03
            3929            4217     57.9508E-03     51.6402E-03
            3921            4217     57.9508E-03     51.6402E-03
            3930            4218     74.1094E-03     69.1090E-03
            3931            4218     74.1094E-03     69.1090E-03
            3922            4218     74.1094E-03     69.1090E-03
            3921            4218     74.1094E-03     69.1090E-03
            3923            4219     78.5624E-03     80.0243E-03
            3933            4219     78.5624E-03     80.0243E-03
            3924            4219     78.5624E-03     80.0243E-03
            3932            4219     78.5624E-03     80.0243E-03
            3925            4220     56.2835E-03     65.2002E-03
            3934            4220     56.2835E-03     65.2002E-03
            3933            4220     56.2835E-03     65.2002E-03
            3924            4220     56.2835E-03     65.2002E-03
            3926            4221     36.8037E-03     45.9447E-03
            3934            4221     36.8037E-03     45.9447E-03
            3935            4221     36.8037E-03     45.9447E-03
            3925            4221     36.8037E-03     45.9447E-03
            3926            4222     23.8849E-03     30.4454E-03
            3935            4222     23.8849E-03     30.4454E-03
            3936            4222     23.8849E-03     30.4454E-03
            3927            4222     23.8849E-03     30.4454E-03
            3927            4223     25.1321E-03     28.7740E-03
            3936            4223     25.1321E-03     28.7740E-03
            3937            4223     25.1321E-03     28.7740E-03
            3928            4223     25.1321E-03     28.7740E-03
            3929            4224     40.0461E-03     41.6515E-03
            3937            4224     40.0461E-03     41.6515E-03
            3928            4224     40.0461E-03     41.6515E-03
            3938            4224     40.0461E-03     41.6515E-03
            3938            4225     58.9773E-03     61.1569E-03
            3930            4225     58.9773E-03     61.1569E-03
            3929            4225     58.9773E-03     61.1569E-03
            3939            4225     58.9773E-03     61.1569E-03
            3931            4226     77.2199E-03     79.8530E-03
            3930            4226     77.2199E-03     79.8530E-03
            3939            4226     77.2199E-03     79.8530E-03
            3940            4226     77.2199E-03     79.8530E-03
            3932            4227     81.7439E-03     84.6437E-03
            3941            4227     81.7439E-03     84.6437E-03
            3933            4227     81.7439E-03     84.6437E-03
            3942            4227     81.7439E-03     84.6437E-03
            3933            4228     62.6938E-03     62.4978E-03
            3943            4228     62.6938E-03     62.4978E-03
            3942            4228     62.6938E-03     62.4978E-03
            3934            4228     62.6938E-03     62.4978E-03
            3935            4229     40.8055E-03     40.5752E-03
            3934            4229     40.8055E-03     40.5752E-03
            3943            4229     40.8055E-03     40.5752E-03
            3944            4229     40.8055E-03     40.5752E-03
            3945            4230     23.4085E-03     26.5230E-03
            3944            4230     23.4085E-03     26.5230E-03
            3935            4230     23.4085E-03     26.5230E-03
            3936            4230     23.4085E-03     26.5230E-03
            3946            4231     21.3311E-03     27.8010E-03
            3945            4231     21.3311E-03     27.8010E-03
            3936            4231     21.3311E-03     27.8010E-03
            3937            4231     21.3311E-03     27.8010E-03
            3947            4232     36.2176E-03     43.4228E-03
            3938            4232     36.2176E-03     43.4228E-03
            3937            4232     36.2176E-03     43.4228E-03
            3946            4232     36.2176E-03     43.4228E-03
            3938            4233     58.0672E-03     65.1822E-03
            3948            4233     58.0672E-03     65.1822E-03
            3947            4233     58.0672E-03     65.1822E-03
            3939            4233     58.0672E-03     65.1822E-03
            3939            4234     80.0224E-03     84.6121E-03
            3948            4234     80.0224E-03     84.6121E-03
            3940            4234     80.0224E-03     84.6121E-03
            3949            4234     80.0224E-03     84.6121E-03
            3950            4235     91.8526E-03     76.9784E-03
            3951            4235     91.8526E-03     76.9784E-03
            3941            4235     91.8526E-03     76.9784E-03
            3942            4235     91.8526E-03     76.9784E-03
            3951            4236     66.3745E-03     51.0161E-03
            3952            4236     66.3745E-03     51.0161E-03
            3942            4236     66.3745E-03     51.0161E-03
            3943            4236     66.3745E-03     51.0161E-03
            3944            4237     43.3024E-03     30.5692E-03
            3952            4237     43.3024E-03     30.5692E-03
            3943            4237     43.3024E-03     30.5692E-03
            3953            4237     43.3024E-03     30.5692E-03
            3954            4238     23.1590E-03     20.0016E-03
            3944            4238     23.1590E-03     20.0016E-03
            3953            4238     23.1590E-03     20.0016E-03
            3945            4238     23.1590E-03     20.0016E-03
            3945            4239     17.2431E-03     24.4354E-03
            3954            4239     17.2431E-03     24.4354E-03
            3955            4239     17.2431E-03     24.4354E-03
            3946            4239     17.2431E-03     24.4354E-03
            3946            4240     30.6631E-03     40.5938E-03
            3956            4240     30.6631E-03     40.5938E-03
            3955            4240     30.6631E-03     40.5938E-03
            3947            4240     30.6631E-03     40.5938E-03
            3957            4241     53.6110E-03     60.9899E-03
            3948            4241     53.6110E-03     60.9899E-03
            3947            4241     53.6110E-03     60.9899E-03
            3956            4241     53.6110E-03     60.9899E-03
            3949            4242     81.2453E-03     84.5147E-03
            3948            4242     81.2453E-03     84.5147E-03
            3958            4242     81.2453E-03     84.5147E-03
            3957            4242     81.2453E-03     84.5147E-03
            5325            5425     778.707E-06     774.817E-06
            5334            5425     778.707E-06     774.817E-06
            5326            5425     778.707E-06     774.817E-06
            5335            5425     778.707E-06     774.817E-06
            5326            5426     752.189E-06     759.781E-06
            5336            5426     752.189E-06     759.781E-06
            5327            5426     752.189E-06     759.781E-06
            5335            5426     752.189E-06     759.781E-06
            5328            5427     743.212E-06     751.038E-06
            5337            5427     743.212E-06     751.038E-06
            5336            5427     743.212E-06     751.038E-06
            5327            5427     743.212E-06     751.038E-06
            5337            5428     748.326E-06     755.870E-06
            5338            5428     748.326E-06     755.870E-06
            5328            5428     748.326E-06     755.870E-06
            5329            5428     748.326E-06     755.870E-06
            5339            5429     748.326E-06     755.870E-06
            5338            5429     748.326E-06     755.870E-06
            5329            5429     748.326E-06     755.870E-06
            5330            5429     748.326E-06     755.870E-06
            5331            5430     743.212E-06     751.038E-06
            5339            5430     743.212E-06     751.038E-06
            5340            5430     743.212E-06     751.038E-06
            5330            5430     743.212E-06     751.038E-06
            5340            5431     752.189E-06     759.781E-06
            5331            5431     752.189E-06     759.781E-06
            5341            5431     752.189E-06     759.781E-06
            5332            5431     752.189E-06     759.781E-06
            5333            5432     778.707E-06     774.817E-06
            5342            5432     778.707E-06     774.817E-06
            5332            5432     778.707E-06     774.817E-06
            5341            5432     778.707E-06     774.817E-06
            5334            5433     671.191E-06     675.670E-06
            5335            5433     671.191E-06     675.670E-06
            5343            5433     671.191E-06     675.670E-06
            5344            5433     671.191E-06     675.670E-06
            5335            5434     754.741E-06     764.167E-06
            5336            5434     754.741E-06     764.167E-06
            5345            5434     754.741E-06     764.167E-06
            5344            5434     754.741E-06     764.167E-06
            5345            5435     781.889E-06     792.900E-06
            5346            5435     781.889E-06     792.900E-06
            5337            5435     781.889E-06     792.900E-06
            5336            5435     781.889E-06     792.900E-06
            5338            5436     790.430E-06     800.151E-06
            5337            5436     790.430E-06     800.151E-06
            5346            5436     790.430E-06     800.151E-06
            5347            5436     790.430E-06     800.151E-06
            5339            5437     790.430E-06     800.151E-06
            5338            5437     790.430E-06     800.151E-06
            5347            5437     790.430E-06     800.151E-06
            5348            5437     790.430E-06     800.151E-06
            5349            5438     781.889E-06     792.900E-06
            5340            5438     781.889E-06     792.900E-06
            5339            5438     781.889E-06     792.900E-06
            5348            5438     781.889E-06     792.900E-06
            5341            5439     754.741E-06     764.167E-06
            5349            5439     754.741E-06     764.167E-06
            5340            5439     754.741E-06     764.167E-06
            5350            5439     754.741E-06     764.167E-06
            5351            5440     671.191E-06     675.670E-06
            5341            5440     671.191E-06     675.670E-06
            5342            5440     671.191E-06     675.670E-06
            5350            5440     671.191E-06     675.670E-06
            5352            5441     591.078E-06     595.511E-06
            5353            5441     591.078E-06     595.511E-06
            5343            5441     591.078E-06     595.511E-06
            5344            5441     591.078E-06     595.511E-06
            5353            5442     730.739E-06     734.629E-06
            5345            5442     730.739E-06     734.629E-06
            5354            5442     730.739E-06     734.629E-06
            5344            5442     730.739E-06     734.629E-06
            5355            5443     796.331E-06     802.108E-06
            5346            5443     796.331E-06     802.108E-06
            5354            5443     796.331E-06     802.108E-06
            5345            5443     796.331E-06     802.108E-06
            5356            5444     808.876E-06     815.317E-06
            5347            5444     808.876E-06     815.317E-06
            5346            5444     808.876E-06     815.317E-06
            5355            5444     808.876E-06     815.317E-06
            5347            5445     808.876E-06     815.317E-06
            5356            5445     808.876E-06     815.317E-06
            5348            5445     808.876E-06     815.317E-06
            5357            5445     808.876E-06     815.317E-06
            5348            5446     796.331E-06     802.108E-06
            5349            5446     796.331E-06     802.108E-06
            5357            5446     796.331E-06     802.108E-06
            5358            5446     796.331E-06     802.108E-06
            5358            5447     730.739E-06     734.629E-06
            5350            5447     730.739E-06     734.629E-06
            5349            5447     730.739E-06     734.629E-06
            5359            5447     730.739E-06     734.629E-06
            5351            5448     591.078E-06     595.511E-06
            5359            5448     591.078E-06     595.511E-06
            5350            5448     591.078E-06     595.511E-06
            5360            5448     591.078E-06     595.511E-06
            5352            5449     569.989E-06     576.958E-06
            5361            5449     569.989E-06     576.958E-06
            5353            5449     569.989E-06     576.958E-06
            5362            5449     569.989E-06     576.958E-06
            5353            5450     723.645E-06     724.825E-06
            5363            5450     723.645E-06     724.825E-06
            5362            5450     723.645E-06     724.825E-06
            5354            5450     723.645E-06     724.825E-06
            5355            5451     781.931E-06     782.187E-06
            5363            5451     781.931E-06     782.187E-06
            5364            5451     781.931E-06     782.187E-06
            5354            5451     781.931E-06     782.187E-06
            5365            5452     799.296E-06     800.562E-06
            5355            5452     799.296E-06     800.562E-06
            5356            5452     799.296E-06     800.562E-06
            5364            5452     799.296E-06     800.562E-06
            5365            5453     799.296E-06     800.562E-06
            5366            5453     799.296E-06     800.562E-06
            5357            5453     799.296E-06     800.562E-06
            5356            5453     799.296E-06     800.562E-06
            5358            5454     781.931E-06     782.187E-06
            5366            5454     781.931E-06     782.187E-06
            5357            5454     781.931E-06     782.187E-06
            5367            5454     781.931E-06     782.187E-06
            5368            5455     723.645E-06     724.825E-06
            5359            5455     723.645E-06     724.825E-06
            5358            5455     723.645E-06     724.825E-06
            5367            5455     723.645E-06     724.825E-06
            5368            5456     569.989E-06     576.958E-06
            5360            5456     569.989E-06     576.958E-06
            5359            5456     569.989E-06     576.958E-06
            5369            5456     569.989E-06     576.958E-06
            5361            5457     587.845E-06     592.823E-06
            5370            5457     587.845E-06     592.823E-06
            5362            5457     587.845E-06     592.823E-06
            5371            5457     587.845E-06     592.823E-06
            5362            5458     708.650E-06     708.319E-06
            5372            5458     708.650E-06     708.319E-06
            5363            5458     708.650E-06     708.319E-06
            5371            5458     708.650E-06     708.319E-06
            5373            5459     754.655E-06     753.199E-06
            5363            5459     754.655E-06     753.199E-06
            5372            5459     754.655E-06     753.199E-06
            5364            5459     754.655E-06     753.199E-06
            5373            5460     777.094E-06     775.800E-06
            5365            5460     777.094E-06     775.800E-06
            5364            5460     777.094E-06     775.800E-06
            5374            5460     777.094E-06     775.800E-06
            5366            5461     777.094E-06     775.800E-06
            5375            5461     777.094E-06     775.800E-06
            5374            5461     777.094E-06     775.800E-06
            5365            5461     777.094E-06     775.800E-06
            5367            5462     754.655E-06     753.199E-06
            5375            5462     754.655E-06     753.199E-06
            5366            5462     754.655E-06     753.199E-06
            5376            5462     754.655E-06     753.199E-06
            5377            5463     708.650E-06     708.319E-06
            5368            5463     708.650E-06     708.319E-06
            5376            5463     708.650E-06     708.319E-06
            5367            5463     708.650E-06     708.319E-06
            5378            5464     587.845E-06     592.823E-06
            5377            5464     587.845E-06     592.823E-06
            5369            5464     587.845E-06     592.823E-06
            5368            5464     587.845E-06     592.823E-06
            5388            5465     75.1834E-03     71.8331E-03
            5389            5465     75.1834E-03     71.8331E-03
            5379            5465     75.1834E-03     71.8331E-03
            5380            5465     75.1834E-03     71.8331E-03
            5389            5466     53.2232E-03     50.8950E-03
            5380            5466     53.2232E-03     50.8950E-03
            5390            5466     53.2232E-03     50.8950E-03
            5381            5466     53.2232E-03     50.8950E-03
            5381            5467     35.0486E-03     33.8073E-03
            5390            5467     35.0486E-03     33.8073E-03
            5382            5467     35.0486E-03     33.8073E-03
            5391            5467     35.0486E-03     33.8073E-03
            5392            5468     19.8616E-03     19.7436E-03
            5383            5468     19.8616E-03     19.7436E-03
            5382            5468     19.8616E-03     19.7436E-03
            5391            5468     19.8616E-03     19.7436E-03
            5383            5469     15.8413E-03     16.1126E-03
            5392            5469     15.8413E-03     16.1126E-03
            5393            5469     15.8413E-03     16.1126E-03
            5384            5469     15.8413E-03     16.1126E-03
            5385            5470     26.2630E-03     25.7927E-03
            5393            5470     26.2630E-03     25.7927E-03
            5394            5470     26.2630E-03     25.7927E-03
            5384            5470     26.2630E-03     25.7927E-03
            5386            5471     43.4594E-03     41.9391E-03
            5394            5471     43.4594E-03     41.9391E-03
            5385            5471     43.4594E-03     41.9391E-03
            5395            5471     43.4594E-03     41.9391E-03
            5395            5472     64.7147E-03     62.3472E-03
            5396            5472     64.7147E-03     62.3472E-03
            5386            5472     64.7147E-03     62.3472E-03
            5387            5472     64.7147E-03     62.3472E-03
            5397            5473     79.7954E-03     76.9855E-03
            5398            5473     79.7954E-03     76.9855E-03
            5388            5473     79.7954E-03     76.9855E-03
            5389            5473     79.7954E-03     76.9855E-03
            5399            5474     56.3614E-03     54.4835E-03
            5390            5474     56.3614E-03     54.4835E-03
            5398            5474     56.3614E-03     54.4835E-03
            5389            5474     56.3614E-03     54.4835E-03
            5391            5475     37.1557E-03     36.3648E-03
            5390            5475     37.1557E-03     36.3648E-03
            5400            5475     37.1557E-03     36.3648E-03
            5399            5475     37.1557E-03     36.3648E-03
            5400            5476     22.9680E-03     23.9286E-03
            5391            5476     22.9680E-03     23.9286E-03
            5392            5476     22.9680E-03     23.9286E-03
            5401            5476     22.9680E-03     23.9286E-03
            5401            5477     19.3649E-03     20.8983E-03
            5402            5477     19.3649E-03     20.8983E-03
            5393            5477     19.3649E-03     20.8983E-03
            5392            5477     19.3649E-03     20.8983E-03
            5393            5478     29.0273E-03     29.3421E-03
            5403            5478     29.0273E-03     29.3421E-03
            5394            5478     29.0273E-03     29.3421E-03
            5402            5478     29.0273E-03     29.3421E-03
            5394            5479     46.8380E-03     45.9333E-03
            5404            5479     46.8380E-03     45.9333E-03
            5395            5479     46.8380E-03     45.9333E-03
            5403            5479     46.8380E-03     45.9333E-03
            5396            5480     69.3735E-03     67.4238E-03
            5404            5480     69.3735E-03     67.4238E-03
            5395            5480     69.3735E-03     67.4238E-03
            5405            5480     69.3735E-03     67.4238E-03
            5406            5481     76.6864E-03     77.0494E-03
            5407            5481     76.6864E-03     77.0494E-03
            5398            5481     76.6864E-03     77.0494E-03
            5397            5481     76.6864E-03     77.0494E-03
            5398            5482     57.8564E-03     58.9198E-03
            5399            5482     57.8564E-03     58.9198E-03
            5407            5482     57.8564E-03     58.9198E-03
            5408            5482     57.8564E-03     58.9198E-03
            5408            5483     39.7761E-03     41.1308E-03
            5399            5483     39.7761E-03     41.1308E-03
            5409            5483     39.7761E-03     41.1308E-03
            5400            5483     39.7761E-03     41.1308E-03
            5401            5484     26.6398E-03     28.8208E-03
            5409            5484     26.6398E-03     28.8208E-03
            5410            5484     26.6398E-03     28.8208E-03
            5400            5484     26.6398E-03     28.8208E-03
            5410            5485     23.2264E-03     25.8244E-03
            5411            5485     23.2264E-03     25.8244E-03
            5402            5485     23.2264E-03     25.8244E-03
            5401            5485     23.2264E-03     25.8244E-03
            5402            5486     31.8331E-03     33.9046E-03
            5412            5486     31.8331E-03     33.9046E-03
            5411            5486     31.8331E-03     33.9046E-03
            5403            5486     31.8331E-03     33.9046E-03
            5403            5487     48.3300E-03     49.8016E-03
            5404            5487     48.3300E-03     49.8016E-03
            5413            5487     48.3300E-03     49.8016E-03
            5412            5487     48.3300E-03     49.8016E-03
            5414            5488     66.6485E-03     67.1969E-03
            5405            5488     66.6485E-03     67.1969E-03
            5404            5488     66.6485E-03     67.1969E-03
            5413            5488     66.6485E-03     67.1969E-03
            5406            5489     72.9678E-03     72.6223E-03
            5407            5489     72.9678E-03     72.6223E-03
            5415            5489     72.9678E-03     72.6223E-03
            5416            5489     72.9678E-03     72.6223E-03
            5408            5490     56.3255E-03     57.1782E-03
            5417            5490     56.3255E-03     57.1782E-03
            5416            5490     56.3255E-03     57.1782E-03
            5407            5490     56.3255E-03     57.1782E-03
            5408            5491     40.6064E-03     42.2245E-03
            5417            5491     40.6064E-03     42.2245E-03
            5409            5491     40.6064E-03     42.2245E-03
            5418            5491     40.6064E-03     42.2245E-03
            5409            5492     28.2864E-03     30.4047E-03
            5410            5492     28.2864E-03     30.4047E-03
            5418            5492     28.2864E-03     30.4047E-03
            5419            5492     28.2864E-03     30.4047E-03
            5419            5493     25.0147E-03     27.3958E-03
            5420            5493     25.0147E-03     27.3958E-03
            5410            5493     25.0147E-03     27.3958E-03
            5411            5493     25.0147E-03     27.3958E-03
            5412            5494     32.7743E-03     34.8251E-03
            5421            5494     32.7743E-03     34.8251E-03
            5411            5494     32.7743E-03     34.8251E-03
            5420            5494     32.7743E-03     34.8251E-03
            5412            5495     46.8636E-03     48.0123E-03
            5422            5495     46.8636E-03     48.0123E-03
            5421            5495     46.8636E-03     48.0123E-03
            5413            5495     46.8636E-03     48.0123E-03
            5422            5496     63.0945E-03     63.0632E-03
            5413            5496     63.0945E-03     63.0632E-03
            5423            5496     63.0945E-03     63.0632E-03
            5414            5496     63.0945E-03     63.0632E-03
            5415            5497     70.2185E-03     69.5981E-03
            5416            5497     70.2185E-03     69.5981E-03
            5425            5497     70.2185E-03     69.5981E-03
            5424            5497     70.2185E-03     69.5981E-03
            5417            5498     54.2831E-03     54.4934E-03
            5425            5498     54.2831E-03     54.4934E-03
            5416            5498     54.2831E-03     54.4934E-03
            5426            5498     54.2831E-03     54.4934E-03
            5426            5499     39.8023E-03     40.6855E-03
            5417            5499     39.8023E-03     40.6855E-03
            5418            5499     39.8023E-03     40.6855E-03
            5427            5499     39.8023E-03     40.6855E-03
            5419            5500     28.7695E-03     30.1412E-03
            5427            5500     28.7695E-03     30.1412E-03
            5418            5500     28.7695E-03     30.1412E-03
            5428            5500     28.7695E-03     30.1412E-03
            5429            5501     25.5325E-03     27.0744E-03
            5428            5501     25.5325E-03     27.0744E-03
            5419            5501     25.5325E-03     27.0744E-03
            5420            5501     25.5325E-03     27.0744E-03
            5420            5502     32.0677E-03     33.3083E-03
            5429            5502     32.0677E-03     33.3083E-03
            5430            5502     32.0677E-03     33.3083E-03
            5421            5502     32.0677E-03     33.3083E-03
            5421            5503     44.9160E-03     45.4951E-03
            5422            5503     44.9160E-03     45.4951E-03
            5431            5503     44.9160E-03     45.4951E-03
            5430            5503     44.9160E-03     45.4951E-03
            5432            5504     60.4382E-03     60.1399E-03
            5431            5504     60.4382E-03     60.1399E-03
            5422            5504     60.4382E-03     60.1399E-03
            5423            5504     60.4382E-03     60.1399E-03
            5434            5505     67.3039E-03     66.6458E-03
            5433            5505     67.3039E-03     66.6458E-03
            5425            5505     67.3039E-03     66.6458E-03
            5424            5505     67.3039E-03     66.6458E-03
            5425            5506     52.3432E-03     52.3411E-03
            5434            5506     52.3432E-03     52.3411E-03
            5435            5506     52.3432E-03     52.3411E-03
            5426            5506     52.3432E-03     52.3411E-03
            5435            5507     38.7237E-03     39.0434E-03
            5436            5507     38.7237E-03     39.0434E-03
            5426            5507     38.7237E-03     39.0434E-03
            5427            5507     38.7237E-03     39.0434E-03
            5436            5508     28.4453E-03     28.8860E-03
            5428            5508     28.4453E-03     28.8860E-03
            5427            5508     28.4453E-03     28.8860E-03
            5437            5508     28.4453E-03     28.8860E-03
            5438            5509     25.3091E-03     25.8848E-03
            5437            5509     25.3091E-03     25.8848E-03
            5428            5509     25.3091E-03     25.8848E-03
            5429            5509     25.3091E-03     25.8848E-03
            5438            5510     31.1425E-03     31.7919E-03
            5430            5510     31.1425E-03     31.7919E-03
            5429            5510     31.1425E-03     31.7919E-03
            5439            5510     31.1425E-03     31.7919E-03
            5440            5511     43.0862E-03     43.4537E-03
            5431            5511     43.0862E-03     43.4537E-03
            5430            5511     43.0862E-03     43.4537E-03
            5439            5511     43.0862E-03     43.4537E-03
            5440            5512     57.6220E-03     57.3055E-03
            5431            5512     57.6220E-03     57.3055E-03
            5432            5512     57.6220E-03     57.3055E-03
            5441            5512     57.6220E-03     57.3055E-03
            5443            5513     64.3949E-03     63.8501E-03
            5434            5513     64.3949E-03     63.8501E-03
            5433            5513     64.3949E-03     63.8501E-03
            5442            5513     64.3949E-03     63.8501E-03
            5444            5514     50.3011E-03     50.2947E-03
            5434            5514     50.3011E-03     50.2947E-03
            5435            5514     50.3011E-03     50.2947E-03
            5443            5514     50.3011E-03     50.2947E-03
            5435            5515     37.6244E-03     37.6307E-03
            5436            5515     37.6244E-03     37.6307E-03
            5444            5515     37.6244E-03     37.6307E-03
            5445            5515     37.6244E-03     37.6307E-03
            5436            5516     27.9461E-03     27.6245E-03
            5446            5516     27.9461E-03     27.6245E-03
            5445            5516     27.9461E-03     27.6245E-03
            5437            5516     27.9461E-03     27.6245E-03
            5438            5517     24.9289E-03     24.6545E-03
            5447            5517     24.9289E-03     24.6545E-03
            5437            5517     24.9289E-03     24.6545E-03
            5446            5517     24.9289E-03     24.6545E-03
            5439            5518     30.2537E-03     30.4661E-03
            5447            5518     30.2537E-03     30.4661E-03
            5448            5518     30.2537E-03     30.4661E-03
            5438            5518     30.2537E-03     30.4661E-03
            5440            5519     41.1851E-03     41.5416E-03
            5448            5519     41.1851E-03     41.5416E-03
            5439            5519     41.1851E-03     41.5416E-03
            5449            5519     41.1851E-03     41.5416E-03
            5440            5520     54.8418E-03     54.6361E-03
            5449            5520     54.8418E-03     54.6361E-03
            5441            5520     54.8418E-03     54.6361E-03
            5450            5520     54.8418E-03     54.6361E-03
            5443            5521     61.4589E-03     61.1864E-03
            5451            5521     61.4589E-03     61.1864E-03
            5452            5521     61.4589E-03     61.1864E-03
            5442            5521     61.4589E-03     61.1864E-03
            5443            5522     48.3477E-03     48.5731E-03
            5444            5522     48.3477E-03     48.5731E-03
            5453            5522     48.3477E-03     48.5731E-03
            5452            5522     48.3477E-03     48.5731E-03
            5444            5523     36.4938E-03     36.3483E-03
            5454            5523     36.4938E-03     36.3483E-03
            5453            5523     36.4938E-03     36.3483E-03
            5445            5523     36.4938E-03     36.3483E-03
            5454            5524     27.4216E-03     26.3568E-03
            5446            5524     27.4216E-03     26.3568E-03
            5445            5524     27.4216E-03     26.3568E-03
            5455            5524     27.4216E-03     26.3568E-03
            5455            5525     24.5434E-03     23.3775E-03
            5456            5525     24.5434E-03     23.3775E-03
            5447            5525     24.5434E-03     23.3775E-03
            5446            5525     24.5434E-03     23.3775E-03
            5447            5526     29.4042E-03     29.2558E-03
            5456            5526     29.4042E-03     29.2558E-03
            5457            5526     29.4042E-03     29.2558E-03
            5448            5526     29.4042E-03     29.2558E-03
            5449            5527     39.4763E-03     39.9669E-03
            5457            5527     39.4763E-03     39.9669E-03
            5458            5527     39.4763E-03     39.9669E-03
            5448            5527     39.4763E-03     39.9669E-03
            5458            5528     52.0596E-03     52.1392E-03
            5449            5528     52.0596E-03     52.1392E-03
            5450            5528     52.0596E-03     52.1392E-03
            5459            5528     52.0596E-03     52.1392E-03
            5460            5529     58.3091E-03     58.5854E-03
            5452            5529     58.3091E-03     58.5854E-03
            5461            5529     58.3091E-03     58.5854E-03
            5451            5529     58.3091E-03     58.5854E-03
            5461            5530     46.4977E-03     47.1320E-03
            5453            5530     46.4977E-03     47.1320E-03
            5462            5530     46.4977E-03     47.1320E-03
            5452            5530     46.4977E-03     47.1320E-03
            5462            5531     35.4623E-03     35.0137E-03
            5453            5531     35.4623E-03     35.0137E-03
            5463            5531     35.4623E-03     35.0137E-03
            5454            5531     35.4623E-03     35.0137E-03
            5463            5532     26.7898E-03     24.9848E-03
            5464            5532     26.7898E-03     24.9848E-03
            5455            5532     26.7898E-03     24.9848E-03
            5454            5532     26.7898E-03     24.9848E-03
            5456            5533     24.1631E-03     22.0806E-03
            5455            5533     24.1631E-03     22.0806E-03
            5464            5533     24.1631E-03     22.0806E-03
            5465            5533     24.1631E-03     22.0806E-03
            5466            5534     28.8572E-03     28.0599E-03
            5457            5534     28.8572E-03     28.0599E-03
            5456            5534     28.8572E-03     28.0599E-03
            5465            5534     28.8572E-03     28.0599E-03
            5466            5535     37.9687E-03     38.7030E-03
            5458            5535     37.9687E-03     38.7030E-03
            5457            5535     37.9687E-03     38.7030E-03
            5467            5535     37.9687E-03     38.7030E-03
            5459            5536     49.1558E-03     49.7112E-03
            5467            5536     49.1558E-03     49.7112E-03
            5468            5536     49.1558E-03     49.7112E-03
            5458            5536     49.1558E-03     49.7112E-03
            5460            5537     55.1174E-03     55.9173E-03
            5469            5537     55.1174E-03     55.9173E-03
            5470            5537     55.1174E-03     55.9173E-03
            5461            5537     55.1174E-03     55.9173E-03
            5470            5538     44.5305E-03     44.6623E-03
            5462            5538     44.5305E-03     44.6623E-03
            5471            5538     44.5305E-03     44.6623E-03
            5461            5538     44.5305E-03     44.6623E-03
            5463            5539     34.2642E-03     32.9836E-03
            5472            5539     34.2642E-03     32.9836E-03
            5471            5539     34.2642E-03     32.9836E-03
            5462            5539     34.2642E-03     32.9836E-03
            5464            5540     26.4611E-03     24.1896E-03
            5472            5540     26.4611E-03     24.1896E-03
            5463            5540     26.4611E-03     24.1896E-03
            5473            5540     26.4611E-03     24.1896E-03
            5465            5541     24.1588E-03     21.5650E-03
            5474            5541     24.1588E-03     21.5650E-03
            5473            5541     24.1588E-03     21.5650E-03
            5464            5541     24.1588E-03     21.5650E-03
            5474            5542     28.4527E-03     26.5343E-03
            5475            5542     28.4527E-03     26.5343E-03
            5465            5542     28.4527E-03     26.5343E-03
            5466            5542     28.4527E-03     26.5343E-03
            5467            5543     36.7288E-03     36.5001E-03
            5475            5543     36.7288E-03     36.5001E-03
            5476            5543     36.7288E-03     36.5001E-03
            5466            5543     36.7288E-03     36.5001E-03
            5477            5544     46.1695E-03     47.1902E-03
            5476            5544     46.1695E-03     47.1902E-03
            5467            5544     46.1695E-03     47.1902E-03
            5468            5544     46.1695E-03     47.1902E-03
            5478            5545     50.7872E-03     48.6448E-03
            5470            5545     50.7872E-03     48.6448E-03
            5469            5545     50.7872E-03     48.6448E-03
            5479            5545     50.7872E-03     48.6448E-03
            5480            5546     41.8757E-03     39.4211E-03
            5470            5546     41.8757E-03     39.4211E-03
            5471            5546     41.8757E-03     39.4211E-03
            5479            5546     41.8757E-03     39.4211E-03
            5471            5547     33.3517E-03     31.1541E-03
            5481            5547     33.3517E-03     31.1541E-03
            5472            5547     33.3517E-03     31.1541E-03
            5480            5547     33.3517E-03     31.1541E-03
            5472            5548     27.1801E-03     25.2427E-03
            5481            5548     27.1801E-03     25.2427E-03
            5473            5548     27.1801E-03     25.2427E-03
            5482            5548     27.1801E-03     25.2427E-03
            5482            5549     25.3513E-03     23.2470E-03
            5483            5549     25.3513E-03     23.2470E-03
            5474            5549     25.3513E-03     23.2470E-03
            5473            5549     25.3513E-03     23.2470E-03
            5474            5550     28.5978E-03     25.9461E-03
            5484            5550     28.5978E-03     25.9461E-03
            5475            5550     28.5978E-03     25.9461E-03
            5483            5550     28.5978E-03     25.9461E-03
            5475            5551     35.3504E-03     32.1807E-03
            5476            5551     35.3504E-03     32.1807E-03
            5484            5551     35.3504E-03     32.1807E-03
            5485            5551     35.3504E-03     32.1807E-03
            5485            5552     42.7014E-03     39.9444E-03
            5477            5552     42.7014E-03     39.9444E-03
            5476            5552     42.7014E-03     39.9444E-03
            5486            5552     42.7014E-03     39.9444E-03
            5488            5553     53.1443E-03     48.3334E-03
            5479            5553     53.1443E-03     48.3334E-03
            5487            5553     53.1443E-03     48.3334E-03
            5478            5553     53.1443E-03     48.3334E-03
            5488            5554     39.9849E-03     36.4608E-03
            5489            5554     39.9849E-03     36.4608E-03
            5480            5554     39.9849E-03     36.4608E-03
            5479            5554     39.9849E-03     36.4608E-03
            5489            5555     30.0854E-03     28.1440E-03
            5480            5555     30.0854E-03     28.1440E-03
            5490            5555     30.0854E-03     28.1440E-03
            5481            5555     30.0854E-03     28.1440E-03
            5491            5556     22.9748E-03     22.2700E-03
            5481            5556     22.9748E-03     22.2700E-03
            5490            5556     22.9748E-03     22.2700E-03
            5482            5556     22.9748E-03     22.2700E-03
            5491            5557     21.1688E-03     20.6625E-03
            5492            5557     21.1688E-03     20.6625E-03
            5482            5557     21.1688E-03     20.6625E-03
            5483            5557     21.1688E-03     20.6625E-03
            5483            5558     25.4885E-03     23.9380E-03
            5484            5558     25.4885E-03     23.9380E-03
            5492            5558     25.4885E-03     23.9380E-03
            5493            5558     25.4885E-03     23.9380E-03
            5484            5559     33.9761E-03     30.6902E-03
            5485            5559     33.9761E-03     30.6902E-03
            5494            5559     33.9761E-03     30.6902E-03
            5493            5559     33.9761E-03     30.6902E-03
            5485            5560     45.8441E-03     41.0701E-03
            5495            5560     45.8441E-03     41.0701E-03
            5494            5560     45.8441E-03     41.0701E-03
            5486            5560     45.8441E-03     41.0701E-03
            5487            5561     57.2383E-03     55.3844E-03
            5488            5561     57.2383E-03     55.3844E-03
            5496            5561     57.2383E-03     55.3844E-03
            5497            5561     57.2383E-03     55.3844E-03
            5488            5562     40.9990E-03     39.9137E-03
            5497            5562     40.9990E-03     39.9137E-03
            5498            5562     40.9990E-03     39.9137E-03
            5489            5562     40.9990E-03     39.9137E-03
            5498            5563     28.3644E-03     28.0377E-03
            5489            5563     28.3644E-03     28.0377E-03
            5499            5563     28.3644E-03     28.0377E-03
            5490            5563     28.3644E-03     28.0377E-03
            5490            5564     19.9286E-03     20.6567E-03
            5499            5564     19.9286E-03     20.6567E-03
            5500            5564     19.9286E-03     20.6567E-03
            5491            5564     19.9286E-03     20.6567E-03
            5492            5565     17.9083E-03     18.9983E-03
            5501            5565     17.9083E-03     18.9983E-03
            5491            5565     17.9083E-03     18.9983E-03
            5500            5565     17.9083E-03     18.9983E-03
            5493            5566     23.4870E-03     23.9475E-03
            5501            5566     23.4870E-03     23.9475E-03
            5492            5566     23.4870E-03     23.9475E-03
            5502            5566     23.4870E-03     23.9475E-03
            5494            5567     34.8397E-03     34.5509E-03
            5493            5567     34.8397E-03     34.5509E-03
            5503            5567     34.8397E-03     34.5509E-03
            5502            5567     34.8397E-03     34.5509E-03
            5504            5568     50.2613E-03     49.1491E-03
            5495            5568     50.2613E-03     49.1491E-03
            5503            5568     50.2613E-03     49.1491E-03
            5494            5568     50.2613E-03     49.1491E-03
            5506            5569     54.1908E-03     54.3722E-03
            5496            5569     54.1908E-03     54.3722E-03
            5497            5569     54.1908E-03     54.3722E-03
            5505            5569     54.1908E-03     54.3722E-03
            5497            5570     41.8821E-03     42.6166E-03
            5506            5570     41.8821E-03     42.6166E-03
            5498            5570     41.8821E-03     42.6166E-03
            5507            5570     41.8821E-03     42.6166E-03
            5508            5571     30.4088E-03     31.4283E-03
            5498            5571     30.4088E-03     31.4283E-03
            5507            5571     30.4088E-03     31.4283E-03
            5499            5571     30.4088E-03     31.4283E-03
            5499            5572     22.7702E-03     24.2621E-03
            5509            5572     22.7702E-03     24.2621E-03
            5500            5572     22.7702E-03     24.2621E-03
            5508            5572     22.7702E-03     24.2621E-03
            5500            5573     20.8932E-03     22.6175E-03
            5510            5573     20.8932E-03     22.6175E-03
            5501            5573     20.8932E-03     22.6175E-03
            5509            5573     20.8932E-03     22.6175E-03
            5502            5574     25.7560E-03     27.2011E-03
            5501            5574     25.7560E-03     27.2011E-03
            5510            5574     25.7560E-03     27.2011E-03
            5511            5574     25.7560E-03     27.2011E-03
            5503            5575     35.8764E-03     36.8678E-03
            5502            5575     35.8764E-03     36.8678E-03
            5512            5575     35.8764E-03     36.8678E-03
            5511            5575     35.8764E-03     36.8678E-03
            5504            5576     47.6049E-03     47.8917E-03
            5503            5576     47.6049E-03     47.8917E-03
            5513            5576     47.6049E-03     47.8917E-03
            5512            5576     47.6049E-03     47.8917E-03
            5506            5577     50.8201E-03     50.5022E-03
            5515            5577     50.8201E-03     50.5022E-03
            5505            5577     50.8201E-03     50.5022E-03
            5514            5577     50.8201E-03     50.5022E-03
            5506            5578     40.4075E-03     40.8970E-03
            5515            5578     40.4075E-03     40.8970E-03
            5516            5578     40.4075E-03     40.8970E-03
            5507            5578     40.4075E-03     40.8970E-03
            5516            5579     31.0048E-03     32.1002E-03
            5507            5579     31.0048E-03     32.1002E-03
            5517            5579     31.0048E-03     32.1002E-03
            5508            5579     31.0048E-03     32.1002E-03
            5509            5580     24.0977E-03     25.5374E-03
            5517            5580     24.0977E-03     25.5374E-03
            5508            5580     24.0977E-03     25.5374E-03
            5518            5580     24.0977E-03     25.5374E-03
            5510            5581     22.3392E-03     23.9088E-03
            5509            5581     22.3392E-03     23.9088E-03
            5519            5581     22.3392E-03     23.9088E-03
            5518            5581     22.3392E-03     23.9088E-03
            5511            5582     26.4962E-03     27.8208E-03
            5519            5582     26.4962E-03     27.8208E-03
            5510            5582     26.4962E-03     27.8208E-03
            5520            5582     26.4962E-03     27.8208E-03
            5511            5583     34.5212E-03     35.1926E-03
            5521            5583     34.5212E-03     35.1926E-03
            5512            5583     34.5212E-03     35.1926E-03
            5520            5583     34.5212E-03     35.1926E-03
            5512            5584     44.3774E-03     44.2964E-03
            5522            5584     44.3774E-03     44.2964E-03
            5521            5584     44.3774E-03     44.2964E-03
            5513            5584     44.3774E-03     44.2964E-03
            5524            5585     48.2666E-03     47.7876E-03
            5523            5585     48.2666E-03     47.7876E-03
            5515            5585     48.2666E-03     47.7876E-03
            5514            5585     48.2666E-03     47.7876E-03
            5525            5586     38.6091E-03     38.6550E-03
            5515            5586     38.6091E-03     38.6550E-03
            5516            5586     38.6091E-03     38.6550E-03
            5524            5586     38.6091E-03     38.6550E-03
            5516            5587     30.3261E-03     30.8870E-03
            5526            5587     30.3261E-03     30.8870E-03
            5525            5587     30.3261E-03     30.8870E-03
            5517            5587     30.3261E-03     30.8870E-03
            5517            5588     24.5000E-03     25.4572E-03
            5518            5588     24.5000E-03     25.4572E-03
            5527            5588     24.5000E-03     25.4572E-03
            5526            5588     24.5000E-03     25.4572E-03
            5519            5589     22.7906E-03     23.8438E-03
            5528            5589     22.7906E-03     23.8438E-03
            5527            5589     22.7906E-03     23.8438E-03
            5518            5589     22.7906E-03     23.8438E-03
            5529            5590     25.9480E-03     26.7374E-03
            5520            5590     25.9480E-03     26.7374E-03
            5528            5590     25.9480E-03     26.7374E-03
            5519            5590     25.9480E-03     26.7374E-03
            5521            5591     32.8538E-03     33.1603E-03
            5530            5591     32.8538E-03     33.1603E-03
            5520            5591     32.8538E-03     33.1603E-03
            5529            5591     32.8538E-03     33.1603E-03
            5530            5592     41.9537E-03     41.7021E-03
            5522            5592     41.9537E-03     41.7021E-03
            5531            5592     41.9537E-03     41.7021E-03
            5521            5592     41.9537E-03     41.7021E-03
            5533            5593     45.6564E-03     45.1276E-03
            5523            5593     45.6564E-03     45.1276E-03
            5524            5593     45.6564E-03     45.1276E-03
            5532            5593     45.6564E-03     45.1276E-03
            5533            5594     36.9023E-03     36.7830E-03
            5534            5594     36.9023E-03     36.7830E-03
            5525            5594     36.9023E-03     36.7830E-03
            5524            5594     36.9023E-03     36.7830E-03
            5534            5595     29.4537E-03     29.6329E-03
            5535            5595     29.4537E-03     29.6329E-03
            5526            5595     29.4537E-03     29.6329E-03
            5525            5595     29.4537E-03     29.6329E-03
            5526            5596     24.2872E-03     24.6853E-03
            5535            5596     24.2872E-03     24.6853E-03
            5536            5596     24.2872E-03     24.6853E-03
            5527            5596     24.2872E-03     24.6853E-03
            5528            5597     22.6662E-03     23.1722E-03
            5536            5597     22.6662E-03     23.1722E-03
            5537            5597     22.6662E-03     23.1722E-03
            5527            5597     22.6662E-03     23.1722E-03
            5529            5598     25.2384E-03     25.6719E-03
            5528            5598     25.2384E-03     25.6719E-03
            5538            5598     25.2384E-03     25.6719E-03
            5537            5598     25.2384E-03     25.6719E-03
            5529            5599     31.2914E-03     31.4482E-03
            5530            5599     31.2914E-03     31.4482E-03
            5538            5599     31.2914E-03     31.4482E-03
            5539            5599     31.2914E-03     31.4482E-03
            5531            5600     39.4624E-03     39.1821E-03
            5540            5600     39.4624E-03     39.1821E-03
            5530            5600     39.4624E-03     39.1821E-03
            5539            5600     39.4624E-03     39.1821E-03
            5542            5601     43.0671E-03     42.5789E-03
            5541            5601     43.0671E-03     42.5789E-03
            5533            5601     43.0671E-03     42.5789E-03
            5532            5601     43.0671E-03     42.5789E-03
            5534            5602     35.1355E-03     34.9411E-03
            5533            5602     35.1355E-03     34.9411E-03
            5542            5602     35.1355E-03     34.9411E-03
            5543            5602     35.1355E-03     34.9411E-03
            5544            5603     28.5621E-03     28.5105E-03
            5535            5603     28.5621E-03     28.5105E-03
            5543            5603     28.5621E-03     28.5105E-03
            5534            5603     28.5621E-03     28.5105E-03
            5536            5604     23.9552E-03     23.9347E-03
            5545            5604     23.9552E-03     23.9347E-03
            5535            5604     23.9552E-03     23.9347E-03
            5544            5604     23.9552E-03     23.9347E-03
            5546            5605     22.4269E-03     22.4924E-03
            5536            5605     22.4269E-03     22.4924E-03
            5545            5605     22.4269E-03     22.4924E-03
            5537            5605     22.4269E-03     22.4924E-03
            5547            5606     24.5256E-03     24.7115E-03
            5538            5606     24.5256E-03     24.7115E-03
            5546            5606     24.5256E-03     24.7115E-03
            5537            5606     24.5256E-03     24.7115E-03
            5547            5607     29.6792E-03     29.7812E-03
            5548            5607     29.6792E-03     29.7812E-03
            5539            5607     29.6792E-03     29.7812E-03
            5538            5607     29.6792E-03     29.7812E-03
            5539            5608     37.0189E-03     36.7809E-03
            5540            5608     37.0189E-03     36.7809E-03
            5548            5608     37.0189E-03     36.7809E-03
            5549            5608     37.0189E-03     36.7809E-03
            5542            5609     40.5398E-03     40.1517E-03
            5551            5609     40.5398E-03     40.1517E-03
            5550            5609     40.5398E-03     40.1517E-03
            5541            5609     40.5398E-03     40.1517E-03
            5552            5610     33.4544E-03     33.3296E-03
            5542            5610     33.4544E-03     33.3296E-03
            5543            5610     33.4544E-03     33.3296E-03
            5551            5610     33.4544E-03     33.3296E-03
            5552            5611     27.6370E-03     27.4251E-03
            5543            5611     27.6370E-03     27.4251E-03
            5553            5611     27.6370E-03     27.4251E-03
            5544            5611     27.6370E-03     27.4251E-03
            5544            5612     23.6223E-03     23.2132E-03
            5545            5612     23.6223E-03     23.2132E-03
            5553            5612     23.6223E-03     23.2132E-03
            5554            5612     23.6223E-03     23.2132E-03
            5554            5613     22.1868E-03     21.8264E-03
            5545            5613     22.1868E-03     21.8264E-03
            5546            5613     22.1868E-03     21.8264E-03
            5555            5613     22.1868E-03     21.8264E-03
            5546            5614     23.8102E-03     23.7706E-03
            5556            5614     23.8102E-03     23.7706E-03
            5547            5614     23.8102E-03     23.7706E-03
            5555            5614     23.8102E-03     23.7706E-03
            5547            5615     28.1910E-03     28.3472E-03
            5556            5615     28.1910E-03     28.3472E-03
            5548            5615     28.1910E-03     28.3472E-03
            5557            5615     28.1910E-03     28.3472E-03
            5548            5616     34.6464E-03     34.5160E-03
            5557            5616     34.6464E-03     34.5160E-03
            5558            5616     34.6464E-03     34.5160E-03
            5549            5616     34.6464E-03     34.5160E-03
            5551            5617     37.9368E-03     37.7951E-03
            5550            5617     37.9368E-03     37.7951E-03
            5559            5617     37.9368E-03     37.7951E-03
            5560            5617     37.9368E-03     37.7951E-03
            5560            5618     31.8267E-03     31.8620E-03
            5552            5618     31.8267E-03     31.8620E-03
            5561            5618     31.8267E-03     31.8620E-03
            5551            5618     31.8267E-03     31.8620E-03
            5561            5619     26.8142E-03     26.5012E-03
            5562            5619     26.8142E-03     26.5012E-03
            5552            5619     26.8142E-03     26.5012E-03
            5553            5619     26.8142E-03     26.5012E-03
            5562            5620     23.1996E-03     22.3471E-03
            5554            5620     23.1996E-03     22.3471E-03
            5563            5620     23.1996E-03     22.3471E-03
            5553            5620     23.1996E-03     22.3471E-03
            5554            5621     21.8967E-03     21.0064E-03
            5564            5621     21.8967E-03     21.0064E-03
            5563            5621     21.8967E-03     21.0064E-03
            5555            5621     21.8967E-03     21.0064E-03
            5555            5622     23.2597E-03     22.9822E-03
            5564            5622     23.2597E-03     22.9822E-03
            5556            5622     23.2597E-03     22.9822E-03
            5565            5622     23.2597E-03     22.9822E-03
            5566            5623     26.8233E-03     27.0603E-03
            5556            5623     26.8233E-03     27.0603E-03
            5557            5623     26.8233E-03     27.0603E-03
            5565            5623     26.8233E-03     27.0603E-03
            5557            5624     32.2379E-03     32.3604E-03
            5566            5624     32.2379E-03     32.3604E-03
            5558            5624     32.2379E-03     32.3604E-03
            5567            5624     32.2379E-03     32.3604E-03
            5568            5625     35.2717E-03     35.4993E-03
            5569            5625     35.2717E-03     35.4993E-03
            5560            5625     35.2717E-03     35.4993E-03
            5559            5625     35.2717E-03     35.4993E-03
            5560            5626     30.3347E-03     30.5970E-03
            5561            5626     30.3347E-03     30.5970E-03
            5570            5626     30.3347E-03     30.5970E-03
            5569            5626     30.3347E-03     30.5970E-03
            5571            5627     25.9978E-03     25.4450E-03
            5570            5627     25.9978E-03     25.4450E-03
            5562            5627     25.9978E-03     25.4450E-03
            5561            5627     25.9978E-03     25.4450E-03
            5563            5628     22.6976E-03     21.3985E-03
            5571            5628     22.6976E-03     21.3985E-03
            5572            5628     22.6976E-03     21.3985E-03
            5562            5628     22.6976E-03     21.3985E-03
            5563            5629     21.5584E-03     20.1141E-03
            5572            5629     21.5584E-03     20.1141E-03
            5573            5629     21.5584E-03     20.1141E-03
            5564            5629     21.5584E-03     20.1141E-03
            5574            5630     22.8408E-03     22.0705E-03
            5573            5630     22.8408E-03     22.0705E-03
            5565            5630     22.8408E-03     22.0705E-03
            5564            5630     22.8408E-03     22.0705E-03
            5575            5631     25.7000E-03     26.0162E-03
            5574            5631     25.7000E-03     26.0162E-03
            5565            5631     25.7000E-03     26.0162E-03
            5566            5631     25.7000E-03     26.0162E-03
            5575            5632     29.8421E-03     30.2773E-03
            5566            5632     29.8421E-03     30.2773E-03
            5567            5632     29.8421E-03     30.2773E-03
            5576            5632     29.8421E-03     30.2773E-03
            5569            5633     32.5213E-03     33.0762E-03
            5568            5633     32.5213E-03     33.0762E-03
            5577            5633     32.5213E-03     33.0762E-03
            5578            5633     32.5213E-03     33.0762E-03
            5569            5634     28.8632E-03     28.7825E-03
            5578            5634     28.8632E-03     28.7825E-03
            5579            5634     28.8632E-03     28.7825E-03
            5570            5634     28.8632E-03     28.7825E-03
            5580            5635     25.1199E-03     24.1091E-03
            5570            5635     25.1199E-03     24.1091E-03
            5579            5635     25.1199E-03     24.1091E-03
            5571            5635     25.1199E-03     24.1091E-03
            5572            5636     22.2386E-03     20.7026E-03
            5581            5636     22.2386E-03     20.7026E-03
            5571            5636     22.2386E-03     20.7026E-03
            5580            5636     22.2386E-03     20.7026E-03
            5581            5637     21.2910E-03     19.5763E-03
            5582            5637     21.2910E-03     19.5763E-03
            5572            5637     21.2910E-03     19.5763E-03
            5573            5637     21.2910E-03     19.5763E-03
            5573            5638     22.5170E-03     21.0565E-03
            5582            5638     22.5170E-03     21.0565E-03
            5574            5638     22.5170E-03     21.0565E-03
            5583            5638     22.5170E-03     21.0565E-03
            5583            5639     24.9039E-03     24.4653E-03
            5574            5639     24.9039E-03     24.4653E-03
            5575            5639     24.9039E-03     24.4653E-03
            5584            5639     24.9039E-03     24.4653E-03
            5576            5640     27.4118E-03     28.1109E-03
            5584            5640     27.4118E-03     28.1109E-03
            5585            5640     27.4118E-03     28.1109E-03
            5575            5640     27.4118E-03     28.1109E-03
            5586            5641     29.0282E-03     27.9678E-03
            5577            5641     29.0282E-03     27.9678E-03
            5587            5641     29.0282E-03     27.9678E-03
            5578            5641     29.0282E-03     27.9678E-03
            5578            5642     27.1084E-03     25.7027E-03
            5579            5642     27.1084E-03     25.7027E-03
            5588            5642     27.1084E-03     25.7027E-03
            5587            5642     27.1084E-03     25.7027E-03
            5579            5643     24.3939E-03     23.0819E-03
            5588            5643     24.3939E-03     23.0819E-03
            5580            5643     24.3939E-03     23.0819E-03
            5589            5643     24.3939E-03     23.0819E-03
            5589            5644     22.3585E-03     21.1549E-03
            5580            5644     22.3585E-03     21.1549E-03
            5581            5644     22.3585E-03     21.1549E-03
            5590            5644     22.3585E-03     21.1549E-03
            5591            5645     21.6494E-03     20.3309E-03
            5581            5645     21.6494E-03     20.3309E-03
            5582            5645     21.6494E-03     20.3309E-03
            5590            5645     21.6494E-03     20.3309E-03
            5582            5646     22.4044E-03     20.7423E-03
            5591            5646     22.4044E-03     20.7423E-03
            5583            5646     22.4044E-03     20.7423E-03
            5592            5646     22.4044E-03     20.7423E-03
            5593            5647     24.1307E-03     22.0885E-03
            5584            5647     24.1307E-03     22.0885E-03
            5592            5647     24.1307E-03     22.0885E-03
            5583            5647     24.1307E-03     22.0885E-03
            5585            5648     24.8536E-03     23.1732E-03
            5593            5648     24.8536E-03     23.1732E-03
            5584            5648     24.8536E-03     23.1732E-03
            5594            5648     24.8536E-03     23.1732E-03
            5595            5649     31.2581E-03     28.7967E-03
            5586            5649     31.2581E-03     28.7967E-03
            5596            5649     31.2581E-03     28.7967E-03
            5587            5649     31.2581E-03     28.7967E-03
            5587            5650     25.7381E-03     24.0269E-03
            5597            5650     25.7381E-03     24.0269E-03
            5596            5650     25.7381E-03     24.0269E-03
            5588            5650     25.7381E-03     24.0269E-03
            5597            5651     21.8955E-03     20.9916E-03
            5598            5651     21.8955E-03     20.9916E-03
            5589            5651     21.8955E-03     20.9916E-03
            5588            5651     21.8955E-03     20.9916E-03
            5599            5652     19.4624E-03     19.1041E-03
            5598            5652     19.4624E-03     19.1041E-03
            5590            5652     19.4624E-03     19.1041E-03
            5589            5652     19.4624E-03     19.1041E-03
            5600            5653     18.8339E-03     18.5418E-03
            5599            5653     18.8339E-03     18.5418E-03
            5590            5653     18.8339E-03     18.5418E-03
            5591            5653     18.8339E-03     18.5418E-03
            5591            5654     20.0770E-03     19.3648E-03
            5600            5654     20.0770E-03     19.3648E-03
            5601            5654     20.0770E-03     19.3648E-03
            5592            5654     20.0770E-03     19.3648E-03
            5593            5655     23.0846E-03     21.5042E-03
            5601            5655     23.0846E-03     21.5042E-03
            5602            5655     23.0846E-03     21.5042E-03
            5592            5655     23.0846E-03     21.5042E-03
            5603            5656     27.7001E-03     25.1836E-03
            5602            5656     27.7001E-03     25.1836E-03
            5594            5656     27.7001E-03     25.1836E-03
            5593            5656     27.7001E-03     25.1836E-03
            5595            5657     34.4086E-03     33.4830E-03
            5605            5657     34.4086E-03     33.4830E-03
            5596            5657     34.4086E-03     33.4830E-03
            5604            5657     34.4086E-03     33.4830E-03
            5596            5658     26.1204E-03     25.7531E-03
            5606            5658     26.1204E-03     25.7531E-03
            5597            5658     26.1204E-03     25.7531E-03
            5605            5658     26.1204E-03     25.7531E-03
            5607            5659     20.5116E-03     20.5164E-03
            5606            5659     20.5116E-03     20.5164E-03
            5597            5659     20.5116E-03     20.5164E-03
            5598            5659     20.5116E-03     20.5164E-03
            5599            5660     17.5001E-03     17.9149E-03
            5607            5660     17.5001E-03     17.9149E-03
            5608            5660     17.5001E-03     17.9149E-03
            5598            5660     17.5001E-03     17.9149E-03
            5600            5661     16.8305E-03     17.3986E-03
            5609            5661     16.8305E-03     17.3986E-03
            5599            5661     16.8305E-03     17.3986E-03
            5608            5661     16.8305E-03     17.3986E-03
            5600            5662     18.6745E-03     19.0940E-03
            5610            5662     18.6745E-03     19.0940E-03
            5601            5662     18.6745E-03     19.0940E-03
            5609            5662     18.6745E-03     19.0940E-03
            5610            5663     23.4296E-03     23.5779E-03
            5602            5663     23.4296E-03     23.5779E-03
            5611            5663     23.4296E-03     23.5779E-03
            5601            5663     23.4296E-03     23.5779E-03
            5602            5664     31.0494E-03     30.6776E-03
            5612            5664     31.0494E-03     30.6776E-03
            5603            5664     31.0494E-03     30.6776E-03
            5611            5664     31.0494E-03     30.6776E-03
            5604            5665     31.4286E-03     31.4436E-03
            5614            5665     31.4286E-03     31.4436E-03
            5613            5665     31.4286E-03     31.4436E-03
            5605            5665     31.4286E-03     31.4436E-03
            5606            5666     26.3700E-03     26.7443E-03
            5614            5666     26.3700E-03     26.7443E-03
            5605            5666     26.3700E-03     26.7443E-03
            5615            5666     26.3700E-03     26.7443E-03
            5616            5667     21.9049E-03     22.4905E-03
            5615            5667     21.9049E-03     22.4905E-03
            5607            5667     21.9049E-03     22.4905E-03
            5606            5667     21.9049E-03     22.4905E-03
            5608            5668     19.3976E-03     20.1401E-03
            5607            5668     19.3976E-03     20.1401E-03
            5617            5668     19.3976E-03     20.1401E-03
            5616            5668     19.3976E-03     20.1401E-03
            5609            5669     18.8005E-03     19.6289E-03
            5617            5669     18.8005E-03     19.6289E-03
            5608            5669     18.8005E-03     19.6289E-03
            5618            5669     18.8005E-03     19.6289E-03
            5619            5670     20.2549E-03     21.0054E-03
            5609            5670     20.2549E-03     21.0054E-03
            5618            5670     20.2549E-03     21.0054E-03
            5610            5670     20.2549E-03     21.0054E-03
            5619            5671     23.9104E-03     24.3947E-03
            5620            5671     23.9104E-03     24.3947E-03
            5611            5671     23.9104E-03     24.3947E-03
            5610            5671     23.9104E-03     24.3947E-03
            5612            5672     28.4319E-03     28.4989E-03
            5620            5672     28.4319E-03     28.4989E-03
            5621            5672     28.4319E-03     28.4989E-03
            5611            5672     28.4319E-03     28.4989E-03
            5613            5673     28.4599E-03     28.2071E-03
            5622            5673     28.4599E-03     28.2071E-03
            5614            5673     28.4599E-03     28.2071E-03
            5623            5673     28.4599E-03     28.2071E-03
            5624            5674     25.0339E-03     25.1848E-03
            5623            5674     25.0339E-03     25.1848E-03
            5614            5674     25.0339E-03     25.1848E-03
            5615            5674     25.0339E-03     25.1848E-03
            5615            5675     22.2990E-03     22.8171E-03
            5624            5675     22.2990E-03     22.8171E-03
            5625            5675     22.2990E-03     22.8171E-03
            5616            5675     22.2990E-03     22.8171E-03
            5625            5676     20.4066E-03     21.0914E-03
            5626            5676     20.4066E-03     21.0914E-03
            5617            5676     20.4066E-03     21.0914E-03
            5616            5676     20.4066E-03     21.0914E-03
            5618            5677     19.8768E-03     20.6033E-03
            5627            5677     19.8768E-03     20.6033E-03
            5626            5677     19.8768E-03     20.6033E-03
            5617            5677     19.8768E-03     20.6033E-03
            5628            5678     20.7650E-03     21.3853E-03
            5619            5678     20.7650E-03     21.3853E-03
            5618            5678     20.7650E-03     21.3853E-03
            5627            5678     20.7650E-03     21.3853E-03
            5629            5679     22.7048E-03     22.9912E-03
            5628            5679     22.7048E-03     22.9912E-03
            5619            5679     22.7048E-03     22.9912E-03
            5620            5679     22.7048E-03     22.9912E-03
            5630            5680     25.5863E-03     25.5393E-03
            5621            5680     25.5863E-03     25.5393E-03
            5629            5680     25.5863E-03     25.5393E-03
            5620            5680     25.5863E-03     25.5393E-03
            5632            5681     26.1712E-03     25.9026E-03
            5631            5681     26.1712E-03     25.9026E-03
            5623            5681     26.1712E-03     25.9026E-03
            5622            5681     26.1712E-03     25.9026E-03
            5624            5682     23.6044E-03     23.5739E-03
            5623            5682     23.6044E-03     23.5739E-03
            5633            5682     23.6044E-03     23.5739E-03
            5632            5682     23.6044E-03     23.5739E-03
            5633            5683     21.8644E-03     22.0823E-03
            5625            5683     21.8644E-03     22.0823E-03
            5624            5683     21.8644E-03     22.0823E-03
            5634            5683     21.8644E-03     22.0823E-03
            5626            5684     20.7740E-03     21.1864E-03
            5635            5684     20.7740E-03     21.1864E-03
            5625            5684     20.7740E-03     21.1864E-03
            5634            5684     20.7740E-03     21.1864E-03
            5636            5685     20.2801E-03     20.7441E-03
            5635            5685     20.2801E-03     20.7441E-03
            5626            5685     20.2801E-03     20.7441E-03
            5627            5685     20.2801E-03     20.7441E-03
            5628            5686     20.4443E-03     20.8220E-03
            5627            5686     20.4443E-03     20.8220E-03
            5636            5686     20.4443E-03     20.8220E-03
            5637            5686     20.4443E-03     20.8220E-03
            5638            5687     21.4271E-03     21.6192E-03
            5628            5687     21.4271E-03     21.6192E-03
            5637            5687     21.4271E-03     21.6192E-03
            5629            5687     21.4271E-03     21.6192E-03
            5629            5688     23.4788E-03     23.3935E-03
            5638            5688     23.4788E-03     23.3935E-03
            5630            5688     23.4788E-03     23.3935E-03
            5639            5688     23.4788E-03     23.3935E-03
            5640            5689     23.9274E-03     23.6952E-03
            5632            5689     23.9274E-03     23.6952E-03
            5631            5689     23.9274E-03     23.6952E-03
            5641            5689     23.9274E-03     23.6952E-03
            5633            5690     22.3079E-03     22.2486E-03
            5632            5690     22.3079E-03     22.2486E-03
            5641            5690     22.3079E-03     22.2486E-03
            5642            5690     22.3079E-03     22.2486E-03
            5634            5691     21.3295E-03     21.3667E-03
            5643            5691     21.3295E-03     21.3667E-03
            5642            5691     21.3295E-03     21.3667E-03
            5633            5691     21.3295E-03     21.3667E-03
            5643            5692     20.7132E-03     20.8234E-03
            5635            5692     20.7132E-03     20.8234E-03
            5634            5692     20.7132E-03     20.8234E-03
            5644            5692     20.7132E-03     20.8234E-03
            5636            5693     20.2756E-03     20.4540E-03
            5644            5693     20.2756E-03     20.4540E-03
            5635            5693     20.2756E-03     20.4540E-03
            5645            5693     20.2756E-03     20.4540E-03
            5645            5694     20.0532E-03     20.2769E-03
            5637            5694     20.0532E-03     20.2769E-03
            5636            5694     20.0532E-03     20.2769E-03
            5646            5694     20.0532E-03     20.2769E-03
            5647            5695     20.3198E-03     20.4896E-03
            5638            5695     20.3198E-03     20.4896E-03
            5646            5695     20.3198E-03     20.4896E-03
            5637            5695     20.3198E-03     20.4896E-03
            5638            5696     21.4099E-03     21.3866E-03
            5639            5696     21.4099E-03     21.3866E-03
            5647            5696     21.4099E-03     21.3866E-03
            5648            5696     21.4099E-03     21.3866E-03
            5640            5697     21.7942E-03     21.6474E-03
            5650            5697     21.7942E-03     21.6474E-03
            5649            5697     21.7942E-03     21.6474E-03
            5641            5697     21.7942E-03     21.6474E-03
            5642            5698     21.0566E-03     20.9991E-03
            5651            5698     21.0566E-03     20.9991E-03
            5650            5698     21.0566E-03     20.9991E-03
            5641            5698     21.0566E-03     20.9991E-03
            5643            5699     20.7938E-03     20.7000E-03
            5651            5699     20.7938E-03     20.7000E-03
            5652            5699     20.7938E-03     20.7000E-03
            5642            5699     20.7938E-03     20.7000E-03
            5652            5700     20.5331E-03     20.3922E-03
            5644            5700     20.5331E-03     20.3922E-03
            5643            5700     20.5331E-03     20.3922E-03
            5653            5700     20.5331E-03     20.3922E-03
            5644            5701     20.1588E-03     20.0725E-03
            5645            5701     20.1588E-03     20.0725E-03
            5653            5701     20.1588E-03     20.0725E-03
            5654            5701     20.1588E-03     20.0725E-03
            5646            5702     19.6862E-03     19.7521E-03
            5655            5702     19.6862E-03     19.7521E-03
            5645            5702     19.6862E-03     19.7521E-03
            5654            5702     19.6862E-03     19.7521E-03
            5647            5703     19.2774E-03     19.4557E-03
            5656            5703     19.2774E-03     19.4557E-03
            5655            5703     19.2774E-03     19.4557E-03
            5646            5703     19.2774E-03     19.4557E-03
            5648            5704     19.4915E-03     19.5489E-03
            5656            5704     19.4915E-03     19.5489E-03
            5647            5704     19.4915E-03     19.5489E-03
            5657            5704     19.4915E-03     19.5489E-03
            5659            5705     19.7785E-03     19.7661E-03
            5649            5705     19.7785E-03     19.7661E-03
            5658            5705     19.7785E-03     19.7661E-03
            5650            5705     19.7785E-03     19.7661E-03
            5660            5706     19.9768E-03     19.9648E-03
            5650            5706     19.9768E-03     19.9648E-03
            5659            5706     19.9768E-03     19.9648E-03
            5651            5706     19.9768E-03     19.9648E-03
            5652            5707     20.2660E-03     20.0496E-03
            5651            5707     20.2660E-03     20.0496E-03
            5661            5707     20.2660E-03     20.0496E-03
            5660            5707     20.2660E-03     20.0496E-03
            5662            5708     20.2695E-03     19.8743E-03
            5653            5708     20.2695E-03     19.8743E-03
            5652            5708     20.2695E-03     19.8743E-03
            5661            5708     20.2695E-03     19.8743E-03
            5663            5709     19.9723E-03     19.5916E-03
            5662            5709     19.9723E-03     19.5916E-03
            5654            5709     19.9723E-03     19.5916E-03
            5653            5709     19.9723E-03     19.5916E-03
            5663            5710     19.3550E-03     19.2308E-03
            5664            5710     19.3550E-03     19.2308E-03
            5655            5710     19.3550E-03     19.2308E-03
            5654            5710     19.3550E-03     19.2308E-03
            5656            5711     18.4624E-03     18.6277E-03
            5655            5711     18.4624E-03     18.6277E-03
            5664            5711     18.4624E-03     18.6277E-03
            5665            5711     18.4624E-03     18.6277E-03
            5657            5712     17.7232E-03     17.9209E-03
            5656            5712     17.7232E-03     17.9209E-03
            5666            5712     17.7232E-03     17.9209E-03
            5665            5712     17.7232E-03     17.9209E-03
            5659            5713     17.8547E-03     18.0505E-03
            5658            5713     17.8547E-03     18.0505E-03
            5667            5713     17.8547E-03     18.0505E-03
            5668            5713     17.8547E-03     18.0505E-03
            5660            5714     19.0985E-03     19.1190E-03
            5659            5714     19.0985E-03     19.1190E-03
            5669            5714     19.0985E-03     19.1190E-03
            5668            5714     19.0985E-03     19.1190E-03
            5660            5715     19.7963E-03     19.4232E-03
            5669            5715     19.7963E-03     19.4232E-03
            5670            5715     19.7963E-03     19.4232E-03
            5661            5715     19.7963E-03     19.4232E-03
            5671            5716     19.8180E-03     19.1962E-03
            5661            5716     19.8180E-03     19.1962E-03
            5662            5716     19.8180E-03     19.1962E-03
            5670            5716     19.8180E-03     19.1962E-03
            5662            5717     19.6112E-03     18.9399E-03
            5663            5717     19.6112E-03     18.9399E-03
            5671            5717     19.6112E-03     18.9399E-03
            5672            5717     19.6112E-03     18.9399E-03
            5673            5718     19.1488E-03     18.7036E-03
            5664            5718     19.1488E-03     18.7036E-03
            5663            5718     19.1488E-03     18.7036E-03
            5672            5718     19.1488E-03     18.7036E-03
            5665            5719     17.9212E-03     18.0088E-03
            5664            5719     17.9212E-03     18.0088E-03
            5674            5719     17.9212E-03     18.0088E-03
            5673            5719     17.9212E-03     18.0088E-03
            5674            5720     16.1282E-03     16.4984E-03
            5675            5720     16.1282E-03     16.4984E-03
            5665            5720     16.1282E-03     16.4984E-03
            5666            5720     16.1282E-03     16.4984E-03
            5676            5721     16.1705E-03     16.5279E-03
            5677            5721     16.1705E-03     16.5279E-03
            5668            5721     16.1705E-03     16.5279E-03
            5667            5721     16.1705E-03     16.5279E-03
            5669            5722     18.4335E-03     18.3133E-03
            5677            5722     18.4335E-03     18.3133E-03
            5678            5722     18.4335E-03     18.3133E-03
            5668            5722     18.4335E-03     18.3133E-03
            5678            5723     19.1686E-03     18.6462E-03
            5679            5723     19.1686E-03     18.6462E-03
            5669            5723     19.1686E-03     18.6462E-03
            5670            5723     19.1686E-03     18.6462E-03
            5679            5724     19.2267E-03     18.5054E-03
            5670            5724     19.2267E-03     18.5054E-03
            5680            5724     19.2267E-03     18.5054E-03
            5671            5724     19.2267E-03     18.5054E-03
            5681            5725     19.0959E-03     18.2999E-03
            5671            5725     19.0959E-03     18.2999E-03
            5680            5725     19.0959E-03     18.2999E-03
            5672            5725     19.0959E-03     18.2999E-03
            5673            5726     18.8089E-03     18.0448E-03
            5672            5726     18.8089E-03     18.0448E-03
            5682            5726     18.8089E-03     18.0448E-03
            5681            5726     18.8089E-03     18.0448E-03
            5683            5727     17.7899E-03     17.4126E-03
            5673            5727     17.7899E-03     17.4126E-03
            5682            5727     17.7899E-03     17.4126E-03
            5674            5727     17.7899E-03     17.4126E-03
            5675            5728     14.9580E-03     15.3824E-03
            5674            5728     14.9580E-03     15.3824E-03
            5683            5728     14.9580E-03     15.3824E-03
            5684            5728     14.9580E-03     15.3824E-03
            5686            5729     14.4645E-03     14.5465E-03
            5677            5729     14.4645E-03     14.5465E-03
            5685            5729     14.4645E-03     14.5465E-03
            5676            5729     14.4645E-03     14.5465E-03
            5687            5730     17.5824E-03     17.1974E-03
            5677            5730     17.5824E-03     17.1974E-03
            5686            5730     17.5824E-03     17.1974E-03
            5678            5730     17.5824E-03     17.1974E-03
            5687            5731     18.4617E-03     17.9778E-03
            5679            5731     18.4617E-03     17.9778E-03
            5688            5731     18.4617E-03     17.9778E-03
            5678            5731     18.4617E-03     17.9778E-03
            5688            5732     18.7584E-03     18.2366E-03
            5680            5732     18.7584E-03     18.2366E-03
            5679            5732     18.7584E-03     18.2366E-03
            5689            5732     18.7584E-03     18.2366E-03
            5689            5733     18.7093E-03     18.1188E-03
            5680            5733     18.7093E-03     18.1188E-03
            5690            5733     18.7093E-03     18.1188E-03
            5681            5733     18.7093E-03     18.1188E-03
            5681            5734     18.3213E-03     17.6237E-03
            5691            5734     18.3213E-03     17.6237E-03
            5690            5734     18.3213E-03     17.6237E-03
            5682            5734     18.3213E-03     17.6237E-03
            5691            5735     17.4690E-03     16.6516E-03
            5682            5735     17.4690E-03     16.6516E-03
            5683            5735     17.4690E-03     16.6516E-03
            5692            5735     17.4690E-03     16.6516E-03
            5693            5736     14.2727E-03     14.0390E-03
            5692            5736     14.2727E-03     14.0390E-03
            5684            5736     14.2727E-03     14.0390E-03
            5683            5736     14.2727E-03     14.0390E-03
            5694            5737     15.3984E-03     15.0219E-03
            5686            5737     15.3984E-03     15.0219E-03
            5695            5737     15.3984E-03     15.0219E-03
            5685            5737     15.3984E-03     15.0219E-03
            5687            5738     16.4915E-03     16.1928E-03
            5696            5738     16.4915E-03     16.1928E-03
            5695            5738     16.4915E-03     16.1928E-03
            5686            5738     16.4915E-03     16.1928E-03
            5697            5739     16.9476E-03     16.7133E-03
            5696            5739     16.9476E-03     16.7133E-03
            5688            5739     16.9476E-03     16.7133E-03
            5687            5739     16.9476E-03     16.7133E-03
            5698            5740     17.2398E-03     17.0730E-03
            5688            5740     17.2398E-03     17.0730E-03
            5689            5740     17.2398E-03     17.0730E-03
            5697            5740     17.2398E-03     17.0730E-03
            5689            5741     17.1959E-03     17.0261E-03
            5690            5741     17.1959E-03     17.0261E-03
            5699            5741     17.1959E-03     17.0261E-03
            5698            5741     17.1959E-03     17.0261E-03
            5691            5742     16.7880E-03     16.5879E-03
            5690            5742     16.7880E-03     16.5879E-03
            5699            5742     16.7880E-03     16.5879E-03
            5700            5742     16.7880E-03     16.5879E-03
            5701            5743     16.2962E-03     15.9737E-03
            5700            5743     16.2962E-03     15.9737E-03
            5692            5743     16.2962E-03     15.9737E-03
            5691            5743     16.2962E-03     15.9737E-03
            5702            5744     15.1996E-03     14.8546E-03
            5693            5744     15.1996E-03     14.8546E-03
            5701            5744     15.1996E-03     14.8546E-03
            5692            5744     15.1996E-03     14.8546E-03
            5695            5745     16.2946E-03     16.0663E-03
            5704            5745     16.2946E-03     16.0663E-03
            5694            5745     16.2946E-03     16.0663E-03
            5703            5745     16.2946E-03     16.0663E-03
            5695            5746     16.2759E-03     16.2893E-03
            5696            5746     16.2759E-03     16.2893E-03
            5705            5746     16.2759E-03     16.2893E-03
            5704            5746     16.2759E-03     16.2893E-03
            5696            5747     16.2205E-03     16.2087E-03
            5705            5747     16.2205E-03     16.2087E-03
            5697            5747     16.2205E-03     16.2087E-03
            5706            5747     16.2205E-03     16.2087E-03
            5706            5748     16.2665E-03     16.2799E-03
            5707            5748     16.2665E-03     16.2799E-03
            5698            5748     16.2665E-03     16.2799E-03
            5697            5748     16.2665E-03     16.2799E-03
            5707            5749     16.2029E-03     16.2527E-03
            5698            5749     16.2029E-03     16.2527E-03
            5699            5749     16.2029E-03     16.2527E-03
            5708            5749     16.2029E-03     16.2527E-03
            5708            5750     16.0015E-03     16.1414E-03
            5699            5750     16.0015E-03     16.1414E-03
            5700            5750     16.0015E-03     16.1414E-03
            5709            5750     16.0015E-03     16.1414E-03
            5710            5751     15.8942E-03     16.1017E-03
            5709            5751     15.8942E-03     16.1017E-03
            5700            5751     15.8942E-03     16.1017E-03
            5701            5751     15.8942E-03     16.1017E-03
            5710            5752     15.6303E-03     15.7544E-03
            5701            5752     15.6303E-03     15.7544E-03
            5702            5752     15.6303E-03     15.7544E-03
            5711            5752     15.6303E-03     15.7544E-03
            5704            5753     14.1775E-03     14.0961E-03
            5712            5753     14.1775E-03     14.0961E-03
            5713            5753     14.1775E-03     14.0961E-03
            5703            5753     14.1775E-03     14.0961E-03
            5704            5754     16.4898E-03     16.4895E-03
            5713            5754     16.4898E-03     16.4895E-03
            5714            5754     16.4898E-03     16.4895E-03
            5705            5754     16.4898E-03     16.4895E-03
            5714            5755     16.9333E-03     16.9896E-03
            5715            5755     16.9333E-03     16.9896E-03
            5705            5755     16.9333E-03     16.9896E-03
            5706            5755     16.9333E-03     16.9896E-03
            5706            5756     16.8474E-03     16.8752E-03
            5707            5756     16.8474E-03     16.8752E-03
            5715            5756     16.8474E-03     16.8752E-03
            5716            5756     16.8474E-03     16.8752E-03
            5708            5757     16.8117E-03     16.8475E-03
            5716            5757     16.8117E-03     16.8475E-03
            5717            5757     16.8117E-03     16.8475E-03
            5707            5757     16.8117E-03     16.8475E-03
            5717            5758     16.8292E-03     16.8972E-03
            5709            5758     16.8292E-03     16.8972E-03
            5718            5758     16.8292E-03     16.8972E-03
            5708            5758     16.8292E-03     16.8972E-03
            5719            5759     16.2208E-03     16.3698E-03
            5718            5759     16.2208E-03     16.3698E-03
            5710            5759     16.2208E-03     16.3698E-03
            5709            5759     16.2208E-03     16.3698E-03
            5711            5760     13.6952E-03     13.9125E-03
            5720            5760     13.6952E-03     13.9125E-03
            5719            5760     13.6952E-03     13.9125E-03
            5710            5760     13.6952E-03     13.9125E-03
            5713            5761     12.9704E-03     12.8549E-03
            5712            5761     12.9704E-03     12.8549E-03
            5721            5761     12.9704E-03     12.8549E-03
            5722            5761     12.9704E-03     12.8549E-03
            5722            5762     16.1409E-03     16.0566E-03
            5713            5762     16.1409E-03     16.0566E-03
            5714            5762     16.1409E-03     16.0566E-03
            5723            5762     16.1409E-03     16.0566E-03
            5724            5763     16.9796E-03     16.9873E-03
            5723            5763     16.9796E-03     16.9873E-03
            5714            5763     16.9796E-03     16.9873E-03
            5715            5763     16.9796E-03     16.9873E-03
            5724            5764     16.9880E-03     16.9911E-03
            5715            5764     16.9880E-03     16.9911E-03
            5716            5764     16.9880E-03     16.9911E-03
            5725            5764     16.9880E-03     16.9911E-03
            5725            5765     16.9784E-03     16.9642E-03
            5717            5765     16.9784E-03     16.9642E-03
            5716            5765     16.9784E-03     16.9642E-03
            5726            5765     16.9784E-03     16.9642E-03
            5718            5766     16.9601E-03     16.9004E-03
            5727            5766     16.9601E-03     16.9004E-03
            5726            5766     16.9601E-03     16.9004E-03
            5717            5766     16.9601E-03     16.9004E-03
            5718            5767     16.0436E-03     16.0049E-03
            5719            5767     16.0436E-03     16.0049E-03
            5728            5767     16.0436E-03     16.0049E-03
            5727            5767     16.0436E-03     16.0049E-03
            5729            5768     12.6808E-03     12.9118E-03
            5728            5768     12.6808E-03     12.9118E-03
            5720            5768     12.6808E-03     12.9118E-03
            5719            5768     12.6808E-03     12.9118E-03
            5721            5769     12.8310E-03     12.8558E-03
            5722            5769     12.8310E-03     12.8558E-03
            5730            5769     12.8310E-03     12.8558E-03
            5731            5769     12.8310E-03     12.8558E-03
            5722            5770     15.5301E-03     15.5347E-03
            5732            5770     15.5301E-03     15.5347E-03
            5731            5770     15.5301E-03     15.5347E-03
            5723            5770     15.5301E-03     15.5347E-03
            5732            5771     16.4482E-03     16.4249E-03
            5723            5771     16.4482E-03     16.4249E-03
            5724            5771     16.4482E-03     16.4249E-03
            5733            5771     16.4482E-03     16.4249E-03
            5725            5772     16.8344E-03     16.8302E-03
            5734            5772     16.8344E-03     16.8302E-03
            5724            5772     16.8344E-03     16.8302E-03
            5733            5772     16.8344E-03     16.8302E-03
            5734            5773     16.8504E-03     16.8097E-03
            5725            5773     16.8504E-03     16.8097E-03
            5726            5773     16.8504E-03     16.8097E-03
            5735            5773     16.8504E-03     16.8097E-03
            5735            5774     16.4817E-03     16.3866E-03
            5736            5774     16.4817E-03     16.3866E-03
            5727            5774     16.4817E-03     16.3866E-03
            5726            5774     16.4817E-03     16.3866E-03
            5727            5775     15.6468E-03     15.4834E-03
            5736            5775     15.6468E-03     15.4834E-03
            5728            5775     15.6468E-03     15.4834E-03
            5737            5775     15.6468E-03     15.4834E-03
            5738            5776     12.9765E-03     12.9892E-03
            5729            5776     12.9765E-03     12.9892E-03
            5728            5776     12.9765E-03     12.9892E-03
            5737            5776     12.9765E-03     12.9892E-03


  Minimum                            462.302E-06     473.587E-06
      At Element                            5369            5369
            Node                             768             768

  Maximum                            116.469E-03     103.253E-03
      At Element                            3950            3860
            Node                              22             629

           Total                         118.548         117.921


Field Output reported at element nodes for region: A320-1.Region_3
   Computation algorithm: EXTRAPOLATE_COMPUTE_AVERAGE
   Averaged at nodes
   Averaging regions: ODB_REGIONS

   Element Label      Node Label         S.Mises         S.Mises
                                          @Loc 1          @Loc 2
-----------------------------------------------------------------
            1760               1     639.683E-06     636.115E-06
               1               1     639.683E-06     636.115E-06
            3550               2     6.32938E-03     6.31540E-03
            1757               2     6.32938E-03     6.31540E-03
              29               2     6.32938E-03     6.31540E-03
               4               2     6.32938E-03     6.31540E-03
              28               3     3.05983E-03     3.60915E-03
             329               3     3.05983E-03     3.60915E-03
              25               4     152.641E-06     260.161E-06
              78               5     35.3019E-03     39.2122E-03
             379               5     35.3019E-03     39.2122E-03
            2348               5     35.3019E-03     39.2122E-03
            3501               5     35.3019E-03     39.2122E-03
             415               6     102.560E-03     110.210E-03
             378               6     102.560E-03     110.210E-03
            2343               7     42.0514E-03     47.9503E-03
            5288               7     42.0514E-03     47.9503E-03
             421               7     42.0514E-03     47.9503E-03
             384               7     42.0514E-03     47.9503E-03
             457               8     95.9222E-03     112.040E-03
             420               8     95.9222E-03     112.040E-03
             426               9     19.9670E-03     21.4013E-03
             505               9     19.9670E-03     21.4013E-03
            4106               9     19.9670E-03     21.4013E-03
            5283               9     19.9670E-03     21.4013E-03
             745              10     74.8380E-03     78.6524E-03
             462              10     74.8380E-03     78.6524E-03
             463              11     661.241E-06     657.087E-06
            6572              11     661.241E-06     657.087E-06
            4067              12     8.24611E-03     8.22331E-03
             468              12     8.24611E-03     8.22331E-03
            6567              12     8.24611E-03     8.22331E-03
             544              12     8.24611E-03     8.22331E-03
             504              13     2.82604E-03     3.65230E-03
            4307              13     2.82604E-03     3.65230E-03
             499              14     187.281E-06     290.524E-06
            6603              15     2.61316E-03     3.53776E-03
             784              15     2.61316E-03     3.53776E-03
            1781              17     3.37458E-03     3.93645E-03
            3850              17     3.37458E-03     3.93645E-03
            1784              18     152.641E-06     260.161E-06
            3801              21     99.3923E-03     106.194E-03
            2384              21     99.3923E-03     106.194E-03
            2379              22     167.152E-03     177.364E-03
            5324              22     167.152E-03     177.364E-03
            5319              25     84.5519E-03     90.6208E-03
            4346              25     84.5519E-03     90.6208E-03
            6608              27     187.281E-06     290.524E-06
            1760              29     645.134E-06     640.978E-06
               2              29     645.134E-06     640.978E-06
               1              29     645.134E-06     640.978E-06
            1759              29     645.134E-06     640.978E-06
            1759              30     654.147E-06     645.265E-06
               2              30     654.147E-06     645.265E-06
            1758              30     654.147E-06     645.265E-06
               3              30     654.147E-06     645.265E-06
               3              31     648.087E-06     636.370E-06
            1757              31     648.087E-06     636.370E-06
            1758              31     648.087E-06     636.370E-06
               4              31     648.087E-06     636.370E-06
               4              32     5.56065E-03     5.55419E-03
              29              32     5.56065E-03     5.55419E-03
               8              32     5.56065E-03     5.55419E-03
              79              32     5.56065E-03     5.55419E-03
               8              33     4.49031E-03     4.49092E-03
             129              33     4.49031E-03     4.49092E-03
              79              33     4.49031E-03     4.49092E-03
              12              33     4.49031E-03     4.49092E-03
              16              34     3.17772E-03     3.19094E-03
              12              34     3.17772E-03     3.19094E-03
             179              34     3.17772E-03     3.19094E-03
             129              34     3.17772E-03     3.19094E-03
              16              35     1.70761E-03     1.75378E-03
             229              35     1.70761E-03     1.75378E-03
              20              35     1.70761E-03     1.75378E-03
             179              35     1.70761E-03     1.75378E-03
              24              36     999.820E-06     1.13588E-03
              20              36     999.820E-06     1.13588E-03
             229              36     999.820E-06     1.13588E-03
             279              36     999.820E-06     1.13588E-03
             279              37     2.05675E-03     2.43215E-03
             329              37     2.05675E-03     2.43215E-03
              28              37     2.05675E-03     2.43215E-03
              24              37     2.05675E-03     2.43215E-03
              28              38     418.952E-06     431.992E-06
              27              38     418.952E-06     431.992E-06
              26              39     285.756E-06     250.868E-06
              27              39     285.756E-06     250.868E-06
              25              40     157.437E-06     241.974E-06
              26              40     157.437E-06     241.974E-06
              21              41     168.732E-06     207.222E-06
              25              41     168.732E-06     207.222E-06
              21              42     242.788E-06     222.341E-06
              17              42     242.788E-06     222.341E-06
              17              43     373.026E-06     364.016E-06
              13              43     373.026E-06     364.016E-06
               9              44     488.173E-06     481.635E-06
              13              44     488.173E-06     481.635E-06
               5              45     570.462E-06     564.900E-06
               9              45     570.462E-06     564.900E-06
               1              46     624.779E-06     620.138E-06
               5              46     624.779E-06     620.138E-06
              29              47     12.0911E-03     12.0208E-03
            3550              47     12.0911E-03     12.0208E-03
            3549              47     12.0911E-03     12.0208E-03
              30              47     12.0911E-03     12.0208E-03
            3549              48     12.1533E-03     12.0835E-03
              30              48     12.1533E-03     12.0835E-03
              31              48     12.1533E-03     12.0835E-03
            3548              48     12.1533E-03     12.0835E-03
            3547              49     12.1545E-03     12.1030E-03
            3548              49     12.1545E-03     12.1030E-03
              32              49     12.1545E-03     12.1030E-03
              31              49     12.1545E-03     12.1030E-03
            3547              50     12.1732E-03     12.2421E-03
            3546              50     12.1732E-03     12.2421E-03
              32              50     12.1732E-03     12.2421E-03
              33              50     12.1732E-03     12.2421E-03
              34              51     12.5170E-03     12.3390E-03
            3545              51     12.5170E-03     12.3390E-03
              33              51     12.5170E-03     12.3390E-03
            3546              51     12.5170E-03     12.3390E-03
              35              52     12.5221E-03     12.2999E-03
            3545              52     12.5221E-03     12.2999E-03
              34              52     12.5221E-03     12.2999E-03
            3544              52     12.5221E-03     12.2999E-03
            3544              53     13.0753E-03     13.1082E-03
            3543              53     13.0753E-03     13.1082E-03
              36              53     13.0753E-03     13.1082E-03
              35              53     13.0753E-03     13.1082E-03
              37              54     14.0582E-03     13.8622E-03
            3543              54     14.0582E-03     13.8622E-03
              36              54     14.0582E-03     13.8622E-03
            3542              54     14.0582E-03     13.8622E-03
              38              55     14.2572E-03     13.9586E-03
            3542              55     14.2572E-03     13.9586E-03
              37              55     14.2572E-03     13.9586E-03
            3541              55     14.2572E-03     13.9586E-03
              39              56     14.4253E-03     14.1647E-03
              38              56     14.4253E-03     14.1647E-03
            3540              56     14.4253E-03     14.1647E-03
            3541              56     14.4253E-03     14.1647E-03
            3540              57     14.6002E-03     14.3678E-03
              40              57     14.6002E-03     14.3678E-03
            3539              57     14.6002E-03     14.3678E-03
              39              57     14.6002E-03     14.3678E-03
            3539              58     14.7437E-03     14.6587E-03
              41              58     14.7437E-03     14.6587E-03
            3538              58     14.7437E-03     14.6587E-03
              40              58     14.7437E-03     14.6587E-03
            3537              59     14.9684E-03     14.9901E-03
            3538              59     14.9684E-03     14.9901E-03
              42              59     14.9684E-03     14.9901E-03
              41              59     14.9684E-03     14.9901E-03
            3537              60     15.1774E-03     15.2200E-03
              43              60     15.1774E-03     15.2200E-03
            3536              60     15.1774E-03     15.2200E-03
              42              60     15.1774E-03     15.2200E-03
              44              61     15.2022E-03     15.7901E-03
            3535              61     15.2022E-03     15.7901E-03
              43              61     15.2022E-03     15.7901E-03
            3536              61     15.2022E-03     15.7901E-03
            3535              62     16.1717E-03     15.9474E-03
            3534              62     16.1717E-03     15.9474E-03
              44              62     16.1717E-03     15.9474E-03
              45              62     16.1717E-03     15.9474E-03
            3534              63     16.1285E-03     15.7190E-03
            3533              63     16.1285E-03     15.7190E-03
              46              63     16.1285E-03     15.7190E-03
              45              63     16.1285E-03     15.7190E-03
              47              64     15.9041E-03     16.4558E-03
            3533              64     15.9041E-03     16.4558E-03
              46              64     15.9041E-03     16.4558E-03
            3532              64     15.9041E-03     16.4558E-03
              48              65     17.0664E-03     16.7952E-03
            3531              65     17.0664E-03     16.7952E-03
            3532              65     17.0664E-03     16.7952E-03
              47              65     17.0664E-03     16.7952E-03
            3531              66     17.5613E-03     16.9329E-03
              48              66     17.5613E-03     16.9329E-03
              49              66     17.5613E-03     16.9329E-03
            3530              66     17.5613E-03     16.9329E-03
              49              67     17.8096E-03     17.4647E-03
            3530              67     17.8096E-03     17.4647E-03
            3529              67     17.8096E-03     17.4647E-03
              50              67     17.8096E-03     17.4647E-03
              50              68     18.1348E-03     17.7574E-03
            3528              68     18.1348E-03     17.7574E-03
              51              68     18.1348E-03     17.7574E-03
            3529              68     18.1348E-03     17.7574E-03
            3528              69     18.3388E-03     18.2461E-03
            3527              69     18.3388E-03     18.2461E-03
              52              69     18.3388E-03     18.2461E-03
              51              69     18.3388E-03     18.2461E-03
              52              70     18.6402E-03     18.7504E-03
            3526              70     18.6402E-03     18.7504E-03
              53              70     18.6402E-03     18.7504E-03
            3527              70     18.6402E-03     18.7504E-03
            3525              71     18.9092E-03     19.0242E-03
              54              71     18.9092E-03     19.0242E-03
              53              71     18.9092E-03     19.0242E-03
            3526              71     18.9092E-03     19.0242E-03
              55              72     18.8194E-03     19.8735E-03
            3525              72     18.8194E-03     19.8735E-03
            3524              72     18.8194E-03     19.8735E-03
              54              72     18.8194E-03     19.8735E-03
              55              73     20.2846E-03     19.9484E-03
            3524              73     20.2846E-03     19.9484E-03
              56              73     20.2846E-03     19.9484E-03
            3523              73     20.2846E-03     19.9484E-03
              57              74     20.0731E-03     19.4544E-03
              56              74     20.0731E-03     19.4544E-03
            3522              74     20.0731E-03     19.4544E-03
            3523              74     20.0731E-03     19.4544E-03
            3521              75     19.1990E-03     20.4232E-03
            3522              75     19.1990E-03     20.4232E-03
              57              75     19.1990E-03     20.4232E-03
              58              75     19.1990E-03     20.4232E-03
              59              76     20.8972E-03     20.5333E-03
            3520              76     20.8972E-03     20.5333E-03
              58              76     20.8972E-03     20.5333E-03
            3521              76     20.8972E-03     20.5333E-03
              60              77     21.7048E-03     20.6686E-03
            3519              77     21.7048E-03     20.6686E-03
            3520              77     21.7048E-03     20.6686E-03
              59              77     21.7048E-03     20.6686E-03
            3518              78     21.8593E-03     21.5124E-03
            3519              78     21.8593E-03     21.5124E-03
              60              78     21.8593E-03     21.5124E-03
              61              78     21.8593E-03     21.5124E-03
            3517              79     22.3018E-03     21.7817E-03
              62              79     22.3018E-03     21.7817E-03
              61              79     22.3018E-03     21.7817E-03
            3518              79     22.3018E-03     21.7817E-03
            3517              80     22.5114E-03     22.4143E-03
            3516              80     22.5114E-03     22.4143E-03
              63              80     22.5114E-03     22.4143E-03
              62              80     22.5114E-03     22.4143E-03
            3516              81     22.8292E-03     23.0330E-03
            3515              81     22.8292E-03     23.0330E-03
              64              81     22.8292E-03     23.0330E-03
              63              81     22.8292E-03     23.0330E-03
              65              82     23.1147E-03     23.2939E-03
            3514              82     23.1147E-03     23.2939E-03
              64              82     23.1147E-03     23.2939E-03
            3515              82     23.1147E-03     23.2939E-03
            3514              83     22.8626E-03     24.3784E-03
            3513              83     22.8626E-03     24.3784E-03
              65              83     22.8626E-03     24.3784E-03
              66              83     22.8626E-03     24.3784E-03
              67              84     24.7824E-03     24.3246E-03
            3513              84     24.7824E-03     24.3246E-03
            3512              84     24.7824E-03     24.3246E-03
              66              84     24.7824E-03     24.3246E-03
              68              85     24.3624E-03     23.5270E-03
            3511              85     24.3624E-03     23.5270E-03
            3512              85     24.3624E-03     23.5270E-03
              67              85     24.3624E-03     23.5270E-03
              68              86     22.8610E-03     24.8513E-03
            3511              86     22.8610E-03     24.8513E-03
            3510              86     22.8610E-03     24.8513E-03
              69              86     22.8610E-03     24.8513E-03
            3509              87     25.2139E-03     24.8593E-03
            3510              87     25.2139E-03     24.8593E-03
              70              87     25.2139E-03     24.8593E-03
              69              87     25.2139E-03     24.8593E-03
              71              88     26.2930E-03     24.9899E-03
            3508              88     26.2930E-03     24.9899E-03
              70              88     26.2930E-03     24.9899E-03
            3509              88     26.2930E-03     24.9899E-03
            3508              89     26.2733E-03     26.1174E-03
              72              89     26.2733E-03     26.1174E-03
            3507              89     26.2733E-03     26.1174E-03
              71              89     26.2733E-03     26.1174E-03
            3507              90     26.6225E-03     26.3983E-03
              73              90     26.6225E-03     26.3983E-03
            3506              90     26.6225E-03     26.3983E-03
              72              90     26.6225E-03     26.3983E-03
              74              91     27.0225E-03     27.0151E-03
            3506              91     27.0225E-03     27.0151E-03
              73              91     27.0225E-03     27.0151E-03
            3505              91     27.0225E-03     27.0151E-03
            3505              92     27.1812E-03     27.2826E-03
              75              92     27.1812E-03     27.2826E-03
            3504              92     27.1812E-03     27.2826E-03
              74              92     27.1812E-03     27.2826E-03
              76              93     26.7510E-03     28.4921E-03
            3504              93     26.7510E-03     28.4921E-03
            3503              93     26.7510E-03     28.4921E-03
              75              93     26.7510E-03     28.4921E-03
              77              94     28.9955E-03     28.3253E-03
            3502              94     28.9955E-03     28.3253E-03
              76              94     28.9955E-03     28.3253E-03
            3503              94     28.9955E-03     28.3253E-03
            3501              95     28.3363E-03     27.2719E-03
              78              95     28.3363E-03     27.2719E-03
            3502              95     28.3363E-03     27.2719E-03
              77              95     28.3363E-03     27.2719E-03
             379              96     41.0815E-03     48.2726E-03
             385              96     41.0815E-03     48.2726E-03
              78              96     41.0815E-03     48.2726E-03
             128              96     41.0815E-03     48.2726E-03
             385              97     52.3455E-03     58.2625E-03
             391              97     52.3455E-03     58.2625E-03
             128              97     52.3455E-03     58.2625E-03
             178              97     52.3455E-03     58.2625E-03
             178              98     65.5614E-03     74.1633E-03
             391              98     65.5614E-03     74.1633E-03
             228              98     65.5614E-03     74.1633E-03
             397              98     65.5614E-03     74.1633E-03
             228              99     77.7113E-03     89.9018E-03
             403              99     77.7113E-03     89.9018E-03
             397              99     77.7113E-03     89.9018E-03
             278              99     77.7113E-03     89.9018E-03
             409             100     87.3539E-03     101.798E-03
             278             100     87.3539E-03     101.798E-03
             328             100     87.3539E-03     101.798E-03
             403             100     87.3539E-03     101.798E-03
             328             101     96.9827E-03     108.119E-03
             378             101     96.9827E-03     108.119E-03
             409             101     96.9827E-03     108.119E-03
             415             101     96.9827E-03     108.119E-03
             377             102     113.120E-03     108.818E-03
             378             102     113.120E-03     108.818E-03
             377             103     107.331E-03     101.312E-03
             376             103     107.331E-03     101.312E-03
             376             104     96.5562E-03     99.5225E-03
             375             104     96.5562E-03     99.5225E-03
             375             105     94.9392E-03     92.7679E-03
             374             105     94.9392E-03     92.7679E-03
             374             106     90.4080E-03     90.4430E-03
             373             106     90.4080E-03     90.4430E-03
             372             107     87.1351E-03     85.6582E-03
             373             107     87.1351E-03     85.6582E-03
             372             108     82.0389E-03     83.5190E-03
             371             108     82.0389E-03     83.5190E-03
             370             109     81.6729E-03     77.3896E-03
             371             109     81.6729E-03     77.3896E-03
             369             110     77.9831E-03     74.5617E-03
             370             110     77.9831E-03     74.5617E-03
             369             111     77.3156E-03     86.5350E-03
             368             111     77.3156E-03     86.5350E-03
             368             112     88.1499E-03     84.8370E-03
             367             112     88.1499E-03     84.8370E-03
             367             113     83.0588E-03     78.4822E-03
             366             113     83.0588E-03     78.4822E-03
             366             114     74.1633E-03     76.5280E-03
             365             114     74.1633E-03     76.5280E-03
             365             115     72.4774E-03     70.8034E-03
             364             115     72.4774E-03     70.8034E-03
             363             116     68.5530E-03     68.4890E-03
             364             116     68.5530E-03     68.4890E-03
             362             117     65.3751E-03     65.0482E-03
             363             117     65.3751E-03     65.0482E-03
             361             118     62.2239E-03     61.2880E-03
             362             118     62.2239E-03     61.2880E-03
             361             119     57.9794E-03     58.8440E-03
             360             119     57.9794E-03     58.8440E-03
             359             120     56.5380E-03     53.7318E-03
             360             120     56.5380E-03     53.7318E-03
             359             121     52.9836E-03     50.5822E-03
             358             121     52.9836E-03     50.5822E-03
             357             122     53.5596E-03     59.9168E-03
             358             122     53.5596E-03     59.9168E-03
             357             123     62.1936E-03     59.9327E-03
             356             123     62.1936E-03     59.9327E-03
             356             124     57.7984E-03     54.6292E-03
             355             124     57.7984E-03     54.6292E-03
             355             125     50.7005E-03     52.4480E-03
             354             125     50.7005E-03     52.4480E-03
             354             126     48.8638E-03     47.6788E-03
             353             126     48.8638E-03     47.6788E-03
             352             127     45.3960E-03     45.3944E-03
             353             127     45.3960E-03     45.3944E-03
             352             128     42.5089E-03     42.2720E-03
             351             128     42.5089E-03     42.2720E-03
             351             129     39.5446E-03     39.0440E-03
             350             129     39.5446E-03     39.0440E-03
             350             130     35.9869E-03     36.3845E-03
             349             130     35.9869E-03     36.3845E-03
             348             131     33.6064E-03     32.1166E-03
             349             131     33.6064E-03     32.1166E-03
             347             132     29.9962E-03     28.6645E-03
             348             132     29.9962E-03     28.6645E-03
             346             133     31.7074E-03     35.4432E-03
             347             133     31.7074E-03     35.4432E-03
             345             134     38.3794E-03     37.1003E-03
             346             134     38.3794E-03     37.1003E-03
             345             135     34.7007E-03     32.8432E-03
             344             135     34.7007E-03     32.8432E-03
             343             136     29.3392E-03     30.5184E-03
             344             136     29.3392E-03     30.5184E-03
             342             137     27.4357E-03     26.7042E-03
             343             137     27.4357E-03     26.7042E-03
             342             138     24.4647E-03     24.5192E-03
             341             138     24.4647E-03     24.5192E-03
             340             139     21.9338E-03     21.7870E-03
             341             139     21.9338E-03     21.7870E-03
             339             140     19.2666E-03     19.1549E-03
             340             140     19.2666E-03     19.1549E-03
             339             141     16.4375E-03     16.4668E-03
             338             141     16.4375E-03     16.4668E-03
             337             142     13.3395E-03     13.1994E-03
             338             142     13.3395E-03     13.1994E-03
             336             143     9.67400E-03     9.46609E-03
             337             143     9.67400E-03     9.46609E-03
             336             144     11.8917E-03     13.2312E-03
             335             144     11.8917E-03     13.2312E-03
             334             145     16.3731E-03     16.0609E-03
             335             145     16.3731E-03     16.0609E-03
             333             146     13.6323E-03     12.9558E-03
             334             146     13.6323E-03     12.9558E-03
             333             147     10.2335E-03     10.8374E-03
             332             147     10.2335E-03     10.8374E-03
             332             148     8.68410E-03     8.45801E-03
             331             148     8.68410E-03     8.45801E-03
             330             149     7.09934E-03     7.30302E-03
             331             149     7.09934E-03     7.30302E-03
             330             150     6.15098E-03     6.72872E-03
             329             150     6.15098E-03     6.72872E-03
            2348             151     53.9410E-03     55.8746E-03
             379             151     53.9410E-03     55.8746E-03
            2347             151     53.9410E-03     55.8746E-03
             380             151     53.9410E-03     55.8746E-03
             381             152     63.3714E-03     62.7175E-03
            2347             152     63.3714E-03     62.7175E-03
             380             152     63.3714E-03     62.7175E-03
            2346             152     63.3714E-03     62.7175E-03
            2345             153     62.5443E-03     63.8714E-03
             382             153     62.5443E-03     63.8714E-03
             381             153     62.5443E-03     63.8714E-03
            2346             153     62.5443E-03     63.8714E-03
            2345             154     61.5063E-03     62.8291E-03
             382             154     61.5063E-03     62.8291E-03
            2344             154     61.5063E-03     62.8291E-03
             383             154     61.5063E-03     62.8291E-03
             383             155     62.4210E-03     67.4107E-03
             384             155     62.4210E-03     67.4107E-03
            2343             155     62.4210E-03     67.4107E-03
            2344             155     62.4210E-03     67.4107E-03
             427             156     32.1781E-03     33.6031E-03
             390             156     32.1781E-03     33.6031E-03
             384             156     32.1781E-03     33.6031E-03
             421             156     32.1781E-03     33.6031E-03
             427             157     34.4769E-03     35.2002E-03
             390             157     34.4769E-03     35.2002E-03
             396             157     34.4769E-03     35.2002E-03
             433             157     34.4769E-03     35.2002E-03
             402             158     44.7982E-03     49.0793E-03
             396             158     44.7982E-03     49.0793E-03
             439             158     44.7982E-03     49.0793E-03
             433             158     44.7982E-03     49.0793E-03
             408             159     57.7656E-03     70.6378E-03
             439             159     57.7656E-03     70.6378E-03
             445             159     57.7656E-03     70.6378E-03
             402             159     57.7656E-03     70.6378E-03
             445             160     69.0807E-03     91.4486E-03
             414             160     69.0807E-03     91.4486E-03
             408             160     69.0807E-03     91.4486E-03
             451             160     69.0807E-03     91.4486E-03
             420             161     84.8796E-03     106.019E-03
             414             161     84.8796E-03     106.019E-03
             457             161     84.8796E-03     106.019E-03
             451             161     84.8796E-03     106.019E-03
             420             162     103.834E-03     100.531E-03
             419             162     103.834E-03     100.531E-03
             419             163     99.4349E-03     95.5739E-03
             418             163     99.4349E-03     95.5739E-03
             418             164     95.9873E-03     92.5295E-03
             417             164     95.9873E-03     92.5295E-03
             417             165     95.4324E-03     89.3423E-03
             416             165     95.4324E-03     89.3423E-03
             415             166     92.7041E-03     98.0487E-03
             416             166     92.7041E-03     98.0487E-03
             422             167     24.5782E-03     22.8484E-03
            5288             167     24.5782E-03     22.8484E-03
            5287             167     24.5782E-03     22.8484E-03
             421             167     24.5782E-03     22.8484E-03
            5287             168     25.0679E-03     23.4962E-03
            5286             168     25.0679E-03     23.4962E-03
             423             168     25.0679E-03     23.4962E-03
             422             168     25.0679E-03     23.4962E-03
            5286             169     22.4112E-03     23.6120E-03
             423             169     22.4112E-03     23.6120E-03
             424             169     22.4112E-03     23.6120E-03
            5285             169     22.4112E-03     23.6120E-03
            5284             170     22.3692E-03     21.7086E-03
             424             170     22.3692E-03     21.7086E-03
             425             170     22.3692E-03     21.7086E-03
            5285             170     22.3692E-03     21.7086E-03
             425             171     21.5052E-03     22.1653E-03
            5284             171     21.5052E-03     22.1653E-03
            5283             171     21.5052E-03     22.1653E-03
             426             171     21.5052E-03     22.1653E-03
             426             172     19.5474E-03     21.1882E-03
             432             172     19.5474E-03     21.1882E-03
             505             172     19.5474E-03     21.1882E-03
             545             172     19.5474E-03     21.1882E-03
             585             173     29.5451E-03     32.2966E-03
             545             173     29.5451E-03     32.2966E-03
             432             173     29.5451E-03     32.2966E-03
             438             173     29.5451E-03     32.2966E-03
             438             174     42.2779E-03     46.7114E-03
             625             174     42.2779E-03     46.7114E-03
             585             174     42.2779E-03     46.7114E-03
             444             174     42.2779E-03     46.7114E-03
             665             175     53.9904E-03     61.5861E-03
             625             175     53.9904E-03     61.5861E-03
             450             175     53.9904E-03     61.5861E-03
             444             175     53.9904E-03     61.5861E-03
             705             176     64.1142E-03     73.8542E-03
             456             176     64.1142E-03     73.8542E-03
             665             176     64.1142E-03     73.8542E-03
             450             176     64.1142E-03     73.8542E-03
             705             177     71.8397E-03     78.6315E-03
             745             177     71.8397E-03     78.6315E-03
             456             177     71.8397E-03     78.6315E-03
             462             177     71.8397E-03     78.6315E-03
             461             178     81.5148E-03     77.3944E-03
             462             178     81.5148E-03     77.3944E-03
             461             179     85.3058E-03     79.0607E-03
             460             179     85.3058E-03     79.0607E-03
             459             180     83.9208E-03     88.5912E-03
             460             180     83.9208E-03     88.5912E-03
             459             181     96.0758E-03     88.7055E-03
             458             181     96.0758E-03     88.7055E-03
             458             182     100.783E-03     97.9559E-03
             457             182     100.783E-03     97.9559E-03
            6572             183     667.222E-06     660.457E-06
             464             183     667.222E-06     660.457E-06
             463             183     667.222E-06     660.457E-06
            6571             183     667.222E-06     660.457E-06
             465             184     669.763E-06     663.193E-06
            6570             184     669.763E-06     663.193E-06
            6571             184     669.763E-06     663.193E-06
             464             184     669.763E-06     663.193E-06
             465             185     664.504E-06     664.842E-06
             466             185     664.504E-06     664.842E-06
            6570             185     664.504E-06     664.842E-06
            6569             185     664.504E-06     664.842E-06
            6569             186     672.013E-06     665.687E-06
             467             186     672.013E-06     665.687E-06
             466             186     672.013E-06     665.687E-06
            6568             186     672.013E-06     665.687E-06
             468             187     669.943E-06     653.142E-06
             467             187     669.943E-06     653.142E-06
            6567             187     669.943E-06     653.142E-06
            6568             187     669.943E-06     653.142E-06
             474             188     7.60488E-03     7.56543E-03
            4107             188     7.60488E-03     7.56543E-03
            4067             188     7.60488E-03     7.56543E-03
             468             188     7.60488E-03     7.56543E-03
             474             189     6.58135E-03     6.53950E-03
             480             189     6.58135E-03     6.53950E-03
            4147             189     6.58135E-03     6.53950E-03
            4107             189     6.58135E-03     6.53950E-03
             486             190     5.25120E-03     5.18727E-03
            4147             190     5.25120E-03     5.18727E-03
            4187             190     5.25120E-03     5.18727E-03
             480             190     5.25120E-03     5.18727E-03
            4187             191     3.63863E-03     3.52996E-03
             492             191     3.63863E-03     3.52996E-03
             486             191     3.63863E-03     3.52996E-03
            4227             191     3.63863E-03     3.52996E-03
             498             192     1.95919E-03     1.90893E-03
            4227             192     1.95919E-03     1.90893E-03
             492             192     1.95919E-03     1.90893E-03
            4267             192     1.95919E-03     1.90893E-03
            4307             193     1.99662E-03     2.41888E-03
             498             193     1.99662E-03     2.41888E-03
             504             193     1.99662E-03     2.41888E-03
            4267             193     1.99662E-03     2.41888E-03
             503             194     701.378E-06     696.900E-06
             504             194     701.378E-06     696.900E-06
             503             195     522.980E-06     493.299E-06
             502             195     522.980E-06     493.299E-06
             501             196     312.899E-06     343.698E-06
             502             196     312.899E-06     343.698E-06
             501             197     221.105E-06     200.413E-06
             500             197     221.105E-06     200.413E-06
             500             198     176.841E-06     234.172E-06
             499             198     176.841E-06     234.172E-06
             493             199     170.349E-06     228.477E-06
             499             199     170.349E-06     228.477E-06
             493             200     214.143E-06     225.814E-06
             487             200     214.143E-06     225.814E-06
             487             201     361.171E-06     360.971E-06
             481             201     361.171E-06     360.971E-06
             475             202     496.421E-06     488.243E-06
             481             202     496.421E-06     488.243E-06
             475             203     586.042E-06     580.265E-06
             469             203     586.042E-06     580.265E-06
             463             204     643.977E-06     638.938E-06
             469             204     643.977E-06     638.938E-06
            4105             205     21.1885E-03     21.3989E-03
            4106             205     21.1885E-03     21.3989E-03
             505             205     21.1885E-03     21.3989E-03
             506             205     21.1885E-03     21.3989E-03
             507             206     25.0554E-03     24.0075E-03
             506             206     25.0554E-03     24.0075E-03
            4105             206     25.0554E-03     24.0075E-03
            4104             206     25.0554E-03     24.0075E-03
             508             207     25.3960E-03     25.4573E-03
            4103             207     25.3960E-03     25.4573E-03
            4104             207     25.3960E-03     25.4573E-03
             507             207     25.3960E-03     25.4573E-03
             509             208     23.9252E-03     25.4389E-03
            4103             208     23.9252E-03     25.4389E-03
            4102             208     23.9252E-03     25.4389E-03
             508             208     23.9252E-03     25.4389E-03
            4101             209     24.3722E-03     24.7319E-03
             509             209     24.3722E-03     24.7319E-03
             510             209     24.3722E-03     24.7319E-03
            4102             209     24.3722E-03     24.7319E-03
             510             210     24.4013E-03     24.6492E-03
             511             210     24.4013E-03     24.6492E-03
            4100             210     24.4013E-03     24.6492E-03
            4101             210     24.4013E-03     24.6492E-03
             512             211     24.3515E-03     24.1547E-03
            4100             211     24.3515E-03     24.1547E-03
            4099             211     24.3515E-03     24.1547E-03
             511             211     24.3515E-03     24.1547E-03
            4099             212     24.3616E-03     23.7398E-03
             513             212     24.3616E-03     23.7398E-03
             512             212     24.3616E-03     23.7398E-03
            4098             212     24.3616E-03     23.7398E-03
            4097             213     24.2433E-03     23.4910E-03
            4098             213     24.2433E-03     23.4910E-03
             514             213     24.2433E-03     23.4910E-03
             513             213     24.2433E-03     23.4910E-03
            4097             214     23.9881E-03     22.8511E-03
            4096             214     23.9881E-03     22.8511E-03
             514             214     23.9881E-03     22.8511E-03
             515             214     23.9881E-03     22.8511E-03
            4095             215     23.3771E-03     23.2332E-03
             515             215     23.3771E-03     23.2332E-03
             516             215     23.3771E-03     23.2332E-03
            4096             215     23.3771E-03     23.2332E-03
             517             216     21.8447E-03     22.3936E-03
            4094             216     21.8447E-03     22.3936E-03
             516             216     21.8447E-03     22.3936E-03
            4095             216     21.8447E-03     22.3936E-03
            4093             217     21.9986E-03     21.1887E-03
             518             217     21.9986E-03     21.1887E-03
             517             217     21.9986E-03     21.1887E-03
            4094             217     21.9986E-03     21.1887E-03
            4092             218     22.1528E-03     22.2202E-03
            4093             218     22.1528E-03     22.2202E-03
             518             218     22.1528E-03     22.2202E-03
             519             218     22.1528E-03     22.2202E-03
             520             219     21.0235E-03     22.1344E-03
            4092             219     21.0235E-03     22.1344E-03
            4091             219     21.0235E-03     22.1344E-03
             519             219     21.0235E-03     22.1344E-03
            4090             220     21.2442E-03     21.5894E-03
             520             220     21.2442E-03     21.5894E-03
             521             220     21.2442E-03     21.5894E-03
            4091             220     21.2442E-03     21.5894E-03
            4089             221     21.1786E-03     21.4645E-03
             522             221     21.1786E-03     21.4645E-03
            4090             221     21.1786E-03     21.4645E-03
             521             221     21.1786E-03     21.4645E-03
            4089             222     21.0794E-03     21.0766E-03
             523             222     21.0794E-03     21.0766E-03
             522             222     21.0794E-03     21.0766E-03
            4088             222     21.0794E-03     21.0766E-03
             523             223     21.0970E-03     20.6748E-03
            4088             223     21.0970E-03     20.6748E-03
            4087             223     21.0970E-03     20.6748E-03
             524             223     21.0970E-03     20.6748E-03
             524             224     20.9813E-03     20.4122E-03
             525             224     20.9813E-03     20.4122E-03
            4087             224     20.9813E-03     20.4122E-03
            4086             224     20.9813E-03     20.4122E-03
            4085             225     20.8984E-03     20.2109E-03
             525             225     20.8984E-03     20.2109E-03
             526             225     20.8984E-03     20.2109E-03
            4086             225     20.8984E-03     20.2109E-03
            4085             226     20.6612E-03     19.8824E-03
            4084             226     20.6612E-03     19.8824E-03
             526             226     20.6612E-03     19.8824E-03
             527             226     20.6612E-03     19.8824E-03
            4084             227     20.3140E-03     20.0904E-03
             527             227     20.3140E-03     20.0904E-03
             528             227     20.3140E-03     20.0904E-03
            4083             227     20.3140E-03     20.0904E-03
             528             228     19.1610E-03     19.2543E-03
             529             228     19.1610E-03     19.2543E-03
            4083             228     19.1610E-03     19.2543E-03
            4082             228     19.1610E-03     19.2543E-03
             530             229     18.8956E-03     18.3623E-03
             529             229     18.8956E-03     18.3623E-03
            4081             229     18.8956E-03     18.3623E-03
            4082             229     18.8956E-03     18.3623E-03
             531             230     18.9465E-03     18.9302E-03
            4080             230     18.9465E-03     18.9302E-03
             530             230     18.9465E-03     18.9302E-03
            4081             230     18.9465E-03     18.9302E-03
            4080             231     18.3106E-03     18.7980E-03
            4079             231     18.3106E-03     18.7980E-03
             532             231     18.3106E-03     18.7980E-03
             531             231     18.3106E-03     18.7980E-03
            4078             232     18.4193E-03     18.4778E-03
             532             232     18.4193E-03     18.4778E-03
             533             232     18.4193E-03     18.4778E-03
            4079             232     18.4193E-03     18.4778E-03
             534             233     18.3883E-03     18.3974E-03
             533             233     18.3883E-03     18.3974E-03
            4077             233     18.3883E-03     18.3974E-03
            4078             233     18.3883E-03     18.3974E-03
            4076             234     18.3372E-03     18.2047E-03
             534             234     18.3372E-03     18.2047E-03
             535             234     18.3372E-03     18.2047E-03
            4077             234     18.3372E-03     18.2047E-03
             535             235     18.3287E-03     18.0642E-03
            4075             235     18.3287E-03     18.0642E-03
            4076             235     18.3287E-03     18.0642E-03
             536             235     18.3287E-03     18.0642E-03
            4075             236     18.2843E-03     17.9868E-03
             536             236     18.2843E-03     17.9868E-03
            4074             236     18.2843E-03     17.9868E-03
             537             236     18.2843E-03     17.9868E-03
            4074             237     18.2385E-03     17.8938E-03
            4073             237     18.2385E-03     17.8938E-03
             537             237     18.2385E-03     17.8938E-03
             538             237     18.2385E-03     17.8938E-03
            4072             238     18.1025E-03     17.8807E-03
             538             238     18.1025E-03     17.8807E-03
             539             238     18.1025E-03     17.8807E-03
            4073             238     18.1025E-03     17.8807E-03
             539             239     16.9042E-03     16.7697E-03
            4072             239     16.9042E-03     16.7697E-03
            4071             239     16.9042E-03     16.7697E-03
             540             239     16.9042E-03     16.7697E-03
            4070             240     16.0231E-03     15.7371E-03
             540             240     16.0231E-03     15.7371E-03
             541             240     16.0231E-03     15.7371E-03
            4071             240     16.0231E-03     15.7371E-03
             541             241     16.0434E-03     15.9309E-03
             542             241     16.0434E-03     15.9309E-03
            4070             241     16.0434E-03     15.9309E-03
            4069             241     16.0434E-03     15.9309E-03
            4068             242     15.8958E-03     15.8804E-03
            4069             242     15.8958E-03     15.8804E-03
             543             242     15.8958E-03     15.8804E-03
             542             242     15.8958E-03     15.8804E-03
            4068             243     15.8941E-03     15.7883E-03
             544             243     15.8941E-03     15.7883E-03
            4067             243     15.8941E-03     15.7883E-03
             543             243     15.8941E-03     15.7883E-03
            6567             244     8.49708E-03     8.45450E-03
            6573             244     8.49708E-03     8.45450E-03
             544             244     8.49708E-03     8.45450E-03
             584             244     8.49708E-03     8.45450E-03
            6573             245     8.31469E-03     8.27172E-03
             624             245     8.31469E-03     8.27172E-03
            6579             245     8.31469E-03     8.27172E-03
             584             245     8.31469E-03     8.27172E-03
            6579             246     7.72331E-03     7.67156E-03
             664             246     7.72331E-03     7.67156E-03
            6585             246     7.72331E-03     7.67156E-03
             624             246     7.72331E-03     7.67156E-03
             704             247     6.67009E-03     6.63904E-03
             664             247     6.67009E-03     6.63904E-03
            6591             247     6.67009E-03     6.63904E-03
            6585             247     6.67009E-03     6.63904E-03
            6597             248     5.24130E-03     5.30812E-03
             744             248     5.24130E-03     5.30812E-03
            6591             248     5.24130E-03     5.30812E-03
             704             248     5.24130E-03     5.30812E-03
             784             249     3.54909E-03     4.06844E-03
             744             249     3.54909E-03     4.06844E-03
            6603             249     3.54909E-03     4.06844E-03
            6597             249     3.54909E-03     4.06844E-03
             783             250     3.31528E-03     4.37643E-03
             784             250     3.31528E-03     4.37643E-03
             783             251     3.53403E-03     3.89954E-03
             782             251     3.53403E-03     3.89954E-03
             781             252     7.86059E-03     6.50352E-03
             782             252     7.86059E-03     6.50352E-03
             780             253     11.2432E-03     11.6364E-03
             781             253     11.2432E-03     11.6364E-03
             780             254     10.3443E-03     11.5337E-03
             779             254     10.3443E-03     11.5337E-03
             778             255     8.94443E-03     7.88369E-03
             779             255     8.94443E-03     7.88369E-03
             777             256     10.0154E-03     9.25292E-03
             778             256     10.0154E-03     9.25292E-03
             777             257     12.4221E-03     11.9267E-03
             776             257     12.4221E-03     11.9267E-03
             776             258     15.2532E-03     15.0462E-03
             775             258     15.2532E-03     15.0462E-03
             774             259     18.2751E-03     18.0291E-03
             775             259     18.2751E-03     18.0291E-03
             774             260     21.1903E-03     21.2384E-03
             773             260     21.1903E-03     21.2384E-03
             772             261     24.5178E-03     23.9262E-03
             773             261     24.5178E-03     23.9262E-03
             772             262     26.9615E-03     28.2525E-03
             771             262     26.9615E-03     28.2525E-03
             770             263     32.6339E-03     30.7090E-03
             771             263     32.6339E-03     30.7090E-03
             770             264     36.2061E-03     35.6382E-03
             769             264     36.2061E-03     35.6382E-03
             768             265     30.9499E-03     34.2519E-03
             769             265     30.9499E-03     34.2519E-03
             768             266     29.4099E-03     26.8894E-03
             767             266     29.4099E-03     26.8894E-03
             767             267     31.3108E-03     29.3212E-03
             766             267     31.3108E-03     29.3212E-03
             765             268     33.0434E-03     33.0125E-03
             766             268     33.0434E-03     33.0125E-03
             765             269     36.5653E-03     35.8076E-03
             764             269     36.5653E-03     35.8076E-03
             763             270     39.6263E-03     39.2537E-03
             764             270     39.6263E-03     39.2537E-03
             763             271     42.7869E-03     42.4424E-03
             762             271     42.7869E-03     42.4424E-03
             762             272     45.9337E-03     45.8658E-03
             761             272     45.9337E-03     45.8658E-03
             761             273     49.6485E-03     48.5504E-03
             760             273     49.6485E-03     48.5504E-03
             759             274     51.8567E-03     53.8049E-03
             760             274     51.8567E-03     53.8049E-03
             759             275     59.3993E-03     55.9479E-03
             758             275     59.3993E-03     55.9479E-03
             757             276     63.5727E-03     61.9043E-03
             758             276     63.5727E-03     61.9043E-03
             756             277     55.7980E-03     62.1199E-03
             757             277     55.7980E-03     62.1199E-03
             755             278     55.5139E-03     51.8101E-03
             756             278     55.5139E-03     51.8101E-03
             754             279     57.5509E-03     54.1351E-03
             755             279     57.5509E-03     54.1351E-03
             754             280     58.2849E-03     58.7541E-03
             753             280     58.2849E-03     58.7541E-03
             752             281     62.5267E-03     61.3471E-03
             753             281     62.5267E-03     61.3471E-03
             752             282     65.8575E-03     65.3351E-03
             751             282     65.8575E-03     65.3351E-03
             751             283     69.3196E-03     69.1373E-03
             750             283     69.3196E-03     69.1373E-03
             749             284     73.5531E-03     71.8940E-03
             750             284     73.5531E-03     71.8940E-03
             748             285     75.6972E-03     78.2056E-03
             749             285     75.6972E-03     78.2056E-03
             748             286     85.1880E-03     80.1872E-03
             747             286     85.1880E-03     80.1872E-03
             747             287     90.1665E-03     87.3587E-03
             746             287     90.1665E-03     87.3587E-03
             745             288     79.9427E-03     87.1553E-03
             746             288     79.9427E-03     87.1553E-03
            1782             306     418.952E-06     431.992E-06
            1781             306     418.952E-06     431.992E-06
            1783             307     285.756E-06     250.868E-06
            1782             307     285.756E-06     250.868E-06
            1784             308     157.437E-06     241.974E-06
            1783             308     157.437E-06     241.974E-06
            1760             412     624.779E-06     620.138E-06
            1764             412     624.779E-06     620.138E-06
            1764             413     570.462E-06     564.900E-06
            1768             413     570.462E-06     564.900E-06
            1772             414     488.173E-06     481.635E-06
            1768             414     488.173E-06     481.635E-06
            1776             415     373.026E-06     364.016E-06
            1772             415     373.026E-06     364.016E-06
            1776             416     242.788E-06     222.341E-06
            1780             416     242.788E-06     222.341E-06
            1780             417     168.732E-06     207.222E-06
            1784             417     168.732E-06     207.222E-06
            3800             418     3.97138E-03     4.28522E-03
            1777             418     3.97138E-03     4.28522E-03
            3850             418     3.97138E-03     4.28522E-03
            1781             418     3.97138E-03     4.28522E-03
            3800             419     4.94191E-03     5.03016E-03
            1777             419     4.94191E-03     5.03016E-03
            3750             419     4.94191E-03     5.03016E-03
            1773             419     4.94191E-03     5.03016E-03
            3700             420     5.80106E-03     5.83321E-03
            3750             420     5.80106E-03     5.83321E-03
            1769             420     5.80106E-03     5.83321E-03
            1773             420     5.80106E-03     5.83321E-03
            3650             421     6.52908E-03     6.47794E-03
            3700             421     6.52908E-03     6.47794E-03
            1769             421     6.52908E-03     6.47794E-03
            1765             421     6.52908E-03     6.47794E-03
            3650             422     6.84246E-03     6.78700E-03
            1765             422     6.84246E-03     6.78700E-03
            1761             422     6.84246E-03     6.78700E-03
            3600             422     6.84246E-03     6.78700E-03
            3600             423     6.77257E-03     6.73579E-03
            1761             423     6.77257E-03     6.73579E-03
            3550             423     6.77257E-03     6.73579E-03
            1757             423     6.77257E-03     6.73579E-03
            3801             440     88.6708E-03     85.8254E-03
            3802             440     88.6708E-03     85.8254E-03
            3803             441     84.0692E-03     79.2078E-03
            3802             441     84.0692E-03     79.2078E-03
            3804             442     75.2509E-03     77.6044E-03
            3803             442     75.2509E-03     77.6044E-03
            3805             443     73.5484E-03     71.8378E-03
            3804             443     73.5484E-03     71.8378E-03
            3806             444     69.7523E-03     69.6217E-03
            3805             444     69.7523E-03     69.6217E-03
            3807             445     67.0497E-03     65.6601E-03
            3806             445     67.0497E-03     65.6601E-03
            3808             446     63.1053E-03     63.8106E-03
            3807             446     63.1053E-03     63.8106E-03
            3808             447     63.4167E-03     59.6455E-03
            3809             447     63.4167E-03     59.6455E-03
            3809             448     62.1892E-03     58.2341E-03
            3810             448     62.1892E-03     58.2341E-03
            3811             449     61.3248E-03     67.9937E-03
            3810             449     61.3248E-03     67.9937E-03
            3812             450     68.3692E-03     66.3683E-03
            3811             450     68.3692E-03     66.3683E-03
            3813             451     64.4652E-03     60.8201E-03
            3812             451     64.4652E-03     60.8201E-03
            3813             452     57.2730E-03     59.1879E-03
            3814             452     57.2730E-03     59.1879E-03
            3814             453     55.5722E-03     54.2960E-03
            3815             453     55.5722E-03     54.2960E-03
            3816             454     52.2574E-03     52.1315E-03
            3815             454     52.2574E-03     52.1315E-03
            3816             455     49.5879E-03     49.1548E-03
            3817             455     49.5879E-03     49.1548E-03
            3817             456     47.0617E-03     46.0961E-03
            3818             456     47.0617E-03     46.0961E-03
            3819             457     43.8876E-03     44.0949E-03
            3818             457     43.8876E-03     44.0949E-03
            3819             458     43.4711E-03     40.8433E-03
            3820             458     43.4711E-03     40.8433E-03
            3821             459     42.4314E-03     39.3137E-03
            3820             459     42.4314E-03     39.3137E-03
            3821             460     42.3699E-03     46.8197E-03
            3822             460     42.3699E-03     46.8197E-03
            3823             461     47.4644E-03     46.3454E-03
            3822             461     47.4644E-03     46.3454E-03
            3824             462     44.2535E-03     41.7645E-03
            3823             462     44.2535E-03     41.7645E-03
            3825             463     38.6171E-03     40.0654E-03
            3824             463     38.6171E-03     40.0654E-03
            3825             464     36.8666E-03     36.0237E-03
            3826             464     36.8666E-03     36.0237E-03
            3827             465     33.9902E-03     33.9532E-03
            3826             465     33.9902E-03     33.9532E-03
            3828             466     31.6011E-03     31.2822E-03
            3827             466     31.6011E-03     31.2822E-03
            3829             467     29.2601E-03     28.6754E-03
            3828             467     29.2601E-03     28.6754E-03
            3829             468     26.6803E-03     26.5514E-03
            3830             468     26.6803E-03     26.5514E-03
            3830             469     25.6326E-03     24.0071E-03
            3831             469     25.6326E-03     24.0071E-03
            3832             470     24.6958E-03     22.4720E-03
            3831             470     24.6958E-03     22.4720E-03
            3833             471     25.4269E-03     27.9099E-03
            3832             471     25.4269E-03     27.9099E-03
            3834             472     28.8280E-03     28.4784E-03
            3833             472     28.8280E-03     28.4784E-03
            3834             473     26.2341E-03     24.7701E-03
            3835             473     26.2341E-03     24.7701E-03
            3836             474     22.0155E-03     23.0294E-03
            3835             474     22.0155E-03     23.0294E-03
            3836             475     20.2383E-03     19.7939E-03
            3837             475     20.2383E-03     19.7939E-03
            3837             476     17.8017E-03     17.8489E-03
            3838             476     17.8017E-03     17.8489E-03
            3838             477     15.7207E-03     15.5145E-03
            3839             477     15.7207E-03     15.5145E-03
            3839             478     13.6370E-03     13.4051E-03
            3840             478     13.6370E-03     13.4051E-03
            3841             479     11.7665E-03     11.3390E-03
            3840             479     11.7665E-03     11.3390E-03
            3842             480     10.5890E-03     9.75247E-03
            3841             480     10.5890E-03     9.75247E-03
            3843             481     10.3241E-03     9.16286E-03
            3842             481     10.3241E-03     9.16286E-03
            3844             482     11.0650E-03     12.0350E-03
            3843             482     11.0650E-03     12.0350E-03
            3845             483     11.7519E-03     12.0308E-03
            3844             483     11.7519E-03     12.0308E-03
            3846             484     9.55932E-03     8.77662E-03
            3845             484     9.55932E-03     8.77662E-03
            3846             485     6.53816E-03     7.08473E-03
            3847             485     6.53816E-03     7.08473E-03
            3848             486     5.22222E-03     4.83069E-03
            3847             486     5.22222E-03     4.83069E-03
            3849             487     4.83922E-03     4.24435E-03
            3848             487     4.83922E-03     4.24435E-03
            3850             488     5.63268E-03     5.92526E-03
            3849             488     5.63268E-03     5.92526E-03
            2354             514     36.8793E-03     35.6271E-03
            3501             514     36.8793E-03     35.6271E-03
            2348             514     36.8793E-03     35.6271E-03
            3551             514     36.8793E-03     35.6271E-03
            3601             515     46.2682E-03     46.8762E-03
            3551             515     46.2682E-03     46.8762E-03
            2354             515     46.2682E-03     46.8762E-03
            2360             515     46.2682E-03     46.8762E-03
            2366             516     60.0111E-03     63.7303E-03
            3601             516     60.0111E-03     63.7303E-03
            2360             516     60.0111E-03     63.7303E-03
            3651             516     60.0111E-03     63.7303E-03
            3701             517     73.1474E-03     81.1860E-03
            3651             517     73.1474E-03     81.1860E-03
            2366             517     73.1474E-03     81.1860E-03
            2372             517     73.1474E-03     81.1860E-03
            2372             518     83.7060E-03     95.1207E-03
            3701             518     83.7060E-03     95.1207E-03
            3751             518     83.7060E-03     95.1207E-03
            2378             518     83.7060E-03     95.1207E-03
            3751             519     93.8124E-03     103.357E-03
            2378             519     93.8124E-03     103.357E-03
            2384             519     93.8124E-03     103.357E-03
            3801             519     93.8124E-03     103.357E-03
            2384             520     137.221E-03     145.281E-03
            2383             520     137.221E-03     145.281E-03
            2383             521     173.494E-03     179.159E-03
            2382             521     173.494E-03     179.159E-03
            2381             522     189.190E-03     192.076E-03
            2382             522     189.190E-03     192.076E-03
            2380             523     208.451E-03     204.848E-03
            2381             523     208.451E-03     204.848E-03
            2380             524     221.670E-03     215.455E-03
            2379             524     221.670E-03     215.455E-03
            2379             525     154.987E-03     172.115E-03
            5324             525     154.987E-03     172.115E-03
            2373             525     154.987E-03     172.115E-03
            5318             525     154.987E-03     172.115E-03
            5312             526     132.820E-03     159.184E-03
            2367             526     132.820E-03     159.184E-03
            2373             526     132.820E-03     159.184E-03
            5318             526     132.820E-03     159.184E-03
            5306             527     114.978E-03     139.594E-03
            5312             527     114.978E-03     139.594E-03
            2361             527     114.978E-03     139.594E-03
            2367             527     114.978E-03     139.594E-03
            2361             528     98.8147E-03     117.340E-03
            5306             528     98.8147E-03     117.340E-03
            5300             528     98.8147E-03     117.340E-03
            2355             528     98.8147E-03     117.340E-03
            2349             529     80.3742E-03     95.6837E-03
            5294             529     80.3742E-03     95.6837E-03
            2355             529     80.3742E-03     95.6837E-03
            5300             529     80.3742E-03     95.6837E-03
            5288             530     60.2830E-03     71.8421E-03
            2349             530     60.2830E-03     71.8421E-03
            2343             530     60.2830E-03     71.8421E-03
            5294             530     60.2830E-03     71.8421E-03
            5320             625     92.4889E-03     89.9090E-03
            5319             625     92.4889E-03     89.9090E-03
            5321             626     100.437E-03     93.3948E-03
            5320             626     100.437E-03     93.3948E-03
            5321             627     100.504E-03     106.106E-03
            5322             627     100.504E-03     106.106E-03
            5323             628     116.077E-03     107.651E-03
            5322             628     116.077E-03     107.651E-03
            5324             629     123.606E-03     118.675E-03
            5323             629     123.606E-03     118.675E-03
            5283             630     31.0423E-03     33.3326E-03
            5289             630     31.0423E-03     33.3326E-03
            4106             630     31.0423E-03     33.3326E-03
            4146             630     31.0423E-03     33.3326E-03
            4186             631     45.1372E-03     48.6374E-03
            4146             631     45.1372E-03     48.6374E-03
            5289             631     45.1372E-03     48.6374E-03
            5295             631     45.1372E-03     48.6374E-03
            4186             632     58.4158E-03     63.4814E-03
            5295             632     58.4158E-03     63.4814E-03
            4226             632     58.4158E-03     63.4814E-03
            5301             632     58.4158E-03     63.4814E-03
            4226             633     69.6087E-03     77.6299E-03
            5307             633     69.6087E-03     77.6299E-03
            5301             633     69.6087E-03     77.6299E-03
            4266             633     69.6087E-03     77.6299E-03
            5313             634     77.4606E-03     88.3992E-03
            4266             634     77.4606E-03     88.3992E-03
            4306             634     77.4606E-03     88.3992E-03
            5307             634     77.4606E-03     88.3992E-03
            5319             635     82.4652E-03     91.4206E-03
            4306             635     82.4652E-03     91.4206E-03
            5313             635     82.4652E-03     91.4206E-03
            4346             635     82.4652E-03     91.4206E-03
            4346             636     92.1471E-03     99.7614E-03
            4345             636     92.1471E-03     99.7614E-03
            4345             637     104.094E-03     100.339E-03
            4344             637     104.094E-03     100.339E-03
            4344             638     98.2673E-03     92.5802E-03
            4343             638     98.2673E-03     92.5802E-03
            4342             639     87.5310E-03     90.3544E-03
            4343             639     87.5310E-03     90.3544E-03
            4341             640     85.3750E-03     83.4359E-03
            4342             640     85.3750E-03     83.4359E-03
            4341             641     80.7057E-03     80.5568E-03
            4340             641     80.7057E-03     80.5568E-03
            4339             642     76.8702E-03     76.4216E-03
            4340             642     76.8702E-03     76.4216E-03
            4338             643     73.0851E-03     71.9389E-03
            4339             643     73.0851E-03     71.9389E-03
            4337             644     68.0889E-03     69.0236E-03
            4338             644     68.0889E-03     69.0236E-03
            4336             645     66.6111E-03     63.0662E-03
            4337             645     66.6111E-03     63.0662E-03
            4335             646     62.7619E-03     59.6055E-03
            4336             646     62.7619E-03     59.6055E-03
            4335             647     63.5138E-03     71.1993E-03
            4334             647     63.5138E-03     71.1993E-03
            4333             648     73.8104E-03     71.3215E-03
            4334             648     73.8104E-03     71.3215E-03
            4332             649     68.7962E-03     64.8434E-03
            4333             649     68.7962E-03     64.8434E-03
            4332             650     60.2016E-03     62.3560E-03
            4331             650     60.2016E-03     62.3560E-03
            4330             651     57.9299E-03     56.5812E-03
            4331             651     57.9299E-03     56.5812E-03
            4329             652     53.8255E-03     53.7660E-03
            4330             652     53.8255E-03     53.7660E-03
            4328             653     50.3758E-03     50.0472E-03
            4329             653     50.3758E-03     50.0472E-03
            4328             654     46.8553E-03     46.5703E-03
            4327             654     46.8553E-03     46.5703E-03
            4326             655     43.3358E-03     42.6755E-03
            4327             655     43.3358E-03     42.6755E-03
            4326             656     39.0911E-03     39.4610E-03
            4325             656     39.0911E-03     39.4610E-03
            4324             657     36.3258E-03     34.4907E-03
            4325             657     36.3258E-03     34.4907E-03
            4324             658     32.3844E-03     30.5951E-03
            4323             658     32.3844E-03     30.5951E-03
            4323             659     34.7571E-03     38.9147E-03
            4322             659     34.7571E-03     38.9147E-03
            4321             660     42.4623E-03     41.2484E-03
            4322             660     42.4623E-03     41.2484E-03
            4320             661     38.1527E-03     35.9790E-03
            4321             661     38.1527E-03     35.9790E-03
            4320             662     31.7081E-03     33.1056E-03
            4319             662     31.7081E-03     33.1056E-03
            4319             663     29.1909E-03     28.4015E-03
            4318             663     29.1909E-03     28.4015E-03
            4318             664     25.5191E-03     25.5648E-03
            4317             664     25.5191E-03     25.5648E-03
            4317             665     22.3197E-03     22.1223E-03
            4316             665     22.3197E-03     22.1223E-03
            4316             666     18.9373E-03     18.8289E-03
            4315             666     18.9373E-03     18.8289E-03
            4315             667     15.4447E-03     15.3383E-03
            4314             667     15.4447E-03     15.3383E-03
            4314             668     11.4195E-03     11.4254E-03
            4313             668     11.4195E-03     11.4254E-03
            4313             669     7.13813E-03     6.76835E-03
            4312             669     7.13813E-03     6.76835E-03
            4312             670     9.88012E-03     11.0372E-03
            4311             670     9.88012E-03     11.0372E-03
            4310             671     14.4994E-03     14.5105E-03
            4311             671     14.4994E-03     14.5105E-03
            4309             672     10.9569E-03     10.1883E-03
            4310             672     10.9569E-03     10.1883E-03
            4308             673     6.93635E-03     7.71050E-03
            4309             673     6.93635E-03     7.71050E-03
            4308             674     5.62727E-03     6.33244E-03
            4307             674     5.62727E-03     6.33244E-03
            6604             765     701.378E-06     696.900E-06
            6603             765     701.378E-06     696.900E-06
            6605             766     522.980E-06     493.299E-06
            6604             766     522.980E-06     493.299E-06
            6606             767     312.899E-06     343.698E-06
            6605             767     312.899E-06     343.698E-06
            6607             768     221.105E-06     200.413E-06
            6606             768     221.105E-06     200.413E-06
            6608             769     176.841E-06     234.172E-06
            6607             769     176.841E-06     234.172E-06
            6578             825     643.977E-06     638.938E-06
            6572             825     643.977E-06     638.938E-06
            6584             826     586.042E-06     580.265E-06
            6578             826     586.042E-06     580.265E-06
            6584             827     496.421E-06     488.243E-06
            6590             827     496.421E-06     488.243E-06
            6596             828     361.171E-06     360.971E-06
            6590             828     361.171E-06     360.971E-06
            6596             829     214.143E-06     225.814E-06
            6602             829     214.143E-06     225.814E-06
            6608             830     170.349E-06     228.477E-06
            6602             830     170.349E-06     228.477E-06
               2             831     628.174E-06     624.082E-06
               5             831     628.174E-06     624.082E-06
               6             831     628.174E-06     624.082E-06
               1             831     628.174E-06     624.082E-06
               3             832     636.364E-06     627.315E-06
               6             832     636.364E-06     627.315E-06
               7             832     636.364E-06     627.315E-06
               2             832     636.364E-06     627.315E-06
               8             833     632.547E-06     621.633E-06
               3             833     632.547E-06     621.633E-06
               7             833     632.547E-06     621.633E-06
               4             833     632.547E-06     621.633E-06
               5             834     575.512E-06     572.367E-06
              10             834     575.512E-06     572.367E-06
               6             834     575.512E-06     572.367E-06
               9             834     575.512E-06     572.367E-06
              10             835     587.965E-06     577.850E-06
               6             835     587.965E-06     577.850E-06
               7             835     587.965E-06     577.850E-06
              11             835     587.965E-06     577.850E-06
               8             836     583.486E-06     576.813E-06
              11             836     583.486E-06     576.813E-06
               7             836     583.486E-06     576.813E-06
              12             836     583.486E-06     576.813E-06
               9             837     491.464E-06     490.046E-06
              13             837     491.464E-06     490.046E-06
              10             837     491.464E-06     490.046E-06
              14             837     491.464E-06     490.046E-06
              11             838     510.541E-06     496.016E-06
              14             838     510.541E-06     496.016E-06
              10             838     510.541E-06     496.016E-06
              15             838     510.541E-06     496.016E-06
              16             839     510.864E-06     507.907E-06
              15             839     510.864E-06     507.907E-06
              12             839     510.864E-06     507.907E-06
              11             839     510.864E-06     507.907E-06
              13             840     377.804E-06     385.431E-06
              17             840     377.804E-06     385.431E-06
              14             840     377.804E-06     385.431E-06
              18             840     377.804E-06     385.431E-06
              15             841     410.253E-06     396.137E-06
              18             841     410.253E-06     396.137E-06
              14             841     410.253E-06     396.137E-06
              19             841     410.253E-06     396.137E-06
              19             842     415.038E-06     418.698E-06
              20             842     415.038E-06     418.698E-06
              15             842     415.038E-06     418.698E-06
              16             842     415.038E-06     418.698E-06
              17             843     241.323E-06     259.563E-06
              21             843     241.323E-06     259.563E-06
              18             843     241.323E-06     259.563E-06
              22             843     241.323E-06     259.563E-06
              19             844     302.739E-06     275.460E-06
              22             844     302.739E-06     275.460E-06
              18             844     302.739E-06     275.460E-06
              23             844     302.739E-06     275.460E-06
              23             845     316.487E-06     324.635E-06
              24             845     316.487E-06     324.635E-06
              19             845     316.487E-06     324.635E-06
              20             845     316.487E-06     324.635E-06
              25             846     163.797E-06     216.392E-06
              21             846     163.797E-06     216.392E-06
              22             846     163.797E-06     216.392E-06
              26             846     163.797E-06     216.392E-06
              27             847     267.231E-06     227.605E-06
              22             847     267.231E-06     227.605E-06
              26             847     267.231E-06     227.605E-06
              23             847     267.231E-06     227.605E-06
              23             848     346.807E-06     356.476E-06
              27             848     346.807E-06     356.476E-06
              28             848     346.807E-06     356.476E-06
              24             848     346.807E-06     356.476E-06
              30             849     10.5515E-03     10.5181E-03
              80             849     10.5515E-03     10.5181E-03
              79             849     10.5515E-03     10.5181E-03
              29             849     10.5515E-03     10.5181E-03
              30             850     10.6644E-03     10.5888E-03
              81             850     10.6644E-03     10.5888E-03
              80             850     10.6644E-03     10.5888E-03
              31             850     10.6644E-03     10.5888E-03
              32             851     10.8122E-03     10.7261E-03
              81             851     10.8122E-03     10.7261E-03
              82             851     10.8122E-03     10.7261E-03
              31             851     10.8122E-03     10.7261E-03
              83             852     10.9614E-03     11.1359E-03
              82             852     10.9614E-03     11.1359E-03
              33             852     10.9614E-03     11.1359E-03
              32             852     10.9614E-03     11.1359E-03
              33             853     11.6551E-03     11.3518E-03
              34             853     11.6551E-03     11.3518E-03
              84             853     11.6551E-03     11.3518E-03
              83             853     11.6551E-03     11.3518E-03
              34             854     11.7674E-03     11.6535E-03
              35             854     11.7674E-03     11.6535E-03
              85             854     11.7674E-03     11.6535E-03
              84             854     11.7674E-03     11.6535E-03
              35             855     12.0416E-03     12.3562E-03
              86             855     12.0416E-03     12.3562E-03
              36             855     12.0416E-03     12.3562E-03
              85             855     12.0416E-03     12.3562E-03
              36             856     13.0827E-03     12.8321E-03
              87             856     13.0827E-03     12.8321E-03
              37             856     13.0827E-03     12.8321E-03
              86             856     13.0827E-03     12.8321E-03
              37             857     13.5414E-03     13.3451E-03
              88             857     13.5414E-03     13.3451E-03
              38             857     13.5414E-03     13.3451E-03
              87             857     13.5414E-03     13.3451E-03
              38             858     14.0872E-03     13.9580E-03
              88             858     14.0872E-03     13.9580E-03
              39             858     14.0872E-03     13.9580E-03
              89             858     14.0872E-03     13.9580E-03
              90             859     14.7158E-03     14.5777E-03
              39             859     14.7158E-03     14.5777E-03
              89             859     14.7158E-03     14.5777E-03
              40             859     14.7158E-03     14.5777E-03
              90             860     15.3138E-03     15.3723E-03
              41             860     15.3138E-03     15.3723E-03
              40             860     15.3138E-03     15.3723E-03
              91             860     15.3138E-03     15.3723E-03
              92             861     16.0914E-03     16.1064E-03
              41             861     16.0914E-03     16.1064E-03
              91             861     16.0914E-03     16.1064E-03
              42             861     16.0914E-03     16.1064E-03
              42             862     16.7741E-03     16.7225E-03
              93             862     16.7741E-03     16.7225E-03
              92             862     16.7741E-03     16.7225E-03
              43             862     16.7741E-03     16.7225E-03
              43             863     17.0682E-03     17.9504E-03
              44             863     17.0682E-03     17.9504E-03
              94             863     17.0682E-03     17.9504E-03
              93             863     17.0682E-03     17.9504E-03
              95             864     18.9245E-03     18.0811E-03
              94             864     18.9245E-03     18.0811E-03
              44             864     18.9245E-03     18.0811E-03
              45             864     18.9245E-03     18.0811E-03
              96             865     18.7825E-03     18.3003E-03
              46             865     18.7825E-03     18.3003E-03
              45             865     18.7825E-03     18.3003E-03
              95             865     18.7825E-03     18.3003E-03
              47             866     17.3065E-03     18.8134E-03
              46             866     17.3065E-03     18.8134E-03
              97             866     17.3065E-03     18.8134E-03
              96             866     17.3065E-03     18.8134E-03
              97             867     18.9840E-03     18.3769E-03
              47             867     18.9840E-03     18.3769E-03
              98             867     18.9840E-03     18.3769E-03
              48             867     18.9840E-03     18.3769E-03
              48             868     20.1572E-03     19.5156E-03
              98             868     20.1572E-03     19.5156E-03
              99             868     20.1572E-03     19.5156E-03
              49             868     20.1572E-03     19.5156E-03
              50             869     20.7316E-03     20.8762E-03
             100             869     20.7316E-03     20.8762E-03
              99             869     20.7316E-03     20.8762E-03
              49             869     20.7316E-03     20.8762E-03
             100             870     21.8850E-03     21.6616E-03
              50             870     21.8850E-03     21.6616E-03
             101             870     21.8850E-03     21.6616E-03
              51             870     21.8850E-03     21.6616E-03
             101             871     22.7363E-03     22.8906E-03
             102             871     22.7363E-03     22.8906E-03
              51             871     22.7363E-03     22.8906E-03
              52             871     22.7363E-03     22.8906E-03
              52             872     23.7625E-03     23.8799E-03
             102             872     23.7625E-03     23.8799E-03
             103             872     23.7625E-03     23.8799E-03
              53             872     23.7625E-03     23.8799E-03
             104             873     24.6076E-03     24.5393E-03
              53             873     24.6076E-03     24.5393E-03
              54             873     24.6076E-03     24.5393E-03
             103             873     24.6076E-03     24.5393E-03
              55             874     24.7054E-03     26.2258E-03
             105             874     24.7054E-03     26.2258E-03
             104             874     24.7054E-03     26.2258E-03
              54             874     24.7054E-03     26.2258E-03
              56             875     27.3636E-03     25.9922E-03
             105             875     27.3636E-03     25.9922E-03
              55             875     27.3636E-03     25.9922E-03
             106             875     27.3636E-03     25.9922E-03
              57             876     26.7471E-03     25.8934E-03
             107             876     26.7471E-03     25.8934E-03
             106             876     26.7471E-03     25.8934E-03
              56             876     26.7471E-03     25.8934E-03
             107             877     23.7890E-03     26.6902E-03
             108             877     23.7890E-03     26.6902E-03
              57             877     23.7890E-03     26.6902E-03
              58             877     23.7890E-03     26.6902E-03
              59             878     26.6784E-03     25.7044E-03
             109             878     26.6784E-03     25.7044E-03
             108             878     26.6784E-03     25.7044E-03
              58             878     26.6784E-03     25.7044E-03
              60             879     28.5542E-03     27.3318E-03
              59             879     28.5542E-03     27.3318E-03
             110             879     28.5542E-03     27.3318E-03
             109             879     28.5542E-03     27.3318E-03
             111             880     28.8300E-03     29.3787E-03
             110             880     28.8300E-03     29.3787E-03
              60             880     28.8300E-03     29.3787E-03
              61             880     28.8300E-03     29.3787E-03
              61             881     30.4267E-03     30.1213E-03
             112             881     30.4267E-03     30.1213E-03
             111             881     30.4267E-03     30.1213E-03
              62             881     30.4267E-03     30.1213E-03
              62             882     31.4187E-03     31.6740E-03
             112             882     31.4187E-03     31.6740E-03
             113             882     31.4187E-03     31.6740E-03
              63             882     31.4187E-03     31.6740E-03
              63             883     32.5752E-03     32.8075E-03
             113             883     32.5752E-03     32.8075E-03
              64             883     32.5752E-03     32.8075E-03
             114             883     32.5752E-03     32.8075E-03
              64             884     33.4949E-03     33.4005E-03
              65             884     33.4949E-03     33.4005E-03
             114             884     33.4949E-03     33.4005E-03
             115             884     33.4949E-03     33.4005E-03
              66             885     33.3086E-03     35.4605E-03
             116             885     33.3086E-03     35.4605E-03
             115             885     33.3086E-03     35.4605E-03
              65             885     33.3086E-03     35.4605E-03
             117             886     36.6998E-03     34.7694E-03
              66             886     36.6998E-03     34.7694E-03
              67             886     36.6998E-03     34.7694E-03
             116             886     36.6998E-03     34.7694E-03
              67             887     35.5290E-03     34.2784E-03
             117             887     35.5290E-03     34.2784E-03
             118             887     35.5290E-03     34.2784E-03
              68             887     35.5290E-03     34.2784E-03
             118             888     31.1583E-03     35.5596E-03
              68             888     31.1583E-03     35.5596E-03
              69             888     31.1583E-03     35.5596E-03
             119             888     31.1583E-03     35.5596E-03
             119             889     35.4653E-03     34.2315E-03
             120             889     35.4653E-03     34.2315E-03
              69             889     35.4653E-03     34.2315E-03
              70             889     35.4653E-03     34.2315E-03
             120             890     38.0713E-03     36.3378E-03
              70             890     38.0713E-03     36.3378E-03
             121             890     38.0713E-03     36.3378E-03
              71             890     38.0713E-03     36.3378E-03
              72             891     37.8867E-03     38.9909E-03
              71             891     37.8867E-03     38.9909E-03
             121             891     37.8867E-03     38.9909E-03
             122             891     37.8867E-03     38.9909E-03
             123             892     39.6677E-03     39.8288E-03
              73             892     39.6677E-03     39.8288E-03
              72             892     39.6677E-03     39.8288E-03
             122             892     39.6677E-03     39.8288E-03
              74             893     41.1136E-03     41.3447E-03
             123             893     41.1136E-03     41.3447E-03
              73             893     41.1136E-03     41.3447E-03
             124             893     41.1136E-03     41.3447E-03
              75             894     41.9233E-03     42.0747E-03
             125             894     41.9233E-03     42.0747E-03
             124             894     41.9233E-03     42.0747E-03
              74             894     41.9233E-03     42.0747E-03
              75             895     41.5746E-03     44.3252E-03
             126             895     41.5746E-03     44.3252E-03
             125             895     41.5746E-03     44.3252E-03
              76             895     41.5746E-03     44.3252E-03
             127             896     45.5920E-03     43.2145E-03
              76             896     45.5920E-03     43.2145E-03
             126             896     45.5920E-03     43.2145E-03
              77             896     45.5920E-03     43.2145E-03
              78             897     43.8660E-03     42.3105E-03
             127             897     43.8660E-03     42.3105E-03
             128             897     43.8660E-03     42.3105E-03
              77             897     43.8660E-03     42.3105E-03
              79             898     8.44724E-03     8.46938E-03
              80             898     8.44724E-03     8.46938E-03
             130             898     8.44724E-03     8.46938E-03
             129             898     8.44724E-03     8.46938E-03
              81             899     8.67172E-03     8.62156E-03
              80             899     8.67172E-03     8.62156E-03
             130             899     8.67172E-03     8.62156E-03
             131             899     8.67172E-03     8.62156E-03
              82             900     9.04713E-03     8.94231E-03
             131             900     9.04713E-03     8.94231E-03
             132             900     9.04713E-03     8.94231E-03
              81             900     9.04713E-03     8.94231E-03
              83             901     9.47242E-03     9.81440E-03
             132             901     9.47242E-03     9.81440E-03
             133             901     9.47242E-03     9.81440E-03
              82             901     9.47242E-03     9.81440E-03
             134             902     10.7589E-03     10.2284E-03
              83             902     10.7589E-03     10.2284E-03
             133             902     10.7589E-03     10.2284E-03
              84             902     10.7589E-03     10.2284E-03
              84             903     10.9739E-03     10.9357E-03
             134             903     10.9739E-03     10.9357E-03
              85             903     10.9739E-03     10.9357E-03
             135             903     10.9739E-03     10.9357E-03
             135             904     10.8013E-03     11.5240E-03
             136             904     10.8013E-03     11.5240E-03
              85             904     10.8013E-03     11.5240E-03
              86             904     10.8013E-03     11.5240E-03
              86             905     11.9891E-03     11.6774E-03
             137             905     11.9891E-03     11.6774E-03
             136             905     11.9891E-03     11.6774E-03
              87             905     11.9891E-03     11.6774E-03
             138             906     12.8637E-03     12.8514E-03
              88             906     12.8637E-03     12.8514E-03
             137             906     12.8637E-03     12.8514E-03
              87             906     12.8637E-03     12.8514E-03
              89             907     13.8659E-03     14.0188E-03
             139             907     13.8659E-03     14.0188E-03
              88             907     13.8659E-03     14.0188E-03
             138             907     13.8659E-03     14.0188E-03
             139             908     15.1137E-03     15.1095E-03
             140             908     15.1137E-03     15.1095E-03
              90             908     15.1137E-03     15.1095E-03
              89             908     15.1137E-03     15.1095E-03
             141             909     16.2352E-03     16.4175E-03
              90             909     16.2352E-03     16.4175E-03
             140             909     16.2352E-03     16.4175E-03
              91             909     16.2352E-03     16.4175E-03
              91             910     17.6520E-03     17.5669E-03
             142             910     17.6520E-03     17.5669E-03
             141             910     17.6520E-03     17.5669E-03
              92             910     17.6520E-03     17.5669E-03
              93             911     18.9049E-03     18.6118E-03
             143             911     18.9049E-03     18.6118E-03
              92             911     18.9049E-03     18.6118E-03
             142             911     18.9049E-03     18.6118E-03
             144             912     19.5891E-03     20.7015E-03
              93             912     19.5891E-03     20.7015E-03
              94             912     19.5891E-03     20.7015E-03
             143             912     19.5891E-03     20.7015E-03
             144             913     22.5190E-03     20.9035E-03
             145             913     22.5190E-03     20.9035E-03
              94             913     22.5190E-03     20.9035E-03
              95             913     22.5190E-03     20.9035E-03
              96             914     22.2126E-03     21.6135E-03
              95             914     22.2126E-03     21.6135E-03
             145             914     22.2126E-03     21.6135E-03
             146             914     22.2126E-03     21.6135E-03
             146             915     19.4366E-03     22.1581E-03
             147             915     19.4366E-03     22.1581E-03
              97             915     19.4366E-03     22.1581E-03
              96             915     19.4366E-03     22.1581E-03
              98             916     21.8601E-03     20.9719E-03
             148             916     21.8601E-03     20.9719E-03
             147             916     21.8601E-03     20.9719E-03
              97             916     21.8601E-03     20.9719E-03
              98             917     23.7999E-03     23.1246E-03
              99             917     23.7999E-03     23.1246E-03
             149             917     23.7999E-03     23.1246E-03
             148             917     23.7999E-03     23.1246E-03
              99             918     24.5375E-03     25.3043E-03
             150             918     24.5375E-03     25.3043E-03
             100             918     24.5375E-03     25.3043E-03
             149             918     24.5375E-03     25.3043E-03
             101             919     26.5074E-03     26.3598E-03
             100             919     26.5074E-03     26.3598E-03
             151             919     26.5074E-03     26.3598E-03
             150             919     26.5074E-03     26.3598E-03
             151             920     27.9120E-03     28.1298E-03
             152             920     27.9120E-03     28.1298E-03
             102             920     27.9120E-03     28.1298E-03
             101             920     27.9120E-03     28.1298E-03
             153             921     29.6290E-03     29.5279E-03
             102             921     29.6290E-03     29.5279E-03
             103             921     29.6290E-03     29.5279E-03
             152             921     29.6290E-03     29.5279E-03
             153             922     31.1192E-03     30.6230E-03
             154             922     31.1192E-03     30.6230E-03
             103             922     31.1192E-03     30.6230E-03
             104             922     31.1192E-03     30.6230E-03
             105             923     31.5516E-03     33.4258E-03
             155             923     31.5516E-03     33.4258E-03
             104             923     31.5516E-03     33.4258E-03
             154             923     31.5516E-03     33.4258E-03
             155             924     35.5988E-03     33.0704E-03
             106             924     35.5988E-03     33.0704E-03
             105             924     35.5988E-03     33.0704E-03
             156             924     35.5988E-03     33.0704E-03
             106             925     34.5486E-03     33.4134E-03
             157             925     34.5486E-03     33.4134E-03
             107             925     34.5486E-03     33.4134E-03
             156             925     34.5486E-03     33.4134E-03
             107             926     29.6336E-03     34.4965E-03
             108             926     29.6336E-03     34.4965E-03
             157             926     29.6336E-03     34.4965E-03
             158             926     29.6336E-03     34.4965E-03
             159             927     33.9352E-03     32.5033E-03
             158             927     33.9352E-03     32.5033E-03
             108             927     33.9352E-03     32.5033E-03
             109             927     33.9352E-03     32.5033E-03
             110             928     36.8682E-03     35.3727E-03
             160             928     36.8682E-03     35.3727E-03
             109             928     36.8682E-03     35.3727E-03
             159             928     36.8682E-03     35.3727E-03
             111             929     36.9833E-03     38.4533E-03
             160             929     36.9833E-03     38.4533E-03
             161             929     36.9833E-03     38.4533E-03
             110             929     36.9833E-03     38.4533E-03
             162             930     39.5532E-03     39.2445E-03
             111             930     39.5532E-03     39.2445E-03
             161             930     39.5532E-03     39.2445E-03
             112             930     39.5532E-03     39.2445E-03
             163             931     41.1105E-03     41.3572E-03
             112             931     41.1105E-03     41.3572E-03
             162             931     41.1105E-03     41.3572E-03
             113             931     41.1105E-03     41.3572E-03
             114             932     43.0055E-03     42.8994E-03
             113             932     43.0055E-03     42.8994E-03
             163             932     43.0055E-03     42.8994E-03
             164             932     43.0055E-03     42.8994E-03
             114             933     44.6476E-03     43.9451E-03
             115             933     44.6476E-03     43.9451E-03
             165             933     44.6476E-03     43.9451E-03
             164             933     44.6476E-03     43.9451E-03
             116             934     44.7397E-03     47.4001E-03
             165             934     44.7397E-03     47.4001E-03
             115             934     44.7397E-03     47.4001E-03
             166             934     44.7397E-03     47.4001E-03
             167             935     49.8772E-03     46.3939E-03
             116             935     49.8772E-03     46.3939E-03
             166             935     49.8772E-03     46.3939E-03
             117             935     49.8772E-03     46.3939E-03
             167             936     47.9972E-03     46.2895E-03
             118             936     47.9972E-03     46.2895E-03
             117             936     47.9972E-03     46.2895E-03
             168             936     47.9972E-03     46.2895E-03
             118             937     40.9563E-03     48.0702E-03
             119             937     40.9563E-03     48.0702E-03
             169             937     40.9563E-03     48.0702E-03
             168             937     40.9563E-03     48.0702E-03
             170             938     47.3472E-03     45.4044E-03
             120             938     47.3472E-03     45.4044E-03
             119             938     47.3472E-03     45.4044E-03
             169             938     47.3472E-03     45.4044E-03
             121             939     51.3730E-03     49.0176E-03
             170             939     51.3730E-03     49.0176E-03
             171             939     51.3730E-03     49.0176E-03
             120             939     51.3730E-03     49.0176E-03
             171             940     50.7900E-03     52.9397E-03
             172             940     50.7900E-03     52.9397E-03
             122             940     50.7900E-03     52.9397E-03
             121             940     50.7900E-03     52.9397E-03
             123             941     53.6601E-03     53.7586E-03
             172             941     53.6601E-03     53.7586E-03
             173             941     53.6601E-03     53.7586E-03
             122             941     53.6601E-03     53.7586E-03
             124             942     56.0163E-03     55.7864E-03
             173             942     56.0163E-03     55.7864E-03
             174             942     56.0163E-03     55.7864E-03
             123             942     56.0163E-03     55.7864E-03
             174             943     57.4210E-03     57.0039E-03
             125             943     57.4210E-03     57.0039E-03
             175             943     57.4210E-03     57.0039E-03
             124             943     57.4210E-03     57.0039E-03
             125             944     57.3498E-03     60.7905E-03
             176             944     57.3498E-03     60.7905E-03
             126             944     57.3498E-03     60.7905E-03
             175             944     57.3498E-03     60.7905E-03
             176             945     63.4209E-03     59.1565E-03
             126             945     63.4209E-03     59.1565E-03
             127             945     63.4209E-03     59.1565E-03
             177             945     63.4209E-03     59.1565E-03
             127             946     60.6971E-03     58.5174E-03
             128             946     60.6971E-03     58.5174E-03
             177             946     60.6971E-03     58.5174E-03
             178             946     60.6971E-03     58.5174E-03
             129             947     5.87831E-03     6.03853E-03
             180             947     5.87831E-03     6.03853E-03
             130             947     5.87831E-03     6.03853E-03
             179             947     5.87831E-03     6.03853E-03
             131             948     6.30070E-03     6.39349E-03
             181             948     6.30070E-03     6.39349E-03
             130             948     6.30070E-03     6.39349E-03
             180             948     6.30070E-03     6.39349E-03
             132             949     7.10057E-03     7.05181E-03
             182             949     7.10057E-03     7.05181E-03
             131             949     7.10057E-03     7.05181E-03
             181             949     7.10057E-03     7.05181E-03
             182             950     7.92320E-03     8.45440E-03
             133             950     7.92320E-03     8.45440E-03
             183             950     7.92320E-03     8.45440E-03
             132             950     7.92320E-03     8.45440E-03
             133             951     10.0284E-03     9.06609E-03
             183             951     10.0284E-03     9.06609E-03
             184             951     10.0284E-03     9.06609E-03
             134             951     10.0284E-03     9.06609E-03
             184             952     10.4248E-03     10.3579E-03
             185             952     10.4248E-03     10.3579E-03
             135             952     10.4248E-03     10.3579E-03
             134             952     10.4248E-03     10.3579E-03
             136             953     9.78562E-03     11.1063E-03
             135             953     9.78562E-03     11.1063E-03
             186             953     9.78562E-03     11.1063E-03
             185             953     9.78562E-03     11.1063E-03
             136             954     11.3593E-03     11.0278E-03
             137             954     11.3593E-03     11.0278E-03
             187             954     11.3593E-03     11.0278E-03
             186             954     11.3593E-03     11.0278E-03
             138             955     12.6944E-03     12.8461E-03
             188             955     12.6944E-03     12.8461E-03
             187             955     12.6944E-03     12.8461E-03
             137             955     12.6944E-03     12.8461E-03
             189             956     14.0233E-03     14.4271E-03
             139             956     14.0233E-03     14.4271E-03
             138             956     14.0233E-03     14.4271E-03
             188             956     14.0233E-03     14.4271E-03
             140             957     15.7464E-03     15.7323E-03
             190             957     15.7464E-03     15.7323E-03
             139             957     15.7464E-03     15.7323E-03
             189             957     15.7464E-03     15.7323E-03
             140             958     17.2577E-03     17.4440E-03
             190             958     17.2577E-03     17.4440E-03
             141             958     17.2577E-03     17.4440E-03
             191             958     17.2577E-03     17.4440E-03
             142             959     19.1520E-03     18.9913E-03
             141             959     19.1520E-03     18.9913E-03
             192             959     19.1520E-03     18.9913E-03
             191             959     19.1520E-03     18.9913E-03
             143             960     20.8991E-03     20.4539E-03
             193             960     20.8991E-03     20.4539E-03
             192             960     20.8991E-03     20.4539E-03
             142             960     20.8991E-03     20.4539E-03
             144             961     22.0046E-03     23.3746E-03
             143             961     22.0046E-03     23.3746E-03
             194             961     22.0046E-03     23.3746E-03
             193             961     22.0046E-03     23.3746E-03
             145             962     26.2098E-03     23.8479E-03
             194             962     26.2098E-03     23.8479E-03
             195             962     26.2098E-03     23.8479E-03
             144             962     26.2098E-03     23.8479E-03
             146             963     25.9208E-03     25.3142E-03
             196             963     25.9208E-03     25.3142E-03
             145             963     25.9208E-03     25.3142E-03
             195             963     25.9208E-03     25.3142E-03
             196             964     22.0906E-03     26.4367E-03
             146             964     22.0906E-03     26.4367E-03
             147             964     22.0906E-03     26.4367E-03
             197             964     22.0906E-03     26.4367E-03
             197             965     25.5691E-03     24.6325E-03
             198             965     25.5691E-03     24.6325E-03
             148             965     25.5691E-03     24.6325E-03
             147             965     25.5691E-03     24.6325E-03
             199             966     28.0640E-03     27.2283E-03
             148             966     28.0640E-03     27.2283E-03
             198             966     28.0640E-03     27.2283E-03
             149             966     28.0640E-03     27.2283E-03
             199             967     28.4949E-03     29.6995E-03
             149             967     28.4949E-03     29.6995E-03
             150             967     28.4949E-03     29.6995E-03
             200             967     28.4949E-03     29.6995E-03
             150             968     30.8289E-03     30.5522E-03
             201             968     30.8289E-03     30.5522E-03
             151             968     30.8289E-03     30.5522E-03
             200             968     30.8289E-03     30.5522E-03
             201             969     32.4803E-03     32.6430E-03
             151             969     32.4803E-03     32.6430E-03
             202             969     32.4803E-03     32.6430E-03
             152             969     32.4803E-03     32.6430E-03
             202             970     34.6358E-03     34.4038E-03
             153             970     34.6358E-03     34.4038E-03
             152             970     34.6358E-03     34.4038E-03
             203             970     34.6358E-03     34.4038E-03
             203             971     36.7028E-03     35.9236E-03
             154             971     36.7028E-03     35.9236E-03
             153             971     36.7028E-03     35.9236E-03
             204             971     36.7028E-03     35.9236E-03
             155             972     37.6292E-03     39.8753E-03
             205             972     37.6292E-03     39.8753E-03
             204             972     37.6292E-03     39.8753E-03
             154             972     37.6292E-03     39.8753E-03
             156             973     43.4881E-03     39.8471E-03
             205             973     43.4881E-03     39.8471E-03
             206             973     43.4881E-03     39.8471E-03
             155             973     43.4881E-03     39.8471E-03
             207             974     42.3352E-03     41.1535E-03
             157             974     42.3352E-03     41.1535E-03
             156             974     42.3352E-03     41.1535E-03
             206             974     42.3352E-03     41.1535E-03
             208             975     35.8063E-03     43.2881E-03
             157             975     35.8063E-03     43.2881E-03
             158             975     35.8063E-03     43.2881E-03
             207             975     35.8063E-03     43.2881E-03
             209             976     41.8369E-03     40.3365E-03
             159             976     41.8369E-03     40.3365E-03
             158             976     41.8369E-03     40.3365E-03
             208             976     41.8369E-03     40.3365E-03
             209             977     45.4344E-03     43.4833E-03
             210             977     45.4344E-03     43.4833E-03
             160             977     45.4344E-03     43.4833E-03
             159             977     45.4344E-03     43.4833E-03
             160             978     44.6853E-03     46.7724E-03
             211             978     44.6853E-03     46.7724E-03
             161             978     44.6853E-03     46.7724E-03
             210             978     44.6853E-03     46.7724E-03
             211             979     47.5520E-03     46.9922E-03
             212             979     47.5520E-03     46.9922E-03
             161             979     47.5520E-03     46.9922E-03
             162             979     47.5520E-03     46.9922E-03
             163             980     49.2573E-03     49.3904E-03
             213             980     49.2573E-03     49.3904E-03
             212             980     49.2573E-03     49.3904E-03
             162             980     49.2573E-03     49.3904E-03
             163             981     51.6041E-03     51.3041E-03
             164             981     51.6041E-03     51.3041E-03
             213             981     51.6041E-03     51.3041E-03
             214             981     51.6041E-03     51.3041E-03
             164             982     53.9499E-03     52.8247E-03
             214             982     53.9499E-03     52.8247E-03
             165             982     53.9499E-03     52.8247E-03
             215             982     53.9499E-03     52.8247E-03
             166             983     54.6397E-03     57.8214E-03
             165             983     54.6397E-03     57.8214E-03
             215             983     54.6397E-03     57.8214E-03
             216             983     54.6397E-03     57.8214E-03
             216             984     62.2180E-03     57.2226E-03
             217             984     62.2180E-03     57.2226E-03
             166             984     62.2180E-03     57.2226E-03
             167             984     62.2180E-03     57.2226E-03
             167             985     60.1192E-03     58.3260E-03
             168             985     60.1192E-03     58.3260E-03
             217             985     60.1192E-03     58.3260E-03
             218             985     60.1192E-03     58.3260E-03
             168             986     50.7088E-03     61.4737E-03
             169             986     50.7088E-03     61.4737E-03
             219             986     50.7088E-03     61.4737E-03
             218             986     50.7088E-03     61.4737E-03
             220             987     59.4583E-03     57.3692E-03
             169             987     59.4583E-03     57.3692E-03
             170             987     59.4583E-03     57.3692E-03
             219             987     59.4583E-03     57.3692E-03
             171             988     64.3620E-03     61.1015E-03
             220             988     64.3620E-03     61.1015E-03
             221             988     64.3620E-03     61.1015E-03
             170             988     64.3620E-03     61.1015E-03
             172             989     62.4097E-03     65.1927E-03
             221             989     62.4097E-03     65.1927E-03
             171             989     62.4097E-03     65.1927E-03
             222             989     62.4097E-03     65.1927E-03
             222             990     65.5871E-03     65.2641E-03
             173             990     65.5871E-03     65.2641E-03
             223             990     65.5871E-03     65.2641E-03
             172             990     65.5871E-03     65.2641E-03
             174             991     68.3484E-03     67.4931E-03
             224             991     68.3484E-03     67.4931E-03
             223             991     68.3484E-03     67.4931E-03
             173             991     68.3484E-03     67.4931E-03
             175             992     70.2679E-03     69.2016E-03
             225             992     70.2679E-03     69.2016E-03
             174             992     70.2679E-03     69.2016E-03
             224             992     70.2679E-03     69.2016E-03
             175             993     70.8532E-03     74.7433E-03
             176             993     70.8532E-03     74.7433E-03
             226             993     70.8532E-03     74.7433E-03
             225             993     70.8532E-03     74.7433E-03
             176             994     79.9233E-03     73.5929E-03
             226             994     79.9233E-03     73.5929E-03
             227             994     79.9233E-03     73.5929E-03
             177             994     79.9233E-03     73.5929E-03
             177             995     76.8125E-03     74.4313E-03
             227             995     76.8125E-03     74.4313E-03
             178             995     76.8125E-03     74.4313E-03
             228             995     76.8125E-03     74.4313E-03
             180             996     3.06180E-03     3.56207E-03
             179             996     3.06180E-03     3.56207E-03
             229             996     3.06180E-03     3.56207E-03
             230             996     3.06180E-03     3.56207E-03
             181             997     3.97863E-03     4.28168E-03
             230             997     3.97863E-03     4.28168E-03
             180             997     3.97863E-03     4.28168E-03
             231             997     3.97863E-03     4.28168E-03
             182             998     5.47956E-03     5.32596E-03
             231             998     5.47956E-03     5.32596E-03
             232             998     5.47956E-03     5.32596E-03
             181             998     5.47956E-03     5.32596E-03
             182             999     6.73970E-03     7.50899E-03
             232             999     6.73970E-03     7.50899E-03
             233             999     6.73970E-03     7.50899E-03
             183             999     6.73970E-03     7.50899E-03
             184            1000     9.64578E-03     8.31814E-03
             233            1000     9.64578E-03     8.31814E-03
             234            1000     9.64578E-03     8.31814E-03
             183            1000     9.64578E-03     8.31814E-03
             185            1001     10.3025E-03     10.2746E-03
             234            1001     10.3025E-03     10.2746E-03
             184            1001     10.3025E-03     10.2746E-03
             235            1001     10.3025E-03     10.2746E-03
             236            1002     9.36125E-03     11.6276E-03
             186            1002     9.36125E-03     11.6276E-03
             235            1002     9.36125E-03     11.6276E-03
             185            1002     9.36125E-03     11.6276E-03
             237            1003     11.5018E-03     11.1775E-03
             187            1003     11.5018E-03     11.1775E-03
             186            1003     11.5018E-03     11.1775E-03
             236            1003     11.5018E-03     11.1775E-03
             187            1004     13.0719E-03     13.1142E-03
             237            1004     13.0719E-03     13.1142E-03
             238            1004     13.0719E-03     13.1142E-03
             188            1004     13.0719E-03     13.1142E-03
             239            1005     14.2991E-03     14.8593E-03
             188            1005     14.2991E-03     14.8593E-03
             189            1005     14.2991E-03     14.8593E-03
             238            1005     14.2991E-03     14.8593E-03
             189            1006     16.3459E-03     16.3202E-03
             190            1006     16.3459E-03     16.3202E-03
             239            1006     16.3459E-03     16.3202E-03
             240            1006     16.3459E-03     16.3202E-03
             240            1007     18.1038E-03     18.5434E-03
             190            1007     18.1038E-03     18.5434E-03
             241            1007     18.1038E-03     18.5434E-03
             191            1007     18.1038E-03     18.5434E-03
             192            1008     20.4485E-03     20.5373E-03
             242            1008     20.4485E-03     20.5373E-03
             191            1008     20.4485E-03     20.5373E-03
             241            1008     20.4485E-03     20.5373E-03
             242            1009     22.6107E-03     22.4171E-03
             192            1009     22.6107E-03     22.4171E-03
             193            1009     22.6107E-03     22.4171E-03
             243            1009     22.6107E-03     22.4171E-03
             194            1010     24.0083E-03     26.0937E-03
             244            1010     24.0083E-03     26.0937E-03
             193            1010     24.0083E-03     26.0937E-03
             243            1010     24.0083E-03     26.0937E-03
             195            1011     29.4018E-03     26.5411E-03
             244            1011     29.4018E-03     26.5411E-03
             194            1011     29.4018E-03     26.5411E-03
             245            1011     29.4018E-03     26.5411E-03
             195            1012     29.3512E-03     28.9409E-03
             196            1012     29.3512E-03     28.9409E-03
             246            1012     29.3512E-03     28.9409E-03
             245            1012     29.3512E-03     28.9409E-03
             246            1013     24.8180E-03     31.3981E-03
             197            1013     24.8180E-03     31.3981E-03
             247            1013     24.8180E-03     31.3981E-03
             196            1013     24.8180E-03     31.3981E-03
             198            1014     29.3627E-03     28.5876E-03
             197            1014     29.3627E-03     28.5876E-03
             248            1014     29.3627E-03     28.5876E-03
             247            1014     29.3627E-03     28.5876E-03
             249            1015     31.9009E-03     30.6410E-03
             198            1015     31.9009E-03     30.6410E-03
             199            1015     31.9009E-03     30.6410E-03
             248            1015     31.9009E-03     30.6410E-03
             199            1016     31.4699E-03     33.1771E-03
             250            1016     31.4699E-03     33.1771E-03
             249            1016     31.4699E-03     33.1771E-03
             200            1016     31.4699E-03     33.1771E-03
             200            1017     34.0162E-03     33.8692E-03
             251            1017     34.0162E-03     33.8692E-03
             201            1017     34.0162E-03     33.8692E-03
             250            1017     34.0162E-03     33.8692E-03
             252            1018     35.7854E-03     36.4957E-03
             202            1018     35.7854E-03     36.4957E-03
             251            1018     35.7854E-03     36.4957E-03
             201            1018     35.7854E-03     36.4957E-03
             253            1019     38.3706E-03     38.6943E-03
             202            1019     38.3706E-03     38.6943E-03
             203            1019     38.3706E-03     38.6943E-03
             252            1019     38.3706E-03     38.6943E-03
             204            1020     40.9276E-03     40.5936E-03
             203            1020     40.9276E-03     40.5936E-03
             254            1020     40.9276E-03     40.5936E-03
             253            1020     40.9276E-03     40.5936E-03
             254            1021     42.1831E-03     45.5631E-03
             255            1021     42.1831E-03     45.5631E-03
             205            1021     42.1831E-03     45.5631E-03
             204            1021     42.1831E-03     45.5631E-03
             205            1022     49.9036E-03     45.4718E-03
             255            1022     49.9036E-03     45.4718E-03
             256            1022     49.9036E-03     45.4718E-03
             206            1022     49.9036E-03     45.4718E-03
             257            1023     49.1029E-03     48.2471E-03
             256            1023     49.1029E-03     48.2471E-03
             207            1023     49.1029E-03     48.2471E-03
             206            1023     49.1029E-03     48.2471E-03
             208            1024     41.3987E-03     52.5745E-03
             257            1024     41.3987E-03     52.5745E-03
             207            1024     41.3987E-03     52.5745E-03
             258            1024     41.3987E-03     52.5745E-03
             208            1025     49.0762E-03     47.8747E-03
             209            1025     49.0762E-03     47.8747E-03
             258            1025     49.0762E-03     47.8747E-03
             259            1025     49.0762E-03     47.8747E-03
             210            1026     52.5904E-03     49.9182E-03
             259            1026     52.5904E-03     49.9182E-03
             209            1026     52.5904E-03     49.9182E-03
             260            1026     52.5904E-03     49.9182E-03
             261            1027     50.2717E-03     53.2495E-03
             260            1027     50.2717E-03     53.2495E-03
             210            1027     50.2717E-03     53.2495E-03
             211            1027     50.2717E-03     53.2495E-03
             262            1028     53.3080E-03     53.0352E-03
             261            1028     53.3080E-03     53.0352E-03
             212            1028     53.3080E-03     53.0352E-03
             211            1028     53.3080E-03     53.0352E-03
             263            1029     55.0443E-03     56.0469E-03
             212            1029     55.0443E-03     56.0469E-03
             213            1029     55.0443E-03     56.0469E-03
             262            1029     55.0443E-03     56.0469E-03
             263            1030     57.8481E-03     58.4308E-03
             214            1030     57.8481E-03     58.4308E-03
             213            1030     57.8481E-03     58.4308E-03
             264            1030     57.8481E-03     58.4308E-03
             215            1031     60.8035E-03     60.3230E-03
             214            1031     60.8035E-03     60.3230E-03
             265            1031     60.8035E-03     60.3230E-03
             264            1031     60.8035E-03     60.3230E-03
             215            1032     61.8858E-03     66.6690E-03
             266            1032     61.8858E-03     66.6690E-03
             265            1032     61.8858E-03     66.6690E-03
             216            1032     61.8858E-03     66.6690E-03
             216            1033     72.1026E-03     65.9853E-03
             267            1033     72.1026E-03     65.9853E-03
             266            1033     72.1026E-03     65.9853E-03
             217            1033     72.1026E-03     65.9853E-03
             217            1034     70.4867E-03     69.1620E-03
             218            1034     70.4867E-03     69.1620E-03
             267            1034     70.4867E-03     69.1620E-03
             268            1034     70.4867E-03     69.1620E-03
             218            1035     59.2892E-03     75.3145E-03
             219            1035     59.2892E-03     75.3145E-03
             269            1035     59.2892E-03     75.3145E-03
             268            1035     59.2892E-03     75.3145E-03
             219            1036     70.1654E-03     68.5228E-03
             220            1036     70.1654E-03     68.5228E-03
             270            1036     70.1654E-03     68.5228E-03
             269            1036     70.1654E-03     68.5228E-03
             220            1037     74.9388E-03     70.5892E-03
             221            1037     74.9388E-03     70.5892E-03
             271            1037     74.9388E-03     70.5892E-03
             270            1037     74.9388E-03     70.5892E-03
             272            1038     70.6952E-03     74.6263E-03
             271            1038     70.6952E-03     74.6263E-03
             222            1038     70.6952E-03     74.6263E-03
             221            1038     70.6952E-03     74.6263E-03
             222            1039     73.9039E-03     74.1896E-03
             223            1039     73.9039E-03     74.1896E-03
             273            1039     73.9039E-03     74.1896E-03
             272            1039     73.9039E-03     74.1896E-03
             223            1040     77.0609E-03     77.0220E-03
             273            1040     77.0609E-03     77.0220E-03
             274            1040     77.0609E-03     77.0220E-03
             224            1040     77.0609E-03     77.0220E-03
             274            1041     79.4017E-03     79.1519E-03
             225            1041     79.4017E-03     79.1519E-03
             224            1041     79.4017E-03     79.1519E-03
             275            1041     79.4017E-03     79.1519E-03
             276            1042     80.5506E-03     86.3095E-03
             226            1042     80.5506E-03     86.3095E-03
             225            1042     80.5506E-03     86.3095E-03
             275            1042     80.5506E-03     86.3095E-03
             227            1043     93.0372E-03     85.1785E-03
             277            1043     93.0372E-03     85.1785E-03
             226            1043     93.0372E-03     85.1785E-03
             276            1043     93.0372E-03     85.1785E-03
             227            1044     90.5352E-03     88.7508E-03
             228            1044     90.5352E-03     88.7508E-03
             278            1044     90.5352E-03     88.7508E-03
             277            1044     90.5352E-03     88.7508E-03
             230            1045     1.70194E-03     2.33424E-03
             229            1045     1.70194E-03     2.33424E-03
             280            1045     1.70194E-03     2.33424E-03
             279            1045     1.70194E-03     2.33424E-03
             281            1046     3.01483E-03     3.30773E-03
             230            1046     3.01483E-03     3.30773E-03
             280            1046     3.01483E-03     3.30773E-03
             231            1046     3.01483E-03     3.30773E-03
             282            1047     5.11172E-03     4.87847E-03
             232            1047     5.11172E-03     4.87847E-03
             231            1047     5.11172E-03     4.87847E-03
             281            1047     5.11172E-03     4.87847E-03
             282            1048     6.69419E-03     7.82762E-03
             232            1048     6.69419E-03     7.82762E-03
             233            1048     6.69419E-03     7.82762E-03
             283            1048     6.69419E-03     7.82762E-03
             283            1049     10.3515E-03     9.13642E-03
             284            1049     10.3515E-03     9.13642E-03
             233            1049     10.3515E-03     9.13642E-03
             234            1049     10.3515E-03     9.13642E-03
             284            1050     11.2922E-03     11.3290E-03
             234            1050     11.2922E-03     11.3290E-03
             235            1050     11.2922E-03     11.3290E-03
             285            1050     11.2922E-03     11.3290E-03
             285            1051     9.70922E-03     12.5734E-03
             286            1051     9.70922E-03     12.5734E-03
             235            1051     9.70922E-03     12.5734E-03
             236            1051     9.70922E-03     12.5734E-03
             286            1052     11.6189E-03     11.4055E-03
             236            1052     11.6189E-03     11.4055E-03
             287            1052     11.6189E-03     11.4055E-03
             237            1052     11.6189E-03     11.4055E-03
             288            1053     13.1832E-03     13.2070E-03
             287            1053     13.1832E-03     13.2070E-03
             238            1053     13.1832E-03     13.2070E-03
             237            1053     13.1832E-03     13.2070E-03
             239            1054     14.4820E-03     15.3747E-03
             238            1054     14.4820E-03     15.3747E-03
             288            1054     14.4820E-03     15.3747E-03
             289            1054     14.4820E-03     15.3747E-03
             290            1055     17.0087E-03     17.2964E-03
             239            1055     17.0087E-03     17.2964E-03
             240            1055     17.0087E-03     17.2964E-03
             289            1055     17.0087E-03     17.2964E-03
             291            1056     19.0623E-03     19.9722E-03
             290            1056     19.0623E-03     19.9722E-03
             241            1056     19.0623E-03     19.9722E-03
             240            1056     19.0623E-03     19.9722E-03
             242            1057     21.7775E-03     22.4024E-03
             291            1057     21.7775E-03     22.4024E-03
             292            1057     21.7775E-03     22.4024E-03
             241            1057     21.7775E-03     22.4024E-03
             242            1058     24.4017E-03     24.5305E-03
             292            1058     24.4017E-03     24.5305E-03
             243            1058     24.4017E-03     24.5305E-03
             293            1058     24.4017E-03     24.5305E-03
             243            1059     25.8533E-03     28.7998E-03
             244            1059     25.8533E-03     28.7998E-03
             293            1059     25.8533E-03     28.7998E-03
             294            1059     25.8533E-03     28.7998E-03
             294            1060     32.1305E-03     29.5980E-03
             295            1060     32.1305E-03     29.5980E-03
             244            1060     32.1305E-03     29.5980E-03
             245            1060     32.1305E-03     29.5980E-03
             245            1061     32.5000E-03     32.2922E-03
             295            1061     32.5000E-03     32.2922E-03
             246            1061     32.5000E-03     32.2922E-03
             296            1061     32.5000E-03     32.2922E-03
             247            1062     27.1275E-03     35.0539E-03
             296            1062     27.1275E-03     35.0539E-03
             246            1062     27.1275E-03     35.0539E-03
             297            1062     27.1275E-03     35.0539E-03
             248            1063     31.6813E-03     31.2245E-03
             297            1063     31.6813E-03     31.2245E-03
             247            1063     31.6813E-03     31.2245E-03
             298            1063     31.6813E-03     31.2245E-03
             298            1064     33.8275E-03     32.7431E-03
             248            1064     33.8275E-03     32.7431E-03
             249            1064     33.8275E-03     32.7431E-03
             299            1064     33.8275E-03     32.7431E-03
             249            1065     33.0551E-03     35.6632E-03
             299            1065     33.0551E-03     35.6632E-03
             250            1065     33.0551E-03     35.6632E-03
             300            1065     33.0551E-03     35.6632E-03
             301            1066     36.2792E-03     36.7692E-03
             300            1066     36.2792E-03     36.7692E-03
             250            1066     36.2792E-03     36.7692E-03
             251            1066     36.2792E-03     36.7692E-03
             301            1067     38.2847E-03     39.9498E-03
             302            1067     38.2847E-03     39.9498E-03
             251            1067     38.2847E-03     39.9498E-03
             252            1067     38.2847E-03     39.9498E-03
             253            1068     41.2699E-03     42.6229E-03
             302            1068     41.2699E-03     42.6229E-03
             252            1068     41.2699E-03     42.6229E-03
             303            1068     41.2699E-03     42.6229E-03
             253            1069     44.4014E-03     44.7239E-03
             254            1069     44.4014E-03     44.7239E-03
             304            1069     44.4014E-03     44.7239E-03
             303            1069     44.4014E-03     44.7239E-03
             305            1070     45.5428E-03     50.4189E-03
             255            1070     45.5428E-03     50.4189E-03
             304            1070     45.5428E-03     50.4189E-03
             254            1070     45.5428E-03     50.4189E-03
             256            1071     54.5985E-03     50.7266E-03
             255            1071     54.5985E-03     50.7266E-03
             306            1071     54.5985E-03     50.7266E-03
             305            1071     54.5985E-03     50.7266E-03
             257            1072     54.5250E-03     54.0873E-03
             256            1072     54.5250E-03     54.0873E-03
             307            1072     54.5250E-03     54.0873E-03
             306            1072     54.5250E-03     54.0873E-03
             258            1073     45.7026E-03     59.1512E-03
             257            1073     45.7026E-03     59.1512E-03
             308            1073     45.7026E-03     59.1512E-03
             307            1073     45.7026E-03     59.1512E-03
             259            1074     53.6444E-03     52.9542E-03
             309            1074     53.6444E-03     52.9542E-03
             308            1074     53.6444E-03     52.9542E-03
             258            1074     53.6444E-03     52.9542E-03
             260            1075     56.4197E-03     54.1307E-03
             310            1075     56.4197E-03     54.1307E-03
             259            1075     56.4197E-03     54.1307E-03
             309            1075     56.4197E-03     54.1307E-03
             310            1076     53.3508E-03     57.8539E-03
             261            1076     53.3508E-03     57.8539E-03
             311            1076     53.3508E-03     57.8539E-03
             260            1076     53.3508E-03     57.8539E-03
             312            1077     57.3044E-03     58.0253E-03
             262            1077     57.3044E-03     58.0253E-03
             311            1077     57.3044E-03     58.0253E-03
             261            1077     57.3044E-03     58.0253E-03
             263            1078     59.2272E-03     61.7232E-03
             312            1078     59.2272E-03     61.7232E-03
             313            1078     59.2272E-03     61.7232E-03
             262            1078     59.2272E-03     61.7232E-03
             314            1079     62.4731E-03     64.6317E-03
             264            1079     62.4731E-03     64.6317E-03
             313            1079     62.4731E-03     64.6317E-03
             263            1079     62.4731E-03     64.6317E-03
             314            1080     66.1344E-03     66.6778E-03
             315            1080     66.1344E-03     66.6778E-03
             265            1080     66.1344E-03     66.6778E-03
             264            1080     66.1344E-03     66.6778E-03
             316            1081     66.9192E-03     73.8982E-03
             265            1081     66.9192E-03     73.8982E-03
             315            1081     66.9192E-03     73.8982E-03
             266            1081     66.9192E-03     73.8982E-03
             316            1082     78.9766E-03     73.6620E-03
             317            1082     78.9766E-03     73.6620E-03
             267            1082     78.9766E-03     73.6620E-03
             266            1082     78.9766E-03     73.6620E-03
             267            1083     78.4213E-03     77.7465E-03
             318            1083     78.4213E-03     77.7465E-03
             268            1083     78.4213E-03     77.7465E-03
             317            1083     78.4213E-03     77.7465E-03
             269            1084     65.7559E-03     85.1350E-03
             318            1084     65.7559E-03     85.1350E-03
             268            1084     65.7559E-03     85.1350E-03
             319            1084     65.7559E-03     85.1350E-03
             319            1085     77.1945E-03     76.2537E-03
             269            1085     77.1945E-03     76.2537E-03
             320            1085     77.1945E-03     76.2537E-03
             270            1085     77.1945E-03     76.2537E-03
             270            1086     80.7237E-03     77.1760E-03
             271            1086     80.7237E-03     77.1760E-03
             321            1086     80.7237E-03     77.1760E-03
             320            1086     80.7237E-03     77.1760E-03
             271            1087     75.4832E-03     81.5381E-03
             272            1087     75.4832E-03     81.5381E-03
             322            1087     75.4832E-03     81.5381E-03
             321            1087     75.4832E-03     81.5381E-03
             272            1088     79.5756E-03     81.4302E-03
             273            1088     79.5756E-03     81.4302E-03
             323            1088     79.5756E-03     81.4302E-03
             322            1088     79.5756E-03     81.4302E-03
             274            1089     82.9813E-03     85.3166E-03
             273            1089     82.9813E-03     85.3166E-03
             323            1089     82.9813E-03     85.3166E-03
             324            1089     82.9813E-03     85.3166E-03
             275            1090     86.2422E-03     87.5182E-03
             324            1090     86.2422E-03     87.5182E-03
             274            1090     86.2422E-03     87.5182E-03
             325            1090     86.2422E-03     87.5182E-03
             275            1091     87.1395E-03     95.8167E-03
             276            1091     87.1395E-03     95.8167E-03
             325            1091     87.1395E-03     95.8167E-03
             326            1091     87.1395E-03     95.8167E-03
             277            1092     101.966E-03     95.2921E-03
             276            1092     101.966E-03     95.2921E-03
             326            1092     101.966E-03     95.2921E-03
             327            1092     101.966E-03     95.2921E-03
             277            1093     100.993E-03     100.123E-03
             278            1093     100.993E-03     100.123E-03
             328            1093     100.993E-03     100.123E-03
             327            1093     100.993E-03     100.123E-03
             280            1094     3.96253E-03     4.51428E-03
             330            1094     3.96253E-03     4.51428E-03
             279            1094     3.96253E-03     4.51428E-03
             329            1094     3.96253E-03     4.51428E-03
             281            1095     5.10499E-03     5.29750E-03
             331            1095     5.10499E-03     5.29750E-03
             280            1095     5.10499E-03     5.29750E-03
             330            1095     5.10499E-03     5.29750E-03
             281            1096     7.04402E-03     6.84827E-03
             332            1096     7.04402E-03     6.84827E-03
             282            1096     7.04402E-03     6.84827E-03
             331            1096     7.04402E-03     6.84827E-03
             333            1097     8.65451E-03     9.63029E-03
             283            1097     8.65451E-03     9.63029E-03
             282            1097     8.65451E-03     9.63029E-03
             332            1097     8.65451E-03     9.63029E-03
             283            1098     12.3766E-03     11.5354E-03
             333            1098     12.3766E-03     11.5354E-03
             284            1098     12.3766E-03     11.5354E-03
             334            1098     12.3766E-03     11.5354E-03
             285            1099     14.3066E-03     14.1637E-03
             334            1099     14.3066E-03     14.1637E-03
             335            1099     14.3066E-03     14.1637E-03
             284            1099     14.3066E-03     14.1637E-03
             285            1100     10.9919E-03     13.1027E-03
             335            1100     10.9919E-03     13.1027E-03
             286            1100     10.9919E-03     13.1027E-03
             336            1100     10.9919E-03     13.1027E-03
             287            1101     10.5744E-03     10.4174E-03
             286            1101     10.5744E-03     10.4174E-03
             336            1101     10.5744E-03     10.4174E-03
             337            1101     10.5744E-03     10.4174E-03
             287            1102     13.1750E-03     13.1899E-03
             288            1102     13.1750E-03     13.1899E-03
             338            1102     13.1750E-03     13.1899E-03
             337            1102     13.1750E-03     13.1899E-03
             338            1103     15.5154E-03     16.0994E-03
             288            1103     15.5154E-03     16.0994E-03
             289            1103     15.5154E-03     16.0994E-03
             339            1103     15.5154E-03     16.0994E-03
             289            1104     18.3381E-03     18.5578E-03
             340            1104     18.3381E-03     18.5578E-03
             290            1104     18.3381E-03     18.5578E-03
             339            1104     18.3381E-03     18.5578E-03
             291            1105     20.8029E-03     21.2827E-03
             340            1105     20.8029E-03     21.2827E-03
             290            1105     20.8029E-03     21.2827E-03
             341            1105     20.8029E-03     21.2827E-03
             341            1106     23.4722E-03     23.9605E-03
             342            1106     23.4722E-03     23.9605E-03
             291            1106     23.4722E-03     23.9605E-03
             292            1106     23.4722E-03     23.9605E-03
             293            1107     26.4096E-03     26.1498E-03
             342            1107     26.4096E-03     26.1498E-03
             292            1107     26.4096E-03     26.1498E-03
             343            1107     26.4096E-03     26.1498E-03
             344            1108     28.0605E-03     30.2807E-03
             294            1108     28.0605E-03     30.2807E-03
             293            1108     28.0605E-03     30.2807E-03
             343            1108     28.0605E-03     30.2807E-03
             294            1109     34.0649E-03     32.1197E-03
             344            1109     34.0649E-03     32.1197E-03
             295            1109     34.0649E-03     32.1197E-03
             345            1109     34.0649E-03     32.1197E-03
             346            1110     36.2593E-03     35.5350E-03
             295            1110     36.2593E-03     35.5350E-03
             345            1110     36.2593E-03     35.5350E-03
             296            1110     36.2593E-03     35.5350E-03
             297            1111     29.9101E-03     35.7687E-03
             346            1111     29.9101E-03     35.7687E-03
             347            1111     29.9101E-03     35.7687E-03
             296            1111     29.9101E-03     35.7687E-03
             298            1112     31.1168E-03     30.3223E-03
             297            1112     31.1168E-03     30.3223E-03
             347            1112     31.1168E-03     30.3223E-03
             348            1112     31.1168E-03     30.3223E-03
             298            1113     33.8647E-03     32.8160E-03
             348            1113     33.8647E-03     32.8160E-03
             349            1113     33.8647E-03     32.8160E-03
             299            1113     33.8647E-03     32.8160E-03
             350            1114     34.7880E-03     36.5453E-03
             300            1114     34.7880E-03     36.5453E-03
             349            1114     34.7880E-03     36.5453E-03
             299            1114     34.7880E-03     36.5453E-03
             350            1115     38.4100E-03     38.6124E-03
             351            1115     38.4100E-03     38.6124E-03
             300            1115     38.4100E-03     38.6124E-03
             301            1115     38.4100E-03     38.6124E-03
             302            1116     40.9928E-03     41.9131E-03
             351            1116     40.9928E-03     41.9131E-03
             301            1116     40.9928E-03     41.9131E-03
             352            1116     40.9928E-03     41.9131E-03
             353            1117     43.9857E-03     44.9229E-03
             302            1117     43.9857E-03     44.9229E-03
             352            1117     43.9857E-03     44.9229E-03
             303            1117     43.9857E-03     44.9229E-03
             304            1118     47.4659E-03     47.1461E-03
             303            1118     47.4659E-03     47.1461E-03
             354            1118     47.4659E-03     47.1461E-03
             353            1118     47.4659E-03     47.1461E-03
             305            1119     48.8618E-03     52.4685E-03
             304            1119     48.8618E-03     52.4685E-03
             354            1119     48.8618E-03     52.4685E-03
             355            1119     48.8618E-03     52.4685E-03
             355            1120     57.1785E-03     54.0859E-03
             305            1120     57.1785E-03     54.0859E-03
             356            1120     57.1785E-03     54.0859E-03
             306            1120     57.1785E-03     54.0859E-03
             306            1121     59.6186E-03     58.3411E-03
             356            1121     59.6186E-03     58.3411E-03
             307            1121     59.6186E-03     58.3411E-03
             357            1121     59.6186E-03     58.3411E-03
             307            1122     50.4988E-03     60.4590E-03
             357            1122     50.4988E-03     60.4590E-03
             358            1122     50.4988E-03     60.4590E-03
             308            1122     50.4988E-03     60.4590E-03
             359            1123     53.9930E-03     52.5906E-03
             309            1123     53.9930E-03     52.5906E-03
             308            1123     53.9930E-03     52.5906E-03
             358            1123     53.9930E-03     52.5906E-03
             360            1124     56.9106E-03     54.7784E-03
             359            1124     56.9106E-03     54.7784E-03
             310            1124     56.9106E-03     54.7784E-03
             309            1124     56.9106E-03     54.7784E-03
             360            1125     56.1958E-03     59.2808E-03
             311            1125     56.1958E-03     59.2808E-03
             310            1125     56.1958E-03     59.2808E-03
             361            1125     56.1958E-03     59.2808E-03
             361            1126     60.6202E-03     60.8080E-03
             312            1126     60.6202E-03     60.8080E-03
             362            1126     60.6202E-03     60.8080E-03
             311            1126     60.6202E-03     60.8080E-03
             362            1127     63.2465E-03     64.6591E-03
             312            1127     63.2465E-03     64.6591E-03
             313            1127     63.2465E-03     64.6591E-03
             363            1127     63.2465E-03     64.6591E-03
             363            1128     66.5235E-03     67.9592E-03
             364            1128     66.5235E-03     67.9592E-03
             313            1128     66.5235E-03     67.9592E-03
             314            1128     66.5235E-03     67.9592E-03
             364            1129     70.5373E-03     70.1634E-03
             365            1129     70.5373E-03     70.1634E-03
             314            1129     70.5373E-03     70.1634E-03
             315            1129     70.5373E-03     70.1634E-03
             316            1130     71.6028E-03     76.7228E-03
             315            1130     71.6028E-03     76.7228E-03
             366            1130     71.6028E-03     76.7228E-03
             365            1130     71.6028E-03     76.7228E-03
             316            1131     82.3755E-03     78.0511E-03
             317            1131     82.3755E-03     78.0511E-03
             367            1131     82.3755E-03     78.0511E-03
             366            1131     82.3755E-03     78.0511E-03
             317            1132     85.0399E-03     83.1737E-03
             318            1132     85.0399E-03     83.1737E-03
             367            1132     85.0399E-03     83.1737E-03
             368            1132     85.0399E-03     83.1737E-03
             318            1133     72.8256E-03     87.2411E-03
             369            1133     72.8256E-03     87.2411E-03
             319            1133     72.8256E-03     87.2411E-03
             368            1133     72.8256E-03     87.2411E-03
             320            1134     78.7519E-03     76.7731E-03
             319            1134     78.7519E-03     76.7731E-03
             369            1134     78.7519E-03     76.7731E-03
             370            1134     78.7519E-03     76.7731E-03
             320            1135     81.9396E-03     78.6977E-03
             321            1135     81.9396E-03     78.6977E-03
             370            1135     81.9396E-03     78.6977E-03
             371            1135     81.9396E-03     78.6977E-03
             322            1136     79.6054E-03     83.9625E-03
             371            1136     79.6054E-03     83.9625E-03
             372            1136     79.6054E-03     83.9625E-03
             321            1136     79.6054E-03     83.9625E-03
             322            1137     84.6277E-03     85.1845E-03
             373            1137     84.6277E-03     85.1845E-03
             323            1137     84.6277E-03     85.1845E-03
             372            1137     84.6277E-03     85.1845E-03
             323            1138     87.8903E-03     89.7880E-03
             373            1138     87.8903E-03     89.7880E-03
             374            1138     87.8903E-03     89.7880E-03
             324            1138     87.8903E-03     89.7880E-03
             325            1139     92.1915E-03     92.0327E-03
             324            1139     92.1915E-03     92.0327E-03
             375            1139     92.1915E-03     92.0327E-03
             374            1139     92.1915E-03     92.0327E-03
             375            1140     93.2192E-03     99.6928E-03
             326            1140     93.2192E-03     99.6928E-03
             376            1140     93.2192E-03     99.6928E-03
             325            1140     93.2192E-03     99.6928E-03
             326            1141     106.384E-03     100.900E-03
             377            1141     106.384E-03     100.900E-03
             376            1141     106.384E-03     100.900E-03
             327            1141     106.384E-03     100.900E-03
             378            1142     109.347E-03     106.962E-03
             327            1142     109.347E-03     106.962E-03
             377            1142     109.347E-03     106.962E-03
             328            1142     109.347E-03     106.962E-03
             379            1143     47.2727E-03     56.9755E-03
             385            1143     47.2727E-03     56.9755E-03
             380            1143     47.2727E-03     56.9755E-03
             386            1143     47.2727E-03     56.9755E-03
             380            1144     55.9139E-03     56.4225E-03
             387            1144     55.9139E-03     56.4225E-03
             381            1144     55.9139E-03     56.4225E-03
             386            1144     55.9139E-03     56.4225E-03
             388            1145     53.9663E-03     51.2977E-03
             381            1145     53.9663E-03     51.2977E-03
             382            1145     53.9663E-03     51.2977E-03
             387            1145     53.9663E-03     51.2977E-03
             383            1146     44.8850E-03     48.8334E-03
             388            1146     44.8850E-03     48.8334E-03
             382            1146     44.8850E-03     48.8334E-03
             389            1146     44.8850E-03     48.8334E-03
             390            1147     44.2694E-03     47.3448E-03
             383            1147     44.2694E-03     47.3448E-03
             384            1147     44.2694E-03     47.3448E-03
             389            1147     44.2694E-03     47.3448E-03
             386            1148     51.1733E-03     62.1818E-03
             385            1148     51.1733E-03     62.1818E-03
             391            1148     51.1733E-03     62.1818E-03
             392            1148     51.1733E-03     62.1818E-03
             387            1149     58.6519E-03     60.4420E-03
             393            1149     58.6519E-03     60.4420E-03
             386            1149     58.6519E-03     60.4420E-03
             392            1149     58.6519E-03     60.4420E-03
             394            1150     57.7799E-03     53.1550E-03
             388            1150     57.7799E-03     53.1550E-03
             393            1150     57.7799E-03     53.1550E-03
             387            1150     57.7799E-03     53.1550E-03
             389            1151     44.6522E-03     49.6230E-03
             395            1151     44.6522E-03     49.6230E-03
             394            1151     44.6522E-03     49.6230E-03
             388            1151     44.6522E-03     49.6230E-03
             390            1152     40.6179E-03     40.5666E-03
             389            1152     40.6179E-03     40.5666E-03
             395            1152     40.6179E-03     40.5666E-03
             396            1152     40.6179E-03     40.5666E-03
             397            1153     61.8614E-03     73.5125E-03
             391            1153     61.8614E-03     73.5125E-03
             392            1153     61.8614E-03     73.5125E-03
             398            1153     61.8614E-03     73.5125E-03
             393            1154     69.1229E-03     69.3159E-03
             399            1154     69.1229E-03     69.3159E-03
             392            1154     69.1229E-03     69.3159E-03
             398            1154     69.1229E-03     69.3159E-03
             394            1155     70.0213E-03     64.6810E-03
             393            1155     70.0213E-03     64.6810E-03
             400            1155     70.0213E-03     64.6810E-03
             399            1155     70.0213E-03     64.6810E-03
             401            1156     58.7232E-03     61.5016E-03
             400            1156     58.7232E-03     61.5016E-03
             395            1156     58.7232E-03     61.5016E-03
             394            1156     58.7232E-03     61.5016E-03
             401            1157     52.0613E-03     49.0754E-03
             402            1157     52.0613E-03     49.0754E-03
             396            1157     52.0613E-03     49.0754E-03
             395            1157     52.0613E-03     49.0754E-03
             398            1158     73.1800E-03     86.3703E-03
             404            1158     73.1800E-03     86.3703E-03
             403            1158     73.1800E-03     86.3703E-03
             397            1158     73.1800E-03     86.3703E-03
             404            1159     81.0524E-03     80.0995E-03
             398            1159     81.0524E-03     80.0995E-03
             405            1159     81.0524E-03     80.0995E-03
             399            1159     81.0524E-03     80.0995E-03
             399            1160     83.4396E-03     76.7877E-03
             405            1160     83.4396E-03     76.7877E-03
             400            1160     83.4396E-03     76.7877E-03
             406            1160     83.4396E-03     76.7877E-03
             406            1161     75.7598E-03     74.5723E-03
             407            1161     75.7598E-03     74.5723E-03
             400            1161     75.7598E-03     74.5723E-03
             401            1161     75.7598E-03     74.5723E-03
             407            1162     69.1986E-03     65.2640E-03
             402            1162     69.1986E-03     65.2640E-03
             401            1162     69.1986E-03     65.2640E-03
             408            1162     69.1986E-03     65.2640E-03
             403            1163     82.6081E-03     96.3690E-03
             404            1163     82.6081E-03     96.3690E-03
             409            1163     82.6081E-03     96.3690E-03
             410            1163     82.6081E-03     96.3690E-03
             411            1164     90.4270E-03     89.0038E-03
             404            1164     90.4270E-03     89.0038E-03
             410            1164     90.4270E-03     89.0038E-03
             405            1164     90.4270E-03     89.0038E-03
             412            1165     91.7740E-03     87.6315E-03
             411            1165     91.7740E-03     87.6315E-03
             406            1165     91.7740E-03     87.6315E-03
             405            1165     91.7740E-03     87.6315E-03
             412            1166     88.3961E-03     86.5881E-03
             407            1166     88.3961E-03     86.5881E-03
             413            1166     88.3961E-03     86.5881E-03
             406            1166     88.3961E-03     86.5881E-03
             408            1167     84.6856E-03     81.7966E-03
             414            1167     84.6856E-03     81.7966E-03
             407            1167     84.6856E-03     81.7966E-03
             413            1167     84.6856E-03     81.7966E-03
             410            1168     89.7104E-03     99.0202E-03
             415            1168     89.7104E-03     99.0202E-03
             416            1168     89.7104E-03     99.0202E-03
             409            1168     89.7104E-03     99.0202E-03
             410            1169     94.8943E-03     90.9532E-03
             416            1169     94.8943E-03     90.9532E-03
             411            1169     94.8943E-03     90.9532E-03
             417            1169     94.8943E-03     90.9532E-03
             411            1170     95.0359E-03     92.7323E-03
             412            1170     95.0359E-03     92.7323E-03
             417            1170     95.0359E-03     92.7323E-03
             418            1170     95.0359E-03     92.7323E-03
             412            1171     96.3441E-03     94.3006E-03
             419            1171     96.3441E-03     94.3006E-03
             413            1171     96.3441E-03     94.3006E-03
             418            1171     96.3441E-03     94.3006E-03
             420            1172     97.7481E-03     95.1403E-03
             419            1172     97.7481E-03     95.1403E-03
             413            1172     97.7481E-03     95.1403E-03
             414            1172     97.7481E-03     95.1403E-03
             421            1173     21.4616E-03     19.6089E-03
             428            1173     21.4616E-03     19.6089E-03
             427            1173     21.4616E-03     19.6089E-03
             422            1173     21.4616E-03     19.6089E-03
             423            1174     21.9090E-03     21.5147E-03
             428            1174     21.9090E-03     21.5147E-03
             422            1174     21.9090E-03     21.5147E-03
             429            1174     21.9090E-03     21.5147E-03
             423            1175     20.9580E-03     21.7807E-03
             424            1175     20.9580E-03     21.7807E-03
             429            1175     20.9580E-03     21.7807E-03
             430            1175     20.9580E-03     21.7807E-03
             424            1176     21.7118E-03     20.8991E-03
             425            1176     21.7118E-03     20.8991E-03
             431            1176     21.7118E-03     20.8991E-03
             430            1176     21.7118E-03     20.8991E-03
             432            1177     21.3432E-03     22.2664E-03
             426            1177     21.3432E-03     22.2664E-03
             431            1177     21.3432E-03     22.2664E-03
             425            1177     21.3432E-03     22.2664E-03
             433            1178     33.8102E-03     32.1876E-03
             427            1178     33.8102E-03     32.1876E-03
             434            1178     33.8102E-03     32.1876E-03
             428            1178     33.8102E-03     32.1876E-03
             428            1179     35.4670E-03     34.2520E-03
             434            1179     35.4670E-03     34.2520E-03
             429            1179     35.4670E-03     34.2520E-03
             435            1179     35.4670E-03     34.2520E-03
             429            1180     33.0756E-03     36.0617E-03
             435            1180     33.0756E-03     36.0617E-03
             430            1180     33.0756E-03     36.0617E-03
             436            1180     33.0756E-03     36.0617E-03
             430            1181     35.2704E-03     33.2663E-03
             437            1181     35.2704E-03     33.2663E-03
             436            1181     35.2704E-03     33.2663E-03
             431            1181     35.2704E-03     33.2663E-03
             437            1182     33.6862E-03     33.1627E-03
             431            1182     33.6862E-03     33.1627E-03
             432            1182     33.6862E-03     33.1627E-03
             438            1182     33.6862E-03     33.1627E-03
             439            1183     51.9537E-03     49.4439E-03
             433            1183     51.9537E-03     49.4439E-03
             434            1183     51.9537E-03     49.4439E-03
             440            1183     51.9537E-03     49.4439E-03
             440            1184     54.9028E-03     50.5321E-03
             434            1184     54.9028E-03     50.5321E-03
             441            1184     54.9028E-03     50.5321E-03
             435            1184     54.9028E-03     50.5321E-03
             441            1185     49.2797E-03     53.8521E-03
             436            1185     49.2797E-03     53.8521E-03
             435            1185     49.2797E-03     53.8521E-03
             442            1185     49.2797E-03     53.8521E-03
             437            1186     52.2687E-03     48.8442E-03
             443            1186     52.2687E-03     48.8442E-03
             436            1186     52.2687E-03     48.8442E-03
             442            1186     52.2687E-03     48.8442E-03
             444            1187     48.6830E-03     47.2899E-03
             437            1187     48.6830E-03     47.2899E-03
             443            1187     48.6830E-03     47.2899E-03
             438            1187     48.6830E-03     47.2899E-03
             446            1188     68.6913E-03     65.8122E-03
             439            1188     68.6913E-03     65.8122E-03
             440            1188     68.6913E-03     65.8122E-03
             445            1188     68.6913E-03     65.8122E-03
             447            1189     71.8101E-03     63.5694E-03
             440            1189     71.8101E-03     63.5694E-03
             446            1189     71.8101E-03     63.5694E-03
             441            1189     71.8101E-03     63.5694E-03
             447            1190     62.2423E-03     68.6257E-03
             448            1190     62.2423E-03     68.6257E-03
             442            1190     62.2423E-03     68.6257E-03
             441            1190     62.2423E-03     68.6257E-03
             442            1191     67.2776E-03     61.9291E-03
             448            1191     67.2776E-03     61.9291E-03
             449            1191     67.2776E-03     61.9291E-03
             443            1191     67.2776E-03     61.9291E-03
             443            1192     62.8214E-03     61.5060E-03
             449            1192     62.8214E-03     61.5060E-03
             444            1192     62.8214E-03     61.5060E-03
             450            1192     62.8214E-03     61.5060E-03
             445            1193     82.1332E-03     81.2588E-03
             452            1193     82.1332E-03     81.2588E-03
             451            1193     82.1332E-03     81.2588E-03
             446            1193     82.1332E-03     81.2588E-03
             446            1194     84.1965E-03     75.9905E-03
             453            1194     84.1965E-03     75.9905E-03
             447            1194     84.1965E-03     75.9905E-03
             452            1194     84.1965E-03     75.9905E-03
             453            1195     70.4037E-03     80.6887E-03
             448            1195     70.4037E-03     80.6887E-03
             454            1195     70.4037E-03     80.6887E-03
             447            1195     70.4037E-03     80.6887E-03
             448            1196     77.8991E-03     72.4838E-03
             454            1196     77.8991E-03     72.4838E-03
             455            1196     77.8991E-03     72.4838E-03
             449            1196     77.8991E-03     72.4838E-03
             456            1197     74.5625E-03     73.6849E-03
             450            1197     74.5625E-03     73.6849E-03
             449            1197     74.5625E-03     73.6849E-03
             455            1197     74.5625E-03     73.6849E-03
             451            1198     94.4838E-03     93.4722E-03
             452            1198     94.4838E-03     93.4722E-03
             458            1198     94.4838E-03     93.4722E-03
             457            1198     94.4838E-03     93.4722E-03
             453            1199     92.7560E-03     85.8470E-03
             459            1199     92.7560E-03     85.8470E-03
             458            1199     92.7560E-03     85.8470E-03
             452            1199     92.7560E-03     85.8470E-03
             460            1200     78.7354E-03     87.4003E-03
             459            1200     78.7354E-03     87.4003E-03
             453            1200     78.7354E-03     87.4003E-03
             454            1200     78.7354E-03     87.4003E-03
             454            1201     83.6208E-03     78.3224E-03
             460            1201     83.6208E-03     78.3224E-03
             461            1201     83.6208E-03     78.3224E-03
             455            1201     83.6208E-03     78.3224E-03
             455            1202     80.5247E-03     78.1743E-03
             462            1202     80.5247E-03     78.1743E-03
             456            1202     80.5247E-03     78.1743E-03
             461            1202     80.5247E-03     78.1743E-03
             469            1203     648.901E-06     641.173E-06
             464            1203     648.901E-06     641.173E-06
             470            1203     648.901E-06     641.173E-06
             463            1203     648.901E-06     641.173E-06
             470            1204     652.196E-06     644.700E-06
             464            1204     652.196E-06     644.700E-06
             465            1204     652.196E-06     644.700E-06
             471            1204     652.196E-06     644.700E-06
             465            1205     648.899E-06     649.761E-06
             471            1205     648.899E-06     649.761E-06
             466            1205     648.899E-06     649.761E-06
             472            1205     648.899E-06     649.761E-06
             467            1206     659.003E-06     651.685E-06
             472            1206     659.003E-06     651.685E-06
             473            1206     659.003E-06     651.685E-06
             466            1206     659.003E-06     651.685E-06
             467            1207     658.520E-06     644.182E-06
             468            1207     658.520E-06     644.182E-06
             474            1207     658.520E-06     644.182E-06
             473            1207     658.520E-06     644.182E-06
             476            1208     592.650E-06     585.073E-06
             469            1208     592.650E-06     585.073E-06
             475            1208     592.650E-06     585.073E-06
             470            1208     592.650E-06     585.073E-06
             471            1209     598.553E-06     591.331E-06
             470            1209     598.553E-06     591.331E-06
             477            1209     598.553E-06     591.331E-06
             476            1209     598.553E-06     591.331E-06
             477            1210     600.697E-06     604.153E-06
             472            1210     600.697E-06     604.153E-06
             478            1210     600.697E-06     604.153E-06
             471            1210     600.697E-06     604.153E-06
             473            1211     624.852E-06     613.229E-06
             478            1211     624.852E-06     613.229E-06
             472            1211     624.852E-06     613.229E-06
             479            1211     624.852E-06     613.229E-06
             473            1212     626.578E-06     617.197E-06
             480            1212     626.578E-06     617.197E-06
             479            1212     626.578E-06     617.197E-06
             474            1212     626.578E-06     617.197E-06
             475            1213     499.926E-06     495.476E-06
             481            1213     499.926E-06     495.476E-06
             476            1213     499.926E-06     495.476E-06
             482            1213     499.926E-06     495.476E-06
             482            1214     507.694E-06     508.476E-06
             477            1214     507.694E-06     508.476E-06
             476            1214     507.694E-06     508.476E-06
             483            1214     507.694E-06     508.476E-06
             483            1215     521.338E-06     534.038E-06
             484            1215     521.338E-06     534.038E-06
             478            1215     521.338E-06     534.038E-06
             477            1215     521.338E-06     534.038E-06
             484            1216     574.452E-06     548.530E-06
             485            1216     574.452E-06     548.530E-06
             478            1216     574.452E-06     548.530E-06
             479            1216     574.452E-06     548.530E-06
             486            1217     585.636E-06     573.725E-06
             479            1217     585.636E-06     573.725E-06
             485            1217     585.636E-06     573.725E-06
             480            1217     585.636E-06     573.725E-06
             482            1218     369.735E-06     375.428E-06
             488            1218     369.735E-06     375.428E-06
             481            1218     369.735E-06     375.428E-06
             487            1218     369.735E-06     375.428E-06
             488            1219     389.341E-06     398.753E-06
             489            1219     389.341E-06     398.753E-06
             483            1219     389.341E-06     398.753E-06
             482            1219     389.341E-06     398.753E-06
             490            1220     420.350E-06     442.998E-06
             483            1220     420.350E-06     442.998E-06
             484            1220     420.350E-06     442.998E-06
             489            1220     420.350E-06     442.998E-06
             485            1221     510.868E-06     463.168E-06
             484            1221     510.868E-06     463.168E-06
             491            1221     510.868E-06     463.168E-06
             490            1221     510.868E-06     463.168E-06
             486            1222     530.996E-06     523.403E-06
             492            1222     530.996E-06     523.403E-06
             491            1222     530.996E-06     523.403E-06
             485            1222     530.996E-06     523.403E-06
             493            1223     216.252E-06     234.555E-06
             494            1223     216.252E-06     234.555E-06
             487            1223     216.252E-06     234.555E-06
             488            1223     216.252E-06     234.555E-06
             495            1224     248.301E-06     247.372E-06
             494            1224     248.301E-06     247.372E-06
             488            1224     248.301E-06     247.372E-06
             489            1224     248.301E-06     247.372E-06
             490            1225     310.268E-06     336.560E-06
             495            1225     310.268E-06     336.560E-06
             489            1225     310.268E-06     336.560E-06
             496            1225     310.268E-06     336.560E-06
             496            1226     463.353E-06     410.369E-06
             497            1226     463.353E-06     410.369E-06
             491            1226     463.353E-06     410.369E-06
             490            1226     463.353E-06     410.369E-06
             492            1227     505.050E-06     512.485E-06
             491            1227     505.050E-06     512.485E-06
             498            1227     505.050E-06     512.485E-06
             497            1227     505.050E-06     512.485E-06
             500            1228     157.504E-06     197.561E-06
             493            1228     157.504E-06     197.561E-06
             499            1228     157.504E-06     197.561E-06
             494            1228     157.504E-06     197.561E-06
             495            1229     195.969E-06     179.074E-06
             500            1229     195.969E-06     179.074E-06
             501            1229     195.969E-06     179.074E-06
             494            1229     195.969E-06     179.074E-06
             495            1230     283.655E-06     312.636E-06
             501            1230     283.655E-06     312.636E-06
             502            1230     283.655E-06     312.636E-06
             496            1230     283.655E-06     312.636E-06
             502            1231     486.570E-06     447.993E-06
             496            1231     486.570E-06     447.993E-06
             503            1231     486.570E-06     447.993E-06
             497            1231     486.570E-06     447.993E-06
             498            1232     607.351E-06     611.671E-06
             503            1232     607.351E-06     611.671E-06
             497            1232     607.351E-06     611.671E-06
             504            1232     607.351E-06     611.671E-06
             546            1233     20.2476E-03     19.8675E-03
             505            1233     20.2476E-03     19.8675E-03
             545            1233     20.2476E-03     19.8675E-03
             506            1233     20.2476E-03     19.8675E-03
             507            1234     23.9354E-03     22.5688E-03
             546            1234     23.9354E-03     22.5688E-03
             547            1234     23.9354E-03     22.5688E-03
             506            1234     23.9354E-03     22.5688E-03
             508            1235     24.1133E-03     24.2698E-03
             507            1235     24.1133E-03     24.2698E-03
             547            1235     24.1133E-03     24.2698E-03
             548            1235     24.1133E-03     24.2698E-03
             509            1236     23.1303E-03     24.3013E-03
             549            1236     23.1303E-03     24.3013E-03
             508            1236     23.1303E-03     24.3013E-03
             548            1236     23.1303E-03     24.3013E-03
             509            1237     23.6195E-03     23.8398E-03
             510            1237     23.6195E-03     23.8398E-03
             549            1237     23.6195E-03     23.8398E-03
             550            1237     23.6195E-03     23.8398E-03
             550            1238     23.6065E-03     23.7599E-03
             551            1238     23.6065E-03     23.7599E-03
             511            1238     23.6065E-03     23.7599E-03
             510            1238     23.6065E-03     23.7599E-03
             511            1239     23.4705E-03     23.3467E-03
             551            1239     23.4705E-03     23.3467E-03
             552            1239     23.4705E-03     23.3467E-03
             512            1239     23.4705E-03     23.3467E-03
             552            1240     23.3635E-03     22.9611E-03
             513            1240     23.3635E-03     22.9611E-03
             512            1240     23.3635E-03     22.9611E-03
             553            1240     23.3635E-03     22.9611E-03
             514            1241     23.3243E-03     22.6232E-03
             513            1241     23.3243E-03     22.6232E-03
             554            1241     23.3243E-03     22.6232E-03
             553            1241     23.3243E-03     22.6232E-03
             554            1242     22.9556E-03     22.0009E-03
             555            1242     22.9556E-03     22.0009E-03
             515            1242     22.9556E-03     22.0009E-03
             514            1242     22.9556E-03     22.0009E-03
             515            1243     22.4799E-03     22.5143E-03
             555            1243     22.4799E-03     22.5143E-03
             556            1243     22.4799E-03     22.5143E-03
             516            1243     22.4799E-03     22.5143E-03
             556            1244     21.2545E-03     21.3410E-03
             557            1244     21.2545E-03     21.3410E-03
             517            1244     21.2545E-03     21.3410E-03
             516            1244     21.2545E-03     21.3410E-03
             557            1245     21.2888E-03     20.2274E-03
             558            1245     21.2888E-03     20.2274E-03
             518            1245     21.2888E-03     20.2274E-03
             517            1245     21.2888E-03     20.2274E-03
             519            1246     21.3481E-03     21.4371E-03
             558            1246     21.3481E-03     21.4371E-03
             518            1246     21.3481E-03     21.4371E-03
             559            1246     21.3481E-03     21.4371E-03
             560            1247     20.6099E-03     21.3794E-03
             520            1247     20.6099E-03     21.3794E-03
             519            1247     20.6099E-03     21.3794E-03
             559            1247     20.6099E-03     21.3794E-03
             560            1248     20.8968E-03     21.0307E-03
             561            1248     20.8968E-03     21.0307E-03
             521            1248     20.8968E-03     21.0307E-03
             520            1248     20.8968E-03     21.0307E-03
             562            1249     20.8210E-03     20.9665E-03
             561            1249     20.8210E-03     20.9665E-03
             521            1249     20.8210E-03     20.9665E-03
             522            1249     20.8210E-03     20.9665E-03
             562            1250     20.7081E-03     20.7176E-03
             523            1250     20.7081E-03     20.7176E-03
             563            1250     20.7081E-03     20.7176E-03
             522            1250     20.7081E-03     20.7176E-03
             524            1251     20.6522E-03     20.4105E-03
             563            1251     20.6522E-03     20.4105E-03
             564            1251     20.6522E-03     20.4105E-03
             523            1251     20.6522E-03     20.4105E-03
             524            1252     20.5583E-03     20.2002E-03
             564            1252     20.5583E-03     20.2002E-03
             565            1252     20.5583E-03     20.2002E-03
             525            1252     20.5583E-03     20.2002E-03
             525            1253     20.5240E-03     19.9751E-03
             566            1253     20.5240E-03     19.9751E-03
             526            1253     20.5240E-03     19.9751E-03
             565            1253     20.5240E-03     19.9751E-03
             526            1254     20.3303E-03     19.6891E-03
             527            1254     20.3303E-03     19.6891E-03
             567            1254     20.3303E-03     19.6891E-03
             566            1254     20.3303E-03     19.6891E-03
             527            1255     20.0555E-03     19.9824E-03
             568            1255     20.0555E-03     19.9824E-03
             567            1255     20.0555E-03     19.9824E-03
             528            1255     20.0555E-03     19.9824E-03
             529            1256     19.1324E-03     18.9855E-03
             569            1256     19.1324E-03     18.9855E-03
             528            1256     19.1324E-03     18.9855E-03
             568            1256     19.1324E-03     18.9855E-03
             570            1257     18.8042E-03     18.1309E-03
             529            1257     18.8042E-03     18.1309E-03
             530            1257     18.8042E-03     18.1309E-03
             569            1257     18.8042E-03     18.1309E-03
             570            1258     18.8152E-03     18.8370E-03
             530            1258     18.8152E-03     18.8370E-03
             571            1258     18.8152E-03     18.8370E-03
             531            1258     18.8152E-03     18.8370E-03
             572            1259     18.4078E-03     18.7571E-03
             531            1259     18.4078E-03     18.7571E-03
             532            1259     18.4078E-03     18.7571E-03
             571            1259     18.4078E-03     18.7571E-03
             532            1260     18.5475E-03     18.5573E-03
             573            1260     18.5475E-03     18.5573E-03
             572            1260     18.5475E-03     18.5573E-03
             533            1260     18.5475E-03     18.5573E-03
             574            1261     18.4999E-03     18.5276E-03
             573            1261     18.4999E-03     18.5276E-03
             534            1261     18.4999E-03     18.5276E-03
             533            1261     18.4999E-03     18.5276E-03
             574            1262     18.4524E-03     18.3970E-03
             575            1262     18.4524E-03     18.3970E-03
             534            1262     18.4524E-03     18.3970E-03
             535            1262     18.4524E-03     18.3970E-03
             535            1263     18.4569E-03     18.2797E-03
             536            1263     18.4569E-03     18.2797E-03
             575            1263     18.4569E-03     18.2797E-03
             576            1263     18.4569E-03     18.2797E-03
             537            1264     18.4657E-03     18.2279E-03
             536            1264     18.4657E-03     18.2279E-03
             576            1264     18.4657E-03     18.2279E-03
             577            1264     18.4657E-03     18.2279E-03
             577            1265     18.4474E-03     18.1317E-03
             538            1265     18.4474E-03     18.1317E-03
             578            1265     18.4474E-03     18.1317E-03
             537            1265     18.4474E-03     18.1317E-03
             578            1266     18.3475E-03     18.1433E-03
             538            1266     18.3475E-03     18.1433E-03
             539            1266     18.3475E-03     18.1433E-03
             579            1266     18.3475E-03     18.1433E-03
             580            1267     17.2598E-03     17.0835E-03
             579            1267     17.2598E-03     17.0835E-03
             540            1267     17.2598E-03     17.0835E-03
             539            1267     17.2598E-03     17.0835E-03
             581            1268     16.4472E-03     16.1522E-03
             580            1268     16.4472E-03     16.1522E-03
             540            1268     16.4472E-03     16.1522E-03
             541            1268     16.4472E-03     16.1522E-03
             541            1269     16.4832E-03     16.4166E-03
             582            1269     16.4832E-03     16.4166E-03
             581            1269     16.4832E-03     16.4166E-03
             542            1269     16.4832E-03     16.4166E-03
             542            1270     16.4039E-03     16.3822E-03
             543            1270     16.4039E-03     16.3822E-03
             583            1270     16.4039E-03     16.3822E-03
             582            1270     16.4039E-03     16.3822E-03
             543            1271     16.4133E-03     16.2780E-03
             544            1271     16.4133E-03     16.2780E-03
             584            1271     16.4133E-03     16.2780E-03
             583            1271     16.4133E-03     16.2780E-03
             545            1272     29.4398E-03     30.9156E-03
             546            1272     29.4398E-03     30.9156E-03
             586            1272     29.4398E-03     30.9156E-03
             585            1272     29.4398E-03     30.9156E-03
             586            1273     33.8397E-03     31.8733E-03
             547            1273     33.8397E-03     31.8733E-03
             587            1273     33.8397E-03     31.8733E-03
             546            1273     33.8397E-03     31.8733E-03
             588            1274     34.9767E-03     33.0828E-03
             547            1274     34.9767E-03     33.0828E-03
             548            1274     34.9767E-03     33.0828E-03
             587            1274     34.9767E-03     33.0828E-03
             548            1275     32.3743E-03     33.5278E-03
             588            1275     32.3743E-03     33.5278E-03
             549            1275     32.3743E-03     33.5278E-03
             589            1275     32.3743E-03     33.5278E-03
             589            1276     32.4934E-03     31.8446E-03
             590            1276     32.4934E-03     31.8446E-03
             549            1276     32.4934E-03     31.8446E-03
             550            1276     32.4934E-03     31.8446E-03
             550            1277     31.6899E-03     31.4287E-03
             591            1277     31.6899E-03     31.4287E-03
             551            1277     31.6899E-03     31.4287E-03
             590            1277     31.6899E-03     31.4287E-03
             551            1278     30.6170E-03     30.6735E-03
             591            1278     30.6170E-03     30.6735E-03
             552            1278     30.6170E-03     30.6735E-03
             592            1278     30.6170E-03     30.6735E-03
             552            1279     29.7224E-03     29.7257E-03
             593            1279     29.7224E-03     29.7257E-03
             592            1279     29.7224E-03     29.7257E-03
             553            1279     29.7224E-03     29.7257E-03
             593            1280     28.5874E-03     29.1477E-03
             594            1280     28.5874E-03     29.1477E-03
             553            1280     28.5874E-03     29.1477E-03
             554            1280     28.5874E-03     29.1477E-03
             554            1281     28.2474E-03     27.4173E-03
             594            1281     28.2474E-03     27.4173E-03
             555            1281     28.2474E-03     27.4173E-03
             595            1281     28.2474E-03     27.4173E-03
             555            1282     26.8430E-03     26.6718E-03
             595            1282     26.8430E-03     26.6718E-03
             596            1282     26.8430E-03     26.6718E-03
             556            1282     26.8430E-03     26.6718E-03
             597            1283     24.7641E-03     26.5401E-03
             596            1283     24.7641E-03     26.5401E-03
             556            1283     24.7641E-03     26.5401E-03
             557            1283     24.7641E-03     26.5401E-03
             598            1284     26.7879E-03     25.3009E-03
             597            1284     26.7879E-03     25.3009E-03
             558            1284     26.7879E-03     25.3009E-03
             557            1284     26.7879E-03     25.3009E-03
             558            1285     27.3992E-03     26.0412E-03
             599            1285     27.3992E-03     26.0412E-03
             559            1285     27.3992E-03     26.0412E-03
             598            1285     27.3992E-03     26.0412E-03
             599            1286     25.4875E-03     26.0868E-03
             600            1286     25.4875E-03     26.0868E-03
             559            1286     25.4875E-03     26.0868E-03
             560            1286     25.4875E-03     26.0868E-03
             600            1287     25.4401E-03     24.8367E-03
             561            1287     25.4401E-03     24.8367E-03
             560            1287     25.4401E-03     24.8367E-03
             601            1287     25.4401E-03     24.8367E-03
             561            1288     24.8058E-03     24.4747E-03
             602            1288     24.8058E-03     24.4747E-03
             562            1288     24.8058E-03     24.4747E-03
             601            1288     24.8058E-03     24.4747E-03
             603            1289     23.9642E-03     23.9959E-03
             563            1289     23.9642E-03     23.9959E-03
             602            1289     23.9642E-03     23.9959E-03
             562            1289     23.9642E-03     23.9959E-03
             564            1290     23.3667E-03     23.3877E-03
             563            1290     23.3667E-03     23.3877E-03
             603            1290     23.3667E-03     23.3877E-03
             604            1290     23.3667E-03     23.3877E-03
             605            1291     22.6546E-03     22.8232E-03
             564            1291     22.6546E-03     22.8232E-03
             565            1291     22.6546E-03     22.8232E-03
             604            1291     22.6546E-03     22.8232E-03
             606            1292     21.9946E-03     22.2792E-03
             605            1292     21.9946E-03     22.2792E-03
             566            1292     21.9946E-03     22.2792E-03
             565            1292     21.9946E-03     22.2792E-03
             606            1293     21.5976E-03     21.3199E-03
             566            1293     21.5976E-03     21.3199E-03
             567            1293     21.5976E-03     21.3199E-03
             607            1293     21.5976E-03     21.3199E-03
             607            1294     20.9173E-03     20.9315E-03
             568            1294     20.9173E-03     20.9315E-03
             608            1294     20.9173E-03     20.9315E-03
             567            1294     20.9173E-03     20.9315E-03
             609            1295     19.8141E-03     20.3937E-03
             608            1295     19.8141E-03     20.3937E-03
             569            1295     19.8141E-03     20.3937E-03
             568            1295     19.8141E-03     20.3937E-03
             570            1296     20.4655E-03     19.5689E-03
             569            1296     20.4655E-03     19.5689E-03
             609            1296     20.4655E-03     19.5689E-03
             610            1296     20.4655E-03     19.5689E-03
             570            1297     20.6521E-03     20.0002E-03
             611            1297     20.6521E-03     20.0002E-03
             571            1297     20.6521E-03     20.0002E-03
             610            1297     20.6521E-03     20.0002E-03
             571            1298     19.6008E-03     19.8601E-03
             612            1298     19.6008E-03     19.8601E-03
             572            1298     19.6008E-03     19.8601E-03
             611            1298     19.6008E-03     19.8601E-03
             613            1299     19.4694E-03     19.2356E-03
             612            1299     19.4694E-03     19.2356E-03
             572            1299     19.4694E-03     19.2356E-03
             573            1299     19.4694E-03     19.2356E-03
             574            1300     19.0708E-03     19.0535E-03
             573            1300     19.0708E-03     19.0535E-03
             613            1300     19.0708E-03     19.0535E-03
             614            1300     19.0708E-03     19.0535E-03
             574            1301     18.6228E-03     18.7599E-03
             614            1301     18.6228E-03     18.7599E-03
             615            1301     18.6228E-03     18.7599E-03
             575            1301     18.6228E-03     18.7599E-03
             616            1302     18.3216E-03     18.4152E-03
             576            1302     18.3216E-03     18.4152E-03
             575            1302     18.3216E-03     18.4152E-03
             615            1302     18.3216E-03     18.4152E-03
             616            1303     18.0424E-03     18.0974E-03
             576            1303     18.0424E-03     18.0974E-03
             617            1303     18.0424E-03     18.0974E-03
             577            1303     18.0424E-03     18.0974E-03
             617            1304     17.8480E-03     17.7618E-03
             577            1304     17.8480E-03     17.7618E-03
             618            1304     17.8480E-03     17.7618E-03
             578            1304     17.8480E-03     17.7618E-03
             619            1305     17.6377E-03     17.5519E-03
             618            1305     17.6377E-03     17.5519E-03
             578            1305     17.6377E-03     17.5519E-03
             579            1305     17.6377E-03     17.5519E-03
             580            1306     16.7522E-03     16.7025E-03
             620            1306     16.7522E-03     16.7025E-03
             619            1306     16.7522E-03     16.7025E-03
             579            1306     16.7522E-03     16.7025E-03
             621            1307     16.2302E-03     15.9922E-03
             620            1307     16.2302E-03     15.9922E-03
             580            1307     16.2302E-03     15.9922E-03
             581            1307     16.2302E-03     15.9922E-03
             622            1308     16.2832E-03     16.1834E-03
             581            1308     16.2832E-03     16.1834E-03
             582            1308     16.2832E-03     16.1834E-03
             621            1308     16.2832E-03     16.1834E-03
             622            1309     16.1381E-03     16.1075E-03
             623            1309     16.1381E-03     16.1075E-03
             583            1309     16.1381E-03     16.1075E-03
             582            1309     16.1381E-03     16.1075E-03
             624            1310     16.1014E-03     15.9374E-03
             584            1310     16.1014E-03     15.9374E-03
             623            1310     16.1014E-03     15.9374E-03
             583            1310     16.1014E-03     15.9374E-03
             625            1311     42.1651E-03     46.8522E-03
             585            1311     42.1651E-03     46.8522E-03
             626            1311     42.1651E-03     46.8522E-03
             586            1311     42.1651E-03     46.8522E-03
             586            1312     48.6695E-03     46.4772E-03
             627            1312     48.6695E-03     46.4772E-03
             626            1312     48.6695E-03     46.4772E-03
             587            1312     48.6695E-03     46.4772E-03
             588            1313     50.2932E-03     45.8178E-03
             587            1313     50.2932E-03     45.8178E-03
             628            1313     50.2932E-03     45.8178E-03
             627            1313     50.2932E-03     45.8178E-03
             629            1314     44.3984E-03     46.0103E-03
             628            1314     44.3984E-03     46.0103E-03
             588            1314     44.3984E-03     46.0103E-03
             589            1314     44.3984E-03     46.0103E-03
             630            1315     43.6838E-03     42.3210E-03
             629            1315     43.6838E-03     42.3210E-03
             589            1315     43.6838E-03     42.3210E-03
             590            1315     43.6838E-03     42.3210E-03
             590            1316     41.9490E-03     41.2809E-03
             631            1316     41.9490E-03     41.2809E-03
             591            1316     41.9490E-03     41.2809E-03
             630            1316     41.9490E-03     41.2809E-03
             631            1317     40.1766E-03     40.0866E-03
             591            1317     40.1766E-03     40.0866E-03
             632            1317     40.1766E-03     40.0866E-03
             592            1317     40.1766E-03     40.0866E-03
             632            1318     38.8554E-03     38.7697E-03
             633            1318     38.8554E-03     38.7697E-03
             593            1318     38.8554E-03     38.7697E-03
             592            1318     38.8554E-03     38.7697E-03
             634            1319     37.0205E-03     38.8118E-03
             594            1319     37.0205E-03     38.8118E-03
             633            1319     37.0205E-03     38.8118E-03
             593            1319     37.0205E-03     38.8118E-03
             594            1320     37.4909E-03     36.5038E-03
             595            1320     37.4909E-03     36.5038E-03
             634            1320     37.4909E-03     36.5038E-03
             635            1320     37.4909E-03     36.5038E-03
             595            1321     35.0353E-03     34.9517E-03
             636            1321     35.0353E-03     34.9517E-03
             635            1321     35.0353E-03     34.9517E-03
             596            1321     35.0353E-03     34.9517E-03
             596            1322     31.0393E-03     36.4285E-03
             637            1322     31.0393E-03     36.4285E-03
             636            1322     31.0393E-03     36.4285E-03
             597            1322     31.0393E-03     36.4285E-03
             597            1323     35.7510E-03     34.1397E-03
             598            1323     35.7510E-03     34.1397E-03
             638            1323     35.7510E-03     34.1397E-03
             637            1323     35.7510E-03     34.1397E-03
             639            1324     36.5952E-03     33.4125E-03
             598            1324     36.5952E-03     33.4125E-03
             638            1324     36.5952E-03     33.4125E-03
             599            1324     36.5952E-03     33.4125E-03
             600            1325     32.2128E-03     33.2234E-03
             640            1325     32.2128E-03     33.2234E-03
             639            1325     32.2128E-03     33.2234E-03
             599            1325     32.2128E-03     33.2234E-03
             640            1326     31.4727E-03     30.4862E-03
             600            1326     31.4727E-03     30.4862E-03
             601            1326     31.4727E-03     30.4862E-03
             641            1326     31.4727E-03     30.4862E-03
             601            1327     30.0710E-03     29.4523E-03
             642            1327     30.0710E-03     29.4523E-03
             602            1327     30.0710E-03     29.4523E-03
             641            1327     30.0710E-03     29.4523E-03
             603            1328     28.4525E-03     28.4813E-03
             602            1328     28.4525E-03     28.4813E-03
             642            1328     28.4525E-03     28.4813E-03
             643            1328     28.4525E-03     28.4813E-03
             644            1329     27.3959E-03     27.3667E-03
             604            1329     27.3959E-03     27.3667E-03
             643            1329     27.3959E-03     27.3667E-03
             603            1329     27.3959E-03     27.3667E-03
             645            1330     26.2268E-03     26.5512E-03
             605            1330     26.2268E-03     26.5512E-03
             644            1330     26.2268E-03     26.5512E-03
             604            1330     26.2268E-03     26.5512E-03
             605            1331     24.9202E-03     26.1225E-03
             645            1331     24.9202E-03     26.1225E-03
             606            1331     24.9202E-03     26.1225E-03
             646            1331     24.9202E-03     26.1225E-03
             607            1332     24.5930E-03     24.6439E-03
             606            1332     24.5930E-03     24.6439E-03
             646            1332     24.5930E-03     24.6439E-03
             647            1332     24.5930E-03     24.6439E-03
             608            1333     23.2635E-03     23.5743E-03
             647            1333     23.2635E-03     23.5743E-03
             648            1333     23.2635E-03     23.5743E-03
             607            1333     23.2635E-03     23.5743E-03
             608            1334     21.3531E-03     23.7635E-03
             648            1334     21.3531E-03     23.7635E-03
             609            1334     21.3531E-03     23.7635E-03
             649            1334     21.3531E-03     23.7635E-03
             609            1335     23.4133E-03     22.3809E-03
             649            1335     23.4133E-03     22.3809E-03
             610            1335     23.4133E-03     22.3809E-03
             650            1335     23.4133E-03     22.3809E-03
             610            1336     23.5614E-03     21.8333E-03
             651            1336     23.5614E-03     21.8333E-03
             650            1336     23.5614E-03     21.8333E-03
             611            1336     23.5614E-03     21.8333E-03
             612            1337     21.0792E-03     21.4781E-03
             611            1337     21.0792E-03     21.4781E-03
             652            1337     21.0792E-03     21.4781E-03
             651            1337     21.0792E-03     21.4781E-03
             652            1338     20.5050E-03     20.0345E-03
             653            1338     20.5050E-03     20.0345E-03
             613            1338     20.5050E-03     20.0345E-03
             612            1338     20.5050E-03     20.0345E-03
             614            1339     19.6455E-03     19.4515E-03
             653            1339     19.6455E-03     19.4515E-03
             654            1339     19.6455E-03     19.4515E-03
             613            1339     19.6455E-03     19.4515E-03
             654            1340     18.7174E-03     18.8435E-03
             615            1340     18.7174E-03     18.8435E-03
             614            1340     18.7174E-03     18.8435E-03
             655            1340     18.7174E-03     18.8435E-03
             616            1341     17.9838E-03     18.2291E-03
             655            1341     17.9838E-03     18.2291E-03
             615            1341     17.9838E-03     18.2291E-03
             656            1341     17.9838E-03     18.2291E-03
             657            1342     17.2577E-03     17.7239E-03
             656            1342     17.2577E-03     17.7239E-03
             616            1342     17.2577E-03     17.7239E-03
             617            1342     17.2577E-03     17.7239E-03
             617            1343     16.6548E-03     17.0748E-03
             657            1343     16.6548E-03     17.0748E-03
             658            1343     16.6548E-03     17.0748E-03
             618            1343     16.6548E-03     17.0748E-03
             658            1344     16.2488E-03     16.5023E-03
             659            1344     16.2488E-03     16.5023E-03
             619            1344     16.2488E-03     16.5023E-03
             618            1344     16.2488E-03     16.5023E-03
             619            1345     15.6280E-03     15.8376E-03
             620            1345     15.6280E-03     15.8376E-03
             660            1345     15.6280E-03     15.8376E-03
             659            1345     15.6280E-03     15.8376E-03
             621            1346     15.5351E-03     15.2671E-03
             660            1346     15.5351E-03     15.2671E-03
             620            1346     15.5351E-03     15.2671E-03
             661            1346     15.5351E-03     15.2671E-03
             661            1347     15.4180E-03     15.2269E-03
             621            1347     15.4180E-03     15.2269E-03
             662            1347     15.4180E-03     15.2269E-03
             622            1347     15.4180E-03     15.2269E-03
             663            1348     14.9760E-03     15.0920E-03
             662            1348     14.9760E-03     15.0920E-03
             622            1348     14.9760E-03     15.0920E-03
             623            1348     14.9760E-03     15.0920E-03
             663            1349     14.9514E-03     14.8241E-03
             624            1349     14.9514E-03     14.8241E-03
             664            1349     14.9514E-03     14.8241E-03
             623            1349     14.9514E-03     14.8241E-03
             626            1350     54.2151E-03     63.0525E-03
             665            1350     54.2151E-03     63.0525E-03
             625            1350     54.2151E-03     63.0525E-03
             666            1350     54.2151E-03     63.0525E-03
             627            1351     62.9836E-03     61.5284E-03
             626            1351     62.9836E-03     61.5284E-03
             666            1351     62.9836E-03     61.5284E-03
             667            1351     62.9836E-03     61.5284E-03
             668            1352     64.1987E-03     58.0717E-03
             628            1352     64.1987E-03     58.0717E-03
             627            1352     64.1987E-03     58.0717E-03
             667            1352     64.1987E-03     58.0717E-03
             628            1353     54.5293E-03     58.4843E-03
             668            1353     54.5293E-03     58.4843E-03
             629            1353     54.5293E-03     58.4843E-03
             669            1353     54.5293E-03     58.4843E-03
             670            1354     53.2447E-03     52.7264E-03
             669            1354     53.2447E-03     52.7264E-03
             630            1354     53.2447E-03     52.7264E-03
             629            1354     53.2447E-03     52.7264E-03
             631            1355     50.6762E-03     51.0131E-03
             671            1355     50.6762E-03     51.0131E-03
             670            1355     50.6762E-03     51.0131E-03
             630            1355     50.6762E-03     51.0131E-03
             631            1356     48.2724E-03     49.0955E-03
             672            1356     48.2724E-03     49.0955E-03
             671            1356     48.2724E-03     49.0955E-03
             632            1356     48.2724E-03     49.0955E-03
             633            1357     46.9105E-03     46.9339E-03
             673            1357     46.9105E-03     46.9339E-03
             672            1357     46.9105E-03     46.9339E-03
             632            1357     46.9105E-03     46.9339E-03
             633            1358     44.8038E-03     47.6504E-03
             634            1358     44.8038E-03     47.6504E-03
             673            1358     44.8038E-03     47.6504E-03
             674            1358     44.8038E-03     47.6504E-03
             675            1359     47.2253E-03     45.3952E-03
             674            1359     47.2253E-03     45.3952E-03
             635            1359     47.2253E-03     45.3952E-03
             634            1359     47.2253E-03     45.3952E-03
             676            1360     44.5054E-03     44.9519E-03
             635            1360     44.5054E-03     44.9519E-03
             675            1360     44.5054E-03     44.9519E-03
             636            1360     44.5054E-03     44.9519E-03
             637            1361     38.0935E-03     48.7748E-03
             676            1361     38.0935E-03     48.7748E-03
             636            1361     38.0935E-03     48.7748E-03
             677            1361     38.0935E-03     48.7748E-03
             677            1362     44.7781E-03     43.7064E-03
             637            1362     44.7781E-03     43.7064E-03
             678            1362     44.7781E-03     43.7064E-03
             638            1362     44.7781E-03     43.7064E-03
             639            1363     45.3576E-03     41.0328E-03
             678            1363     45.3576E-03     41.0328E-03
             638            1363     45.3576E-03     41.0328E-03
             679            1363     45.3576E-03     41.0328E-03
             680            1364     38.2372E-03     41.0439E-03
             679            1364     38.2372E-03     41.0439E-03
             639            1364     38.2372E-03     41.0439E-03
             640            1364     38.2372E-03     41.0439E-03
             681            1365     36.9725E-03     36.7267E-03
             641            1365     36.9725E-03     36.7267E-03
             680            1365     36.9725E-03     36.7267E-03
             640            1365     36.9725E-03     36.7267E-03
             682            1366     34.8856E-03     34.9326E-03
             642            1366     34.8856E-03     34.9326E-03
             681            1366     34.8856E-03     34.9326E-03
             641            1366     34.8856E-03     34.9326E-03
             682            1367     32.4274E-03     33.2293E-03
             642            1367     32.4274E-03     33.2293E-03
             643            1367     32.4274E-03     33.2293E-03
             683            1367     32.4274E-03     33.2293E-03
             643            1368     31.0701E-03     31.3183E-03
             684            1368     31.0701E-03     31.3183E-03
             644            1368     31.0701E-03     31.3183E-03
             683            1368     31.0701E-03     31.3183E-03
             685            1369     29.6249E-03     29.9173E-03
             645            1369     29.6249E-03     29.9173E-03
             684            1369     29.6249E-03     29.9173E-03
             644            1369     29.6249E-03     29.9173E-03
             645            1370     27.9944E-03     29.6704E-03
             686            1370     27.9944E-03     29.6704E-03
             685            1370     27.9944E-03     29.6704E-03
             646            1370     27.9944E-03     29.6704E-03
             686            1371     28.5173E-03     28.2393E-03
             687            1371     28.5173E-03     28.2393E-03
             647            1371     28.5173E-03     28.2393E-03
             646            1371     28.5173E-03     28.2393E-03
             688            1372     26.8159E-03     27.5620E-03
             648            1372     26.8159E-03     27.5620E-03
             687            1372     26.8159E-03     27.5620E-03
             647            1372     26.8159E-03     27.5620E-03
             648            1373     23.4559E-03     28.8785E-03
             649            1373     23.4559E-03     28.8785E-03
             689            1373     23.4559E-03     28.8785E-03
             688            1373     23.4559E-03     28.8785E-03
             690            1374     26.5542E-03     25.8321E-03
             650            1374     26.5542E-03     25.8321E-03
             689            1374     26.5542E-03     25.8321E-03
             649            1374     26.5542E-03     25.8321E-03
             650            1375     26.5000E-03     24.0512E-03
             690            1375     26.5000E-03     24.0512E-03
             691            1375     26.5000E-03     24.0512E-03
             651            1375     26.5000E-03     24.0512E-03
             652            1376     22.3113E-03     23.7057E-03
             691            1376     22.3113E-03     23.7057E-03
             692            1376     22.3113E-03     23.7057E-03
             651            1376     22.3113E-03     23.7057E-03
             692            1377     21.3065E-03     21.0268E-03
             652            1377     21.3065E-03     21.0268E-03
             693            1377     21.3065E-03     21.0268E-03
             653            1377     21.3065E-03     21.0268E-03
             693            1378     19.8655E-03     19.7324E-03
             654            1378     19.8655E-03     19.7324E-03
             653            1378     19.8655E-03     19.7324E-03
             694            1378     19.8655E-03     19.7324E-03
             654            1379     18.3334E-03     18.5064E-03
             655            1379     18.3334E-03     18.5064E-03
             694            1379     18.3334E-03     18.5064E-03
             695            1379     18.3334E-03     18.5064E-03
             696            1380     17.2987E-03     17.3426E-03
             695            1380     17.2987E-03     17.3426E-03
             656            1380     17.2987E-03     17.3426E-03
             655            1380     17.2987E-03     17.3426E-03
             697            1381     16.2131E-03     16.7505E-03
             696            1381     16.2131E-03     16.7505E-03
             657            1381     16.2131E-03     16.7505E-03
             656            1381     16.2131E-03     16.7505E-03
             658            1382     15.4402E-03     16.1346E-03
             698            1382     15.4402E-03     16.1346E-03
             657            1382     15.4402E-03     16.1346E-03
             697            1382     15.4402E-03     16.1346E-03
             659            1383     14.7537E-03     15.4303E-03
             658            1383     14.7537E-03     15.4303E-03
             699            1383     14.7537E-03     15.4303E-03
             698            1383     14.7537E-03     15.4303E-03
             659            1384     13.9264E-03     14.7540E-03
             700            1384     13.9264E-03     14.7540E-03
             699            1384     13.9264E-03     14.7540E-03
             660            1384     13.9264E-03     14.7540E-03
             700            1385     14.1070E-03     13.7931E-03
             701            1385     14.1070E-03     13.7931E-03
             661            1385     14.1070E-03     13.7931E-03
             660            1385     14.1070E-03     13.7931E-03
             661            1386     13.9185E-03     13.5546E-03
             702            1386     13.9185E-03     13.5546E-03
             662            1386     13.9185E-03     13.5546E-03
             701            1386     13.9185E-03     13.5546E-03
             663            1387     13.0603E-03     13.5045E-03
             702            1387     13.0603E-03     13.5045E-03
             662            1387     13.0603E-03     13.5045E-03
             703            1387     13.0603E-03     13.5045E-03
             703            1388     12.8974E-03     12.9085E-03
             663            1388     12.8974E-03     12.9085E-03
             664            1388     12.8974E-03     12.9085E-03
             704            1388     12.8974E-03     12.9085E-03
             706            1389     64.0004E-03     75.9653E-03
             705            1389     64.0004E-03     75.9653E-03
             666            1389     64.0004E-03     75.9653E-03
             665            1389     64.0004E-03     75.9653E-03
             666            1390     74.7923E-03     74.7310E-03
             667            1390     74.7923E-03     74.7310E-03
             707            1390     74.7923E-03     74.7310E-03
             706            1390     74.7923E-03     74.7310E-03
             707            1391     75.1770E-03     69.9191E-03
             667            1391     75.1770E-03     69.9191E-03
             708            1391     75.1770E-03     69.9191E-03
             668            1391     75.1770E-03     69.9191E-03
             669            1392     62.7764E-03     69.9718E-03
             668            1392     62.7764E-03     69.9718E-03
             708            1392     62.7764E-03     69.9718E-03
             709            1392     62.7764E-03     69.9718E-03
             669            1393     61.7078E-03     62.7425E-03
             710            1393     61.7078E-03     62.7425E-03
             670            1393     61.7078E-03     62.7425E-03
             709            1393     61.7078E-03     62.7425E-03
             670            1394     58.1434E-03     60.5752E-03
             671            1394     58.1434E-03     60.5752E-03
             711            1394     58.1434E-03     60.5752E-03
             710            1394     58.1434E-03     60.5752E-03
             671            1395     55.0797E-03     57.8014E-03
             672            1395     55.0797E-03     57.8014E-03
             712            1395     55.0797E-03     57.8014E-03
             711            1395     55.0797E-03     57.8014E-03
             672            1396     53.4602E-03     54.4944E-03
             712            1396     53.4602E-03     54.4944E-03
             673            1396     53.4602E-03     54.4944E-03
             713            1396     53.4602E-03     54.4944E-03
             713            1397     50.3346E-03     54.7281E-03
             674            1397     50.3346E-03     54.7281E-03
             714            1397     50.3346E-03     54.7281E-03
             673            1397     50.3346E-03     54.7281E-03
             675            1398     54.1119E-03     52.1751E-03
             714            1398     54.1119E-03     52.1751E-03
             715            1398     54.1119E-03     52.1751E-03
             674            1398     54.1119E-03     52.1751E-03
             716            1399     52.5898E-03     52.8513E-03
             676            1399     52.5898E-03     52.8513E-03
             715            1399     52.5898E-03     52.8513E-03
             675            1399     52.5898E-03     52.8513E-03
             677            1400     44.7011E-03     58.7389E-03
             717            1400     44.7011E-03     58.7389E-03
             676            1400     44.7011E-03     58.7389E-03
             716            1400     44.7011E-03     58.7389E-03
             718            1401     52.4692E-03     52.4175E-03
             717            1401     52.4692E-03     52.4175E-03
             678            1401     52.4692E-03     52.4175E-03
             677            1401     52.4692E-03     52.4175E-03
             719            1402     52.6106E-03     48.8266E-03
             718            1402     52.6106E-03     48.8266E-03
             679            1402     52.6106E-03     48.8266E-03
             678            1402     52.6106E-03     48.8266E-03
             679            1403     43.4617E-03     48.4797E-03
             719            1403     43.4617E-03     48.4797E-03
             720            1403     43.4617E-03     48.4797E-03
             680            1403     43.4617E-03     48.4797E-03
             681            1404     42.1536E-03     42.9077E-03
             721            1404     42.1536E-03     42.9077E-03
             720            1404     42.1536E-03     42.9077E-03
             680            1404     42.1536E-03     42.9077E-03
             722            1405     39.2546E-03     40.6246E-03
             721            1405     39.2546E-03     40.6246E-03
             682            1405     39.2546E-03     40.6246E-03
             681            1405     39.2546E-03     40.6246E-03
             683            1406     36.1295E-03     38.0981E-03
             682            1406     36.1295E-03     38.0981E-03
             723            1406     36.1295E-03     38.0981E-03
             722            1406     36.1295E-03     38.0981E-03
             723            1407     34.2487E-03     35.4411E-03
             724            1407     34.2487E-03     35.4411E-03
             683            1407     34.2487E-03     35.4411E-03
             684            1407     34.2487E-03     35.4411E-03
             684            1408     32.2939E-03     33.0903E-03
             725            1408     32.2939E-03     33.0903E-03
             724            1408     32.2939E-03     33.0903E-03
             685            1408     32.2939E-03     33.0903E-03
             685            1409     30.0853E-03     32.2448E-03
             726            1409     30.0853E-03     32.2448E-03
             725            1409     30.0853E-03     32.2448E-03
             686            1409     30.0853E-03     32.2448E-03
             687            1410     31.2617E-03     30.6422E-03
             726            1410     31.2617E-03     30.6422E-03
             686            1410     31.2617E-03     30.6422E-03
             727            1410     31.2617E-03     30.6422E-03
             687            1411     30.3496E-03     30.6522E-03
             727            1411     30.3496E-03     30.6522E-03
             728            1411     30.3496E-03     30.6522E-03
             688            1411     30.3496E-03     30.6522E-03
             688            1412     25.9410E-03     33.3510E-03
             689            1412     25.9410E-03     33.3510E-03
             728            1412     25.9410E-03     33.3510E-03
             729            1412     25.9410E-03     33.3510E-03
             689            1413     29.6531E-03     29.6509E-03
             729            1413     29.6531E-03     29.6509E-03
             690            1413     29.6531E-03     29.6509E-03
             730            1413     29.6531E-03     29.6509E-03
             691            1414     29.4133E-03     27.1746E-03
             731            1414     29.4133E-03     27.1746E-03
             690            1414     29.4133E-03     27.1746E-03
             730            1414     29.4133E-03     27.1746E-03
             732            1415     23.6434E-03     26.3112E-03
             731            1415     23.6434E-03     26.3112E-03
             691            1415     23.6434E-03     26.3112E-03
             692            1415     23.6434E-03     26.3112E-03
             692            1416     22.2184E-03     22.3952E-03
             733            1416     22.2184E-03     22.3952E-03
             732            1416     22.2184E-03     22.3952E-03
             693            1416     22.2184E-03     22.3952E-03
             734            1417     19.9120E-03     20.3597E-03
             693            1417     19.9120E-03     20.3597E-03
             694            1417     19.9120E-03     20.3597E-03
             733            1417     19.9120E-03     20.3597E-03
             694            1418     17.6471E-03     18.2830E-03
             735            1418     17.6471E-03     18.2830E-03
             734            1418     17.6471E-03     18.2830E-03
             695            1418     17.6471E-03     18.2830E-03
             735            1419     16.1576E-03     16.2631E-03
             695            1419     16.1576E-03     16.2631E-03
             696            1419     16.1576E-03     16.2631E-03
             736            1419     16.1576E-03     16.2631E-03
             697            1420     14.6817E-03     15.0223E-03
             696            1420     14.6817E-03     15.0223E-03
             737            1420     14.6817E-03     15.0223E-03
             736            1420     14.6817E-03     15.0223E-03
             738            1421     14.0756E-03     14.3807E-03
             697            1421     14.0756E-03     14.3807E-03
             737            1421     14.0756E-03     14.3807E-03
             698            1421     14.0756E-03     14.3807E-03
             699            1422     13.7738E-03     14.0410E-03
             698            1422     13.7738E-03     14.0410E-03
             738            1422     13.7738E-03     14.0410E-03
             739            1422     13.7738E-03     14.0410E-03
             699            1423     12.1746E-03     13.6687E-03
             740            1423     12.1746E-03     13.6687E-03
             739            1423     12.1746E-03     13.6687E-03
             700            1423     12.1746E-03     13.6687E-03
             700            1424     12.1275E-03     12.1472E-03
             740            1424     12.1275E-03     12.1472E-03
             701            1424     12.1275E-03     12.1472E-03
             741            1424     12.1275E-03     12.1472E-03
             701            1425     11.7993E-03     10.9945E-03
             742            1425     11.7993E-03     10.9945E-03
             702            1425     11.7993E-03     10.9945E-03
             741            1425     11.7993E-03     10.9945E-03
             702            1426     10.3192E-03     10.7390E-03
             743            1426     10.3192E-03     10.7390E-03
             742            1426     10.3192E-03     10.7390E-03
             703            1426     10.3192E-03     10.7390E-03
             704            1427     10.1938E-03     10.2026E-03
             703            1427     10.1938E-03     10.2026E-03
             744            1427     10.1938E-03     10.2026E-03
             743            1427     10.1938E-03     10.2026E-03
             705            1428     74.0950E-03     84.0629E-03
             746            1428     74.0950E-03     84.0629E-03
             745            1428     74.0950E-03     84.0629E-03
             706            1428     74.0950E-03     84.0629E-03
             747            1429     85.1815E-03     84.0891E-03
             746            1429     85.1815E-03     84.0891E-03
             706            1429     85.1815E-03     84.0891E-03
             707            1429     85.1815E-03     84.0891E-03
             747            1430     82.5741E-03     78.1159E-03
             748            1430     82.5741E-03     78.1159E-03
             708            1430     82.5741E-03     78.1159E-03
             707            1430     82.5741E-03     78.1159E-03
             708            1431     71.1786E-03     76.6999E-03
             748            1431     71.1786E-03     76.6999E-03
             749            1431     71.1786E-03     76.6999E-03
             709            1431     71.1786E-03     76.6999E-03
             710            1432     69.7150E-03     69.7274E-03
             749            1432     69.7150E-03     69.7274E-03
             750            1432     69.7150E-03     69.7274E-03
             709            1432     69.7150E-03     69.7274E-03
             750            1433     65.5139E-03     67.1748E-03
             711            1433     65.5139E-03     67.1748E-03
             751            1433     65.5139E-03     67.1748E-03
             710            1433     65.5139E-03     67.1748E-03
             752            1434     62.1259E-03     63.6865E-03
             711            1434     62.1259E-03     63.6865E-03
             751            1434     62.1259E-03     63.6865E-03
             712            1434     62.1259E-03     63.6865E-03
             753            1435     59.5106E-03     59.7940E-03
             713            1435     59.5106E-03     59.7940E-03
             712            1435     59.5106E-03     59.7940E-03
             752            1435     59.5106E-03     59.7940E-03
             714            1436     55.4483E-03     58.3228E-03
             754            1436     55.4483E-03     58.3228E-03
             713            1436     55.4483E-03     58.3228E-03
             753            1436     55.4483E-03     58.3228E-03
             754            1437     56.9969E-03     54.5994E-03
             714            1437     56.9969E-03     54.5994E-03
             755            1437     56.9969E-03     54.5994E-03
             715            1437     56.9969E-03     54.5994E-03
             756            1438     55.7443E-03     53.7714E-03
             715            1438     55.7443E-03     53.7714E-03
             716            1438     55.7443E-03     53.7714E-03
             755            1438     55.7443E-03     53.7714E-03
             756            1439     51.8227E-03     62.1381E-03
             716            1439     51.8227E-03     62.1381E-03
             757            1439     51.8227E-03     62.1381E-03
             717            1439     51.8227E-03     62.1381E-03
             717            1440     59.8379E-03     59.2393E-03
             718            1440     59.8379E-03     59.2393E-03
             758            1440     59.8379E-03     59.2393E-03
             757            1440     59.8379E-03     59.2393E-03
             718            1441     57.6393E-03     54.4479E-03
             758            1441     57.6393E-03     54.4479E-03
             759            1441     57.6393E-03     54.4479E-03
             719            1441     57.6393E-03     54.4479E-03
             719            1442     48.9199E-03     52.8270E-03
             759            1442     48.9199E-03     52.8270E-03
             720            1442     48.9199E-03     52.8270E-03
             760            1442     48.9199E-03     52.8270E-03
             721            1443     47.2092E-03     47.2064E-03
             761            1443     47.2092E-03     47.2064E-03
             720            1443     47.2092E-03     47.2064E-03
             760            1443     47.2092E-03     47.2064E-03
             721            1444     43.6466E-03     44.6350E-03
             762            1444     43.6466E-03     44.6350E-03
             761            1444     43.6466E-03     44.6350E-03
             722            1444     43.6466E-03     44.6350E-03
             762            1445     40.4266E-03     41.4679E-03
             723            1445     40.4266E-03     41.4679E-03
             722            1445     40.4266E-03     41.4679E-03
             763            1445     40.4266E-03     41.4679E-03
             764            1446     37.6977E-03     38.3980E-03
             723            1446     37.6977E-03     38.3980E-03
             763            1446     37.6977E-03     38.3980E-03
             724            1446     37.6977E-03     38.3980E-03
             765            1447     35.0428E-03     35.2718E-03
             724            1447     35.0428E-03     35.2718E-03
             764            1447     35.0428E-03     35.2718E-03
             725            1447     35.0428E-03     35.2718E-03
             725            1448     31.9405E-03     33.1808E-03
             765            1448     31.9405E-03     33.1808E-03
             766            1448     31.9405E-03     33.1808E-03
             726            1448     31.9405E-03     33.1808E-03
             767            1449     31.6597E-03     30.3971E-03
             766            1449     31.6597E-03     30.3971E-03
             726            1449     31.6597E-03     30.3971E-03
             727            1449     31.6597E-03     30.3971E-03
             728            1450     30.6556E-03     29.2366E-03
             768            1450     30.6556E-03     29.2366E-03
             767            1450     30.6556E-03     29.2366E-03
             727            1450     30.6556E-03     29.2366E-03
             769            1451     29.1614E-03     34.5886E-03
             728            1451     29.1614E-03     34.5886E-03
             768            1451     29.1614E-03     34.5886E-03
             729            1451     29.1614E-03     34.5886E-03
             770            1452     33.7842E-03     33.6885E-03
             729            1452     33.7842E-03     33.6885E-03
             769            1452     33.7842E-03     33.6885E-03
             730            1452     33.7842E-03     33.6885E-03
             770            1453     31.7824E-03     29.8880E-03
             730            1453     31.7824E-03     29.8880E-03
             771            1453     31.7824E-03     29.8880E-03
             731            1453     31.7824E-03     29.8880E-03
             731            1454     25.6939E-03     27.9105E-03
             772            1454     25.6939E-03     27.9105E-03
             732            1454     25.6939E-03     27.9105E-03
             771            1454     25.6939E-03     27.9105E-03
             732            1455     23.6486E-03     23.5509E-03
             772            1455     23.6486E-03     23.5509E-03
             773            1455     23.6486E-03     23.5509E-03
             733            1455     23.6486E-03     23.5509E-03
             773            1456     20.5718E-03     21.0238E-03
             774            1456     20.5718E-03     21.0238E-03
             734            1456     20.5718E-03     21.0238E-03
             733            1456     20.5718E-03     21.0238E-03
             734            1457     17.8082E-03     18.1605E-03
             775            1457     17.8082E-03     18.1605E-03
             735            1457     17.8082E-03     18.1605E-03
             774            1457     17.8082E-03     18.1605E-03
             735            1458     15.3689E-03     15.4374E-03
             776            1458     15.3689E-03     15.4374E-03
             736            1458     15.3689E-03     15.4374E-03
             775            1458     15.3689E-03     15.4374E-03
             777            1459     13.0974E-03     12.9801E-03
             776            1459     13.0974E-03     12.9801E-03
             737            1459     13.0974E-03     12.9801E-03
             736            1459     13.0974E-03     12.9801E-03
             737            1460     11.6155E-03     11.2172E-03
             777            1460     11.6155E-03     11.2172E-03
             738            1460     11.6155E-03     11.2172E-03
             778            1460     11.6155E-03     11.2172E-03
             779            1461     11.2156E-03     10.5219E-03
             778            1461     11.2156E-03     10.5219E-03
             738            1461     11.2156E-03     10.5219E-03
             739            1461     11.2156E-03     10.5219E-03
             779            1462     10.9116E-03     12.3450E-03
             780            1462     10.9116E-03     12.3450E-03
             739            1462     10.9116E-03     12.3450E-03
             740            1462     10.9116E-03     12.3450E-03
             741            1463     11.1944E-03     11.5556E-03
             780            1463     11.1944E-03     11.5556E-03
             740            1463     11.1944E-03     11.5556E-03
             781            1463     11.1944E-03     11.5556E-03
             781            1464     9.21267E-03     7.97594E-03
             782            1464     9.21267E-03     7.97594E-03
             742            1464     9.21267E-03     7.97594E-03
             741            1464     9.21267E-03     7.97594E-03
             782            1465     6.09657E-03     6.39390E-03
             743            1465     6.09657E-03     6.39390E-03
             742            1465     6.09657E-03     6.39390E-03
             783            1465     6.09657E-03     6.39390E-03
             743            1466     6.04196E-03     6.52953E-03
             744            1466     6.04196E-03     6.52953E-03
             783            1466     6.04196E-03     6.52953E-03
             784            1466     6.04196E-03     6.52953E-03
            1761            2351     632.547E-06     621.633E-06
            1757            2351     632.547E-06     621.633E-06
            1762            2351     632.547E-06     621.633E-06
            1758            2351     632.547E-06     621.633E-06
            1759            2352     636.364E-06     627.315E-06
            1758            2352     636.364E-06     627.315E-06
            1763            2352     636.364E-06     627.315E-06
            1762            2352     636.364E-06     627.315E-06
            1760            2353     628.174E-06     624.082E-06
            1759            2353     628.174E-06     624.082E-06
            1763            2353     628.174E-06     624.082E-06
            1764            2353     628.174E-06     624.082E-06
            1765            2354     583.486E-06     576.813E-06
            1762            2354     583.486E-06     576.813E-06
            1766            2354     583.486E-06     576.813E-06
            1761            2354     583.486E-06     576.813E-06
            1766            2355     587.965E-06     577.850E-06
            1767            2355     587.965E-06     577.850E-06
            1762            2355     587.965E-06     577.850E-06
            1763            2355     587.965E-06     577.850E-06
            1767            2356     575.512E-06     572.367E-06
            1768            2356     575.512E-06     572.367E-06
            1763            2356     575.512E-06     572.367E-06
            1764            2356     575.512E-06     572.367E-06
            1769            2357     510.864E-06     507.907E-06
            1765            2357     510.864E-06     507.907E-06
            1770            2357     510.864E-06     507.907E-06
            1766            2357     510.864E-06     507.907E-06
            1766            2358     510.541E-06     496.016E-06
            1770            2358     510.541E-06     496.016E-06
            1771            2358     510.541E-06     496.016E-06
            1767            2358     510.541E-06     496.016E-06
            1771            2359     491.464E-06     490.046E-06
            1767            2359     491.464E-06     490.046E-06
            1772            2359     491.464E-06     490.046E-06
            1768            2359     491.464E-06     490.046E-06
            1773            2360     415.038E-06     418.698E-06
            1769            2360     415.038E-06     418.698E-06
            1770            2360     415.038E-06     418.698E-06
            1774            2360     415.038E-06     418.698E-06
            1770            2361     410.253E-06     396.137E-06
            1775            2361     410.253E-06     396.137E-06
            1774            2361     410.253E-06     396.137E-06
            1771            2361     410.253E-06     396.137E-06
            1772            2362     377.804E-06     385.431E-06
            1775            2362     377.804E-06     385.431E-06
            1771            2362     377.804E-06     385.431E-06
            1776            2362     377.804E-06     385.431E-06
            1773            2363     316.487E-06     324.635E-06
            1777            2363     316.487E-06     324.635E-06
            1774            2363     316.487E-06     324.635E-06
            1778            2363     316.487E-06     324.635E-06
            1775            2364     302.739E-06     275.460E-06
            1774            2364     302.739E-06     275.460E-06
            1779            2364     302.739E-06     275.460E-06
            1778            2364     302.739E-06     275.460E-06
            1779            2365     241.323E-06     259.563E-06
            1775            2365     241.323E-06     259.563E-06
            1776            2365     241.323E-06     259.563E-06
            1780            2365     241.323E-06     259.563E-06
            1782            2366     346.807E-06     356.476E-06
            1781            2366     346.807E-06     356.476E-06
            1777            2366     346.807E-06     356.476E-06
            1778            2366     346.807E-06     356.476E-06
            1778            2367     267.231E-06     227.605E-06
            1782            2367     267.231E-06     227.605E-06
            1783            2367     267.231E-06     227.605E-06
            1779            2367     267.231E-06     227.605E-06
            1780            2368     163.797E-06     216.392E-06
            1779            2368     163.797E-06     216.392E-06
            1783            2368     163.797E-06     216.392E-06
            1784            2368     163.797E-06     216.392E-06
            2349            2836     88.0758E-03     93.1997E-03
            2344            2836     88.0758E-03     93.1997E-03
            2343            2836     88.0758E-03     93.1997E-03
            2350            2836     88.0758E-03     93.1997E-03
            2351            2837     86.7919E-03     86.1695E-03
            2344            2837     86.7919E-03     86.1695E-03
            2350            2837     86.7919E-03     86.1695E-03
            2345            2837     86.7919E-03     86.1695E-03
            2351            2838     81.8352E-03     85.2850E-03
            2345            2838     81.8352E-03     85.2850E-03
            2352            2838     81.8352E-03     85.2850E-03
            2346            2838     81.8352E-03     85.2850E-03
            2347            2839     81.2084E-03     81.0347E-03
            2346            2839     81.2084E-03     81.0347E-03
            2353            2839     81.2084E-03     81.0347E-03
            2352            2839     81.2084E-03     81.0347E-03
            2353            2840     68.3165E-03     65.1175E-03
            2347            2840     68.3165E-03     65.1175E-03
            2354            2840     68.3165E-03     65.1175E-03
            2348            2840     68.3165E-03     65.1175E-03
            2356            2841     115.697E-03     119.128E-03
            2355            2841     115.697E-03     119.128E-03
            2349            2841     115.697E-03     119.128E-03
            2350            2841     115.697E-03     119.128E-03
            2351            2842     114.250E-03     112.228E-03
            2356            2842     114.250E-03     112.228E-03
            2357            2842     114.250E-03     112.228E-03
            2350            2842     114.250E-03     112.228E-03
            2351            2843     107.411E-03     110.966E-03
            2352            2843     107.411E-03     110.966E-03
            2357            2843     107.411E-03     110.966E-03
            2358            2843     107.411E-03     110.966E-03
            2353            2844     105.509E-03     105.126E-03
            2358            2844     105.509E-03     105.126E-03
            2359            2844     105.509E-03     105.126E-03
            2352            2844     105.509E-03     105.126E-03
            2359            2845     86.0563E-03     85.0984E-03
            2360            2845     86.0563E-03     85.0984E-03
            2354            2845     86.0563E-03     85.0984E-03
            2353            2845     86.0563E-03     85.0984E-03
            2361            2846     140.513E-03     143.232E-03
            2355            2846     140.513E-03     143.232E-03
            2356            2846     140.513E-03     143.232E-03
            2362            2846     140.513E-03     143.232E-03
            2362            2847     140.632E-03     137.696E-03
            2357            2847     140.632E-03     137.696E-03
            2356            2847     140.632E-03     137.696E-03
            2363            2847     140.632E-03     137.696E-03
            2358            2848     134.468E-03     137.133E-03
            2357            2848     134.468E-03     137.133E-03
            2363            2848     134.468E-03     137.133E-03
            2364            2848     134.468E-03     137.133E-03
            2364            2849     131.104E-03     129.375E-03
            2365            2849     131.104E-03     129.375E-03
            2359            2849     131.104E-03     129.375E-03
            2358            2849     131.104E-03     129.375E-03
            2360            2850     105.325E-03     104.608E-03
            2365            2850     105.325E-03     104.608E-03
            2359            2850     105.325E-03     104.608E-03
            2366            2850     105.325E-03     104.608E-03
            2367            2851     162.366E-03     166.623E-03
            2368            2851     162.366E-03     166.623E-03
            2362            2851     162.366E-03     166.623E-03
            2361            2851     162.366E-03     166.623E-03
            2368            2852     163.334E-03     160.440E-03
            2363            2852     163.334E-03     160.440E-03
            2369            2852     163.334E-03     160.440E-03
            2362            2852     163.334E-03     160.440E-03
            2370            2853     158.137E-03     158.636E-03
            2363            2853     158.137E-03     158.636E-03
            2364            2853     158.137E-03     158.636E-03
            2369            2853     158.137E-03     158.636E-03
            2371            2854     154.555E-03     149.678E-03
            2365            2854     154.555E-03     149.678E-03
            2370            2854     154.555E-03     149.678E-03
            2364            2854     154.555E-03     149.678E-03
            2365            2855     122.898E-03     122.035E-03
            2371            2855     122.898E-03     122.035E-03
            2366            2855     122.898E-03     122.035E-03
            2372            2855     122.898E-03     122.035E-03
            2374            2856     186.235E-03     188.093E-03
            2367            2856     186.235E-03     188.093E-03
            2373            2856     186.235E-03     188.093E-03
            2368            2856     186.235E-03     188.093E-03
            2374            2857     182.652E-03     181.224E-03
            2375            2857     182.652E-03     181.224E-03
            2368            2857     182.652E-03     181.224E-03
            2369            2857     182.652E-03     181.224E-03
            2369            2858     173.704E-03     176.049E-03
            2375            2858     173.704E-03     176.049E-03
            2376            2858     173.704E-03     176.049E-03
            2370            2858     173.704E-03     176.049E-03
            2371            2859     168.974E-03     165.598E-03
            2370            2859     168.974E-03     165.598E-03
            2376            2859     168.974E-03     165.598E-03
            2377            2859     168.974E-03     165.598E-03
            2377            2860     134.637E-03     136.345E-03
            2372            2860     134.637E-03     136.345E-03
            2378            2860     134.637E-03     136.345E-03
            2371            2860     134.637E-03     136.345E-03
            2373            2861     210.543E-03     206.602E-03
            2379            2861     210.543E-03     206.602E-03
            2380            2861     210.543E-03     206.602E-03
            2374            2861     210.543E-03     206.602E-03
            2375            2862     200.177E-03     198.230E-03
            2381            2862     200.177E-03     198.230E-03
            2374            2862     200.177E-03     198.230E-03
            2380            2862     200.177E-03     198.230E-03
            2382            2863     184.009E-03     188.232E-03
            2381            2863     184.009E-03     188.232E-03
            2376            2863     184.009E-03     188.232E-03
            2375            2863     184.009E-03     188.232E-03
            2383            2864     173.179E-03     175.984E-03
            2377            2864     173.179E-03     175.984E-03
            2382            2864     173.179E-03     175.984E-03
            2376            2864     173.179E-03     175.984E-03
            2377            2865     138.023E-03     144.012E-03
            2383            2865     138.023E-03     144.012E-03
            2378            2865     138.023E-03     144.012E-03
            2384            2865     138.023E-03     144.012E-03
            3502            3869     21.2047E-03     19.9500E-03
            3551            3869     21.2047E-03     19.9500E-03
            3552            3869     21.2047E-03     19.9500E-03
            3501            3869     21.2047E-03     19.9500E-03
            3502            3870     21.2752E-03     21.5287E-03
            3553            3870     21.2752E-03     21.5287E-03
            3552            3870     21.2752E-03     21.5287E-03
            3503            3870     21.2752E-03     21.5287E-03
            3503            3871     20.2659E-03     21.4040E-03
            3554            3871     20.2659E-03     21.4040E-03
            3504            3871     20.2659E-03     21.4040E-03
            3553            3871     20.2659E-03     21.4040E-03
            3504            3872     20.7897E-03     20.8657E-03
            3554            3872     20.7897E-03     20.8657E-03
            3555            3872     20.7897E-03     20.8657E-03
            3505            3872     20.7897E-03     20.8657E-03
            3555            3873     20.7173E-03     20.6763E-03
            3556            3873     20.7173E-03     20.6763E-03
            3506            3873     20.7173E-03     20.6763E-03
            3505            3873     20.7173E-03     20.6763E-03
            3557            3874     20.6036E-03     20.3741E-03
            3507            3874     20.6036E-03     20.3741E-03
            3506            3874     20.6036E-03     20.3741E-03
            3556            3874     20.6036E-03     20.3741E-03
            3558            3875     20.7299E-03     20.0408E-03
            3507            3875     20.7299E-03     20.0408E-03
            3557            3875     20.7299E-03     20.0408E-03
            3508            3875     20.7299E-03     20.0408E-03
            3509            3876     20.4697E-03     19.5017E-03
            3559            3876     20.4697E-03     19.5017E-03
            3558            3876     20.4697E-03     19.5017E-03
            3508            3876     20.4697E-03     19.5017E-03
            3510            3877     20.0244E-03     20.2667E-03
            3559            3877     20.0244E-03     20.2667E-03
            3560            3877     20.0244E-03     20.2667E-03
            3509            3877     20.0244E-03     20.2667E-03
            3511            3878     18.9554E-03     19.2417E-03
            3561            3878     18.9554E-03     19.2417E-03
            3510            3878     18.9554E-03     19.2417E-03
            3560            3878     18.9554E-03     19.2417E-03
            3511            3879     19.1193E-03     18.0762E-03
            3561            3879     19.1193E-03     18.0762E-03
            3562            3879     19.1193E-03     18.0762E-03
            3512            3879     19.1193E-03     18.0762E-03
            3562            3880     19.1123E-03     19.3251E-03
            3563            3880     19.1123E-03     19.3251E-03
            3513            3880     19.1123E-03     19.3251E-03
            3512            3880     19.1123E-03     19.3251E-03
            3513            3881     18.2833E-03     19.1773E-03
            3563            3881     18.2833E-03     19.1773E-03
            3564            3881     18.2833E-03     19.1773E-03
            3514            3881     18.2833E-03     19.1773E-03
            3514            3882     18.6033E-03     18.7321E-03
            3565            3882     18.6033E-03     18.7321E-03
            3515            3882     18.6033E-03     18.7321E-03
            3564            3882     18.6033E-03     18.7321E-03
            3516            3883     18.5227E-03     18.6183E-03
            3565            3883     18.5227E-03     18.6183E-03
            3515            3883     18.5227E-03     18.6183E-03
            3566            3883     18.5227E-03     18.6183E-03
            3516            3884     18.4162E-03     18.2759E-03
            3517            3884     18.4162E-03     18.2759E-03
            3567            3884     18.4162E-03     18.2759E-03
            3566            3884     18.4162E-03     18.2759E-03
            3568            3885     18.3769E-03     18.0256E-03
            3517            3885     18.3769E-03     18.0256E-03
            3518            3885     18.3769E-03     18.0256E-03
            3567            3885     18.3769E-03     18.0256E-03
            3518            3886     18.4490E-03     17.8245E-03
            3569            3886     18.4490E-03     17.8245E-03
            3568            3886     18.4490E-03     17.8245E-03
            3519            3886     18.4490E-03     17.8245E-03
            3570            3887     18.2073E-03     17.4447E-03
            3519            3887     18.2073E-03     17.4447E-03
            3520            3887     18.2073E-03     17.4447E-03
            3569            3887     18.2073E-03     17.4447E-03
            3520            3888     17.9296E-03     18.0170E-03
            3571            3888     17.9296E-03     18.0170E-03
            3570            3888     17.9296E-03     18.0170E-03
            3521            3888     17.9296E-03     18.0170E-03
            3522            3889     17.0322E-03     17.1262E-03
            3571            3889     17.0322E-03     17.1262E-03
            3521            3889     17.0322E-03     17.1262E-03
            3572            3889     17.0322E-03     17.1262E-03
            3572            3890     16.9777E-03     16.1980E-03
            3523            3890     16.9777E-03     16.1980E-03
            3522            3890     16.9777E-03     16.1980E-03
            3573            3890     16.9777E-03     16.1980E-03
            3574            3891     16.9481E-03     17.0798E-03
            3573            3891     16.9481E-03     17.0798E-03
            3523            3891     16.9481E-03     17.0798E-03
            3524            3891     16.9481E-03     17.0798E-03
            3524            3892     16.3371E-03     16.9328E-03
            3574            3892     16.3371E-03     16.9328E-03
            3575            3892     16.3371E-03     16.9328E-03
            3525            3892     16.3371E-03     16.9328E-03
            3525            3893     16.5339E-03     16.6041E-03
            3526            3893     16.5339E-03     16.6041E-03
            3576            3893     16.5339E-03     16.6041E-03
            3575            3893     16.5339E-03     16.6041E-03
            3526            3894     16.4556E-03     16.5192E-03
            3576            3894     16.4556E-03     16.5192E-03
            3527            3894     16.4556E-03     16.5192E-03
            3577            3894     16.4556E-03     16.5192E-03
            3528            3895     16.3779E-03     16.2837E-03
            3578            3895     16.3779E-03     16.2837E-03
            3527            3895     16.3779E-03     16.2837E-03
            3577            3895     16.3779E-03     16.2837E-03
            3528            3896     16.3645E-03     16.1122E-03
            3529            3896     16.3645E-03     16.1122E-03
            3578            3896     16.3645E-03     16.1122E-03
            3579            3896     16.3645E-03     16.1122E-03
            3529            3897     16.4185E-03     15.9849E-03
            3530            3897     16.4185E-03     15.9849E-03
            3580            3897     16.4185E-03     15.9849E-03
            3579            3897     16.4185E-03     15.9849E-03
            3530            3898     16.2768E-03     15.7709E-03
            3531            3898     16.2768E-03     15.7709E-03
            3580            3898     16.2768E-03     15.7709E-03
            3581            3898     16.2768E-03     15.7709E-03
            3532            3899     16.1097E-03     16.0863E-03
            3582            3899     16.1097E-03     16.0863E-03
            3581            3899     16.1097E-03     16.0863E-03
            3531            3899     16.1097E-03     16.0863E-03
            3532            3900     15.3251E-03     15.2712E-03
            3533            3900     15.3251E-03     15.2712E-03
            3582            3900     15.3251E-03     15.2712E-03
            3583            3900     15.3251E-03     15.2712E-03
            3584            3901     15.0375E-03     14.5018E-03
            3534            3901     15.0375E-03     14.5018E-03
            3583            3901     15.0375E-03     14.5018E-03
            3533            3901     15.0375E-03     14.5018E-03
            3534            3902     15.0108E-03     15.0455E-03
            3535            3902     15.0108E-03     15.0455E-03
            3584            3902     15.0108E-03     15.0455E-03
            3585            3902     15.0108E-03     15.0455E-03
            3586            3903     14.6138E-03     14.9325E-03
            3535            3903     14.6138E-03     14.9325E-03
            3536            3903     14.6138E-03     14.9325E-03
            3585            3903     14.6138E-03     14.9325E-03
            3586            3904     14.7126E-03     14.7251E-03
            3587            3904     14.7126E-03     14.7251E-03
            3537            3904     14.7126E-03     14.7251E-03
            3536            3904     14.7126E-03     14.7251E-03
            3587            3905     14.6479E-03     14.6808E-03
            3538            3905     14.6479E-03     14.6808E-03
            3588            3905     14.6479E-03     14.6808E-03
            3537            3905     14.6479E-03     14.6808E-03
            3538            3906     14.6021E-03     14.5529E-03
            3589            3906     14.6021E-03     14.5529E-03
            3588            3906     14.6021E-03     14.5529E-03
            3539            3906     14.6021E-03     14.5529E-03
            3590            3907     14.6091E-03     14.4526E-03
            3540            3907     14.6091E-03     14.4526E-03
            3589            3907     14.6091E-03     14.4526E-03
            3539            3907     14.6091E-03     14.4526E-03
            3591            3908     14.6306E-03     14.4031E-03
            3541            3908     14.6306E-03     14.4031E-03
            3540            3908     14.6306E-03     14.4031E-03
            3590            3908     14.6306E-03     14.4031E-03
            3541            3909     14.6061E-03     14.3210E-03
            3542            3909     14.6061E-03     14.3210E-03
            3592            3909     14.6061E-03     14.3210E-03
            3591            3909     14.6061E-03     14.3210E-03
            3593            3910     14.5259E-03     14.3805E-03
            3592            3910     14.5259E-03     14.3805E-03
            3543            3910     14.5259E-03     14.3805E-03
            3542            3910     14.5259E-03     14.3805E-03
            3543            3911     13.6764E-03     13.5635E-03
            3544            3911     13.6764E-03     13.5635E-03
            3594            3911     13.6764E-03     13.5635E-03
            3593            3911     13.6764E-03     13.5635E-03
            3594            3912     13.0786E-03     12.8257E-03
            3595            3912     13.0786E-03     12.8257E-03
            3544            3912     13.0786E-03     12.8257E-03
            3545            3912     13.0786E-03     12.8257E-03
            3546            3913     13.0977E-03     13.0347E-03
            3595            3913     13.0977E-03     13.0347E-03
            3596            3913     13.0977E-03     13.0347E-03
            3545            3913     13.0977E-03     13.0347E-03
            3597            3914     12.9608E-03     12.9813E-03
            3547            3914     12.9608E-03     12.9813E-03
            3546            3914     12.9608E-03     12.9813E-03
            3596            3914     12.9608E-03     12.9813E-03
            3548            3915     13.0073E-03     12.9392E-03
            3547            3915     13.0073E-03     12.9392E-03
            3597            3915     13.0073E-03     12.9392E-03
            3598            3915     13.0073E-03     12.9392E-03
            3599            3916     13.0418E-03     12.9513E-03
            3548            3916     13.0418E-03     12.9513E-03
            3549            3916     13.0418E-03     12.9513E-03
            3598            3916     13.0418E-03     12.9513E-03
            3550            3917     12.9991E-03     12.8902E-03
            3600            3917     12.9991E-03     12.8902E-03
            3549            3917     12.9991E-03     12.8902E-03
            3599            3917     12.9991E-03     12.8902E-03
            3551            3918     27.8602E-03     25.9168E-03
            3552            3918     27.8602E-03     25.9168E-03
            3601            3918     27.8602E-03     25.9168E-03
            3602            3918     27.8602E-03     25.9168E-03
            3552            3919     28.7129E-03     27.5377E-03
            3602            3919     28.7129E-03     27.5377E-03
            3603            3919     28.7129E-03     27.5377E-03
            3553            3919     28.7129E-03     27.5377E-03
            3604            3920     26.8565E-03     27.7949E-03
            3554            3920     26.8565E-03     27.7949E-03
            3603            3920     26.8565E-03     27.7949E-03
            3553            3920     26.8565E-03     27.7949E-03
            3604            3921     27.0650E-03     26.6123E-03
            3605            3921     27.0650E-03     26.6123E-03
            3554            3921     27.0650E-03     26.6123E-03
            3555            3921     27.0650E-03     26.6123E-03
            3556            3922     26.4765E-03     26.2594E-03
            3605            3922     26.4765E-03     26.2594E-03
            3606            3922     26.4765E-03     26.2594E-03
            3555            3922     26.4765E-03     26.2594E-03
            3557            3923     25.5250E-03     25.6465E-03
            3556            3923     25.5250E-03     25.6465E-03
            3607            3923     25.5250E-03     25.6465E-03
            3606            3923     25.5250E-03     25.6465E-03
            3608            3924     24.8340E-03     25.1003E-03
            3558            3924     24.8340E-03     25.1003E-03
            3607            3924     24.8340E-03     25.1003E-03
            3557            3924     24.8340E-03     25.1003E-03
            3559            3925     24.4469E-03     23.6607E-03
            3608            3925     24.4469E-03     23.6607E-03
            3609            3925     24.4469E-03     23.6607E-03
            3558            3925     24.4469E-03     23.6607E-03
            3609            3926     23.2966E-03     23.4368E-03
            3560            3926     23.2966E-03     23.4368E-03
            3610            3926     23.2966E-03     23.4368E-03
            3559            3926     23.2966E-03     23.4368E-03
            3561            3927     21.6987E-03     22.9145E-03
            3610            3927     21.6987E-03     22.9145E-03
            3560            3927     21.6987E-03     22.9145E-03
            3611            3927     21.6987E-03     22.9145E-03
            3562            3928     23.3234E-03     21.6843E-03
            3612            3928     23.3234E-03     21.6843E-03
            3611            3928     23.3234E-03     21.6843E-03
            3561            3928     23.3234E-03     21.6843E-03
            3562            3929     23.8779E-03     22.8901E-03
            3612            3929     23.8779E-03     22.8901E-03
            3563            3929     23.8779E-03     22.8901E-03
            3613            3929     23.8779E-03     22.8901E-03
            3563            3930     22.4266E-03     22.9032E-03
            3613            3930     22.4266E-03     22.9032E-03
            3614            3930     22.4266E-03     22.9032E-03
            3564            3930     22.4266E-03     22.9032E-03
            3564            3931     22.5458E-03     21.9634E-03
            3615            3931     22.5458E-03     21.9634E-03
            3614            3931     22.5458E-03     21.9634E-03
            3565            3931     22.5458E-03     21.9634E-03
            3565            3932     22.0241E-03     21.7976E-03
            3615            3932     22.0241E-03     21.7976E-03
            3616            3932     22.0241E-03     21.7976E-03
            3566            3932     22.0241E-03     21.7976E-03
            3566            3933     21.3571E-03     21.3653E-03
            3617            3933     21.3571E-03     21.3653E-03
            3567            3933     21.3571E-03     21.3653E-03
            3616            3933     21.3571E-03     21.3653E-03
            3618            3934     20.8277E-03     20.9037E-03
            3568            3934     20.8277E-03     20.9037E-03
            3617            3934     20.8277E-03     20.9037E-03
            3567            3934     20.8277E-03     20.9037E-03
            3569            3935     20.2841E-03     20.5173E-03
            3619            3935     20.2841E-03     20.5173E-03
            3618            3935     20.2841E-03     20.5173E-03
            3568            3935     20.2841E-03     20.5173E-03
            3619            3936     19.9518E-03     19.5482E-03
            3620            3936     19.9518E-03     19.5482E-03
            3569            3936     19.9518E-03     19.5482E-03
            3570            3936     19.9518E-03     19.5482E-03
            3620            3937     19.2703E-03     19.5057E-03
            3570            3937     19.2703E-03     19.5057E-03
            3621            3937     19.2703E-03     19.5057E-03
            3571            3937     19.2703E-03     19.5057E-03
            3572            3938     18.2496E-03     18.8499E-03
            3621            3938     18.2496E-03     18.8499E-03
            3571            3938     18.2496E-03     18.8499E-03
            3622            3938     18.2496E-03     18.8499E-03
            3573            3939     19.0901E-03     17.8742E-03
            3572            3939     19.0901E-03     17.8742E-03
            3623            3939     19.0901E-03     17.8742E-03
            3622            3939     19.0901E-03     17.8742E-03
            3574            3940     19.3805E-03     18.7390E-03
            3573            3940     19.3805E-03     18.7390E-03
            3623            3940     19.3805E-03     18.7390E-03
            3624            3940     19.3805E-03     18.7390E-03
            3625            3941     18.3891E-03     18.6267E-03
            3574            3941     18.3891E-03     18.6267E-03
            3575            3941     18.3891E-03     18.6267E-03
            3624            3941     18.3891E-03     18.6267E-03
            3575            3942     18.4161E-03     18.0169E-03
            3576            3942     18.4161E-03     18.0169E-03
            3625            3942     18.4161E-03     18.0169E-03
            3626            3942     18.4161E-03     18.0169E-03
            3627            3943     18.0311E-03     17.9180E-03
            3576            3943     18.0311E-03     17.9180E-03
            3577            3943     18.0311E-03     17.9180E-03
            3626            3943     18.0311E-03     17.9180E-03
            3578            3944     17.5661E-03     17.6335E-03
            3577            3944     17.5661E-03     17.6335E-03
            3627            3944     17.5661E-03     17.6335E-03
            3628            3944     17.5661E-03     17.6335E-03
            3579            3945     17.2212E-03     17.3373E-03
            3578            3945     17.2212E-03     17.3373E-03
            3629            3945     17.2212E-03     17.3373E-03
            3628            3945     17.2212E-03     17.3373E-03
            3580            3946     16.9111E-03     17.0353E-03
            3579            3946     16.9111E-03     17.0353E-03
            3630            3946     16.9111E-03     17.0353E-03
            3629            3946     16.9111E-03     17.0353E-03
            3581            3947     16.6563E-03     16.4875E-03
            3580            3947     16.6563E-03     16.4875E-03
            3631            3947     16.6563E-03     16.4875E-03
            3630            3947     16.6563E-03     16.4875E-03
            3582            3948     16.3171E-03     16.4931E-03
            3631            3948     16.3171E-03     16.4931E-03
            3632            3948     16.3171E-03     16.4931E-03
            3581            3948     16.3171E-03     16.4931E-03
            3583            3949     15.6134E-03     15.7427E-03
            3633            3949     15.6134E-03     15.7427E-03
            3582            3949     15.6134E-03     15.7427E-03
            3632            3949     15.6134E-03     15.7427E-03
            3583            3950     15.7858E-03     14.9860E-03
            3633            3950     15.7858E-03     14.9860E-03
            3634            3950     15.7858E-03     14.9860E-03
            3584            3950     15.7858E-03     14.9860E-03
            3634            3951     15.8999E-03     15.5432E-03
            3584            3951     15.8999E-03     15.5432E-03
            3635            3951     15.8999E-03     15.5432E-03
            3585            3951     15.8999E-03     15.5432E-03
            3635            3952     15.3294E-03     15.4094E-03
            3586            3952     15.3294E-03     15.4094E-03
            3585            3952     15.3294E-03     15.4094E-03
            3636            3952     15.3294E-03     15.4094E-03
            3587            3953     15.3205E-03     15.1084E-03
            3636            3953     15.3205E-03     15.1084E-03
            3637            3953     15.3205E-03     15.1084E-03
            3586            3953     15.3205E-03     15.1084E-03
            3587            3954     15.0946E-03     15.0868E-03
            3637            3954     15.0946E-03     15.0868E-03
            3588            3954     15.0946E-03     15.0868E-03
            3638            3954     15.0946E-03     15.0868E-03
            3588            3955     14.8494E-03     14.9467E-03
            3589            3955     14.8494E-03     14.9467E-03
            3639            3955     14.8494E-03     14.9467E-03
            3638            3955     14.8494E-03     14.9467E-03
            3590            3956     14.6930E-03     14.7859E-03
            3639            3956     14.6930E-03     14.7859E-03
            3589            3956     14.6930E-03     14.7859E-03
            3640            3956     14.6930E-03     14.7859E-03
            3591            3957     14.5644E-03     14.6142E-03
            3640            3957     14.5644E-03     14.6142E-03
            3641            3957     14.5644E-03     14.6142E-03
            3590            3957     14.5644E-03     14.6142E-03
            3641            3958     14.4771E-03     14.4011E-03
            3591            3958     14.4771E-03     14.4011E-03
            3642            3958     14.4771E-03     14.4011E-03
            3592            3958     14.4771E-03     14.4011E-03
            3642            3959     14.3581E-03     14.3500E-03
            3593            3959     14.3581E-03     14.3500E-03
            3592            3959     14.3581E-03     14.3500E-03
            3643            3959     14.3581E-03     14.3500E-03
            3593            3960     13.7175E-03     13.6335E-03
            3594            3960     13.7175E-03     13.6335E-03
            3644            3960     13.7175E-03     13.6335E-03
            3643            3960     13.7175E-03     13.6335E-03
            3644            3961     13.3554E-03     13.0721E-03
            3645            3961     13.3554E-03     13.0721E-03
            3595            3961     13.3554E-03     13.0721E-03
            3594            3961     13.3554E-03     13.0721E-03
            3645            3962     13.3837E-03     13.3431E-03
            3646            3962     13.3837E-03     13.3431E-03
            3595            3962     13.3837E-03     13.3431E-03
            3596            3962     13.3837E-03     13.3431E-03
            3597            3963     13.1998E-03     13.2504E-03
            3596            3963     13.1998E-03     13.2504E-03
            3647            3963     13.1998E-03     13.2504E-03
            3646            3963     13.1998E-03     13.2504E-03
            3648            3964     13.2186E-03     13.1671E-03
            3597            3964     13.2186E-03     13.1671E-03
            3647            3964     13.2186E-03     13.1671E-03
            3598            3964     13.2186E-03     13.1671E-03
            3649            3965     13.2609E-03     13.1744E-03
            3599            3965     13.2609E-03     13.1744E-03
            3598            3965     13.2609E-03     13.1744E-03
            3648            3965     13.2609E-03     13.1744E-03
            3650            3966     13.2026E-03     13.0607E-03
            3649            3966     13.2026E-03     13.0607E-03
            3599            3966     13.2026E-03     13.0607E-03
            3600            3966     13.2026E-03     13.0607E-03
            3652            3967     43.2065E-03     40.9031E-03
            3601            3967     43.2065E-03     40.9031E-03
            3602            3967     43.2065E-03     40.9031E-03
            3651            3967     43.2065E-03     40.9031E-03
            3653            3968     44.6376E-03     40.6654E-03
            3652            3968     44.6376E-03     40.6654E-03
            3602            3968     44.6376E-03     40.6654E-03
            3603            3968     44.6376E-03     40.6654E-03
            3654            3969     39.6157E-03     40.7552E-03
            3653            3969     39.6157E-03     40.7552E-03
            3603            3969     39.6157E-03     40.7552E-03
            3604            3969     39.6157E-03     40.7552E-03
            3655            3970     39.0912E-03     37.8467E-03
            3604            3970     39.0912E-03     37.8467E-03
            3605            3970     39.0912E-03     37.8467E-03
            3654            3970     39.0912E-03     37.8467E-03
            3656            3971     37.8914E-03     37.0724E-03
            3655            3971     37.8914E-03     37.0724E-03
            3605            3971     37.8914E-03     37.0724E-03
            3606            3971     37.8914E-03     37.0724E-03
            3657            3972     36.3036E-03     36.2874E-03
            3656            3972     36.3036E-03     36.2874E-03
            3606            3972     36.3036E-03     36.2874E-03
            3607            3972     36.3036E-03     36.2874E-03
            3658            3973     34.8576E-03     36.3959E-03
            3657            3973     34.8576E-03     36.3959E-03
            3607            3973     34.8576E-03     36.3959E-03
            3608            3973     34.8576E-03     36.3959E-03
            3659            3974     35.5619E-03     34.4565E-03
            3608            3974     35.5619E-03     34.4565E-03
            3609            3974     35.5619E-03     34.4565E-03
            3658            3974     35.5619E-03     34.4565E-03
            3660            3975     33.2797E-03     33.4166E-03
            3659            3975     33.2797E-03     33.4166E-03
            3609            3975     33.2797E-03     33.4166E-03
            3610            3975     33.2797E-03     33.4166E-03
            3660            3976     29.5096E-03     34.6108E-03
            3610            3976     29.5096E-03     34.6108E-03
            3611            3976     29.5096E-03     34.6108E-03
            3661            3976     29.5096E-03     34.6108E-03
            3662            3977     34.1349E-03     32.2366E-03
            3661            3977     34.1349E-03     32.2366E-03
            3611            3977     34.1349E-03     32.2366E-03
            3612            3977     34.1349E-03     32.2366E-03
            3663            3978     35.0091E-03     31.9279E-03
            3662            3978     35.0091E-03     31.9279E-03
            3612            3978     35.0091E-03     31.9279E-03
            3613            3978     35.0091E-03     31.9279E-03
            3664            3979     31.0308E-03     31.7664E-03
            3663            3979     31.0308E-03     31.7664E-03
            3613            3979     31.0308E-03     31.7664E-03
            3614            3979     31.0308E-03     31.7664E-03
            3665            3980     30.5256E-03     29.3206E-03
            3614            3980     30.5256E-03     29.3206E-03
            3615            3980     30.5256E-03     29.3206E-03
            3664            3980     30.5256E-03     29.3206E-03
            3666            3981     29.2736E-03     28.7236E-03
            3665            3981     29.2736E-03     28.7236E-03
            3615            3981     29.2736E-03     28.7236E-03
            3616            3981     29.2736E-03     28.7236E-03
            3667            3982     28.0605E-03     27.9892E-03
            3616            3982     28.0605E-03     27.9892E-03
            3617            3982     28.0605E-03     27.9892E-03
            3666            3982     28.0605E-03     27.9892E-03
            3668            3983     27.1792E-03     27.2600E-03
            3667            3983     27.1792E-03     27.2600E-03
            3617            3983     27.1792E-03     27.2600E-03
            3618            3983     27.1792E-03     27.2600E-03
            3669            3984     26.0311E-03     27.3408E-03
            3668            3984     26.0311E-03     27.3408E-03
            3618            3984     26.0311E-03     27.3408E-03
            3619            3984     26.0311E-03     27.3408E-03
            3670            3985     26.2070E-03     25.9253E-03
            3619            3985     26.2070E-03     25.9253E-03
            3620            3985     26.2070E-03     25.9253E-03
            3669            3985     26.2070E-03     25.9253E-03
            3670            3986     24.7692E-03     25.1924E-03
            3620            3986     24.7692E-03     25.1924E-03
            3671            3986     24.7692E-03     25.1924E-03
            3621            3986     24.7692E-03     25.1924E-03
            3622            3987     22.4086E-03     25.5829E-03
            3671            3987     22.4086E-03     25.5829E-03
            3672            3987     22.4086E-03     25.5829E-03
            3621            3987     22.4086E-03     25.5829E-03
            3672            3988     25.2378E-03     23.7706E-03
            3623            3988     25.2378E-03     23.7706E-03
            3622            3988     25.2378E-03     23.7706E-03
            3673            3988     25.2378E-03     23.7706E-03
            3624            3989     25.6522E-03     23.5316E-03
            3674            3989     25.6522E-03     23.5316E-03
            3623            3989     25.6522E-03     23.5316E-03
            3673            3989     25.6522E-03     23.5316E-03
            3625            3990     22.8998E-03     23.2520E-03
            3624            3990     22.8998E-03     23.2520E-03
            3674            3990     22.8998E-03     23.2520E-03
            3675            3990     22.8998E-03     23.2520E-03
            3676            3991     22.4590E-03     21.6249E-03
            3625            3991     22.4590E-03     21.6249E-03
            3675            3991     22.4590E-03     21.6249E-03
            3626            3991     22.4590E-03     21.6249E-03
            3677            3992     21.5403E-03     21.1826E-03
            3676            3992     21.5403E-03     21.1826E-03
            3626            3992     21.5403E-03     21.1826E-03
            3627            3992     21.5403E-03     21.1826E-03
            3628            3993     20.6145E-03     20.6419E-03
            3627            3993     20.6145E-03     20.6419E-03
            3678            3993     20.6145E-03     20.6419E-03
            3677            3993     20.6145E-03     20.6419E-03
            3628            3994     19.9040E-03     20.1225E-03
            3629            3994     19.9040E-03     20.1225E-03
            3678            3994     19.9040E-03     20.1225E-03
            3679            3994     19.9040E-03     20.1225E-03
            3629            3995     19.0990E-03     19.9499E-03
            3680            3995     19.0990E-03     19.9499E-03
            3630            3995     19.0990E-03     19.9499E-03
            3679            3995     19.0990E-03     19.9499E-03
            3631            3996     18.8240E-03     19.0430E-03
            3630            3996     18.8240E-03     19.0430E-03
            3681            3996     18.8240E-03     19.0430E-03
            3680            3996     18.8240E-03     19.0430E-03
            3631            3997     18.0327E-03     18.5331E-03
            3632            3997     18.0327E-03     18.5331E-03
            3681            3997     18.0327E-03     18.5331E-03
            3682            3997     18.0327E-03     18.5331E-03
            3682            3998     16.8384E-03     18.2799E-03
            3683            3998     16.8384E-03     18.2799E-03
            3632            3998     16.8384E-03     18.2799E-03
            3633            3998     16.8384E-03     18.2799E-03
            3684            3999     18.1036E-03     17.1128E-03
            3683            3999     18.1036E-03     17.1128E-03
            3633            3999     18.1036E-03     17.1128E-03
            3634            3999     18.1036E-03     17.1128E-03
            3635            4000     18.1837E-03     16.9870E-03
            3634            4000     18.1837E-03     16.9870E-03
            3684            4000     18.1837E-03     16.9870E-03
            3685            4000     18.1837E-03     16.9870E-03
            3635            4001     16.6168E-03     16.7180E-03
            3686            4001     16.6168E-03     16.7180E-03
            3636            4001     16.6168E-03     16.7180E-03
            3685            4001     16.6168E-03     16.7180E-03
            3637            4002     16.3284E-03     15.8808E-03
            3636            4002     16.3284E-03     15.8808E-03
            3687            4002     16.3284E-03     15.8808E-03
            3686            4002     16.3284E-03     15.8808E-03
            3637            4003     15.8039E-03     15.6329E-03
            3638            4003     15.8039E-03     15.6329E-03
            3687            4003     15.8039E-03     15.6329E-03
            3688            4003     15.8039E-03     15.6329E-03
            3638            4004     15.2557E-03     15.3269E-03
            3689            4004     15.2557E-03     15.3269E-03
            3639            4004     15.2557E-03     15.3269E-03
            3688            4004     15.2557E-03     15.3269E-03
            3689            4005     14.8137E-03     15.0404E-03
            3690            4005     14.8137E-03     15.0404E-03
            3639            4005     14.8137E-03     15.0404E-03
            3640            4005     14.8137E-03     15.0404E-03
            3691            4006     14.3734E-03     14.8068E-03
            3690            4006     14.3734E-03     14.8068E-03
            3641            4006     14.3734E-03     14.8068E-03
            3640            4006     14.3734E-03     14.8068E-03
            3642            4007     14.0160E-03     14.3875E-03
            3641            4007     14.0160E-03     14.3875E-03
            3691            4007     14.0160E-03     14.3875E-03
            3692            4007     14.0160E-03     14.3875E-03
            3693            4008     13.7590E-03     14.0838E-03
            3642            4008     13.7590E-03     14.0838E-03
            3643            4008     13.7590E-03     14.0838E-03
            3692            4008     13.7590E-03     14.0838E-03
            3694            4009     13.3082E-03     13.4659E-03
            3643            4009     13.3082E-03     13.4659E-03
            3644            4009     13.3082E-03     13.4659E-03
            3693            4009     13.3082E-03     13.4659E-03
            3644            4010     13.3403E-03     12.9194E-03
            3695            4010     13.3403E-03     12.9194E-03
            3694            4010     13.3403E-03     12.9194E-03
            3645            4010     13.3403E-03     12.9194E-03
            3646            4011     13.2891E-03     13.0417E-03
            3696            4011     13.2891E-03     13.0417E-03
            3645            4011     13.2891E-03     13.0417E-03
            3695            4011     13.2891E-03     13.0417E-03
            3697            4012     12.8454E-03     12.9840E-03
            3647            4012     12.8454E-03     12.9840E-03
            3696            4012     12.8454E-03     12.9840E-03
            3646            4012     12.8454E-03     12.9840E-03
            3647            4013     12.7555E-03     12.8291E-03
            3698            4013     12.7555E-03     12.8291E-03
            3648            4013     12.7555E-03     12.8291E-03
            3697            4013     12.7555E-03     12.8291E-03
            3648            4014     12.7092E-03     12.7326E-03
            3649            4014     12.7092E-03     12.7326E-03
            3699            4014     12.7092E-03     12.7326E-03
            3698            4014     12.7092E-03     12.7326E-03
            3700            4015     12.6453E-03     12.5456E-03
            3650            4015     12.6453E-03     12.5456E-03
            3649            4015     12.6453E-03     12.5456E-03
            3699            4015     12.6453E-03     12.5456E-03
            3702            4016     58.8633E-03     57.3115E-03
            3651            4016     58.8633E-03     57.3115E-03
            3652            4016     58.8633E-03     57.3115E-03
            3701            4016     58.8633E-03     57.3115E-03
            3702            4017     59.8141E-03     54.1124E-03
            3652            4017     59.8141E-03     54.1124E-03
            3653            4017     59.8141E-03     54.1124E-03
            3703            4017     59.8141E-03     54.1124E-03
            3654            4018     50.8999E-03     54.2934E-03
            3653            4018     50.8999E-03     54.2934E-03
            3703            4018     50.8999E-03     54.2934E-03
            3704            4018     50.8999E-03     54.2934E-03
            3655            4019     49.8253E-03     49.3865E-03
            3654            4019     49.8253E-03     49.3865E-03
            3704            4019     49.8253E-03     49.3865E-03
            3705            4019     49.8253E-03     49.3865E-03
            3655            4020     48.1724E-03     48.0648E-03
            3705            4020     48.1724E-03     48.0648E-03
            3706            4020     48.1724E-03     48.0648E-03
            3656            4020     48.1724E-03     48.0648E-03
            3657            4021     46.2252E-03     46.5902E-03
            3656            4021     46.2252E-03     46.5902E-03
            3706            4021     46.2252E-03     46.5902E-03
            3707            4021     46.2252E-03     46.5902E-03
            3708            4022     44.6806E-03     47.3851E-03
            3658            4022     44.6806E-03     47.3851E-03
            3657            4022     44.6806E-03     47.3851E-03
            3707            4022     44.6806E-03     47.3851E-03
            3658            4023     47.7225E-03     45.6566E-03
            3659            4023     47.7225E-03     45.6566E-03
            3708            4023     47.7225E-03     45.6566E-03
            3709            4023     47.7225E-03     45.6566E-03
            3710            4024     45.2292E-03     45.9098E-03
            3659            4024     45.2292E-03     45.9098E-03
            3660            4024     45.2292E-03     45.9098E-03
            3709            4024     45.2292E-03     45.9098E-03
            3661            4025     38.7657E-03     49.9092E-03
            3710            4025     38.7657E-03     49.9092E-03
            3711            4025     38.7657E-03     49.9092E-03
            3660            4025     38.7657E-03     49.9092E-03
            3661            4026     45.6511E-03     44.3888E-03
            3662            4026     45.6511E-03     44.3888E-03
            3712            4026     45.6511E-03     44.3888E-03
            3711            4026     45.6511E-03     44.3888E-03
            3663            4027     46.1447E-03     41.8110E-03
            3662            4027     46.1447E-03     41.8110E-03
            3713            4027     46.1447E-03     41.8110E-03
            3712            4027     46.1447E-03     41.8110E-03
            3663            4028     39.0722E-03     41.8311E-03
            3713            4028     39.0722E-03     41.8311E-03
            3664            4028     39.0722E-03     41.8311E-03
            3714            4028     39.0722E-03     41.8311E-03
            3714            4029     38.1538E-03     37.6367E-03
            3715            4029     38.1538E-03     37.6367E-03
            3665            4029     38.1538E-03     37.6367E-03
            3664            4029     38.1538E-03     37.6367E-03
            3715            4030     36.2041E-03     36.4789E-03
            3666            4030     36.2041E-03     36.4789E-03
            3665            4030     36.2041E-03     36.4789E-03
            3716            4030     36.2041E-03     36.4789E-03
            3667            4031     34.4942E-03     35.1316E-03
            3716            4031     34.4942E-03     35.1316E-03
            3666            4031     34.4942E-03     35.1316E-03
            3717            4031     34.4942E-03     35.1316E-03
            3668            4032     33.6233E-03     33.6958E-03
            3667            4032     33.6233E-03     33.6958E-03
            3717            4032     33.6233E-03     33.6958E-03
            3718            4032     33.6233E-03     33.6958E-03
            3668            4033     32.2155E-03     34.3417E-03
            3719            4033     32.2155E-03     34.3417E-03
            3669            4033     32.2155E-03     34.3417E-03
            3718            4033     32.2155E-03     34.3417E-03
            3670            4034     33.9216E-03     33.0318E-03
            3719            4034     33.9216E-03     33.0318E-03
            3720            4034     33.9216E-03     33.0318E-03
            3669            4034     33.9216E-03     33.0318E-03
            3671            4035     32.2461E-03     33.0932E-03
            3670            4035     32.2461E-03     33.0932E-03
            3721            4035     32.2461E-03     33.0932E-03
            3720            4035     32.2461E-03     33.0932E-03
            3721            4036     27.8367E-03     35.2721E-03
            3722            4036     27.8367E-03     35.2721E-03
            3672            4036     27.8367E-03     35.2721E-03
            3671            4036     27.8367E-03     35.2721E-03
            3722            4037     32.1890E-03     31.1609E-03
            3723            4037     32.1890E-03     31.1609E-03
            3672            4037     32.1890E-03     31.1609E-03
            3673            4037     32.1890E-03     31.1609E-03
            3674            4038     32.3322E-03     29.3023E-03
            3723            4038     32.3322E-03     29.3023E-03
            3724            4038     32.3322E-03     29.3023E-03
            3673            4038     32.3322E-03     29.3023E-03
            3725            4039     27.3530E-03     29.1435E-03
            3724            4039     27.3530E-03     29.1435E-03
            3675            4039     27.3530E-03     29.1435E-03
            3674            4039     27.3530E-03     29.1435E-03
            3676            4040     26.5564E-03     26.1440E-03
            3725            4040     26.5564E-03     26.1440E-03
            3726            4040     26.5564E-03     26.1440E-03
            3675            4040     26.5564E-03     26.1440E-03
            3727            4041     25.0670E-03     25.1421E-03
            3677            4041     25.0670E-03     25.1421E-03
            3726            4041     25.0670E-03     25.1421E-03
            3676            4041     25.0670E-03     25.1421E-03
            3678            4042     23.6644E-03     24.0430E-03
            3677            4042     23.6644E-03     24.0430E-03
            3728            4042     23.6644E-03     24.0430E-03
            3727            4042     23.6644E-03     24.0430E-03
            3729            4043     22.8482E-03     22.9433E-03
            3679            4043     22.8482E-03     22.9433E-03
            3678            4043     22.8482E-03     22.9433E-03
            3728            4043     22.8482E-03     22.9433E-03
            3680            4044     21.7592E-03     23.0091E-03
            3730            4044     21.7592E-03     23.0091E-03
            3729            4044     21.7592E-03     23.0091E-03
            3679            4044     21.7592E-03     23.0091E-03
            3731            4045     22.1590E-03     22.1738E-03
            3681            4045     22.1590E-03     22.1738E-03
            3730            4045     22.1590E-03     22.1738E-03
            3680            4045     22.1590E-03     22.1738E-03
            3732            4046     21.0890E-03     21.9718E-03
            3681            4046     21.0890E-03     21.9718E-03
            3682            4046     21.0890E-03     21.9718E-03
            3731            4046     21.0890E-03     21.9718E-03
            3683            4047     18.7049E-03     22.6372E-03
            3733            4047     18.7049E-03     22.6372E-03
            3682            4047     18.7049E-03     22.6372E-03
            3732            4047     18.7049E-03     22.6372E-03
            3734            4048     20.8600E-03     20.1295E-03
            3683            4048     20.8600E-03     20.1295E-03
            3733            4048     20.8600E-03     20.1295E-03
            3684            4048     20.8600E-03     20.1295E-03
            3684            4049     20.7623E-03     19.0160E-03
            3734            4049     20.7623E-03     19.0160E-03
            3735            4049     20.7623E-03     19.0160E-03
            3685            4049     20.7623E-03     19.0160E-03
            3686            4050     17.8154E-03     18.7581E-03
            3735            4050     17.8154E-03     18.7581E-03
            3736            4050     17.8154E-03     18.7581E-03
            3685            4050     17.8154E-03     18.7581E-03
            3736            4051     17.2364E-03     16.9343E-03
            3737            4051     17.2364E-03     16.9343E-03
            3686            4051     17.2364E-03     16.9343E-03
            3687            4051     17.2364E-03     16.9343E-03
            3738            4052     16.2858E-03     16.1768E-03
            3688            4052     16.2858E-03     16.1768E-03
            3687            4052     16.2858E-03     16.1768E-03
            3737            4052     16.2858E-03     16.1768E-03
            3689            4053     15.3340E-03     15.4300E-03
            3688            4053     15.3340E-03     15.4300E-03
            3739            4053     15.3340E-03     15.4300E-03
            3738            4053     15.3340E-03     15.4300E-03
            3689            4054     14.7338E-03     14.7734E-03
            3740            4054     14.7338E-03     14.7734E-03
            3739            4054     14.7338E-03     14.7734E-03
            3690            4054     14.7338E-03     14.7734E-03
            3691            4055     14.0679E-03     14.5647E-03
            3740            4055     14.0679E-03     14.5647E-03
            3741            4055     14.0679E-03     14.5647E-03
            3690            4055     14.0679E-03     14.5647E-03
            3742            4056     13.6723E-03     14.2408E-03
            3691            4056     13.6723E-03     14.2408E-03
            3741            4056     13.6723E-03     14.2408E-03
            3692            4056     13.6723E-03     14.2408E-03
            3743            4057     13.2091E-03     13.9170E-03
            3742            4057     13.2091E-03     13.9170E-03
            3693            4057     13.2091E-03     13.9170E-03
            3692            4057     13.2091E-03     13.9170E-03
            3743            4058     12.4662E-03     13.3232E-03
            3744            4058     12.4662E-03     13.3232E-03
            3693            4058     12.4662E-03     13.3232E-03
            3694            4058     12.4662E-03     13.3232E-03
            3695            4059     12.7110E-03     12.3211E-03
            3745            4059     12.7110E-03     12.3211E-03
            3694            4059     12.7110E-03     12.3211E-03
            3744            4059     12.7110E-03     12.3211E-03
            3745            4060     12.6286E-03     12.1363E-03
            3696            4060     12.6286E-03     12.1363E-03
            3695            4060     12.6286E-03     12.1363E-03
            3746            4060     12.6286E-03     12.1363E-03
            3747            4061     11.8658E-03     12.0484E-03
            3746            4061     11.8658E-03     12.0484E-03
            3696            4061     11.8658E-03     12.0484E-03
            3697            4061     11.8658E-03     12.0484E-03
            3698            4062     11.6991E-03     11.7210E-03
            3697            4062     11.6991E-03     11.7210E-03
            3748            4062     11.6991E-03     11.7210E-03
            3747            4062     11.6991E-03     11.7210E-03
            3698            4063     11.4822E-03     11.6477E-03
            3748            4063     11.4822E-03     11.6477E-03
            3749            4063     11.4822E-03     11.6477E-03
            3699            4063     11.4822E-03     11.6477E-03
            3700            4064     11.2781E-03     11.3907E-03
            3699            4064     11.2781E-03     11.3907E-03
            3750            4064     11.2781E-03     11.3907E-03
            3749            4064     11.2781E-03     11.3907E-03
            3701            4065     72.0343E-03     72.0588E-03
            3751            4065     72.0343E-03     72.0588E-03
            3752            4065     72.0343E-03     72.0588E-03
            3702            4065     72.0343E-03     72.0588E-03
            3702            4066     71.9603E-03     67.3650E-03
            3753            4066     71.9603E-03     67.3650E-03
            3752            4066     71.9603E-03     67.3650E-03
            3703            4066     71.9603E-03     67.3650E-03
            3753            4067     60.2974E-03     67.1637E-03
            3704            4067     60.2974E-03     67.1637E-03
            3703            4067     60.2974E-03     67.1637E-03
            3754            4067     60.2974E-03     67.1637E-03
            3755            4068     59.4101E-03     60.7647E-03
            3704            4068     59.4101E-03     60.7647E-03
            3705            4068     59.4101E-03     60.7647E-03
            3754            4068     59.4101E-03     60.7647E-03
            3756            4069     56.8542E-03     59.1210E-03
            3705            4069     56.8542E-03     59.1210E-03
            3755            4069     56.8542E-03     59.1210E-03
            3706            4069     56.8542E-03     59.1210E-03
            3756            4070     54.6370E-03     56.3745E-03
            3757            4070     54.6370E-03     56.3745E-03
            3706            4070     54.6370E-03     56.3745E-03
            3707            4070     54.6370E-03     56.3745E-03
            3707            4071     52.2916E-03     56.7995E-03
            3757            4071     52.2916E-03     56.7995E-03
            3758            4071     52.2916E-03     56.7995E-03
            3708            4071     52.2916E-03     56.7995E-03
            3708            4072     56.8299E-03     54.8633E-03
            3758            4072     56.8299E-03     54.8633E-03
            3709            4072     56.8299E-03     54.8633E-03
            3759            4072     56.8299E-03     54.8633E-03
            3710            4073     55.8231E-03     56.2738E-03
            3759            4073     55.8231E-03     56.2738E-03
            3760            4073     55.8231E-03     56.2738E-03
            3709            4073     55.8231E-03     56.2738E-03
            3711            4074     47.4865E-03     62.5874E-03
            3760            4074     47.4865E-03     62.5874E-03
            3710            4074     47.4865E-03     62.5874E-03
            3761            4074     47.4865E-03     62.5874E-03
            3762            4075     55.4588E-03     55.4677E-03
            3711            4075     55.4588E-03     55.4677E-03
            3761            4075     55.4588E-03     55.4677E-03
            3712            4075     55.4588E-03     55.4677E-03
            3763            4076     55.3339E-03     51.7636E-03
            3762            4076     55.3339E-03     51.7636E-03
            3713            4076     55.3339E-03     51.7636E-03
            3712            4076     55.3339E-03     51.7636E-03
            3763            4077     46.0352E-03     51.5067E-03
            3714            4077     46.0352E-03     51.5067E-03
            3764            4077     46.0352E-03     51.5067E-03
            3713            4077     46.0352E-03     51.5067E-03
            3764            4078     45.2822E-03     46.0632E-03
            3714            4078     45.2822E-03     46.0632E-03
            3765            4078     45.2822E-03     46.0632E-03
            3715            4078     45.2822E-03     46.0632E-03
            3715            4079     42.5047E-03     44.4857E-03
            3716            4079     42.5047E-03     44.4857E-03
            3766            4079     42.5047E-03     44.4857E-03
            3765            4079     42.5047E-03     44.4857E-03
            3716            4080     40.2666E-03     42.4005E-03
            3766            4080     40.2666E-03     42.4005E-03
            3717            4080     40.2666E-03     42.4005E-03
            3767            4080     40.2666E-03     42.4005E-03
            3718            4081     39.1998E-03     39.9826E-03
            3768            4081     39.1998E-03     39.9826E-03
            3767            4081     39.1998E-03     39.9826E-03
            3717            4081     39.1998E-03     39.9826E-03
            3719            4082     37.0132E-03     40.2217E-03
            3768            4082     37.0132E-03     40.2217E-03
            3718            4082     37.0132E-03     40.2217E-03
            3769            4082     37.0132E-03     40.2217E-03
            3719            4083     39.8823E-03     38.7380E-03
            3770            4083     39.8823E-03     38.7380E-03
            3720            4083     39.8823E-03     38.7380E-03
            3769            4083     39.8823E-03     38.7380E-03
            3721            4084     39.2504E-03     39.6885E-03
            3770            4084     39.2504E-03     39.6885E-03
            3720            4084     39.2504E-03     39.6885E-03
            3771            4084     39.2504E-03     39.6885E-03
            3771            4085     33.3514E-03     43.5482E-03
            3772            4085     33.3514E-03     43.5482E-03
            3721            4085     33.3514E-03     43.5482E-03
            3722            4085     33.3514E-03     43.5482E-03
            3723            4086     38.3664E-03     38.3517E-03
            3772            4086     38.3664E-03     38.3517E-03
            3722            4086     38.3664E-03     38.3517E-03
            3773            4086     38.3664E-03     38.3517E-03
            3774            4087     38.1688E-03     35.6500E-03
            3723            4087     38.1688E-03     35.6500E-03
            3724            4087     38.1688E-03     35.6500E-03
            3773            4087     38.1688E-03     35.6500E-03
            3774            4088     31.4634E-03     35.1783E-03
            3724            4088     31.4634E-03     35.1783E-03
            3775            4088     31.4634E-03     35.1783E-03
            3725            4088     31.4634E-03     35.1783E-03
            3775            4089     30.6043E-03     31.0597E-03
            3776            4089     30.6043E-03     31.0597E-03
            3726            4089     30.6043E-03     31.0597E-03
            3725            4089     30.6043E-03     31.0597E-03
            3727            4090     28.3776E-03     29.5568E-03
            3776            4090     28.3776E-03     29.5568E-03
            3726            4090     28.3776E-03     29.5568E-03
            3777            4090     28.3776E-03     29.5568E-03
            3778            4091     26.4572E-03     27.7567E-03
            3728            4091     26.4572E-03     27.7567E-03
            3777            4091     26.4572E-03     27.7567E-03
            3727            4091     26.4572E-03     27.7567E-03
            3779            4092     25.3912E-03     25.8238E-03
            3729            4092     25.3912E-03     25.8238E-03
            3728            4092     25.3912E-03     25.8238E-03
            3778            4092     25.3912E-03     25.8238E-03
            3729            4093     23.7820E-03     25.4464E-03
            3779            4093     23.7820E-03     25.4464E-03
            3780            4093     23.7820E-03     25.4464E-03
            3730            4093     23.7820E-03     25.4464E-03
            3780            4094     24.8872E-03     24.5196E-03
            3781            4094     24.8872E-03     24.5196E-03
            3731            4094     24.8872E-03     24.5196E-03
            3730            4094     24.8872E-03     24.5196E-03
            3781            4095     24.5278E-03     24.9053E-03
            3732            4095     24.5278E-03     24.9053E-03
            3782            4095     24.5278E-03     24.9053E-03
            3731            4095     24.5278E-03     24.9053E-03
            3732            4096     21.0700E-03     26.6881E-03
            3783            4096     21.0700E-03     26.6881E-03
            3733            4096     21.0700E-03     26.6881E-03
            3782            4096     21.0700E-03     26.6881E-03
            3733            4097     23.5820E-03     23.5570E-03
            3734            4097     23.5820E-03     23.5570E-03
            3783            4097     23.5820E-03     23.5570E-03
            3784            4097     23.5820E-03     23.5570E-03
            3785            4098     23.3431E-03     21.8142E-03
            3734            4098     23.3431E-03     21.8142E-03
            3784            4098     23.3431E-03     21.8142E-03
            3735            4098     23.3431E-03     21.8142E-03
            3736            4099     19.0815E-03     21.1565E-03
            3735            4099     19.0815E-03     21.1565E-03
            3786            4099     19.0815E-03     21.1565E-03
            3785            4099     19.0815E-03     21.1565E-03
            3786            4100     18.1919E-03     18.3254E-03
            3736            4100     18.1919E-03     18.3254E-03
            3787            4100     18.1919E-03     18.3254E-03
            3737            4100     18.1919E-03     18.3254E-03
            3737            4101     16.5693E-03     16.9893E-03
            3787            4101     16.5693E-03     16.9893E-03
            3738            4101     16.5693E-03     16.9893E-03
            3788            4101     16.5693E-03     16.9893E-03
            3789            4102     15.1001E-03     15.5929E-03
            3738            4102     15.1001E-03     15.5929E-03
            3788            4102     15.1001E-03     15.5929E-03
            3739            4102     15.1001E-03     15.5929E-03
            3739            4103     14.2243E-03     14.2897E-03
            3789            4103     14.2243E-03     14.2897E-03
            3790            4103     14.2243E-03     14.2897E-03
            3740            4103     14.2243E-03     14.2897E-03
            3740            4104     13.3432E-03     13.6559E-03
            3790            4104     13.3432E-03     13.6559E-03
            3791            4104     13.3432E-03     13.6559E-03
            3741            4104     13.3432E-03     13.6559E-03
            3742            4105     13.2463E-03     13.4239E-03
            3791            4105     13.2463E-03     13.4239E-03
            3741            4105     13.2463E-03     13.4239E-03
            3792            4105     13.2463E-03     13.4239E-03
            3792            4106     13.2078E-03     13.4749E-03
            3793            4106     13.2078E-03     13.4749E-03
            3742            4106     13.2078E-03     13.4749E-03
            3743            4106     13.2078E-03     13.4749E-03
            3743            4107     11.7882E-03     13.2339E-03
            3794            4107     11.7882E-03     13.2339E-03
            3744            4107     11.7882E-03     13.2339E-03
            3793            4107     11.7882E-03     13.2339E-03
            3744            4108     11.8204E-03     11.7908E-03
            3795            4108     11.8204E-03     11.7908E-03
            3794            4108     11.8204E-03     11.7908E-03
            3745            4108     11.8204E-03     11.7908E-03
            3745            4109     11.5461E-03     10.9663E-03
            3746            4109     11.5461E-03     10.9663E-03
            3796            4109     11.5461E-03     10.9663E-03
            3795            4109     11.5461E-03     10.9663E-03
            3797            4110     10.0730E-03     10.3605E-03
            3746            4110     10.0730E-03     10.3605E-03
            3747            4110     10.0730E-03     10.3605E-03
            3796            4110     10.0730E-03     10.3605E-03
            3748            4111     9.77037E-03     9.53602E-03
            3797            4111     9.77037E-03     9.53602E-03
            3798            4111     9.77037E-03     9.53602E-03
            3747            4111     9.77037E-03     9.53602E-03
            3748            4112     9.61574E-03     9.64833E-03
            3798            4112     9.61574E-03     9.64833E-03
            3749            4112     9.61574E-03     9.64833E-03
            3799            4112     9.61574E-03     9.64833E-03
            3799            4113     9.64623E-03     9.72808E-03
            3749            4113     9.64623E-03     9.72808E-03
            3750            4113     9.64623E-03     9.72808E-03
            3800            4113     9.64623E-03     9.72808E-03
            3801            4114     83.3733E-03     82.3676E-03
            3751            4114     83.3733E-03     82.3676E-03
            3752            4114     83.3733E-03     82.3676E-03
            3802            4114     83.3733E-03     82.3676E-03
            3803            4115     80.6898E-03     76.7077E-03
            3802            4115     80.6898E-03     76.7077E-03
            3753            4115     80.6898E-03     76.7077E-03
            3752            4115     80.6898E-03     76.7077E-03
            3803            4116     70.0228E-03     75.3985E-03
            3754            4116     70.0228E-03     75.3985E-03
            3804            4116     70.0228E-03     75.3985E-03
            3753            4116     70.0228E-03     75.3985E-03
            3754            4117     68.8827E-03     69.1046E-03
            3755            4117     68.8827E-03     69.1046E-03
            3804            4117     68.8827E-03     69.1046E-03
            3805            4117     68.8827E-03     69.1046E-03
            3806            4118     65.3475E-03     67.1206E-03
            3805            4118     65.3475E-03     67.1206E-03
            3756            4118     65.3475E-03     67.1206E-03
            3755            4118     65.3475E-03     67.1206E-03
            3756            4119     62.9026E-03     63.4504E-03
            3807            4119     62.9026E-03     63.4504E-03
            3757            4119     62.9026E-03     63.4504E-03
            3806            4119     62.9026E-03     63.4504E-03
            3757            4120     59.3522E-03     62.4914E-03
            3808            4120     59.3522E-03     62.4914E-03
            3807            4120     59.3522E-03     62.4914E-03
            3758            4120     59.3522E-03     62.4914E-03
            3808            4121     61.8493E-03     59.3426E-03
            3809            4121     61.8493E-03     59.3426E-03
            3759            4121     61.8493E-03     59.3426E-03
            3758            4121     61.8493E-03     59.3426E-03
            3759            4122     61.3273E-03     59.3034E-03
            3810            4122     61.3273E-03     59.3034E-03
            3760            4122     61.3273E-03     59.3034E-03
            3809            4122     61.3273E-03     59.3034E-03
            3760            4123     56.4982E-03     67.5718E-03
            3810            4123     56.4982E-03     67.5718E-03
            3811            4123     56.4982E-03     67.5718E-03
            3761            4123     56.4982E-03     67.5718E-03
            3761            4124     64.1813E-03     63.5088E-03
            3812            4124     64.1813E-03     63.5088E-03
            3762            4124     64.1813E-03     63.5088E-03
            3811            4124     64.1813E-03     63.5088E-03
            3813            4125     61.9513E-03     58.8658E-03
            3812            4125     61.9513E-03     58.8658E-03
            3763            4125     61.9513E-03     58.8658E-03
            3762            4125     61.9513E-03     58.8658E-03
            3763            4126     53.3453E-03     57.5839E-03
            3814            4126     53.3453E-03     57.5839E-03
            3813            4126     53.3453E-03     57.5839E-03
            3764            4126     53.3453E-03     57.5839E-03
            3765            4127     52.2122E-03     52.2433E-03
            3815            4127     52.2122E-03     52.2433E-03
            3814            4127     52.2122E-03     52.2433E-03
            3764            4127     52.2122E-03     52.2433E-03
            3766            4128     48.9241E-03     50.2822E-03
            3815            4128     48.9241E-03     50.2822E-03
            3816            4128     48.9241E-03     50.2822E-03
            3765            4128     48.9241E-03     50.2822E-03
            3766            4129     46.3642E-03     47.5804E-03
            3817            4129     46.3642E-03     47.5804E-03
            3767            4129     46.3642E-03     47.5804E-03
            3816            4129     46.3642E-03     47.5804E-03
            3818            4130     44.4476E-03     44.6302E-03
            3768            4130     44.4476E-03     44.6302E-03
            3767            4130     44.4476E-03     44.6302E-03
            3817            4130     44.4476E-03     44.6302E-03
            3818            4131     41.4832E-03     43.5064E-03
            3768            4131     41.4832E-03     43.5064E-03
            3769            4131     41.4832E-03     43.5064E-03
            3819            4131     41.4832E-03     43.5064E-03
            3769            4132     42.7621E-03     41.0235E-03
            3770            4132     42.7621E-03     41.0235E-03
            3820            4132     42.7621E-03     41.0235E-03
            3819            4132     42.7621E-03     41.0235E-03
            3770            4133     42.3984E-03     40.7401E-03
            3820            4133     42.3984E-03     40.7401E-03
            3821            4133     42.3984E-03     40.7401E-03
            3771            4133     42.3984E-03     40.7401E-03
            3822            4134     39.2383E-03     46.6798E-03
            3821            4134     39.2383E-03     46.6798E-03
            3771            4134     39.2383E-03     46.6798E-03
            3772            4134     39.2383E-03     46.6798E-03
            3772            4135     44.3959E-03     44.1024E-03
            3822            4135     44.3959E-03     44.1024E-03
            3823            4135     44.3959E-03     44.1024E-03
            3773            4135     44.3959E-03     44.1024E-03
            3823            4136     42.5670E-03     40.4061E-03
            3824            4136     42.5670E-03     40.4061E-03
            3774            4136     42.5670E-03     40.4061E-03
            3773            4136     42.5670E-03     40.4061E-03
            3824            4137     36.0786E-03     39.0385E-03
            3825            4137     36.0786E-03     39.0385E-03
            3774            4137     36.0786E-03     39.0385E-03
            3775            4137     36.0786E-03     39.0385E-03
            3775            4138     34.7797E-03     34.7790E-03
            3825            4138     34.7797E-03     34.7790E-03
            3776            4138     34.7797E-03     34.7790E-03
            3826            4138     34.7797E-03     34.7790E-03
            3776            4139     32.0112E-03     32.8835E-03
            3827            4139     32.0112E-03     32.8835E-03
            3777            4139     32.0112E-03     32.8835E-03
            3826            4139     32.0112E-03     32.8835E-03
            3777            4140     29.7464E-03     30.4817E-03
            3827            4140     29.7464E-03     30.4817E-03
            3828            4140     29.7464E-03     30.4817E-03
            3778            4140     29.7464E-03     30.4817E-03
            3778            4141     27.9174E-03     28.0218E-03
            3779            4141     27.9174E-03     28.0218E-03
            3828            4141     27.9174E-03     28.0218E-03
            3829            4141     27.9174E-03     28.0218E-03
            3780            4142     25.6395E-03     26.5521E-03
            3830            4142     25.6395E-03     26.5521E-03
            3829            4142     25.6395E-03     26.5521E-03
            3779            4142     25.6395E-03     26.5521E-03
            3780            4143     25.7140E-03     24.7065E-03
            3831            4143     25.7140E-03     24.7065E-03
            3830            4143     25.7140E-03     24.7065E-03
            3781            4143     25.7140E-03     24.7065E-03
            3782            4144     25.4387E-03     24.1849E-03
            3831            4144     25.4387E-03     24.1849E-03
            3832            4144     25.4387E-03     24.1849E-03
            3781            4144     25.4387E-03     24.1849E-03
            3832            4145     23.9382E-03     28.0592E-03
            3782            4145     23.9382E-03     28.0592E-03
            3833            4145     23.9382E-03     28.0592E-03
            3783            4145     23.9382E-03     28.0592E-03
            3834            4146     26.9326E-03     26.9439E-03
            3783            4146     26.9326E-03     26.9439E-03
            3784            4146     26.9326E-03     26.9439E-03
            3833            4146     26.9326E-03     26.9439E-03
            3784            4147     25.4504E-03     24.1095E-03
            3785            4147     25.4504E-03     24.1095E-03
            3835            4147     25.4504E-03     24.1095E-03
            3834            4147     25.4504E-03     24.1095E-03
            3785            4148     20.9107E-03     22.6722E-03
            3835            4148     20.9107E-03     22.6722E-03
            3786            4148     20.9107E-03     22.6722E-03
            3836            4148     20.9107E-03     22.6722E-03
            3837            4149     19.4853E-03     19.4460E-03
            3836            4149     19.4853E-03     19.4460E-03
            3787            4149     19.4853E-03     19.4460E-03
            3786            4149     19.4853E-03     19.4460E-03
            3837            4150     17.2535E-03     17.6686E-03
            3787            4150     17.2535E-03     17.6686E-03
            3838            4150     17.2535E-03     17.6686E-03
            3788            4150     17.2535E-03     17.6686E-03
            3789            4151     15.3499E-03     15.6330E-03
            3788            4151     15.3499E-03     15.6330E-03
            3838            4151     15.3499E-03     15.6330E-03
            3839            4151     15.3499E-03     15.6330E-03
            3840            4152     13.7451E-03     13.7547E-03
            3790            4152     13.7451E-03     13.7547E-03
            3839            4152     13.7451E-03     13.7547E-03
            3789            4152     13.7451E-03     13.7547E-03
            3841            4153     12.3037E-03     12.2073E-03
            3790            4153     12.3037E-03     12.2073E-03
            3840            4153     12.3037E-03     12.2073E-03
            3791            4153     12.3037E-03     12.2073E-03
            3791            4154     11.7345E-03     11.2508E-03
            3842            4154     11.7345E-03     11.2508E-03
            3841            4154     11.7345E-03     11.2508E-03
            3792            4154     11.7345E-03     11.2508E-03
            3792            4155     11.8621E-03     11.1176E-03
            3842            4155     11.8621E-03     11.1176E-03
            3793            4155     11.8621E-03     11.1176E-03
            3843            4155     11.8621E-03     11.1176E-03
            3843            4156     11.3739E-03     12.6131E-03
            3844            4156     11.3739E-03     12.6131E-03
            3794            4156     11.3739E-03     12.6131E-03
            3793            4156     11.3739E-03     12.6131E-03
            3794            4157     11.6146E-03     11.8551E-03
            3844            4157     11.6146E-03     11.8551E-03
            3845            4157     11.6146E-03     11.8551E-03
            3795            4157     11.6146E-03     11.8551E-03
            3796            4158     10.2532E-03     9.56300E-03
            3846            4158     10.2532E-03     9.56300E-03
            3845            4158     10.2532E-03     9.56300E-03
            3795            4158     10.2532E-03     9.56300E-03
            3797            4159     7.73844E-03     8.21008E-03
            3847            4159     7.73844E-03     8.21008E-03
            3846            4159     7.73844E-03     8.21008E-03
            3796            4159     7.73844E-03     8.21008E-03
            3798            4160     6.86793E-03     6.49753E-03
            3847            4160     6.86793E-03     6.49753E-03
            3797            4160     6.86793E-03     6.49753E-03
            3848            4160     6.86793E-03     6.49753E-03
            3798            4161     6.66427E-03     6.28952E-03
            3799            4161     6.66427E-03     6.28952E-03
            3849            4161     6.66427E-03     6.28952E-03
            3848            4161     6.66427E-03     6.28952E-03
            3850            4162     7.27079E-03     7.36383E-03
            3800            4162     7.27079E-03     7.36383E-03
            3799            4162     7.27079E-03     7.36383E-03
            3849            4162     7.27079E-03     7.36383E-03
            4107            4328     14.6139E-03     14.5164E-03
            4108            4328     14.6139E-03     14.5164E-03
            4068            4328     14.6139E-03     14.5164E-03
            4067            4328     14.6139E-03     14.5164E-03
            4108            4329     14.6476E-03     14.6824E-03
            4068            4329     14.6476E-03     14.6824E-03
            4069            4329     14.6476E-03     14.6824E-03
            4109            4329     14.6476E-03     14.6824E-03
            4070            4330     14.9561E-03     14.7699E-03
            4110            4330     14.9561E-03     14.7699E-03
            4069            4330     14.9561E-03     14.7699E-03
            4109            4330     14.9561E-03     14.7699E-03
            4111            4331     14.9823E-03     14.7903E-03
            4071            4331     14.9823E-03     14.7903E-03
            4110            4331     14.9823E-03     14.7903E-03
            4070            4331     14.9823E-03     14.7903E-03
            4072            4332     15.7435E-03     15.7576E-03
            4111            4332     15.7435E-03     15.7576E-03
            4112            4332     15.7435E-03     15.7576E-03
            4071            4332     15.7435E-03     15.7576E-03
            4112            4333     16.9427E-03     16.7181E-03
            4073            4333     16.9427E-03     16.7181E-03
            4072            4333     16.9427E-03     16.7181E-03
            4113            4333     16.9427E-03     16.7181E-03
            4113            4334     17.2284E-03     16.9813E-03
            4114            4334     17.2284E-03     16.9813E-03
            4073            4334     17.2284E-03     16.9813E-03
            4074            4334     17.2284E-03     16.9813E-03
            4074            4335     17.5719E-03     17.3667E-03
            4114            4335     17.5719E-03     17.3667E-03
            4075            4335     17.5719E-03     17.3667E-03
            4115            4335     17.5719E-03     17.3667E-03
            4075            4336     17.9438E-03     17.7830E-03
            4076            4336     17.9438E-03     17.7830E-03
            4115            4336     17.9438E-03     17.7830E-03
            4116            4336     17.9438E-03     17.7830E-03
            4076            4337     18.3311E-03     18.3412E-03
            4077            4337     18.3311E-03     18.3412E-03
            4117            4337     18.3311E-03     18.3412E-03
            4116            4337     18.3311E-03     18.3412E-03
            4118            4338     18.8721E-03     18.8790E-03
            4117            4338     18.8721E-03     18.8790E-03
            4078            4338     18.8721E-03     18.8790E-03
            4077            4338     18.8721E-03     18.8790E-03
            4078            4339     19.3417E-03     19.3278E-03
            4118            4339     19.3417E-03     19.3278E-03
            4079            4339     19.3417E-03     19.3278E-03
            4119            4339     19.3417E-03     19.3278E-03
            4079            4340     19.5133E-03     20.2452E-03
            4080            4340     19.5133E-03     20.2452E-03
            4120            4340     19.5133E-03     20.2452E-03
            4119            4340     19.5133E-03     20.2452E-03
            4080            4341     20.9741E-03     20.3650E-03
            4120            4341     20.9741E-03     20.3650E-03
            4081            4341     20.9741E-03     20.3650E-03
            4121            4341     20.9741E-03     20.3650E-03
            4122            4342     20.8658E-03     20.2802E-03
            4121            4342     20.8658E-03     20.2802E-03
            4082            4342     20.8658E-03     20.2802E-03
            4081            4342     20.8658E-03     20.2802E-03
            4083            4343     19.9982E-03     20.9443E-03
            4123            4343     19.9982E-03     20.9443E-03
            4082            4343     19.9982E-03     20.9443E-03
            4122            4343     19.9982E-03     20.9443E-03
            4084            4344     21.4869E-03     21.0203E-03
            4123            4344     21.4869E-03     21.0203E-03
            4124            4344     21.4869E-03     21.0203E-03
            4083            4344     21.4869E-03     21.0203E-03
            4084            4345     22.4381E-03     21.7018E-03
            4125            4345     22.4381E-03     21.7018E-03
            4124            4345     22.4381E-03     21.7018E-03
            4085            4345     22.4381E-03     21.7018E-03
            4085            4346     22.9784E-03     22.7989E-03
            4126            4346     22.9784E-03     22.7989E-03
            4125            4346     22.9784E-03     22.7989E-03
            4086            4346     22.9784E-03     22.7989E-03
            4126            4347     23.8614E-03     23.5372E-03
            4086            4347     23.8614E-03     23.5372E-03
            4127            4347     23.8614E-03     23.5372E-03
            4087            4347     23.8614E-03     23.5372E-03
            4087            4348     24.6494E-03     24.4626E-03
            4127            4348     24.6494E-03     24.4626E-03
            4088            4348     24.6494E-03     24.4626E-03
            4128            4348     24.6494E-03     24.4626E-03
            4088            4349     25.3071E-03     25.4701E-03
            4129            4349     25.3071E-03     25.4701E-03
            4089            4349     25.3071E-03     25.4701E-03
            4128            4349     25.3071E-03     25.4701E-03
            4129            4350     26.1893E-03     26.2588E-03
            4089            4350     26.1893E-03     26.2588E-03
            4130            4350     26.1893E-03     26.2588E-03
            4090            4350     26.1893E-03     26.2588E-03
            4130            4351     26.8106E-03     26.8318E-03
            4090            4351     26.8106E-03     26.8318E-03
            4091            4351     26.8106E-03     26.8318E-03
            4131            4351     26.8106E-03     26.8318E-03
            4132            4352     26.7999E-03     28.2717E-03
            4092            4352     26.7999E-03     28.2717E-03
            4131            4352     26.7999E-03     28.2717E-03
            4091            4352     26.7999E-03     28.2717E-03
            4133            4353     29.2184E-03     28.0380E-03
            4093            4353     29.2184E-03     28.0380E-03
            4132            4353     29.2184E-03     28.0380E-03
            4092            4353     29.2184E-03     28.0380E-03
            4133            4354     28.6265E-03     27.5907E-03
            4134            4354     28.6265E-03     27.5907E-03
            4093            4354     28.6265E-03     27.5907E-03
            4094            4354     28.6265E-03     27.5907E-03
            4094            4355     26.1677E-03     28.5814E-03
            4095            4355     26.1677E-03     28.5814E-03
            4134            4355     26.1677E-03     28.5814E-03
            4135            4355     26.1677E-03     28.5814E-03
            4136            4356     28.9041E-03     28.1104E-03
            4095            4356     28.9041E-03     28.1104E-03
            4096            4356     28.9041E-03     28.1104E-03
            4135            4356     28.9041E-03     28.1104E-03
            4097            4357     30.6175E-03     29.2966E-03
            4096            4357     30.6175E-03     29.2966E-03
            4137            4357     30.6175E-03     29.2966E-03
            4136            4357     30.6175E-03     29.2966E-03
            4137            4358     30.9856E-03     31.2218E-03
            4098            4358     30.9856E-03     31.2218E-03
            4138            4358     30.9856E-03     31.2218E-03
            4097            4358     30.9856E-03     31.2218E-03
            4139            4359     32.3093E-03     31.9851E-03
            4138            4359     32.3093E-03     31.9851E-03
            4098            4359     32.3093E-03     31.9851E-03
            4099            4359     32.3093E-03     31.9851E-03
            4099            4360     33.1904E-03     33.3910E-03
            4140            4360     33.1904E-03     33.3910E-03
            4100            4360     33.1904E-03     33.3910E-03
            4139            4360     33.1904E-03     33.3910E-03
            4140            4361     34.1878E-03     34.4412E-03
            4141            4361     34.1878E-03     34.4412E-03
            4101            4361     34.1878E-03     34.4412E-03
            4100            4361     34.1878E-03     34.4412E-03
            4142            4362     34.8822E-03     34.9532E-03
            4101            4362     34.8822E-03     34.9532E-03
            4141            4362     34.8822E-03     34.9532E-03
            4102            4362     34.8822E-03     34.9532E-03
            4142            4363     34.5869E-03     36.7431E-03
            4103            4363     34.5869E-03     36.7431E-03
            4143            4363     34.5869E-03     36.7431E-03
            4102            4363     34.5869E-03     36.7431E-03
            4144            4364     37.6996E-03     36.0339E-03
            4104            4364     37.6996E-03     36.0339E-03
            4103            4364     37.6996E-03     36.0339E-03
            4143            4364     37.6996E-03     36.0339E-03
            4104            4365     36.5382E-03     35.1170E-03
            4144            4365     36.5382E-03     35.1170E-03
            4105            4365     36.5382E-03     35.1170E-03
            4145            4365     36.5382E-03     35.1170E-03
            4106            4366     31.7802E-03     34.1599E-03
            4105            4366     31.7802E-03     34.1599E-03
            4145            4366     31.7802E-03     34.1599E-03
            4146            4366     31.7802E-03     34.1599E-03
            4147            4367     12.6051E-03     12.5164E-03
            4148            4367     12.6051E-03     12.5164E-03
            4108            4367     12.6051E-03     12.5164E-03
            4107            4367     12.6051E-03     12.5164E-03
            4148            4368     12.7446E-03     12.8377E-03
            4108            4368     12.7446E-03     12.8377E-03
            4149            4368     12.7446E-03     12.8377E-03
            4109            4368     12.7446E-03     12.8377E-03
            4150            4369     13.3778E-03     13.0322E-03
            4149            4369     13.3778E-03     13.0322E-03
            4110            4369     13.3778E-03     13.0322E-03
            4109            4369     13.3778E-03     13.0322E-03
            4110            4370     13.4553E-03     13.4149E-03
            4111            4370     13.4553E-03     13.4149E-03
            4151            4370     13.4553E-03     13.4149E-03
            4150            4370     13.4553E-03     13.4149E-03
            4112            4371     13.9169E-03     14.2275E-03
            4152            4371     13.9169E-03     14.2275E-03
            4151            4371     13.9169E-03     14.2275E-03
            4111            4371     13.9169E-03     14.2275E-03
            4113            4372     15.1203E-03     14.9322E-03
            4153            4372     15.1203E-03     14.9322E-03
            4112            4372     15.1203E-03     14.9322E-03
            4152            4372     15.1203E-03     14.9322E-03
            4113            4373     15.7275E-03     15.7311E-03
            4153            4373     15.7275E-03     15.7311E-03
            4154            4373     15.7275E-03     15.7311E-03
            4114            4373     15.7275E-03     15.7311E-03
            4154            4374     16.5471E-03     16.6280E-03
            4114            4374     16.5471E-03     16.6280E-03
            4115            4374     16.5471E-03     16.6280E-03
            4155            4374     16.5471E-03     16.6280E-03
            4155            4375     17.5304E-03     17.5842E-03
            4156            4375     17.5304E-03     17.5842E-03
            4116            4375     17.5304E-03     17.5842E-03
            4115            4375     17.5304E-03     17.5842E-03
            4117            4376     18.5006E-03     18.6961E-03
            4157            4376     18.5006E-03     18.6961E-03
            4156            4376     18.5006E-03     18.6961E-03
            4116            4376     18.5006E-03     18.6961E-03
            4157            4377     19.7801E-03     19.6917E-03
            4158            4377     19.7801E-03     19.6917E-03
            4118            4377     19.7801E-03     19.6917E-03
            4117            4377     19.7801E-03     19.6917E-03
            4118            4378     20.9033E-03     20.6344E-03
            4158            4378     20.9033E-03     20.6344E-03
            4119            4378     20.9033E-03     20.6344E-03
            4159            4378     20.9033E-03     20.6344E-03
            4119            4379     21.5742E-03     22.5235E-03
            4159            4379     21.5742E-03     22.5235E-03
            4120            4379     21.5742E-03     22.5235E-03
            4160            4379     21.5742E-03     22.5235E-03
            4121            4380     24.3169E-03     22.7513E-03
            4120            4380     24.3169E-03     22.7513E-03
            4161            4380     24.3169E-03     22.7513E-03
            4160            4380     24.3169E-03     22.7513E-03
            4122            4381     24.0190E-03     23.3208E-03
            4161            4381     24.0190E-03     23.3208E-03
            4162            4381     24.0190E-03     23.3208E-03
            4121            4381     24.0190E-03     23.3208E-03
            4162            4382     21.6218E-03     23.9852E-03
            4122            4382     21.6218E-03     23.9852E-03
            4123            4382     21.6218E-03     23.9852E-03
            4163            4382     21.6218E-03     23.9852E-03
            4163            4383     23.8336E-03     23.1224E-03
            4164            4383     23.8336E-03     23.1224E-03
            4123            4383     23.8336E-03     23.1224E-03
            4124            4383     23.8336E-03     23.1224E-03
            4164            4384     25.6240E-03     24.9898E-03
            4165            4384     25.6240E-03     24.9898E-03
            4124            4384     25.6240E-03     24.9898E-03
            4125            4384     25.6240E-03     24.9898E-03
            4125            4385     26.4206E-03     27.1000E-03
            4165            4385     26.4206E-03     27.1000E-03
            4166            4385     26.4206E-03     27.1000E-03
            4126            4385     26.4206E-03     27.1000E-03
            4167            4386     28.2645E-03     28.2583E-03
            4127            4386     28.2645E-03     28.2583E-03
            4166            4386     28.2645E-03     28.2583E-03
            4126            4386     28.2645E-03     28.2583E-03
            4127            4387     29.8420E-03     29.7786E-03
            4128            4387     29.8420E-03     29.7786E-03
            4167            4387     29.8420E-03     29.7786E-03
            4168            4387     29.8420E-03     29.7786E-03
            4169            4388     31.1874E-03     31.3825E-03
            4128            4388     31.1874E-03     31.3825E-03
            4129            4388     31.1874E-03     31.3825E-03
            4168            4388     31.1874E-03     31.3825E-03
            4170            4389     33.0467E-03     32.6678E-03
            4169            4389     33.0467E-03     32.6678E-03
            4130            4389     33.0467E-03     32.6678E-03
            4129            4389     33.0467E-03     32.6678E-03
            4131            4390     34.4507E-03     33.8578E-03
            4171            4390     34.4507E-03     33.8578E-03
            4170            4390     34.4507E-03     33.8578E-03
            4130            4390     34.4507E-03     33.8578E-03
            4131            4391     34.8993E-03     36.7172E-03
            4132            4391     34.8993E-03     36.7172E-03
            4171            4391     34.8993E-03     36.7172E-03
            4172            4391     34.8993E-03     36.7172E-03
            4132            4392     39.1184E-03     36.3133E-03
            4172            4392     39.1184E-03     36.3133E-03
            4173            4392     39.1184E-03     36.3133E-03
            4133            4392     39.1184E-03     36.3133E-03
            4174            4393     37.9111E-03     36.5479E-03
            4133            4393     37.9111E-03     36.5479E-03
            4173            4393     37.9111E-03     36.5479E-03
            4134            4393     37.9111E-03     36.5479E-03
            4135            4394     32.8248E-03     37.8119E-03
            4175            4394     32.8248E-03     37.8119E-03
            4174            4394     32.8248E-03     37.8119E-03
            4134            4394     32.8248E-03     37.8119E-03
            4175            4395     37.2298E-03     35.8620E-03
            4135            4395     37.2298E-03     35.8620E-03
            4136            4395     37.2298E-03     35.8620E-03
            4176            4395     37.2298E-03     35.8620E-03
            4137            4396     40.2942E-03     38.6555E-03
            4177            4396     40.2942E-03     38.6555E-03
            4136            4396     40.2942E-03     38.6555E-03
            4176            4396     40.2942E-03     38.6555E-03
            4137            4397     40.4740E-03     41.9475E-03
            4177            4397     40.4740E-03     41.9475E-03
            4178            4397     40.4740E-03     41.9475E-03
            4138            4397     40.4740E-03     41.9475E-03
            4179            4398     43.0620E-03     42.8396E-03
            4178            4398     43.0620E-03     42.8396E-03
            4138            4398     43.0620E-03     42.8396E-03
            4139            4398     43.0620E-03     42.8396E-03
            4180            4399     44.7439E-03     44.9747E-03
            4139            4399     44.7439E-03     44.9747E-03
            4140            4399     44.7439E-03     44.9747E-03
            4179            4399     44.7439E-03     44.9747E-03
            4181            4400     46.7285E-03     46.5418E-03
            4180            4400     46.7285E-03     46.5418E-03
            4140            4400     46.7285E-03     46.5418E-03
            4141            4400     46.7285E-03     46.5418E-03
            4182            4401     48.3346E-03     47.6397E-03
            4181            4401     48.3346E-03     47.6397E-03
            4141            4401     48.3346E-03     47.6397E-03
            4142            4401     48.3346E-03     47.6397E-03
            4183            4402     48.4359E-03     51.1545E-03
            4142            4402     48.4359E-03     51.1545E-03
            4143            4402     48.4359E-03     51.1545E-03
            4182            4402     48.4359E-03     51.1545E-03
            4184            4403     53.7730E-03     49.9696E-03
            4183            4403     53.7730E-03     49.9696E-03
            4143            4403     53.7730E-03     49.9696E-03
            4144            4403     53.7730E-03     49.9696E-03
            4185            4404     51.6171E-03     49.6464E-03
            4184            4404     51.6171E-03     49.6464E-03
            4144            4404     51.6171E-03     49.6464E-03
            4145            4404     51.6171E-03     49.6464E-03
            4186            4405     45.3066E-03     50.1460E-03
            4185            4405     45.3066E-03     50.1460E-03
            4145            4405     45.3066E-03     50.1460E-03
            4146            4405     45.3066E-03     50.1460E-03
            4188            4406     9.96792E-03     9.95484E-03
            4147            4406     9.96792E-03     9.95484E-03
            4148            4406     9.96792E-03     9.95484E-03
            4187            4406     9.96792E-03     9.95484E-03
            4149            4407     10.1965E-03     10.5279E-03
            4188            4407     10.1965E-03     10.5279E-03
            4148            4407     10.1965E-03     10.5279E-03
            4189            4407     10.1965E-03     10.5279E-03
            4149            4408     11.4817E-03     10.8692E-03
            4189            4408     11.4817E-03     10.8692E-03
            4190            4408     11.4817E-03     10.8692E-03
            4150            4408     11.4817E-03     10.8692E-03
            4191            4409     11.7945E-03     11.7947E-03
            4150            4409     11.7945E-03     11.7947E-03
            4151            4409     11.7945E-03     11.7947E-03
            4190            4409     11.7945E-03     11.7947E-03
            4192            4410     11.8576E-03     12.6145E-03
            4191            4410     11.8576E-03     12.6145E-03
            4151            4410     11.8576E-03     12.6145E-03
            4152            4410     11.8576E-03     12.6145E-03
            4193            4411     13.2000E-03     13.1380E-03
            4192            4411     13.2000E-03     13.1380E-03
            4152            4411     13.2000E-03     13.1380E-03
            4153            4411     13.2000E-03     13.1380E-03
            4194            4412     14.2549E-03     14.6349E-03
            4153            4412     14.2549E-03     14.6349E-03
            4154            4412     14.2549E-03     14.6349E-03
            4193            4412     14.2549E-03     14.6349E-03
            4195            4413     15.6364E-03     16.0446E-03
            4194            4413     15.6364E-03     16.0446E-03
            4154            4413     15.6364E-03     16.0446E-03
            4155            4413     15.6364E-03     16.0446E-03
            4196            4414     17.2470E-03     17.3639E-03
            4156            4414     17.2470E-03     17.3639E-03
            4155            4414     17.2470E-03     17.3639E-03
            4195            4414     17.2470E-03     17.3639E-03
            4197            4415     18.7806E-03     18.9898E-03
            4156            4415     18.7806E-03     18.9898E-03
            4196            4415     18.7806E-03     18.9898E-03
            4157            4415     18.7806E-03     18.9898E-03
            4198            4416     20.7134E-03     20.5005E-03
            4157            4416     20.7134E-03     20.5005E-03
            4158            4416     20.7134E-03     20.5005E-03
            4197            4416     20.7134E-03     20.5005E-03
            4198            4417     22.4668E-03     22.0111E-03
            4158            4417     22.4668E-03     22.0111E-03
            4159            4417     22.4668E-03     22.0111E-03
            4199            4417     22.4668E-03     22.0111E-03
            4160            4418     23.7048E-03     24.9508E-03
            4199            4418     23.7048E-03     24.9508E-03
            4159            4418     23.7048E-03     24.9508E-03
            4200            4418     23.7048E-03     24.9508E-03
            4201            4419     28.0817E-03     25.4934E-03
            4160            4419     28.0817E-03     25.4934E-03
            4161            4419     28.0817E-03     25.4934E-03
            4200            4419     28.0817E-03     25.4934E-03
            4202            4420     27.8058E-03     27.0922E-03
            4201            4420     27.8058E-03     27.0922E-03
            4161            4420     27.8058E-03     27.0922E-03
            4162            4420     27.8058E-03     27.0922E-03
            4203            4421     24.0215E-03     28.4265E-03
            4163            4421     24.0215E-03     28.4265E-03
            4162            4421     24.0215E-03     28.4265E-03
            4202            4421     24.0215E-03     28.4265E-03
            4204            4422     27.4626E-03     26.7768E-03
            4203            4422     27.4626E-03     26.7768E-03
            4163            4422     27.4626E-03     26.7768E-03
            4164            4422     27.4626E-03     26.7768E-03
            4164            4423     29.9905E-03     29.3006E-03
            4204            4423     29.9905E-03     29.3006E-03
            4165            4423     29.9905E-03     29.3006E-03
            4205            4423     29.9905E-03     29.3006E-03
            4205            4424     30.5114E-03     31.9000E-03
            4165            4424     30.5114E-03     31.9000E-03
            4206            4424     30.5114E-03     31.9000E-03
            4166            4424     30.5114E-03     31.9000E-03
            4207            4425     32.8976E-03     32.8841E-03
            4206            4425     32.8976E-03     32.8841E-03
            4166            4425     32.8976E-03     32.8841E-03
            4167            4425     32.8976E-03     32.8841E-03
            4167            4426     34.8481E-03     34.7152E-03
            4208            4426     34.8481E-03     34.7152E-03
            4168            4426     34.8481E-03     34.7152E-03
            4207            4426     34.8481E-03     34.7152E-03
            4208            4427     36.6037E-03     36.8750E-03
            4169            4427     36.6037E-03     36.8750E-03
            4168            4427     36.6037E-03     36.8750E-03
            4209            4427     36.6037E-03     36.8750E-03
            4209            4428     39.2335E-03     38.6913E-03
            4169            4428     39.2335E-03     38.6913E-03
            4210            4428     39.2335E-03     38.6913E-03
            4170            4428     39.2335E-03     38.6913E-03
            4210            4429     41.4163E-03     40.5692E-03
            4211            4429     41.4163E-03     40.5692E-03
            4170            4429     41.4163E-03     40.5692E-03
            4171            4429     41.4163E-03     40.5692E-03
            4211            4430     42.5593E-03     44.9265E-03
            4212            4430     42.5593E-03     44.9265E-03
            4171            4430     42.5593E-03     44.9265E-03
            4172            4430     42.5593E-03     44.9265E-03
            4212            4431     49.1816E-03     44.8575E-03
            4173            4431     49.1816E-03     44.8575E-03
            4213            4431     49.1816E-03     44.8575E-03
            4172            4431     49.1816E-03     44.8575E-03
            4213            4432     47.7654E-03     46.3793E-03
            4173            4432     47.7654E-03     46.3793E-03
            4214            4432     47.7654E-03     46.3793E-03
            4174            4432     47.7654E-03     46.3793E-03
            4175            4433     40.3693E-03     48.8454E-03
            4215            4433     40.3693E-03     48.8454E-03
            4214            4433     40.3693E-03     48.8454E-03
            4174            4433     40.3693E-03     48.8454E-03
            4216            4434     46.9009E-03     45.4730E-03
            4176            4434     46.9009E-03     45.4730E-03
            4215            4434     46.9009E-03     45.4730E-03
            4175            4434     46.9009E-03     45.4730E-03
            4217            4435     50.9161E-03     48.7326E-03
            4177            4435     50.9161E-03     48.7326E-03
            4216            4435     50.9161E-03     48.7326E-03
            4176            4435     50.9161E-03     48.7326E-03
            4177            4436     50.0611E-03     52.4021E-03
            4218            4436     50.0611E-03     52.4021E-03
            4217            4436     50.0611E-03     52.4021E-03
            4178            4436     50.0611E-03     52.4021E-03
            4179            4437     53.0952E-03     52.5998E-03
            4219            4437     53.0952E-03     52.5998E-03
            4178            4437     53.0952E-03     52.5998E-03
            4218            4437     53.0952E-03     52.5998E-03
            4219            4438     55.0399E-03     55.0843E-03
            4220            4438     55.0399E-03     55.0843E-03
            4180            4438     55.0399E-03     55.0843E-03
            4179            4438     55.0399E-03     55.0843E-03
            4181            4439     57.6269E-03     57.1136E-03
            4220            4439     57.6269E-03     57.1136E-03
            4180            4439     57.6269E-03     57.1136E-03
            4221            4439     57.6269E-03     57.1136E-03
            4222            4440     60.1112E-03     58.8420E-03
            4182            4440     60.1112E-03     58.8420E-03
            4181            4440     60.1112E-03     58.8420E-03
            4221            4440     60.1112E-03     58.8420E-03
            4182            4441     61.0030E-03     64.3233E-03
            4223            4441     61.0030E-03     64.3233E-03
            4222            4441     61.0030E-03     64.3233E-03
            4183            4441     61.0030E-03     64.3233E-03
            4224            4442     69.4737E-03     63.5554E-03
            4184            4442     69.4737E-03     63.5554E-03
            4183            4442     69.4737E-03     63.5554E-03
            4223            4442     69.4737E-03     63.5554E-03
            4184            4443     66.9238E-03     64.8295E-03
            4225            4443     66.9238E-03     64.8295E-03
            4185            4443     66.9238E-03     64.8295E-03
            4224            4443     66.9238E-03     64.8295E-03
            4186            4444     58.3237E-03     66.0636E-03
            4226            4444     58.3237E-03     66.0636E-03
            4185            4444     58.3237E-03     66.0636E-03
            4225            4444     58.3237E-03     66.0636E-03
            4227            4445     6.79654E-03     6.97259E-03
            4228            4445     6.79654E-03     6.97259E-03
            4188            4445     6.79654E-03     6.97259E-03
            4187            4445     6.79654E-03     6.97259E-03
            4228            4446     7.32174E-03     8.15335E-03
            4229            4446     7.32174E-03     8.15335E-03
            4189            4446     7.32174E-03     8.15335E-03
            4188            4446     7.32174E-03     8.15335E-03
            4229            4447     9.52869E-03     8.46310E-03
            4190            4447     9.52869E-03     8.46310E-03
            4230            4447     9.52869E-03     8.46310E-03
            4189            4447     9.52869E-03     8.46310E-03
            4190            4448     10.0858E-03     10.0766E-03
            4231            4448     10.0858E-03     10.0766E-03
            4191            4448     10.0858E-03     10.0766E-03
            4230            4448     10.0858E-03     10.0766E-03
            4192            4449     9.88951E-03     11.5732E-03
            4231            4449     9.88951E-03     11.5732E-03
            4232            4449     9.88951E-03     11.5732E-03
            4191            4449     9.88951E-03     11.5732E-03
            4233            4450     11.8613E-03     11.9197E-03
            4192            4450     11.8613E-03     11.9197E-03
            4193            4450     11.8613E-03     11.9197E-03
            4232            4450     11.8613E-03     11.9197E-03
            4193            4451     13.3123E-03     13.7584E-03
            4194            4451     13.3123E-03     13.7584E-03
            4234            4451     13.3123E-03     13.7584E-03
            4233            4451     13.3123E-03     13.7584E-03
            4234            4452     14.8658E-03     15.3911E-03
            4194            4452     14.8658E-03     15.3911E-03
            4195            4452     14.8658E-03     15.3911E-03
            4235            4452     14.8658E-03     15.3911E-03
            4236            4453     16.9826E-03     17.0107E-03
            4196            4453     16.9826E-03     17.0107E-03
            4235            4453     16.9826E-03     17.0107E-03
            4195            4453     16.9826E-03     17.0107E-03
            4237            4454     18.9302E-03     19.3581E-03
            4197            4454     18.9302E-03     19.3581E-03
            4236            4454     18.9302E-03     19.3581E-03
            4196            4454     18.9302E-03     19.3581E-03
            4198            4455     21.5399E-03     21.5334E-03
            4197            4455     21.5399E-03     21.5334E-03
            4237            4455     21.5399E-03     21.5334E-03
            4238            4455     21.5399E-03     21.5334E-03
            4238            4456     23.8878E-03     23.7100E-03
            4239            4456     23.8878E-03     23.7100E-03
            4199            4456     23.8878E-03     23.7100E-03
            4198            4456     23.8878E-03     23.7100E-03
            4240            4457     25.5664E-03     27.7309E-03
            4199            4457     25.5664E-03     27.7309E-03
            4239            4457     25.5664E-03     27.7309E-03
            4200            4457     25.5664E-03     27.7309E-03
            4200            4458     31.5168E-03     28.2487E-03
            4241            4458     31.5168E-03     28.2487E-03
            4240            4458     31.5168E-03     28.2487E-03
            4201            4458     31.5168E-03     28.2487E-03
            4202            4459     31.4905E-03     31.0383E-03
            4201            4459     31.4905E-03     31.0383E-03
            4242            4459     31.4905E-03     31.0383E-03
            4241            4459     31.4905E-03     31.0383E-03
            4203            4460     26.7864E-03     34.0158E-03
            4202            4460     26.7864E-03     34.0158E-03
            4243            4460     26.7864E-03     34.0158E-03
            4242            4460     26.7864E-03     34.0158E-03
            4243            4461     31.5887E-03     31.1759E-03
            4204            4461     31.5887E-03     31.1759E-03
            4244            4461     31.5887E-03     31.1759E-03
            4203            4461     31.5887E-03     31.1759E-03
            4245            4462     34.3474E-03     33.1547E-03
            4205            4462     34.3474E-03     33.1547E-03
            4204            4462     34.3474E-03     33.1547E-03
            4244            4462     34.3474E-03     33.1547E-03
            4205            4463     33.8594E-03     35.8113E-03
            4206            4463     33.8594E-03     35.8113E-03
            4245            4463     33.8594E-03     35.8113E-03
            4246            4463     33.8594E-03     35.8113E-03
            4206            4464     36.5271E-03     36.6785E-03
            4207            4464     36.5271E-03     36.6785E-03
            4246            4464     36.5271E-03     36.6785E-03
            4247            4464     36.5271E-03     36.6785E-03
            4248            4465     38.7401E-03     39.0606E-03
            4208            4465     38.7401E-03     39.0606E-03
            4247            4465     38.7401E-03     39.0606E-03
            4207            4465     38.7401E-03     39.0606E-03
            4209            4466     40.7743E-03     41.9199E-03
            4208            4466     40.7743E-03     41.9199E-03
            4249            4466     40.7743E-03     41.9199E-03
            4248            4466     40.7743E-03     41.9199E-03
            4209            4467     44.1697E-03     44.3312E-03
            4210            4467     44.1697E-03     44.3312E-03
            4249            4467     44.1697E-03     44.3312E-03
            4250            4467     44.1697E-03     44.3312E-03
            4210            4468     46.9487E-03     46.8024E-03
            4211            4468     46.9487E-03     46.8024E-03
            4250            4468     46.9487E-03     46.8024E-03
            4251            4468     46.9487E-03     46.8024E-03
            4252            4469     48.5694E-03     52.4689E-03
            4211            4469     48.5694E-03     52.4689E-03
            4212            4469     48.5694E-03     52.4689E-03
            4251            4469     48.5694E-03     52.4689E-03
            4212            4470     57.6404E-03     52.2512E-03
            4213            4470     57.6404E-03     52.2512E-03
            4253            4470     57.6404E-03     52.2512E-03
            4252            4470     57.6404E-03     52.2512E-03
            4214            4471     56.5497E-03     55.6184E-03
            4213            4471     56.5497E-03     55.6184E-03
            4253            4471     56.5497E-03     55.6184E-03
            4254            4471     56.5497E-03     55.6184E-03
            4255            4472     47.4768E-03     60.8143E-03
            4214            4472     47.4768E-03     60.8143E-03
            4215            4472     47.4768E-03     60.8143E-03
            4254            4472     47.4768E-03     60.8143E-03
            4255            4473     56.1609E-03     55.1636E-03
            4256            4473     56.1609E-03     55.1636E-03
            4216            4473     56.1609E-03     55.1636E-03
            4215            4473     56.1609E-03     55.1636E-03
            4256            4474     60.2089E-03     57.0899E-03
            4216            4474     60.2089E-03     57.0899E-03
            4257            4474     60.2089E-03     57.0899E-03
            4217            4474     60.2089E-03     57.0899E-03
            4257            4475     57.3709E-03     60.7984E-03
            4258            4475     57.3709E-03     60.7984E-03
            4217            4475     57.3709E-03     60.7984E-03
            4218            4475     57.3709E-03     60.7984E-03
            4219            4476     60.6023E-03     60.4082E-03
            4258            4476     60.6023E-03     60.4082E-03
            4218            4476     60.6023E-03     60.4082E-03
            4259            4476     60.6023E-03     60.4082E-03
            4219            4477     62.6057E-03     63.6677E-03
            4259            4477     62.6057E-03     63.6677E-03
            4220            4477     62.6057E-03     63.6677E-03
            4260            4477     62.6057E-03     63.6677E-03
            4260            4478     65.7864E-03     66.3168E-03
            4221            4478     65.7864E-03     66.3168E-03
            4220            4478     65.7864E-03     66.3168E-03
            4261            4478     65.7864E-03     66.3168E-03
            4222            4479     69.0380E-03     68.5825E-03
            4221            4479     69.0380E-03     68.5825E-03
            4261            4479     69.0380E-03     68.5825E-03
            4262            4479     69.0380E-03     68.5825E-03
            4262            4480     70.4815E-03     75.8506E-03
            4222            4480     70.4815E-03     75.8506E-03
            4263            4480     70.4815E-03     75.8506E-03
            4223            4480     70.4815E-03     75.8506E-03
            4263            4481     82.3915E-03     74.9377E-03
            4224            4481     82.3915E-03     74.9377E-03
            4264            4481     82.3915E-03     74.9377E-03
            4223            4481     82.3915E-03     74.9377E-03
            4264            4482     80.3312E-03     78.8720E-03
            4225            4482     80.3312E-03     78.8720E-03
            4224            4482     80.3312E-03     78.8720E-03
            4265            4482     80.3312E-03     78.8720E-03
            4265            4483     69.4748E-03     80.9025E-03
            4225            4483     69.4748E-03     80.9025E-03
            4226            4483     69.4748E-03     80.9025E-03
            4266            4483     69.4748E-03     80.9025E-03
            4227            4484     3.45819E-03     3.82995E-03
            4228            4484     3.45819E-03     3.82995E-03
            4268            4484     3.45819E-03     3.82995E-03
            4267            4484     3.45819E-03     3.82995E-03
            4229            4485     4.52779E-03     5.79144E-03
            4268            4485     4.52779E-03     5.79144E-03
            4269            4485     4.52779E-03     5.79144E-03
            4228            4485     4.52779E-03     5.79144E-03
            4229            4486     8.32926E-03     6.94299E-03
            4270            4486     8.32926E-03     6.94299E-03
            4269            4486     8.32926E-03     6.94299E-03
            4230            4486     8.32926E-03     6.94299E-03
            4271            4487     9.34295E-03     9.52616E-03
            4230            4487     9.34295E-03     9.52616E-03
            4270            4487     9.34295E-03     9.52616E-03
            4231            4487     9.34295E-03     9.52616E-03
            4231            4488     8.70460E-03     11.2825E-03
            4272            4488     8.70460E-03     11.2825E-03
            4271            4488     8.70460E-03     11.2825E-03
            4232            4488     8.70460E-03     11.2825E-03
            4272            4489     10.9050E-03     10.8828E-03
            4233            4489     10.9050E-03     10.8828E-03
            4273            4489     10.9050E-03     10.8828E-03
            4232            4489     10.9050E-03     10.8828E-03
            4234            4490     12.3846E-03     12.6898E-03
            4273            4490     12.3846E-03     12.6898E-03
            4233            4490     12.3846E-03     12.6898E-03
            4274            4490     12.3846E-03     12.6898E-03
            4234            4491     14.1419E-03     14.8631E-03
            4235            4491     14.1419E-03     14.8631E-03
            4275            4491     14.1419E-03     14.8631E-03
            4274            4491     14.1419E-03     14.8631E-03
            4236            4492     16.9120E-03     17.2178E-03
            4276            4492     16.9120E-03     17.2178E-03
            4235            4492     16.9120E-03     17.2178E-03
            4275            4492     16.9120E-03     17.2178E-03
            4276            4493     19.3538E-03     20.3090E-03
            4236            4493     19.3538E-03     20.3090E-03
            4237            4493     19.3538E-03     20.3090E-03
            4277            4493     19.3538E-03     20.3090E-03
            4278            4494     22.5852E-03     23.1819E-03
            4237            4494     22.5852E-03     23.1819E-03
            4277            4494     22.5852E-03     23.1819E-03
            4238            4494     22.5852E-03     23.1819E-03
            4239            4495     25.6327E-03     25.8429E-03
            4279            4495     25.6327E-03     25.8429E-03
            4238            4495     25.6327E-03     25.8429E-03
            4278            4495     25.6327E-03     25.8429E-03
            4280            4496     27.5232E-03     30.7858E-03
            4239            4496     27.5232E-03     30.7858E-03
            4279            4496     27.5232E-03     30.7858E-03
            4240            4496     27.5232E-03     30.7858E-03
            4281            4497     34.7209E-03     31.7635E-03
            4240            4497     34.7209E-03     31.7635E-03
            4280            4497     34.7209E-03     31.7635E-03
            4241            4497     34.7209E-03     31.7635E-03
            4281            4498     35.0751E-03     34.9784E-03
            4242            4498     35.0751E-03     34.9784E-03
            4282            4498     35.0751E-03     34.9784E-03
            4241            4498     35.0751E-03     34.9784E-03
            4282            4499     29.3720E-03     38.3483E-03
            4243            4499     29.3720E-03     38.3483E-03
            4242            4499     29.3720E-03     38.3483E-03
            4283            4499     29.3720E-03     38.3483E-03
            4243            4500     34.4275E-03     34.1656E-03
            4283            4500     34.4275E-03     34.1656E-03
            4244            4500     34.4275E-03     34.1656E-03
            4284            4500     34.4275E-03     34.1656E-03
            4285            4501     36.6403E-03     35.5234E-03
            4284            4501     36.6403E-03     35.5234E-03
            4245            4501     36.6403E-03     35.5234E-03
            4244            4501     36.6403E-03     35.5234E-03
            4286            4502     35.7784E-03     38.5700E-03
            4285            4502     35.7784E-03     38.5700E-03
            4245            4502     35.7784E-03     38.5700E-03
            4246            4502     35.7784E-03     38.5700E-03
            4246            4503     39.1207E-03     40.0388E-03
            4247            4503     39.1207E-03     40.0388E-03
            4286            4503     39.1207E-03     40.0388E-03
            4287            4503     39.1207E-03     40.0388E-03
            4247            4504     41.8635E-03     43.1883E-03
            4248            4504     41.8635E-03     43.1883E-03
            4287            4504     41.8635E-03     43.1883E-03
            4288            4504     41.8635E-03     43.1883E-03
            4249            4505     44.3342E-03     46.5797E-03
            4288            4505     44.3342E-03     46.5797E-03
            4289            4505     44.3342E-03     46.5797E-03
            4248            4505     44.3342E-03     46.5797E-03
            4290            4506     48.2433E-03     49.6328E-03
            4250            4506     48.2433E-03     49.6328E-03
            4289            4506     48.2433E-03     49.6328E-03
            4249            4506     48.2433E-03     49.6328E-03
            4251            4507     51.6865E-03     52.3727E-03
            4250            4507     51.6865E-03     52.3727E-03
            4291            4507     51.6865E-03     52.3727E-03
            4290            4507     51.6865E-03     52.3727E-03
            4251            4508     53.2150E-03     59.0177E-03
            4252            4508     53.2150E-03     59.0177E-03
            4292            4508     53.2150E-03     59.0177E-03
            4291            4508     53.2150E-03     59.0177E-03
            4293            4509     64.0279E-03     59.2343E-03
            4292            4509     64.0279E-03     59.2343E-03
            4252            4509     64.0279E-03     59.2343E-03
            4253            4509     64.0279E-03     59.2343E-03
            4294            4510     63.6705E-03     63.3418E-03
            4254            4510     63.6705E-03     63.3418E-03
            4253            4510     63.6705E-03     63.3418E-03
            4293            4510     63.6705E-03     63.3418E-03
            4294            4511     53.2164E-03     69.5736E-03
            4254            4511     53.2164E-03     69.5736E-03
            4295            4511     53.2164E-03     69.5736E-03
            4255            4511     53.2164E-03     69.5736E-03
            4295            4512     62.5335E-03     62.0021E-03
            4255            4512     62.5335E-03     62.0021E-03
            4256            4512     62.5335E-03     62.0021E-03
            4296            4512     62.5335E-03     62.0021E-03
            4296            4513     65.6026E-03     62.8174E-03
            4257            4513     65.6026E-03     62.8174E-03
            4297            4513     65.6026E-03     62.8174E-03
            4256            4513     65.6026E-03     62.8174E-03
            4257            4514     61.6917E-03     66.9760E-03
            4297            4514     61.6917E-03     66.9760E-03
            4258            4514     61.6917E-03     66.9760E-03
            4298            4514     61.6917E-03     66.9760E-03
            4298            4515     66.0385E-03     67.0515E-03
            4259            4515     66.0385E-03     67.0515E-03
            4299            4515     66.0385E-03     67.0515E-03
            4258            4515     66.0385E-03     67.0515E-03
            4299            4516     68.2876E-03     71.2526E-03
            4259            4516     68.2876E-03     71.2526E-03
            4300            4516     68.2876E-03     71.2526E-03
            4260            4516     68.2876E-03     71.2526E-03
            4301            4517     72.0703E-03     74.6102E-03
            4300            4517     72.0703E-03     74.6102E-03
            4261            4517     72.0703E-03     74.6102E-03
            4260            4517     72.0703E-03     74.6102E-03
            4261            4518     76.2379E-03     77.1397E-03
            4301            4518     76.2379E-03     77.1397E-03
            4262            4518     76.2379E-03     77.1397E-03
            4302            4518     76.2379E-03     77.1397E-03
            4303            4519     77.3715E-03     85.6222E-03
            4263            4519     77.3715E-03     85.6222E-03
            4262            4519     77.3715E-03     85.6222E-03
            4302            4519     77.3715E-03     85.6222E-03
            4263            4520     91.7431E-03     85.1991E-03
            4303            4520     91.7431E-03     85.1991E-03
            4304            4520     91.7431E-03     85.1991E-03
            4264            4520     91.7431E-03     85.1991E-03
            4305            4521     90.8449E-03     90.3278E-03
            4265            4521     90.8449E-03     90.3278E-03
            4264            4521     90.8449E-03     90.3278E-03
            4304            4521     90.8449E-03     90.3278E-03
            4306            4522     78.0077E-03     91.8096E-03
            4266            4522     78.0077E-03     91.8096E-03
            4305            4522     78.0077E-03     91.8096E-03
            4265            4522     78.0077E-03     91.8096E-03
            4268            4523     3.73319E-03     4.30758E-03
            4307            4523     3.73319E-03     4.30758E-03
            4267            4523     3.73319E-03     4.30758E-03
            4308            4523     3.73319E-03     4.30758E-03
            4308            4524     5.04903E-03     6.14266E-03
            4268            4524     5.04903E-03     6.14266E-03
            4269            4524     5.04903E-03     6.14266E-03
            4309            4524     5.04903E-03     6.14266E-03
            4309            4525     9.51197E-03     8.42587E-03
            4269            4525     9.51197E-03     8.42587E-03
            4310            4525     9.51197E-03     8.42587E-03
            4270            4525     9.51197E-03     8.42587E-03
            4310            4526     12.0051E-03     12.1817E-03
            4270            4526     12.0051E-03     12.1817E-03
            4271            4526     12.0051E-03     12.1817E-03
            4311            4526     12.0051E-03     12.1817E-03
            4312            4527     9.17946E-03     11.1580E-03
            4272            4527     9.17946E-03     11.1580E-03
            4271            4527     9.17946E-03     11.1580E-03
            4311            4527     9.17946E-03     11.1580E-03
            4312            4528     8.76801E-03     8.51477E-03
            4272            4528     8.76801E-03     8.51477E-03
            4273            4528     8.76801E-03     8.51477E-03
            4313            4528     8.76801E-03     8.51477E-03
            4314            4529     11.5811E-03     11.7354E-03
            4273            4529     11.5811E-03     11.7354E-03
            4313            4529     11.5811E-03     11.7354E-03
            4274            4529     11.5811E-03     11.7354E-03
            4314            4530     14.6387E-03     15.0472E-03
            4315            4530     14.6387E-03     15.0472E-03
            4275            4530     14.6387E-03     15.0472E-03
            4274            4530     14.6387E-03     15.0472E-03
            4316            4531     17.9656E-03     18.2197E-03
            4315            4531     17.9656E-03     18.2197E-03
            4275            4531     17.9656E-03     18.2197E-03
            4276            4531     17.9656E-03     18.2197E-03
            4277            4532     21.0476E-03     21.5535E-03
            4276            4532     21.0476E-03     21.5535E-03
            4317            4532     21.0476E-03     21.5535E-03
            4316            4532     21.0476E-03     21.5535E-03
            4318            4533     24.3663E-03     24.8696E-03
            4317            4533     24.3663E-03     24.8696E-03
            4278            4533     24.3663E-03     24.8696E-03
            4277            4533     24.3663E-03     24.8696E-03
            4279            4534     27.9315E-03     27.6970E-03
            4278            4534     27.9315E-03     27.6970E-03
            4319            4534     27.9315E-03     27.6970E-03
            4318            4534     27.9315E-03     27.6970E-03
            4320            4535     30.1493E-03     32.6785E-03
            4280            4535     30.1493E-03     32.6785E-03
            4319            4535     30.1493E-03     32.6785E-03
            4279            4535     30.1493E-03     32.6785E-03
            4280            4536     37.2453E-03     34.9411E-03
            4281            4536     37.2453E-03     34.9411E-03
            4320            4536     37.2453E-03     34.9411E-03
            4321            4536     37.2453E-03     34.9411E-03
            4321            4537     39.7425E-03     39.1460E-03
            4282            4537     39.7425E-03     39.1460E-03
            4322            4537     39.7425E-03     39.1460E-03
            4281            4537     39.7425E-03     39.1460E-03
            4282            4538     32.6710E-03     39.2864E-03
            4323            4538     32.6710E-03     39.2864E-03
            4322            4538     32.6710E-03     39.2864E-03
            4283            4538     32.6710E-03     39.2864E-03
            4283            4539     33.8180E-03     32.7951E-03
            4323            4539     33.8180E-03     32.7951E-03
            4284            4539     33.8180E-03     32.7951E-03
            4324            4539     33.8180E-03     32.7951E-03
            4324            4540     36.6649E-03     35.4237E-03
            4325            4540     36.6649E-03     35.4237E-03
            4284            4540     36.6649E-03     35.4237E-03
            4285            4540     36.6649E-03     35.4237E-03
            4325            4541     37.7570E-03     39.5955E-03
            4286            4541     37.7570E-03     39.5955E-03
            4285            4541     37.7570E-03     39.5955E-03
            4326            4541     37.7570E-03     39.5955E-03
            4327            4542     41.8141E-03     42.1822E-03
            4286            4542     41.8141E-03     42.1822E-03
            4287            4542     41.8141E-03     42.1822E-03
            4326            4542     41.8141E-03     42.1822E-03
            4288            4543     45.0848E-03     45.8783E-03
            4328            4543     45.0848E-03     45.8783E-03
            4327            4543     45.0848E-03     45.8783E-03
            4287            4543     45.0848E-03     45.8783E-03
            4288            4544     48.2571E-03     49.3943E-03
            4289            4544     48.2571E-03     49.3943E-03
            4329            4544     48.2571E-03     49.3943E-03
            4328            4544     48.2571E-03     49.3943E-03
            4290            4545     51.9593E-03     52.9364E-03
            4329            4545     51.9593E-03     52.9364E-03
            4289            4545     51.9593E-03     52.9364E-03
            4330            4545     51.9593E-03     52.9364E-03
            4331            4546     55.9604E-03     55.7447E-03
            4291            4546     55.9604E-03     55.7447E-03
            4330            4546     55.9604E-03     55.7447E-03
            4290            4546     55.9604E-03     55.7447E-03
            4331            4547     57.7511E-03     62.1007E-03
            4292            4547     57.7511E-03     62.1007E-03
            4291            4547     57.7511E-03     62.1007E-03
            4332            4547     57.7511E-03     62.1007E-03
            4293            4548     67.7719E-03     63.8948E-03
            4333            4548     67.7719E-03     63.8948E-03
            4292            4548     67.7719E-03     63.8948E-03
            4332            4548     67.7719E-03     63.8948E-03
            4333            4549     70.3996E-03     69.1078E-03
            4293            4549     70.3996E-03     69.1078E-03
            4334            4549     70.3996E-03     69.1078E-03
            4294            4549     70.3996E-03     69.1078E-03
            4334            4550     59.5775E-03     71.6957E-03
            4335            4550     59.5775E-03     71.6957E-03
            4294            4550     59.5775E-03     71.6957E-03
            4295            4550     59.5775E-03     71.6957E-03
            4295            4551     63.7209E-03     61.9567E-03
            4335            4551     63.7209E-03     61.9567E-03
            4336            4551     63.7209E-03     61.9567E-03
            4296            4551     63.7209E-03     61.9567E-03
            4337            4552     66.8148E-03     64.1188E-03
            4297            4552     66.8148E-03     64.1188E-03
            4296            4552     66.8148E-03     64.1188E-03
            4336            4552     66.8148E-03     64.1188E-03
            4297            4553     65.6770E-03     69.2940E-03
            4337            4553     65.6770E-03     69.2940E-03
            4338            4553     65.6770E-03     69.2940E-03
            4298            4553     65.6770E-03     69.2940E-03
            4338            4554     70.7586E-03     71.0636E-03
            4298            4554     70.7586E-03     71.0636E-03
            4339            4554     70.7586E-03     71.0636E-03
            4299            4554     70.7586E-03     71.0636E-03
            4300            4555     73.8923E-03     75.5883E-03
            4339            4555     73.8923E-03     75.5883E-03
            4340            4555     73.8923E-03     75.5883E-03
            4299            4555     73.8923E-03     75.5883E-03
            4301            4556     77.8004E-03     79.5037E-03
            4340            4556     77.8004E-03     79.5037E-03
            4300            4556     77.8004E-03     79.5037E-03
            4341            4556     77.8004E-03     79.5037E-03
            4302            4557     82.5086E-03     82.2506E-03
            4342            4557     82.5086E-03     82.2506E-03
            4301            4557     82.5086E-03     82.2506E-03
            4341            4557     82.5086E-03     82.2506E-03
            4343            4558     83.9558E-03     90.0962E-03
            4342            4558     83.9558E-03     90.0962E-03
            4303            4558     83.9558E-03     90.0962E-03
            4302            4558     83.9558E-03     90.0962E-03
            4304            4559     96.9176E-03     91.5439E-03
            4303            4559     96.9176E-03     91.5439E-03
            4344            4559     96.9176E-03     91.5439E-03
            4343            4559     96.9176E-03     91.5439E-03
            4344            4560     99.8258E-03     97.8835E-03
            4304            4560     99.8258E-03     97.8835E-03
            4345            4560     99.8258E-03     97.8835E-03
            4305            4560     99.8258E-03     97.8835E-03
            4345            4561     86.8497E-03     97.6980E-03
            4305            4561     86.8497E-03     97.6980E-03
            4306            4561     86.8497E-03     97.6980E-03
            4346            4561     86.8497E-03     97.6980E-03
            5283            5395     34.8034E-03     33.7866E-03
            5290            5395     34.8034E-03     33.7866E-03
            5289            5395     34.8034E-03     33.7866E-03
            5284            5395     34.8034E-03     33.7866E-03
            5290            5396     37.3485E-03     35.7381E-03
            5284            5396     37.3485E-03     35.7381E-03
            5291            5396     37.3485E-03     35.7381E-03
            5285            5396     37.3485E-03     35.7381E-03
            5292            5397     36.2534E-03     40.1358E-03
            5291            5397     36.2534E-03     40.1358E-03
            5286            5397     36.2534E-03     40.1358E-03
            5285            5397     36.2534E-03     40.1358E-03
            5287            5398     42.0679E-03     38.8287E-03
            5292            5398     42.0679E-03     38.8287E-03
            5286            5398     42.0679E-03     38.8287E-03
            5293            5398     42.0679E-03     38.8287E-03
            5288            5399     40.7399E-03     39.7104E-03
            5287            5399     40.7399E-03     39.7104E-03
            5293            5399     40.7399E-03     39.7104E-03
            5294            5399     40.7399E-03     39.7104E-03
            5295            5400     51.5492E-03     49.0082E-03
            5290            5400     51.5492E-03     49.0082E-03
            5296            5400     51.5492E-03     49.0082E-03
            5289            5400     51.5492E-03     49.0082E-03
            5296            5401     55.9312E-03     53.0896E-03
            5297            5401     55.9312E-03     53.0896E-03
            5291            5401     55.9312E-03     53.0896E-03
            5290            5401     55.9312E-03     53.0896E-03
            5297            5402     53.7289E-03     60.1700E-03
            5292            5402     53.7289E-03     60.1700E-03
            5291            5402     53.7289E-03     60.1700E-03
            5298            5402     53.7289E-03     60.1700E-03
            5298            5403     62.0652E-03     57.1371E-03
            5293            5403     62.0652E-03     57.1371E-03
            5292            5403     62.0652E-03     57.1371E-03
            5299            5403     62.0652E-03     57.1371E-03
            5293            5404     59.3715E-03     58.0368E-03
            5300            5404     59.3715E-03     58.0368E-03
            5294            5404     59.3715E-03     58.0368E-03
            5299            5404     59.3715E-03     58.0368E-03
            5301            5405     67.5110E-03     63.9219E-03
            5296            5405     67.5110E-03     63.9219E-03
            5295            5405     67.5110E-03     63.9219E-03
            5302            5405     67.5110E-03     63.9219E-03
            5296            5406     73.5977E-03     68.8987E-03
            5297            5406     73.5977E-03     68.8987E-03
            5302            5406     73.5977E-03     68.8987E-03
            5303            5406     73.5977E-03     68.8987E-03
            5298            5407     70.2745E-03     77.8201E-03
            5304            5407     70.2745E-03     77.8201E-03
            5303            5407     70.2745E-03     77.8201E-03
            5297            5407     70.2745E-03     77.8201E-03
            5299            5408     81.0441E-03     73.4011E-03
            5298            5408     81.0441E-03     73.4011E-03
            5305            5408     81.0441E-03     73.4011E-03
            5304            5408     81.0441E-03     73.4011E-03
            5300            5409     76.9070E-03     74.7917E-03
            5305            5409     76.9070E-03     74.7917E-03
            5306            5409     76.9070E-03     74.7917E-03
            5299            5409     76.9070E-03     74.7917E-03
            5301            5410     81.4301E-03     77.4566E-03
            5302            5410     81.4301E-03     77.4566E-03
            5308            5410     81.4301E-03     77.4566E-03
            5307            5410     81.4301E-03     77.4566E-03
            5302            5411     87.8746E-03     80.7453E-03
            5308            5411     87.8746E-03     80.7453E-03
            5303            5411     87.8746E-03     80.7453E-03
            5309            5411     87.8746E-03     80.7453E-03
            5303            5412     82.2204E-03     91.2158E-03
            5310            5412     82.2204E-03     91.2158E-03
            5304            5412     82.2204E-03     91.2158E-03
            5309            5412     82.2204E-03     91.2158E-03
            5304            5413     96.1899E-03     85.4189E-03
            5311            5413     96.1899E-03     85.4189E-03
            5310            5413     96.1899E-03     85.4189E-03
            5305            5413     96.1899E-03     85.4189E-03
            5311            5414     91.9957E-03     89.9626E-03
            5306            5414     91.9957E-03     89.9626E-03
            5305            5414     91.9957E-03     89.9626E-03
            5312            5414     91.9957E-03     89.9626E-03
            5313            5415     90.6733E-03     88.2322E-03
            5314            5415     90.6733E-03     88.2322E-03
            5308            5415     90.6733E-03     88.2322E-03
            5307            5415     90.6733E-03     88.2322E-03
            5308            5416     96.5047E-03     89.6158E-03
            5315            5416     96.5047E-03     89.6158E-03
            5314            5416     96.5047E-03     89.6158E-03
            5309            5416     96.5047E-03     89.6158E-03
            5315            5417     88.8469E-03     101.666E-03
            5309            5417     88.8469E-03     101.666E-03
            5310            5417     88.8469E-03     101.666E-03
            5316            5417     88.8469E-03     101.666E-03
            5317            5418     106.956E-03     96.7397E-03
            5316            5418     106.956E-03     96.7397E-03
            5311            5418     106.956E-03     96.7397E-03
            5310            5418     106.956E-03     96.7397E-03
            5312            5419     104.805E-03     103.828E-03
            5317            5419     104.805E-03     103.828E-03
            5311            5419     104.805E-03     103.828E-03
            5318            5419     104.805E-03     103.828E-03
            5314            5420     93.0616E-03     91.3604E-03
            5320            5420     93.0616E-03     91.3604E-03
            5313            5420     93.0616E-03     91.3604E-03
            5319            5420     93.0616E-03     91.3604E-03
            5314            5421     99.8580E-03     93.6460E-03
            5315            5421     99.8580E-03     93.6460E-03
            5320            5421     99.8580E-03     93.6460E-03
            5321            5421     99.8580E-03     93.6460E-03
            5316            5422     95.8147E-03     106.206E-03
            5321            5422     95.8147E-03     106.206E-03
            5315            5422     95.8147E-03     106.206E-03
            5322            5422     95.8147E-03     106.206E-03
            5323            5423     113.797E-03     105.465E-03
            5316            5423     113.797E-03     105.465E-03
            5322            5423     113.797E-03     105.465E-03
            5317            5423     113.797E-03     105.465E-03
            5323            5424     117.265E-03     114.637E-03
            5317            5424     117.265E-03     114.637E-03
            5318            5424     117.265E-03     114.637E-03
            5324            5424     117.265E-03     114.637E-03
            6568            6525     658.520E-06     644.182E-06
            6574            6525     658.520E-06     644.182E-06
            6573            6525     658.520E-06     644.182E-06
            6567            6525     658.520E-06     644.182E-06
            6569            6526     659.003E-06     651.685E-06
            6574            6526     659.003E-06     651.685E-06
            6575            6526     659.003E-06     651.685E-06
            6568            6526     659.003E-06     651.685E-06
            6576            6527     648.899E-06     649.761E-06
            6575            6527     648.899E-06     649.761E-06
            6570            6527     648.899E-06     649.761E-06
            6569            6527     648.899E-06     649.761E-06
            6571            6528     652.196E-06     644.700E-06
            6576            6528     652.196E-06     644.700E-06
            6577            6528     652.196E-06     644.700E-06
            6570            6528     652.196E-06     644.700E-06
            6577            6529     648.901E-06     641.173E-06
            6578            6529     648.901E-06     641.173E-06
            6572            6529     648.901E-06     641.173E-06
            6571            6529     648.901E-06     641.173E-06
            6574            6530     626.578E-06     617.197E-06
            6579            6530     626.578E-06     617.197E-06
            6580            6530     626.578E-06     617.197E-06
            6573            6530     626.578E-06     617.197E-06
            6574            6531     624.852E-06     613.229E-06
            6581            6531     624.852E-06     613.229E-06
            6575            6531     624.852E-06     613.229E-06
            6580            6531     624.852E-06     613.229E-06
            6576            6532     600.697E-06     604.153E-06
            6575            6532     600.697E-06     604.153E-06
            6582            6532     600.697E-06     604.153E-06
            6581            6532     600.697E-06     604.153E-06
            6576            6533     598.553E-06     591.331E-06
            6577            6533     598.553E-06     591.331E-06
            6582            6533     598.553E-06     591.331E-06
            6583            6533     598.553E-06     591.331E-06
            6578            6534     592.650E-06     585.073E-06
            6577            6534     592.650E-06     585.073E-06
            6584            6534     592.650E-06     585.073E-06
            6583            6534     592.650E-06     585.073E-06
            6585            6535     585.636E-06     573.725E-06
            6580            6535     585.636E-06     573.725E-06
            6586            6535     585.636E-06     573.725E-06
            6579            6535     585.636E-06     573.725E-06
            6586            6536     574.452E-06     548.530E-06
            6580            6536     574.452E-06     548.530E-06
            6581            6536     574.452E-06     548.530E-06
            6587            6536     574.452E-06     548.530E-06
            6588            6537     521.338E-06     534.038E-06
            6581            6537     521.338E-06     534.038E-06
            6587            6537     521.338E-06     534.038E-06
            6582            6537     521.338E-06     534.038E-06
            6583            6538     507.694E-06     508.476E-06
            6582            6538     507.694E-06     508.476E-06
            6588            6538     507.694E-06     508.476E-06
            6589            6538     507.694E-06     508.476E-06
            6589            6539     499.926E-06     495.476E-06
            6590            6539     499.926E-06     495.476E-06
            6583            6539     499.926E-06     495.476E-06
            6584            6539     499.926E-06     495.476E-06
            6591            6540     530.996E-06     523.403E-06
            6586            6540     530.996E-06     523.403E-06
            6592            6540     530.996E-06     523.403E-06
            6585            6540     530.996E-06     523.403E-06
            6592            6541     510.868E-06     463.168E-06
            6587            6541     510.868E-06     463.168E-06
            6586            6541     510.868E-06     463.168E-06
            6593            6541     510.868E-06     463.168E-06
            6594            6542     420.350E-06     442.998E-06
            6588            6542     420.350E-06     442.998E-06
            6593            6542     420.350E-06     442.998E-06
            6587            6542     420.350E-06     442.998E-06
            6589            6543     389.341E-06     398.753E-06
            6594            6543     389.341E-06     398.753E-06
            6595            6543     389.341E-06     398.753E-06
            6588            6543     389.341E-06     398.753E-06
            6595            6544     369.735E-06     375.428E-06
            6596            6544     369.735E-06     375.428E-06
            6589            6544     369.735E-06     375.428E-06
            6590            6544     369.735E-06     375.428E-06
            6598            6545     505.050E-06     512.485E-06
            6597            6545     505.050E-06     512.485E-06
            6592            6545     505.050E-06     512.485E-06
            6591            6545     505.050E-06     512.485E-06
            6593            6546     463.353E-06     410.369E-06
            6599            6546     463.353E-06     410.369E-06
            6592            6546     463.353E-06     410.369E-06
            6598            6546     463.353E-06     410.369E-06
            6599            6547     310.268E-06     336.560E-06
            6593            6547     310.268E-06     336.560E-06
            6594            6547     310.268E-06     336.560E-06
            6600            6547     310.268E-06     336.560E-06
            6600            6548     248.301E-06     247.372E-06
            6594            6548     248.301E-06     247.372E-06
            6601            6548     248.301E-06     247.372E-06
            6595            6548     248.301E-06     247.372E-06
            6595            6549     216.252E-06     234.555E-06
            6601            6549     216.252E-06     234.555E-06
            6596            6549     216.252E-06     234.555E-06
            6602            6549     216.252E-06     234.555E-06
            6597            6550     607.351E-06     611.671E-06
            6603            6550     607.351E-06     611.671E-06
            6598            6550     607.351E-06     611.671E-06
            6604            6550     607.351E-06     611.671E-06
            6605            6551     486.570E-06     447.993E-06
            6599            6551     486.570E-06     447.993E-06
            6598            6551     486.570E-06     447.993E-06
            6604            6551     486.570E-06     447.993E-06
            6600            6552     283.655E-06     312.636E-06
            6605            6552     283.655E-06     312.636E-06
            6599            6552     283.655E-06     312.636E-06
            6606            6552     283.655E-06     312.636E-06
            6600            6553     195.969E-06     179.074E-06
            6601            6553     195.969E-06     179.074E-06
            6607            6553     195.969E-06     179.074E-06
            6606            6553     195.969E-06     179.074E-06
            6607            6554     157.504E-06     197.561E-06
            6602            6554     157.504E-06     197.561E-06
            6601            6554     157.504E-06     197.561E-06
            6608            6554     157.504E-06     197.561E-06


  Minimum                            152.641E-06     179.074E-06
      At Element                            1784            6607
            Node                              18            6553

  Maximum                            221.670E-03     215.455E-03
      At Element                            2380            2380
            Node                             524             524

           Total                         219.573         222.586


Field Output reported at element nodes for region: A320-1.Region_4
   Computation algorithm: EXTRAPOLATE_COMPUTE_AVERAGE
   Averaged at nodes
   Averaging regions: ODB_REGIONS

   Element Label      Node Label         S.Mises         S.Mises
                                          @Loc 1          @Loc 2
-----------------------------------------------------------------
            5049              13     1.85215E-03     2.48134E-03
            5739              13     1.85215E-03     2.48134E-03
            5829              14     112.100E-06     214.044E-06
            2510              16     1.32945E-03     2.44646E-03
             785              16     1.32945E-03     2.44646E-03
            2493              17     3.88979E-03     4.48972E-03
             802              17     3.88979E-03     4.48972E-03
             856              18     84.3043E-06     183.631E-06
             839              19     251.216E-06     296.436E-06
            3392              20     62.3936E-03     63.1355E-03
            2402              20     62.3936E-03     63.1355E-03
            3375              21     95.5086E-03     98.4754E-03
            2385              21     95.5086E-03     98.4754E-03
            5175              22     156.922E-03     160.911E-03
            2475              22     156.922E-03     160.911E-03
            5192              23     89.7829E-03     82.9192E-03
            2492              23     89.7829E-03     82.9192E-03
            4364              24     16.1997E-03     19.7161E-03
            5282              24     16.1997E-03     19.7161E-03
            5265              25     84.1009E-03     85.2362E-03
            4347              25     84.1009E-03     85.2362E-03
            5066              26     3.49169E-03     3.49466E-03
            5756              26     3.49169E-03     3.49466E-03
            5846              28     268.471E-06     327.164E-06
            5739             194     572.569E-06     602.467E-06
            5757             194     572.569E-06     602.467E-06
            5775             195     426.628E-06     421.158E-06
            5757             195     426.628E-06     421.158E-06
            5793             196     277.204E-06     279.645E-06
            5775             196     277.204E-06     279.645E-06
            5811             197     154.056E-06     137.597E-06
            5793             197     154.056E-06     137.597E-06
            5829             198     96.2626E-06     150.545E-06
            5811             198     96.2626E-06     150.545E-06
            2510             289     973.759E-06     1.48363E-03
             786             289     973.759E-06     1.48363E-03
             785             289     973.759E-06     1.48363E-03
            2509             289     973.759E-06     1.48363E-03
             786             290     866.857E-06     569.482E-06
            2508             290     866.857E-06     569.482E-06
             787             290     866.857E-06     569.482E-06
            2509             290     866.857E-06     569.482E-06
            2508             291     1.32978E-03     852.299E-06
            2507             291     1.32978E-03     852.299E-06
             788             291     1.32978E-03     852.299E-06
             787             291     1.32978E-03     852.299E-06
             788             292     1.66619E-03     1.22619E-03
             789             292     1.66619E-03     1.22619E-03
            2507             292     1.66619E-03     1.22619E-03
            2506             292     1.66619E-03     1.22619E-03
            2505             293     1.87444E-03     1.45033E-03
             790             293     1.87444E-03     1.45033E-03
             789             293     1.87444E-03     1.45033E-03
            2506             293     1.87444E-03     1.45033E-03
             791             294     2.02738E-03     1.60976E-03
            2505             294     2.02738E-03     1.60976E-03
             790             294     2.02738E-03     1.60976E-03
            2504             294     2.02738E-03     1.60976E-03
             792             295     2.14029E-03     1.72874E-03
             791             295     2.14029E-03     1.72874E-03
            2503             295     2.14029E-03     1.72874E-03
            2504             295     2.14029E-03     1.72874E-03
            2502             296     2.23430E-03     1.82461E-03
            2503             296     2.23430E-03     1.82461E-03
             792             296     2.23430E-03     1.82461E-03
             793             296     2.23430E-03     1.82461E-03
            2501             297     2.32045E-03     1.91501E-03
             793             297     2.32045E-03     1.91501E-03
             794             297     2.32045E-03     1.91501E-03
            2502             297     2.32045E-03     1.91501E-03
             795             298     2.40595E-03     2.00253E-03
            2500             298     2.40595E-03     2.00253E-03
             794             298     2.40595E-03     2.00253E-03
            2501             298     2.40595E-03     2.00253E-03
            2499             299     2.49253E-03     2.09538E-03
             795             299     2.49253E-03     2.09538E-03
             796             299     2.49253E-03     2.09538E-03
            2500             299     2.49253E-03     2.09538E-03
             796             300     2.58620E-03     2.19687E-03
             797             300     2.58620E-03     2.19687E-03
            2499             300     2.58620E-03     2.19687E-03
            2498             300     2.58620E-03     2.19687E-03
             797             301     2.67862E-03     2.30571E-03
             798             301     2.67862E-03     2.30571E-03
            2497             301     2.67862E-03     2.30571E-03
            2498             301     2.67862E-03     2.30571E-03
             798             302     2.76689E-03     2.42480E-03
            2497             302     2.76689E-03     2.42480E-03
            2496             302     2.76689E-03     2.42480E-03
             799             302     2.76689E-03     2.42480E-03
            2496             303     2.84792E-03     2.56005E-03
            2495             303     2.84792E-03     2.56005E-03
             800             303     2.84792E-03     2.56005E-03
             799             303     2.84792E-03     2.56005E-03
            2494             304     2.85167E-03     2.73190E-03
             800             304     2.85167E-03     2.73190E-03
             801             304     2.85167E-03     2.73190E-03
            2495             304     2.85167E-03     2.73190E-03
            2493             305     3.35728E-03     3.66308E-03
             801             305     3.35728E-03     3.66308E-03
             802             305     3.35728E-03     3.66308E-03
            2494             305     3.35728E-03     3.66308E-03
             820             306     319.364E-06     353.735E-06
             802             306     319.364E-06     353.735E-06
             838             307     151.911E-06     156.375E-06
             820             307     151.911E-06     156.375E-06
             838             308     59.9919E-06     139.587E-06
             856             308     59.9919E-06     139.587E-06
             856             309     179.240E-06     200.698E-06
             855             309     179.240E-06     200.698E-06
             855             310     279.983E-06     236.389E-06
             854             310     279.983E-06     236.389E-06
             853             311     308.555E-06     269.467E-06
             854             311     308.555E-06     269.467E-06
             852             312     319.877E-06     277.651E-06
             853             312     319.877E-06     277.651E-06
             852             313     312.786E-06     275.739E-06
             851             313     312.786E-06     275.739E-06
             850             314     312.141E-06     276.255E-06
             851             314     312.141E-06     276.255E-06
             849             315     307.707E-06     274.001E-06
             850             315     307.707E-06     274.001E-06
             849             316     305.339E-06     273.851E-06
             848             316     305.339E-06     273.851E-06
             848             317     301.687E-06     272.639E-06
             847             317     301.687E-06     272.639E-06
             846             318     298.896E-06     272.446E-06
             847             318     298.896E-06     272.446E-06
             845             319     295.690E-06     272.114E-06
             846             319     295.690E-06     272.114E-06
             845             320     292.899E-06     272.376E-06
             844             320     292.899E-06     272.376E-06
             843             321     290.307E-06     272.575E-06
             844             321     290.307E-06     272.575E-06
             843             322     287.160E-06     274.277E-06
             842             322     287.160E-06     274.277E-06
             842             323     285.861E-06     274.323E-06
             841             323     285.861E-06     274.323E-06
             840             324     283.009E-06     274.139E-06
             841             324     283.009E-06     274.139E-06
             839             325     265.233E-06     285.861E-06
             840             325     265.233E-06     285.861E-06
             821             326     274.951E-06     275.731E-06
             839             326     274.951E-06     275.731E-06
             803             327     296.404E-06     250.080E-06
             821             327     296.404E-06     250.080E-06
             803             328     265.711E-06     264.344E-06
             785             328     265.711E-06     264.344E-06
            3374             363     37.6947E-03     39.5369E-03
            3392             363     37.6947E-03     39.5369E-03
            3356             364     32.1830E-03     34.5704E-03
            3374             364     32.1830E-03     34.5704E-03
            3356             365     30.0295E-03     31.9888E-03
            3338             365     30.0295E-03     31.9888E-03
            3320             366     28.6329E-03     30.7246E-03
            3338             366     28.6329E-03     30.7246E-03
            3320             367     27.8759E-03     29.6568E-03
            3302             367     27.8759E-03     29.6568E-03
            3284             368     27.1616E-03     29.2697E-03
            3302             368     27.1616E-03     29.2697E-03
            3266             369     27.1949E-03     28.6295E-03
            3284             369     27.1949E-03     28.6295E-03
            3266             370     27.1905E-03     29.8415E-03
            3248             370     27.1905E-03     29.8415E-03
            3230             371     30.3286E-03     31.7853E-03
            3248             371     30.3286E-03     31.7853E-03
            3212             372     33.9466E-03     33.2725E-03
            3230             372     33.9466E-03     33.2725E-03
            3194             373     30.6290E-03     32.0157E-03
            3212             373     30.6290E-03     32.0157E-03
            3194             374     26.1180E-03     27.8005E-03
            3176             374     26.1180E-03     27.8005E-03
            3176             375     24.1424E-03     25.5865E-03
            3158             375     24.1424E-03     25.5865E-03
            3140             376     22.9284E-03     24.3495E-03
            3158             376     22.9284E-03     24.3495E-03
            3140             377     21.9755E-03     23.3773E-03
            3122             377     21.9755E-03     23.3773E-03
            3122             378     21.3761E-03     22.5657E-03
            3104             378     21.3761E-03     22.5657E-03
            3086             379     20.6712E-03     22.1571E-03
            3104             379     20.6712E-03     22.1571E-03
            3068             380     20.5510E-03     21.4685E-03
            3086             380     20.5510E-03     21.4685E-03
            3068             381     20.2710E-03     22.2050E-03
            3050             381     20.2710E-03     22.2050E-03
            3032             382     22.2730E-03     23.3942E-03
            3050             382     22.2730E-03     23.3942E-03
            3014             383     24.8025E-03     24.5673E-03
            3032             383     24.8025E-03     24.5673E-03
            3014             384     22.5862E-03     23.6423E-03
            2996             384     22.5862E-03     23.6423E-03
            2978             385     19.1468E-03     20.1471E-03
            2996             385     19.1468E-03     20.1471E-03
            2978             386     17.3680E-03     18.3270E-03
            2960             386     17.3680E-03     18.3270E-03
            2960             387     16.2792E-03     17.1360E-03
            2942             387     16.2792E-03     17.1360E-03
            2924             388     15.3216E-03     16.1943E-03
            2942             388     15.3216E-03     16.1943E-03
            2906             389     14.6643E-03     15.3474E-03
            2924             389     14.6643E-03     15.3474E-03
            2906             390     13.8947E-03     14.7998E-03
            2888             390     13.8947E-03     14.7998E-03
            2870             391     13.5296E-03     14.0098E-03
            2888             391     13.5296E-03     14.0098E-03
            2870             392     13.0180E-03     14.2068E-03
            2852             392     13.0180E-03     14.2068E-03
            2834             393     13.7808E-03     14.6442E-03
            2852             393     13.7808E-03     14.6442E-03
            2816             394     15.5342E-03     15.8489E-03
            2834             394     15.5342E-03     15.8489E-03
            2816             395     14.7077E-03     15.5027E-03
            2798             395     14.7077E-03     15.5027E-03
            2780             396     12.3117E-03     12.6902E-03
            2798             396     12.3117E-03     12.6902E-03
            2762             397     10.7292E-03     11.2318E-03
            2780             397     10.7292E-03     11.2318E-03
            2744             398     9.77075E-03     10.0971E-03
            2762             398     9.77075E-03     10.0971E-03
            2726             399     8.83674E-03     9.19875E-03
            2744             399     8.83674E-03     9.19875E-03
            2726             400     8.16351E-03     8.35217E-03
            2708             400     8.16351E-03     8.35217E-03
            2690             401     7.40739E-03     7.73456E-03
            2708             401     7.40739E-03     7.73456E-03
            2672             402     6.89358E-03     6.94730E-03
            2690             402     6.89358E-03     6.94730E-03
            2654             403     6.41790E-03     6.77524E-03
            2672             403     6.41790E-03     6.77524E-03
            2636             404     6.00752E-03     6.97595E-03
            2654             404     6.00752E-03     6.97595E-03
            2636             405     6.60764E-03     7.85613E-03
            2618             405     6.60764E-03     7.85613E-03
            2618             406     6.61250E-03     7.27690E-03
            2600             406     6.61250E-03     7.27690E-03
            2582             407     4.99988E-03     4.83853E-03
            2600             407     4.99988E-03     4.83853E-03
            2582             408     3.53250E-03     3.59134E-03
            2564             408     3.53250E-03     3.59134E-03
            2546             409     2.79413E-03     2.46232E-03
            2564             409     2.79413E-03     2.46232E-03
            2528             410     2.71548E-03     2.20203E-03
            2546             410     2.71548E-03     2.20203E-03
            2510             411     2.67383E-03     3.58388E-03
            2528             411     2.67383E-03     3.58388E-03
            3357             440     81.5822E-03     82.3180E-03
            3375             440     81.5822E-03     82.3180E-03
            3339             441     79.5958E-03     79.8114E-03
            3357             441     79.5958E-03     79.8114E-03
            3321             442     76.9286E-03     78.5960E-03
            3339             442     76.9286E-03     78.5960E-03
            3303             443     74.9954E-03     75.6204E-03
            3321             443     74.9954E-03     75.6204E-03
            3285             444     72.3966E-03     73.5271E-03
            3303             444     72.3966E-03     73.5271E-03
            3267             445     70.2251E-03     70.7003E-03
            3285             445     70.2251E-03     70.7003E-03
            3249             446     67.4774E-03     68.2424E-03
            3267             446     67.4774E-03     68.2424E-03
            3231             447     64.4926E-03     64.5438E-03
            3249             447     64.4926E-03     64.5438E-03
            3231             448     60.8675E-03     59.6124E-03
            3213             448     60.8675E-03     59.6124E-03
            3195             449     60.5863E-03     61.9727E-03
            3213             449     60.5863E-03     61.9727E-03
            3195             450     62.7005E-03     63.4415E-03
            3177             450     62.7005E-03     63.4415E-03
            3159             451     60.8713E-03     61.0379E-03
            3177             451     60.8713E-03     61.0379E-03
            3141             452     58.4879E-03     59.7585E-03
            3159             452     58.4879E-03     59.7585E-03
            3123             453     56.6806E-03     57.1989E-03
            3141             453     56.6806E-03     57.1989E-03
            3105             454     54.4845E-03     55.2582E-03
            3123             454     54.4845E-03     55.2582E-03
            3087             455     52.5367E-03     52.9966E-03
            3105             455     52.5367E-03     52.9966E-03
            3087             456     50.3122E-03     50.7091E-03
            3069             456     50.3122E-03     50.7091E-03
            3069             457     48.1027E-03     48.3598E-03
            3051             457     48.1027E-03     48.3598E-03
            3051             458     45.4368E-03     45.4216E-03
            3033             458     45.4368E-03     45.4216E-03
            3015             459     42.3487E-03     41.2205E-03
            3033             459     42.3487E-03     41.2205E-03
            2997             460     42.0464E-03     43.0596E-03
            3015             460     42.0464E-03     43.0596E-03
            2979             461     43.5971E-03     44.3569E-03
            2997             461     43.5971E-03     44.3569E-03
            2961             462     41.9379E-03     42.0159E-03
            2979             462     41.9379E-03     42.0159E-03
            2943             463     39.8180E-03     40.7296E-03
            2961             463     39.8180E-03     40.7296E-03
            2943             464     38.2040E-03     38.5211E-03
            2925             464     38.2040E-03     38.5211E-03
            2925             465     36.2822E-03     36.7856E-03
            2907             465     36.2822E-03     36.7856E-03
            2889             466     34.5956E-03     34.8132E-03
            2907             466     34.5956E-03     34.8132E-03
            2889             467     32.6794E-03     32.8707E-03
            2871             467     32.6794E-03     32.8707E-03
            2853             468     30.8297E-03     30.8021E-03
            2871             468     30.8297E-03     30.8021E-03
            2853             469     28.6026E-03     28.4629E-03
            2835             469     28.6026E-03     28.4629E-03
            2817             470     25.9725E-03     25.0887E-03
            2835             470     25.9725E-03     25.0887E-03
            2817             471     25.6495E-03     26.4307E-03
            2799             471     25.6495E-03     26.4307E-03
            2781             472     26.7765E-03     27.5394E-03
            2799             472     26.7765E-03     27.5394E-03
            2763             473     25.4165E-03     25.3723E-03
            2781             473     25.4165E-03     25.3723E-03
            2745             474     23.6459E-03     24.1896E-03
            2763             474     23.6459E-03     24.1896E-03
            2745             475     22.3183E-03     22.4243E-03
            2727             475     22.3183E-03     22.4243E-03
            2709             476     20.7746E-03     21.0009E-03
            2727             476     20.7746E-03     21.0009E-03
            2709             477     19.4614E-03     19.4440E-03
            2691             477     19.4614E-03     19.4440E-03
            2691             478     18.0116E-03     17.9859E-03
            2673             478     18.0116E-03     17.9859E-03
            2655             479     16.6775E-03     16.4042E-03
            2673             479     16.6775E-03     16.4042E-03
            2637             480     15.1794E-03     14.8434E-03
            2655             480     15.1794E-03     14.8434E-03
            2619             481     13.2009E-03     12.8674E-03
            2637             481     13.2009E-03     12.8674E-03
            2601             482     12.0188E-03     12.9066E-03
            2619             482     12.0188E-03     12.9066E-03
            2601             483     12.0252E-03     12.7114E-03
            2583             483     12.0252E-03     12.7114E-03
            2583             484     11.3039E-03     10.9902E-03
            2565             484     11.3039E-03     10.9902E-03
            2565             485     10.2441E-03     10.2299E-03
            2547             485     10.2441E-03     10.2299E-03
            2547             486     9.58554E-03     9.27077E-03
            2529             486     9.58554E-03     9.27077E-03
            2511             487     8.96538E-03     8.58507E-03
            2529             487     8.96538E-03     8.58507E-03
            2493             488     8.07595E-03     8.42342E-03
            2511             488     8.07595E-03     8.42342E-03
            2403             520     138.733E-03     143.643E-03
            2385             520     138.733E-03     143.643E-03
            2421             521     176.294E-03     180.926E-03
            2403             521     176.294E-03     180.926E-03
            2421             522     187.109E-03     188.544E-03
            2439             522     187.109E-03     188.544E-03
            2457             523     196.711E-03     197.605E-03
            2439             523     196.711E-03     197.605E-03
            2457             524     203.890E-03     204.663E-03
            2475             524     203.890E-03     204.663E-03
            3375             531     91.9255E-03     94.2304E-03
            2386             531     91.9255E-03     94.2304E-03
            2385             531     91.9255E-03     94.2304E-03
            3376             531     91.9255E-03     94.2304E-03
            3376             532     86.7971E-03     88.1461E-03
            2387             532     86.7971E-03     88.1461E-03
            2386             532     86.7971E-03     88.1461E-03
            3377             532     86.7971E-03     88.1461E-03
            2388             533     83.6518E-03     84.8570E-03
            3377             533     83.6518E-03     84.8570E-03
            2387             533     83.6518E-03     84.8570E-03
            3378             533     83.6518E-03     84.8570E-03
            2388             534     80.8967E-03     82.1988E-03
            3378             534     80.8967E-03     82.1988E-03
            2389             534     80.8967E-03     82.1988E-03
            3379             534     80.8967E-03     82.1988E-03
            2389             535     78.5416E-03     79.9173E-03
            2390             535     78.5416E-03     79.9173E-03
            3379             535     78.5416E-03     79.9173E-03
            3380             535     78.5416E-03     79.9173E-03
            2391             536     76.3198E-03     77.8227E-03
            2390             536     76.3198E-03     77.8227E-03
            3381             536     76.3198E-03     77.8227E-03
            3380             536     76.3198E-03     77.8227E-03
            3382             537     74.2519E-03     75.8253E-03
            2391             537     74.2519E-03     75.8253E-03
            2392             537     74.2519E-03     75.8253E-03
            3381             537     74.2519E-03     75.8253E-03
            3383             538     72.2416E-03     73.8893E-03
            2393             538     72.2416E-03     73.8893E-03
            2392             538     72.2416E-03     73.8893E-03
            3382             538     72.2416E-03     73.8893E-03
            2394             539     70.3081E-03     71.9892E-03
            2393             539     70.3081E-03     71.9892E-03
            3383             539     70.3081E-03     71.9892E-03
            3384             539     70.3081E-03     71.9892E-03
            3384             540     68.4153E-03     70.1232E-03
            2394             540     68.4153E-03     70.1232E-03
            3385             540     68.4153E-03     70.1232E-03
            2395             540     68.4153E-03     70.1232E-03
            3385             541     66.5886E-03     68.2947E-03
            3386             541     66.5886E-03     68.2947E-03
            2396             541     66.5886E-03     68.2947E-03
            2395             541     66.5886E-03     68.2947E-03
            3387             542     64.8270E-03     66.5186E-03
            2396             542     64.8270E-03     66.5186E-03
            3386             542     64.8270E-03     66.5186E-03
            2397             542     64.8270E-03     66.5186E-03
            2398             543     63.1766E-03     64.8249E-03
            3387             543     63.1766E-03     64.8249E-03
            3388             543     63.1766E-03     64.8249E-03
            2397             543     63.1766E-03     64.8249E-03
            3388             544     61.6868E-03     63.2653E-03
            2398             544     61.6868E-03     63.2653E-03
            3389             544     61.6868E-03     63.2653E-03
            2399             544     61.6868E-03     63.2653E-03
            3389             545     60.4867E-03     61.9528E-03
            3390             545     60.4867E-03     61.9528E-03
            2400             545     60.4867E-03     61.9528E-03
            2399             545     60.4867E-03     61.9528E-03
            3391             546     59.7938E-03     61.0843E-03
            3390             546     59.7938E-03     61.0843E-03
            2401             546     59.7938E-03     61.0843E-03
            2400             546     59.7938E-03     61.0843E-03
            2401             547     60.9983E-03     61.9621E-03
            3392             547     60.9983E-03     61.9621E-03
            2402             547     60.9983E-03     61.9621E-03
            3391             547     60.9983E-03     61.9621E-03
            2420             548     118.938E-03     115.987E-03
            2402             548     118.938E-03     115.987E-03
            2438             549     139.869E-03     139.941E-03
            2420             549     139.869E-03     139.941E-03
            2456             550     122.598E-03     115.697E-03
            2438             550     122.598E-03     115.697E-03
            2456             551     119.709E-03     111.186E-03
            2474             551     119.709E-03     111.186E-03
            2474             552     132.068E-03     128.645E-03
            2492             552     132.068E-03     128.645E-03
            2491             553     89.1087E-03     85.4215E-03
            5192             553     89.1087E-03     85.4215E-03
            5191             553     89.1087E-03     85.4215E-03
            2492             553     89.1087E-03     85.4215E-03
            2491             554     87.7780E-03     87.6913E-03
            2490             554     87.7780E-03     87.6913E-03
            5190             554     87.7780E-03     87.6913E-03
            5191             554     87.7780E-03     87.6913E-03
            5189             555     88.7685E-03     90.1820E-03
            2490             555     88.7685E-03     90.1820E-03
            2489             555     88.7685E-03     90.1820E-03
            5190             555     88.7685E-03     90.1820E-03
            2488             556     91.0413E-03     94.1907E-03
            5189             556     91.0413E-03     94.1907E-03
            5188             556     91.0413E-03     94.1907E-03
            2489             556     91.0413E-03     94.1907E-03
            2487             557     92.9561E-03     97.0352E-03
            5188             557     92.9561E-03     97.0352E-03
            5187             557     92.9561E-03     97.0352E-03
            2488             557     92.9561E-03     97.0352E-03
            2487             558     95.7227E-03     100.237E-03
            2486             558     95.7227E-03     100.237E-03
            5187             558     95.7227E-03     100.237E-03
            5186             558     95.7227E-03     100.237E-03
            5186             559     98.9184E-03     103.656E-03
            2486             559     98.9184E-03     103.656E-03
            2485             559     98.9184E-03     103.656E-03
            5185             559     98.9184E-03     103.656E-03
            5185             560     102.542E-03     107.352E-03
            5184             560     102.542E-03     107.352E-03
            2485             560     102.542E-03     107.352E-03
            2484             560     102.542E-03     107.352E-03
            2483             561     106.459E-03     111.238E-03
            2484             561     106.459E-03     111.238E-03
            5183             561     106.459E-03     111.238E-03
            5184             561     106.459E-03     111.238E-03
            2482             562     110.664E-03     115.334E-03
            2483             562     110.664E-03     115.334E-03
            5183             562     110.664E-03     115.334E-03
            5182             562     110.664E-03     115.334E-03
            2482             563     115.082E-03     119.559E-03
            5182             563     115.082E-03     119.559E-03
            2481             563     115.082E-03     119.559E-03
            5181             563     115.082E-03     119.559E-03
            2480             564     119.815E-03     124.019E-03
            5180             564     119.815E-03     124.019E-03
            5181             564     119.815E-03     124.019E-03
            2481             564     119.815E-03     124.019E-03
            2480             565     124.748E-03     128.629E-03
            5179             565     124.748E-03     128.629E-03
            2479             565     124.748E-03     128.629E-03
            5180             565     124.748E-03     128.629E-03
            2479             566     130.249E-03     133.638E-03
            5179             566     130.249E-03     133.638E-03
            2478             566     130.249E-03     133.638E-03
            5178             566     130.249E-03     133.638E-03
            2477             567     135.999E-03     138.937E-03
            2478             567     135.999E-03     138.937E-03
            5177             567     135.999E-03     138.937E-03
            5178             567     135.999E-03     138.937E-03
            2477             568     143.273E-03     145.366E-03
            2476             568     143.273E-03     145.366E-03
            5177             568     143.273E-03     145.366E-03
            5176             568     143.273E-03     145.366E-03
            2476             569     152.398E-03     155.085E-03
            5175             569     152.398E-03     155.085E-03
            2475             569     152.398E-03     155.085E-03
            5176             569     152.398E-03     155.085E-03
            5264             604     21.7843E-03     24.5330E-03
            5282             604     21.7843E-03     24.5330E-03
            5264             605     24.3530E-03     21.9043E-03
            5246             605     24.3530E-03     21.9043E-03
            5246             606     24.0872E-03     21.4298E-03
            5228             606     24.0872E-03     21.4298E-03
            5210             607     26.1000E-03     23.0442E-03
            5228             607     26.1000E-03     23.0442E-03
            5210             608     30.8470E-03     27.6620E-03
            5192             608     30.8470E-03     27.6620E-03
            5265             625     88.3860E-03     88.1043E-03
            5247             625     88.3860E-03     88.1043E-03
            5247             626     94.9237E-03     94.7607E-03
            5229             626     94.9237E-03     94.7607E-03
            5229             627     99.9326E-03     102.377E-03
            5211             627     99.9326E-03     102.377E-03
            5193             628     105.892E-03     105.397E-03
            5211             628     105.892E-03     105.397E-03
            5175             629     109.979E-03     110.689E-03
            5193             629     109.979E-03     110.689E-03
            4365             636     87.3256E-03     90.6707E-03
            4347             636     87.3256E-03     90.6707E-03
            4365             637     91.4293E-03     91.9870E-03
            4383             637     91.4293E-03     91.9870E-03
            4401             638     88.4994E-03     88.2914E-03
            4383             638     88.4994E-03     88.2914E-03
            4401             639     84.7752E-03     86.2303E-03
            4419             639     84.7752E-03     86.2303E-03
            4419             640     81.9755E-03     82.4316E-03
            4437             640     81.9755E-03     82.4316E-03
            4437             641     78.6730E-03     79.5666E-03
            4455             641     78.6730E-03     79.5666E-03
            4455             642     75.6152E-03     76.2001E-03
            4473             642     75.6152E-03     76.2001E-03
            4491             643     72.1592E-03     72.6666E-03
            4473             643     72.1592E-03     72.6666E-03
            4509             644     68.4557E-03     69.0641E-03
            4491             644     68.4557E-03     69.0641E-03
            4509             645     64.0685E-03     64.1241E-03
            4527             645     64.0685E-03     64.1241E-03
            4545             646     59.2604E-03     58.1004E-03
            4527             646     59.2604E-03     58.1004E-03
            4545             647     60.3505E-03     62.2024E-03
            4563             647     60.3505E-03     62.2024E-03
            4563             648     64.0846E-03     64.7044E-03
            4581             648     64.0846E-03     64.7044E-03
            4599             649     61.1443E-03     60.9625E-03
            4581             649     61.1443E-03     60.9625E-03
            4617             650     57.6141E-03     58.6977E-03
            4599             650     57.6141E-03     58.6977E-03
            4635             651     54.9400E-03     55.2175E-03
            4617             651     54.9400E-03     55.2175E-03
            4635             652     51.8764E-03     52.5440E-03
            4653             652     51.8764E-03     52.5440E-03
            4671             653     49.1813E-03     49.4864E-03
            4653             653     49.1813E-03     49.4864E-03
            4671             654     46.1033E-03     46.5384E-03
            4689             654     46.1033E-03     46.5384E-03
            4689             655     43.0705E-03     43.2574E-03
            4707             655     43.0705E-03     43.2574E-03
            4707             656     39.6938E-03     39.9786E-03
            4725             656     39.6938E-03     39.9786E-03
            4743             657     35.7812E-03     35.7958E-03
            4725             657     35.7812E-03     35.7958E-03
            4743             658     31.5913E-03     30.6253E-03
            4761             658     31.5913E-03     30.6253E-03
            4761             659     33.0600E-03     34.0248E-03
            4779             659     33.0600E-03     34.0248E-03
            4779             660     36.0233E-03     36.6648E-03
            4797             660     36.0233E-03     36.6648E-03
            4797             661     32.9858E-03     32.8411E-03
            4815             661     32.9858E-03     32.8411E-03
            4815             662     29.6042E-03     30.2529E-03
            4833             662     29.6042E-03     30.2529E-03
            4851             663     26.9494E-03     27.0537E-03
            4833             663     26.9494E-03     27.0537E-03
            4869             664     24.0753E-03     24.4100E-03
            4851             664     24.0753E-03     24.4100E-03
            4869             665     21.4517E-03     21.5238E-03
            4887             665     21.4517E-03     21.5238E-03
            4887             666     18.5306E-03     18.6799E-03
            4905             666     18.5306E-03     18.6799E-03
            4905             667     15.5971E-03     15.5273E-03
            4923             667     15.5971E-03     15.5273E-03
            4923             668     12.0107E-03     12.1034E-03
            4941             668     12.0107E-03     12.1034E-03
            4941             669     8.35539E-03     7.60644E-03
            4959             669     8.35539E-03     7.60644E-03
            4977             670     9.65242E-03     9.79351E-03
            4959             670     9.65242E-03     9.79351E-03
            4977             671     11.1415E-03     11.8451E-03
            4995             671     11.1415E-03     11.8451E-03
            4995             672     7.63007E-03     7.44328E-03
            5013             672     7.63007E-03     7.44328E-03
            5031             673     3.74518E-03     4.33050E-03
            5013             673     3.74518E-03     4.33050E-03
            5049             674     2.54799E-03     3.50749E-03
            5031             674     2.54799E-03     3.50749E-03
            5266             675     82.3880E-03     83.0140E-03
            4347             675     82.3880E-03     83.0140E-03
            4348             675     82.3880E-03     83.0140E-03
            5265             675     82.3880E-03     83.0140E-03
            5266             676     78.9739E-03     78.9003E-03
            5267             676     78.9739E-03     78.9003E-03
            4348             676     78.9739E-03     78.9003E-03
            4349             676     78.9739E-03     78.9003E-03
            4349             677     74.8515E-03     74.7796E-03
            4350             677     74.8515E-03     74.7796E-03
            5268             677     74.8515E-03     74.7796E-03
            5267             677     74.8515E-03     74.7796E-03
            4351             678     69.9830E-03     70.0235E-03
            5269             678     69.9830E-03     70.0235E-03
            4350             678     69.9830E-03     70.0235E-03
            5268             678     69.9830E-03     70.0235E-03
            5270             679     64.8802E-03     64.9274E-03
            4351             679     64.8802E-03     64.9274E-03
            4352             679     64.8802E-03     64.9274E-03
            5269             679     64.8802E-03     64.9274E-03
            4353             680     59.5345E-03     59.5861E-03
            5271             680     59.5345E-03     59.5861E-03
            5270             680     59.5345E-03     59.5861E-03
            4352             680     59.5345E-03     59.5861E-03
            5272             681     54.1208E-03     54.1444E-03
            5271             681     54.1208E-03     54.1444E-03
            4353             681     54.1208E-03     54.1444E-03
            4354             681     54.1208E-03     54.1444E-03
            4354             682     48.6922E-03     48.7042E-03
            5273             682     48.6922E-03     48.7042E-03
            5272             682     48.6922E-03     48.7042E-03
            4355             682     48.6922E-03     48.7042E-03
            4355             683     43.2965E-03     43.2801E-03
            5273             683     43.2965E-03     43.2801E-03
            5274             683     43.2965E-03     43.2801E-03
            4356             683     43.2965E-03     43.2801E-03
            5275             684     37.9970E-03     37.9927E-03
            5274             684     37.9970E-03     37.9927E-03
            4356             684     37.9970E-03     37.9927E-03
            4357             684     37.9970E-03     37.9927E-03
            5276             685     32.8237E-03     32.8360E-03
            5275             685     32.8237E-03     32.8360E-03
            4358             685     32.8237E-03     32.8360E-03
            4357             685     32.8237E-03     32.8360E-03
            4358             686     27.8722E-03     27.9578E-03
            5277             686     27.8722E-03     27.9578E-03
            4359             686     27.8722E-03     27.9578E-03
            5276             686     27.8722E-03     27.9578E-03
            4360             687     23.1496E-03     23.3258E-03
            5278             687     23.1496E-03     23.3258E-03
            5277             687     23.1496E-03     23.3258E-03
            4359             687     23.1496E-03     23.3258E-03
            5278             688     18.8356E-03     19.1528E-03
            4360             688     18.8356E-03     19.1528E-03
            5279             688     18.8356E-03     19.1528E-03
            4361             688     18.8356E-03     19.1528E-03
            5279             689     16.0569E-03     16.1721E-03
            5280             689     16.0569E-03     16.1721E-03
            4362             689     16.0569E-03     16.1721E-03
            4361             689     16.0569E-03     16.1721E-03
            4362             690     15.8456E-03     16.0204E-03
            5280             690     15.8456E-03     16.0204E-03
            5281             690     15.8456E-03     16.0204E-03
            4363             690     15.8456E-03     16.0204E-03
            5281             691     16.3172E-03     18.3345E-03
            5282             691     16.3172E-03     18.3345E-03
            4364             691     16.3172E-03     18.3345E-03
            4363             691     16.3172E-03     18.3345E-03
            4382             692     17.1697E-03     16.7440E-03
            4364             692     17.1697E-03     16.7440E-03
            4400             693     19.1668E-03     17.7925E-03
            4382             693     19.1668E-03     17.7925E-03
            4418             694     17.0154E-03     14.7956E-03
            4400             694     17.0154E-03     14.7956E-03
            4436             695     15.5894E-03     13.7885E-03
            4418             695     15.5894E-03     13.7885E-03
            4436             696     15.2025E-03     13.2129E-03
            4454             696     15.2025E-03     13.2129E-03
            4472             697     15.0779E-03     13.2832E-03
            4454             697     15.0779E-03     13.2832E-03
            4490             698     15.3382E-03     13.6000E-03
            4472             698     15.3382E-03     13.6000E-03
            4508             699     15.9785E-03     14.4415E-03
            4490             699     15.9785E-03     14.4415E-03
            4526             700     16.5343E-03     15.4386E-03
            4508             700     16.5343E-03     15.4386E-03
            4544             701     18.1205E-03     16.9075E-03
            4526             701     18.1205E-03     16.9075E-03
            4562             702     16.7906E-03     19.7398E-03
            4544             702     16.7906E-03     19.7398E-03
            4580             703     15.0436E-03     18.4855E-03
            4562             703     15.0436E-03     18.4855E-03
            4598             704     15.0419E-03     13.8943E-03
            4580             704     15.0419E-03     13.8943E-03
            4598             705     12.9807E-03     11.6461E-03
            4616             705     12.9807E-03     11.6461E-03
            4616             706     11.9364E-03     10.7245E-03
            4634             706     11.9364E-03     10.7245E-03
            4652             707     11.5276E-03     10.2872E-03
            4634             707     11.5276E-03     10.2872E-03
            4670             708     11.3349E-03     10.1489E-03
            4652             708     11.3349E-03     10.1489E-03
            4670             709     11.4062E-03     10.2950E-03
            4688             709     11.4062E-03     10.2950E-03
            4688             710     11.5899E-03     10.5570E-03
            4706             710     11.5899E-03     10.5570E-03
            4724             711     12.0221E-03     11.1558E-03
            4706             711     12.0221E-03     11.1558E-03
            4742             712     12.3803E-03     11.7782E-03
            4724             712     12.3803E-03     11.7782E-03
            4742             713     13.3829E-03     12.8602E-03
            4760             713     13.3829E-03     12.8602E-03
            4778             714     12.5580E-03     14.7959E-03
            4760             714     12.5580E-03     14.7959E-03
            4778             715     11.4754E-03     13.3604E-03
            4796             715     11.4754E-03     13.3604E-03
            4796             716     10.7542E-03     10.0550E-03
            4814             716     10.7542E-03     10.0550E-03
            4814             717     8.99173E-03     8.42361E-03
            4832             717     8.99173E-03     8.42361E-03
            4832             718     8.32264E-03     7.62002E-03
            4850             718     8.32264E-03     7.62002E-03
            4850             719     7.97607E-03     7.29739E-03
            4868             719     7.97607E-03     7.29739E-03
            4868             720     7.86124E-03     7.20162E-03
            4886             720     7.86124E-03     7.20162E-03
            4904             721     7.89358E-03     7.25756E-03
            4886             721     7.89358E-03     7.25756E-03
            4904             722     8.07298E-03     7.59076E-03
            4922             722     8.07298E-03     7.59076E-03
            4940             723     8.31875E-03     7.93390E-03
            4922             723     8.31875E-03     7.93390E-03
            4958             724     8.85993E-03     8.76502E-03
            4940             724     8.85993E-03     8.76502E-03
            4958             725     8.94889E-03     10.0519E-03
            4976             725     8.94889E-03     10.0519E-03
            4976             726     8.23787E-03     8.76065E-03
            4994             726     8.23787E-03     8.76065E-03
            4994             727     7.00591E-03     6.66029E-03
            5012             727     7.00591E-03     6.66029E-03
            5012             728     6.12237E-03     5.56212E-03
            5030             728     6.12237E-03     5.56212E-03
            5030             729     6.05829E-03     5.49636E-03
            5048             729     6.05829E-03     5.49636E-03
            5066             730     6.41637E-03     6.42620E-03
            5048             730     6.41637E-03     6.42620E-03
            5066             731     3.75415E-03     3.79158E-03
            5065             731     3.75415E-03     3.79158E-03
            5755             731     3.75415E-03     3.79158E-03
            5756             731     3.75415E-03     3.79158E-03
            5754             732     4.11472E-03     4.14155E-03
            5065             732     4.11472E-03     4.14155E-03
            5064             732     4.11472E-03     4.14155E-03
            5755             732     4.11472E-03     4.14155E-03
            5063             733     4.31027E-03     4.29637E-03
            5064             733     4.31027E-03     4.29637E-03
            5753             733     4.31027E-03     4.29637E-03
            5754             733     4.31027E-03     4.29637E-03
            5753             734     4.46376E-03     4.43942E-03
            5063             734     4.46376E-03     4.43942E-03
            5062             734     4.46376E-03     4.43942E-03
            5752             734     4.46376E-03     4.43942E-03
            5061             735     4.54615E-03     4.49541E-03
            5751             735     4.54615E-03     4.49541E-03
            5752             735     4.54615E-03     4.49541E-03
            5062             735     4.54615E-03     4.49541E-03
            5060             736     4.60484E-03     4.52560E-03
            5751             736     4.60484E-03     4.52560E-03
            5750             736     4.60484E-03     4.52560E-03
            5061             736     4.60484E-03     4.52560E-03
            5749             737     4.65882E-03     4.55255E-03
            5059             737     4.65882E-03     4.55255E-03
            5060             737     4.65882E-03     4.55255E-03
            5750             737     4.65882E-03     4.55255E-03
            5748             738     4.71040E-03     4.57504E-03
            5749             738     4.71040E-03     4.57504E-03
            5058             738     4.71040E-03     4.57504E-03
            5059             738     4.71040E-03     4.57504E-03
            5747             739     4.76460E-03     4.60458E-03
            5748             739     4.76460E-03     4.60458E-03
            5058             739     4.76460E-03     4.60458E-03
            5057             739     4.76460E-03     4.60458E-03
            5747             740     4.81995E-03     4.63041E-03
            5056             740     4.81995E-03     4.63041E-03
            5057             740     4.81995E-03     4.63041E-03
            5746             740     4.81995E-03     4.63041E-03
            5746             741     4.87461E-03     4.66233E-03
            5745             741     4.87461E-03     4.66233E-03
            5055             741     4.87461E-03     4.66233E-03
            5056             741     4.87461E-03     4.66233E-03
            5744             742     4.91920E-03     4.67613E-03
            5055             742     4.91920E-03     4.67613E-03
            5054             742     4.91920E-03     4.67613E-03
            5745             742     4.91920E-03     4.67613E-03
            5053             743     4.93924E-03     4.66970E-03
            5743             743     4.93924E-03     4.66970E-03
            5054             743     4.93924E-03     4.66970E-03
            5744             743     4.93924E-03     4.66970E-03
            5053             744     4.88201E-03     4.59158E-03
            5052             744     4.88201E-03     4.59158E-03
            5742             744     4.88201E-03     4.59158E-03
            5743             744     4.88201E-03     4.59158E-03
            5741             745     4.59100E-03     4.28204E-03
            5742             745     4.59100E-03     4.28204E-03
            5051             745     4.59100E-03     4.28204E-03
            5052             745     4.59100E-03     4.28204E-03
            5050             746     4.11143E-03     3.71908E-03
            5051             746     4.11143E-03     3.71908E-03
            5741             746     4.11143E-03     3.71908E-03
            5740             746     4.11143E-03     3.71908E-03
            5739             747     2.85940E-03     2.93228E-03
            5049             747     2.85940E-03     2.93228E-03
            5740             747     2.85940E-03     2.93228E-03
            5050             747     2.85940E-03     2.93228E-03
            5846             787     290.143E-06     312.655E-06
            5828             787     290.143E-06     312.655E-06
            5810             788     305.308E-06     279.228E-06
            5828             788     305.308E-06     279.228E-06
            5792             789     293.707E-06     258.452E-06
            5810             789     293.707E-06     258.452E-06
            5774             790     286.352E-06     258.619E-06
            5792             790     286.352E-06     258.619E-06
            5774             791     254.996E-06     269.744E-06
            5756             791     254.996E-06     269.744E-06
            5846             808     284.429E-06     317.194E-06
            5845             808     284.429E-06     317.194E-06
            5844             809     304.738E-06     303.698E-06
            5845             809     304.738E-06     303.698E-06
            5843             810     310.642E-06     300.804E-06
            5844             810     310.642E-06     300.804E-06
            5842             811     315.566E-06     301.527E-06
            5843             811     315.566E-06     301.527E-06
            5841             812     320.426E-06     302.338E-06
            5842             812     320.426E-06     302.338E-06
            5840             813     325.100E-06     304.446E-06
            5841             813     325.100E-06     304.446E-06
            5840             814     330.098E-06     306.332E-06
            5839             814     330.098E-06     306.332E-06
            5838             815     335.491E-06     309.228E-06
            5839             815     335.491E-06     309.228E-06
            5838             816     340.329E-06     311.607E-06
            5837             816     340.329E-06     311.607E-06
            5836             817     345.677E-06     314.653E-06
            5837             817     345.677E-06     314.653E-06
            5835             818     348.597E-06     315.617E-06
            5836             818     348.597E-06     315.617E-06
            5834             819     351.126E-06     315.333E-06
            5835             819     351.126E-06     315.333E-06
            5834             820     345.131E-06     308.487E-06
            5833             820     345.131E-06     308.487E-06
            5832             821     332.530E-06     291.313E-06
            5833             821     332.530E-06     291.313E-06
            5831             822     294.836E-06     251.946E-06
            5832             822     294.836E-06     251.946E-06
            5830             823     235.216E-06     185.307E-06
            5831             823     235.216E-06     185.307E-06
            5829             824     161.242E-06     181.783E-06
            5830             824     161.242E-06     181.783E-06
             786            1467     264.008E-06     266.891E-06
             804            1467     264.008E-06     266.891E-06
             785            1467     264.008E-06     266.891E-06
             803            1467     264.008E-06     266.891E-06
             804            1468     261.364E-06     269.868E-06
             787            1468     261.364E-06     269.868E-06
             805            1468     261.364E-06     269.868E-06
             786            1468     261.364E-06     269.868E-06
             788            1469     259.799E-06     270.860E-06
             806            1469     259.799E-06     270.860E-06
             805            1469     259.799E-06     270.860E-06
             787            1469     259.799E-06     270.860E-06
             788            1470     258.975E-06     272.583E-06
             806            1470     258.975E-06     272.583E-06
             807            1470     258.975E-06     272.583E-06
             789            1470     258.975E-06     272.583E-06
             790            1471     258.718E-06     274.834E-06
             789            1471     258.718E-06     274.834E-06
             808            1471     258.718E-06     274.834E-06
             807            1471     258.718E-06     274.834E-06
             808            1472     258.916E-06     277.335E-06
             790            1472     258.916E-06     277.335E-06
             809            1472     258.916E-06     277.335E-06
             791            1472     258.916E-06     277.335E-06
             792            1473     259.408E-06     280.038E-06
             791            1473     259.408E-06     280.038E-06
             809            1473     259.408E-06     280.038E-06
             810            1473     259.408E-06     280.038E-06
             811            1474     260.358E-06     283.046E-06
             792            1474     260.358E-06     283.046E-06
             810            1474     260.358E-06     283.046E-06
             793            1474     260.358E-06     283.046E-06
             794            1475     261.517E-06     286.101E-06
             812            1475     261.517E-06     286.101E-06
             793            1475     261.517E-06     286.101E-06
             811            1475     261.517E-06     286.101E-06
             813            1476     263.362E-06     289.653E-06
             794            1476     263.362E-06     289.653E-06
             795            1476     263.362E-06     289.653E-06
             812            1476     263.362E-06     289.653E-06
             796            1477     265.160E-06     293.078E-06
             813            1477     265.160E-06     293.078E-06
             814            1477     265.160E-06     293.078E-06
             795            1477     265.160E-06     293.078E-06
             797            1478     268.363E-06     297.443E-06
             814            1478     268.363E-06     297.443E-06
             815            1478     268.363E-06     297.443E-06
             796            1478     268.363E-06     297.443E-06
             815            1479     270.926E-06     301.531E-06
             797            1479     270.926E-06     301.531E-06
             816            1479     270.926E-06     301.531E-06
             798            1479     270.926E-06     301.531E-06
             799            1480     277.396E-06     307.628E-06
             816            1480     277.396E-06     307.628E-06
             817            1480     277.396E-06     307.628E-06
             798            1480     277.396E-06     307.628E-06
             818            1481     280.035E-06     311.667E-06
             817            1481     280.035E-06     311.667E-06
             800            1481     280.035E-06     311.667E-06
             799            1481     280.035E-06     311.667E-06
             800            1482     279.324E-06     315.912E-06
             801            1482     279.324E-06     315.912E-06
             818            1482     279.324E-06     315.912E-06
             819            1482     279.324E-06     315.912E-06
             819            1483     301.024E-06     337.510E-06
             801            1483     301.024E-06     337.510E-06
             820            1483     301.024E-06     337.510E-06
             802            1483     301.024E-06     337.510E-06
             804            1484     282.360E-06     261.689E-06
             822            1484     282.360E-06     261.689E-06
             821            1484     282.360E-06     261.689E-06
             803            1484     282.360E-06     261.689E-06
             805            1485     265.174E-06     272.345E-06
             804            1485     265.174E-06     272.345E-06
             823            1485     265.174E-06     272.345E-06
             822            1485     265.174E-06     272.345E-06
             823            1486     264.298E-06     269.208E-06
             824            1486     264.298E-06     269.208E-06
             805            1486     264.298E-06     269.208E-06
             806            1486     264.298E-06     269.208E-06
             806            1487     266.050E-06     268.526E-06
             807            1487     266.050E-06     268.526E-06
             824            1487     266.050E-06     268.526E-06
             825            1487     266.050E-06     268.526E-06
             825            1488     266.477E-06     270.568E-06
             826            1488     266.477E-06     270.568E-06
             807            1488     266.477E-06     270.568E-06
             808            1488     266.477E-06     270.568E-06
             809            1489     268.130E-06     271.831E-06
             827            1489     268.130E-06     271.831E-06
             808            1489     268.130E-06     271.831E-06
             826            1489     268.130E-06     271.831E-06
             827            1490     269.900E-06     273.670E-06
             828            1490     269.900E-06     273.670E-06
             809            1490     269.900E-06     273.670E-06
             810            1490     269.900E-06     273.670E-06
             810            1491     271.796E-06     275.685E-06
             829            1491     271.796E-06     275.685E-06
             828            1491     271.796E-06     275.685E-06
             811            1491     271.796E-06     275.685E-06
             830            1492     274.187E-06     278.059E-06
             811            1492     274.187E-06     278.059E-06
             829            1492     274.187E-06     278.059E-06
             812            1492     274.187E-06     278.059E-06
             831            1493     276.502E-06     280.446E-06
             830            1493     276.502E-06     280.446E-06
             813            1493     276.502E-06     280.446E-06
             812            1493     276.502E-06     280.446E-06
             813            1494     279.528E-06     283.485E-06
             832            1494     279.528E-06     283.485E-06
             814            1494     279.528E-06     283.485E-06
             831            1494     279.528E-06     283.485E-06
             815            1495     282.080E-06     286.121E-06
             833            1495     282.080E-06     286.121E-06
             832            1495     282.080E-06     286.121E-06
             814            1495     282.080E-06     286.121E-06
             815            1496     286.734E-06     290.197E-06
             816            1496     286.734E-06     290.197E-06
             834            1496     286.734E-06     290.197E-06
             833            1496     286.734E-06     290.197E-06
             835            1497     290.372E-06     295.773E-06
             816            1497     290.372E-06     295.773E-06
             834            1497     290.372E-06     295.773E-06
             817            1497     290.372E-06     295.773E-06
             835            1498     305.289E-06     305.071E-06
             817            1498     305.289E-06     305.071E-06
             818            1498     305.289E-06     305.071E-06
             836            1498     305.289E-06     305.071E-06
             837            1499     303.588E-06     309.056E-06
             836            1499     303.588E-06     309.056E-06
             819            1499     303.588E-06     309.056E-06
             818            1499     303.588E-06     309.056E-06
             819            1500     219.076E-06     231.065E-06
             838            1500     219.076E-06     231.065E-06
             837            1500     219.076E-06     231.065E-06
             820            1500     219.076E-06     231.065E-06
             821            1501     275.173E-06     275.245E-06
             839            1501     275.173E-06     275.245E-06
             840            1501     275.173E-06     275.245E-06
             822            1501     275.173E-06     275.245E-06
             840            1502     275.959E-06     273.601E-06
             822            1502     275.959E-06     273.601E-06
             841            1502     275.959E-06     273.601E-06
             823            1502     275.959E-06     273.601E-06
             842            1503     277.297E-06     271.937E-06
             841            1503     277.297E-06     271.937E-06
             824            1503     277.297E-06     271.937E-06
             823            1503     277.297E-06     271.937E-06
             842            1504     279.162E-06     271.247E-06
             824            1504     279.162E-06     271.247E-06
             843            1504     279.162E-06     271.247E-06
             825            1504     279.162E-06     271.247E-06
             844            1505     281.283E-06     271.086E-06
             826            1505     281.283E-06     271.086E-06
             825            1505     281.283E-06     271.086E-06
             843            1505     281.283E-06     271.086E-06
             844            1506     283.650E-06     271.346E-06
             826            1506     283.650E-06     271.346E-06
             827            1506     283.650E-06     271.346E-06
             845            1506     283.650E-06     271.346E-06
             846            1507     286.197E-06     271.875E-06
             845            1507     286.197E-06     271.875E-06
             828            1507     286.197E-06     271.875E-06
             827            1507     286.197E-06     271.875E-06
             829            1508     288.970E-06     272.739E-06
             846            1508     288.970E-06     272.739E-06
             847            1508     288.970E-06     272.739E-06
             828            1508     288.970E-06     272.739E-06
             829            1509     291.778E-06     273.830E-06
             847            1509     291.778E-06     273.830E-06
             848            1509     291.778E-06     273.830E-06
             830            1509     291.778E-06     273.830E-06
             830            1510     294.878E-06     275.269E-06
             831            1510     294.878E-06     275.269E-06
             849            1510     294.878E-06     275.269E-06
             848            1510     294.878E-06     275.269E-06
             849            1511     297.781E-06     276.739E-06
             850            1511     297.781E-06     276.739E-06
             832            1511     297.781E-06     276.739E-06
             831            1511     297.781E-06     276.739E-06
             833            1512     301.098E-06     278.672E-06
             850            1512     301.098E-06     278.672E-06
             851            1512     301.098E-06     278.672E-06
             832            1512     301.098E-06     278.672E-06
             834            1513     304.189E-06     280.342E-06
             852            1513     304.189E-06     280.342E-06
             851            1513     304.189E-06     280.342E-06
             833            1513     304.189E-06     280.342E-06
             853            1514     308.478E-06     283.565E-06
             852            1514     308.478E-06     283.565E-06
             834            1514     308.478E-06     283.565E-06
             835            1514     308.478E-06     283.565E-06
             835            1515     311.925E-06     284.519E-06
             854            1515     311.925E-06     284.519E-06
             853            1515     311.925E-06     284.519E-06
             836            1515     311.925E-06     284.519E-06
             836            1516     293.417E-06     266.337E-06
             854            1516     293.417E-06     266.337E-06
             855            1516     293.417E-06     266.337E-06
             837            1516     293.417E-06     266.337E-06
             837            1517     167.460E-06     194.862E-06
             855            1517     167.460E-06     194.862E-06
             838            1517     167.460E-06     194.862E-06
             856            1517     167.460E-06     194.862E-06
            2386            2866     141.407E-03     144.331E-03
            2403            2866     141.407E-03     144.331E-03
            2385            2866     141.407E-03     144.331E-03
            2404            2866     141.407E-03     144.331E-03
            2404            2867     145.108E-03     145.739E-03
            2386            2867     145.108E-03     145.739E-03
            2387            2867     145.108E-03     145.739E-03
            2405            2867     145.108E-03     145.739E-03
            2406            2868     146.083E-03     146.616E-03
            2387            2868     146.083E-03     146.616E-03
            2388            2868     146.083E-03     146.616E-03
            2405            2868     146.083E-03     146.616E-03
            2406            2869     146.055E-03     146.448E-03
            2389            2869     146.055E-03     146.448E-03
            2407            2869     146.055E-03     146.448E-03
            2388            2869     146.055E-03     146.448E-03
            2408            2870     145.428E-03     145.407E-03
            2390            2870     145.428E-03     145.407E-03
            2389            2870     145.428E-03     145.407E-03
            2407            2870     145.428E-03     145.407E-03
            2409            2871     144.317E-03     144.118E-03
            2391            2871     144.317E-03     144.118E-03
            2408            2871     144.317E-03     144.118E-03
            2390            2871     144.317E-03     144.118E-03
            2409            2872     143.141E-03     142.727E-03
            2410            2872     143.141E-03     142.727E-03
            2392            2872     143.141E-03     142.727E-03
            2391            2872     143.141E-03     142.727E-03
            2393            2873     141.817E-03     141.254E-03
            2410            2873     141.817E-03     141.254E-03
            2411            2873     141.817E-03     141.254E-03
            2392            2873     141.817E-03     141.254E-03
            2411            2874     140.522E-03     139.864E-03
            2393            2874     140.522E-03     139.864E-03
            2412            2874     140.522E-03     139.864E-03
            2394            2874     140.522E-03     139.864E-03
            2394            2875     139.204E-03     138.501E-03
            2413            2875     139.204E-03     138.501E-03
            2395            2875     139.204E-03     138.501E-03
            2412            2875     139.204E-03     138.501E-03
            2413            2876     137.950E-03     137.266E-03
            2396            2876     137.950E-03     137.266E-03
            2395            2876     137.950E-03     137.266E-03
            2414            2876     137.950E-03     137.266E-03
            2396            2877     136.679E-03     136.070E-03
            2414            2877     136.679E-03     136.070E-03
            2415            2877     136.679E-03     136.070E-03
            2397            2877     136.679E-03     136.070E-03
            2397            2878     135.316E-03     134.851E-03
            2415            2878     135.316E-03     134.851E-03
            2416            2878     135.316E-03     134.851E-03
            2398            2878     135.316E-03     134.851E-03
            2417            2879     133.685E-03     133.399E-03
            2398            2879     133.685E-03     133.399E-03
            2416            2879     133.685E-03     133.399E-03
            2399            2879     133.685E-03     133.399E-03
            2417            2880     130.608E-03     130.217E-03
            2399            2880     130.608E-03     130.217E-03
            2400            2880     130.608E-03     130.217E-03
            2418            2880     130.608E-03     130.217E-03
            2418            2881     127.139E-03     127.116E-03
            2400            2881     127.139E-03     127.116E-03
            2419            2881     127.139E-03     127.116E-03
            2401            2881     127.139E-03     127.116E-03
            2420            2882     122.387E-03     121.182E-03
            2402            2882     122.387E-03     121.182E-03
            2401            2882     122.387E-03     121.182E-03
            2419            2882     122.387E-03     121.182E-03
            2403            2883     179.627E-03     183.356E-03
            2404            2883     179.627E-03     183.356E-03
            2421            2883     179.627E-03     183.356E-03
            2422            2883     179.627E-03     183.356E-03
            2405            2884     185.095E-03     187.302E-03
            2422            2884     185.095E-03     187.302E-03
            2404            2884     185.095E-03     187.302E-03
            2423            2884     185.095E-03     187.302E-03
            2406            2885     188.085E-03     189.399E-03
            2405            2885     188.085E-03     189.399E-03
            2424            2885     188.085E-03     189.399E-03
            2423            2885     188.085E-03     189.399E-03
            2406            2886     188.898E-03     189.719E-03
            2424            2886     188.898E-03     189.719E-03
            2407            2886     188.898E-03     189.719E-03
            2425            2886     188.898E-03     189.719E-03
            2425            2887     188.565E-03     189.022E-03
            2407            2887     188.565E-03     189.022E-03
            2408            2887     188.565E-03     189.022E-03
            2426            2887     188.565E-03     189.022E-03
            2408            2888     187.874E-03     187.983E-03
            2427            2888     187.874E-03     187.983E-03
            2426            2888     187.874E-03     187.983E-03
            2409            2888     187.874E-03     187.983E-03
            2409            2889     186.918E-03     186.748E-03
            2427            2889     186.918E-03     186.748E-03
            2428            2889     186.918E-03     186.748E-03
            2410            2889     186.918E-03     186.748E-03
            2411            2890     185.842E-03     185.469E-03
            2410            2890     185.842E-03     185.469E-03
            2428            2890     185.842E-03     185.469E-03
            2429            2890     185.842E-03     185.469E-03
            2429            2891     184.739E-03     184.229E-03
            2430            2891     184.739E-03     184.229E-03
            2412            2891     184.739E-03     184.229E-03
            2411            2891     184.739E-03     184.229E-03
            2431            2892     183.634E-03     183.082E-03
            2413            2892     183.634E-03     183.082E-03
            2412            2892     183.634E-03     183.082E-03
            2430            2892     183.634E-03     183.082E-03
            2414            2893     182.586E-03     182.071E-03
            2413            2893     182.586E-03     182.071E-03
            2432            2893     182.586E-03     182.071E-03
            2431            2893     182.586E-03     182.071E-03
            2433            2894     181.623E-03     181.237E-03
            2432            2894     181.623E-03     181.237E-03
            2414            2894     181.623E-03     181.237E-03
            2415            2894     181.623E-03     181.237E-03
            2415            2895     180.515E-03     180.366E-03
            2416            2895     180.515E-03     180.366E-03
            2434            2895     180.515E-03     180.366E-03
            2433            2895     180.515E-03     180.366E-03
            2417            2896     179.460E-03     179.614E-03
            2416            2896     179.460E-03     179.614E-03
            2434            2896     179.460E-03     179.614E-03
            2435            2896     179.460E-03     179.614E-03
            2417            2897     175.976E-03     176.226E-03
            2418            2897     175.976E-03     176.226E-03
            2435            2897     175.976E-03     176.226E-03
            2436            2897     175.976E-03     176.226E-03
            2418            2898     170.318E-03     171.167E-03
            2419            2898     170.318E-03     171.167E-03
            2437            2898     170.318E-03     171.167E-03
            2436            2898     170.318E-03     171.167E-03
            2438            2899     153.813E-03     154.588E-03
            2419            2899     153.813E-03     154.588E-03
            2420            2899     153.813E-03     154.588E-03
            2437            2899     153.813E-03     154.588E-03
            2439            2900     188.529E-03     191.801E-03
            2422            2900     188.529E-03     191.801E-03
            2421            2900     188.529E-03     191.801E-03
            2440            2900     188.529E-03     191.801E-03
            2423            2901     190.242E-03     194.781E-03
            2422            2901     190.242E-03     194.781E-03
            2440            2901     190.242E-03     194.781E-03
            2441            2901     190.242E-03     194.781E-03
            2424            2902     189.958E-03     193.266E-03
            2441            2902     189.958E-03     193.266E-03
            2423            2902     189.958E-03     193.266E-03
            2442            2902     189.958E-03     193.266E-03
            2424            2903     188.322E-03     191.211E-03
            2443            2903     188.322E-03     191.211E-03
            2442            2903     188.322E-03     191.211E-03
            2425            2903     188.322E-03     191.211E-03
            2426            2904     186.518E-03     189.458E-03
            2444            2904     186.518E-03     189.458E-03
            2443            2904     186.518E-03     189.458E-03
            2425            2904     186.518E-03     189.458E-03
            2444            2905     184.892E-03     187.644E-03
            2427            2905     184.892E-03     187.644E-03
            2445            2905     184.892E-03     187.644E-03
            2426            2905     184.892E-03     187.644E-03
            2428            2906     183.290E-03     185.976E-03
            2445            2906     183.290E-03     185.976E-03
            2446            2906     183.290E-03     185.976E-03
            2427            2906     183.290E-03     185.976E-03
            2446            2907     181.810E-03     184.414E-03
            2429            2907     181.810E-03     184.414E-03
            2447            2907     181.810E-03     184.414E-03
            2428            2907     181.810E-03     184.414E-03
            2430            2908     180.404E-03     182.963E-03
            2448            2908     180.404E-03     182.963E-03
            2447            2908     180.404E-03     182.963E-03
            2429            2908     180.404E-03     182.963E-03
            2431            2909     179.140E-03     181.674E-03
            2448            2909     179.140E-03     181.674E-03
            2430            2909     179.140E-03     181.674E-03
            2449            2909     179.140E-03     181.674E-03
            2450            2910     178.033E-03     180.576E-03
            2449            2910     178.033E-03     180.576E-03
            2432            2910     178.033E-03     180.576E-03
            2431            2910     178.033E-03     180.576E-03
            2451            2911     177.189E-03     179.747E-03
            2433            2911     177.189E-03     179.747E-03
            2432            2911     177.189E-03     179.747E-03
            2450            2911     177.189E-03     179.747E-03
            2433            2912     176.808E-03     179.425E-03
            2452            2912     176.808E-03     179.425E-03
            2451            2912     176.808E-03     179.425E-03
            2434            2912     176.808E-03     179.425E-03
            2434            2913     176.657E-03     179.377E-03
            2453            2913     176.657E-03     179.377E-03
            2452            2913     176.657E-03     179.377E-03
            2435            2913     176.657E-03     179.377E-03
            2454            2914     176.294E-03     179.693E-03
            2436            2914     176.294E-03     179.693E-03
            2435            2914     176.294E-03     179.693E-03
            2453            2914     176.294E-03     179.693E-03
            2436            2915     169.716E-03     171.934E-03
            2454            2915     169.716E-03     171.934E-03
            2455            2915     169.716E-03     171.934E-03
            2437            2915     169.716E-03     171.934E-03
            2438            2916     142.987E-03     139.743E-03
            2456            2916     142.987E-03     139.743E-03
            2437            2916     142.987E-03     139.743E-03
            2455            2916     142.987E-03     139.743E-03
            2457            2917     196.990E-03     199.609E-03
            2439            2917     196.990E-03     199.609E-03
            2458            2917     196.990E-03     199.609E-03
            2440            2917     196.990E-03     199.609E-03
            2441            2918     195.576E-03     199.488E-03
            2440            2918     195.576E-03     199.488E-03
            2458            2918     195.576E-03     199.488E-03
            2459            2918     195.576E-03     199.488E-03
            2441            2919     191.480E-03     195.426E-03
            2460            2919     191.480E-03     195.426E-03
            2442            2919     191.480E-03     195.426E-03
            2459            2919     191.480E-03     195.426E-03
            2443            2920     187.792E-03     192.027E-03
            2442            2920     187.792E-03     192.027E-03
            2460            2920     187.792E-03     192.027E-03
            2461            2920     187.792E-03     192.027E-03
            2444            2921     184.979E-03     189.189E-03
            2443            2921     184.979E-03     189.189E-03
            2462            2921     184.979E-03     189.189E-03
            2461            2921     184.979E-03     189.189E-03
            2444            2922     182.382E-03     186.765E-03
            2462            2922     182.382E-03     186.765E-03
            2463            2922     182.382E-03     186.765E-03
            2445            2922     182.382E-03     186.765E-03
            2464            2923     180.244E-03     184.684E-03
            2446            2923     180.244E-03     184.684E-03
            2463            2923     180.244E-03     184.684E-03
            2445            2923     180.244E-03     184.684E-03
            2464            2924     178.315E-03     182.822E-03
            2446            2924     178.315E-03     182.822E-03
            2447            2924     178.315E-03     182.822E-03
            2465            2924     178.315E-03     182.822E-03
            2466            2925     176.657E-03     181.194E-03
            2448            2925     176.657E-03     181.194E-03
            2465            2925     176.657E-03     181.194E-03
            2447            2925     176.657E-03     181.194E-03
            2466            2926     175.214E-03     179.746E-03
            2448            2926     175.214E-03     179.746E-03
            2449            2926     175.214E-03     179.746E-03
            2467            2926     175.214E-03     179.746E-03
            2467            2927     174.046E-03     178.544E-03
            2468            2927     174.046E-03     178.544E-03
            2450            2927     174.046E-03     178.544E-03
            2449            2927     174.046E-03     178.544E-03
            2450            2928     173.186E-03     177.616E-03
            2451            2928     173.186E-03     177.616E-03
            2468            2928     173.186E-03     177.616E-03
            2469            2928     173.186E-03     177.616E-03
            2469            2929     172.928E-03     177.227E-03
            2451            2929     172.928E-03     177.227E-03
            2470            2929     172.928E-03     177.227E-03
            2452            2929     172.928E-03     177.227E-03
            2471            2930     172.862E-03     177.053E-03
            2470            2930     172.862E-03     177.053E-03
            2453            2930     172.862E-03     177.053E-03
            2452            2930     172.862E-03     177.053E-03
            2472            2931     172.768E-03     177.259E-03
            2453            2931     172.768E-03     177.259E-03
            2454            2931     172.768E-03     177.259E-03
            2471            2931     172.768E-03     177.259E-03
            2454            2932     166.450E-03     168.701E-03
            2473            2932     166.450E-03     168.701E-03
            2472            2932     166.450E-03     168.701E-03
            2455            2932     166.450E-03     168.701E-03
            2456            2933     139.895E-03     135.483E-03
            2473            2933     139.895E-03     135.483E-03
            2474            2933     139.895E-03     135.483E-03
            2455            2933     139.895E-03     135.483E-03
            2476            2934     202.626E-03     203.770E-03
            2458            2934     202.626E-03     203.770E-03
            2475            2934     202.626E-03     203.770E-03
            2457            2934     202.626E-03     203.770E-03
            2458            2935     197.320E-03     199.567E-03
            2476            2935     197.320E-03     199.567E-03
            2477            2935     197.320E-03     199.567E-03
            2459            2935     197.320E-03     199.567E-03
            2460            2936     191.195E-03     194.709E-03
            2459            2936     191.195E-03     194.709E-03
            2477            2936     191.195E-03     194.709E-03
            2478            2936     191.195E-03     194.709E-03
            2479            2937     186.901E-03     191.016E-03
            2460            2937     186.901E-03     191.016E-03
            2461            2937     186.901E-03     191.016E-03
            2478            2937     186.901E-03     191.016E-03
            2462            2938     183.116E-03     187.581E-03
            2480            2938     183.116E-03     187.581E-03
            2461            2938     183.116E-03     187.581E-03
            2479            2938     183.116E-03     187.581E-03
            2480            2939     180.071E-03     184.916E-03
            2463            2939     180.071E-03     184.916E-03
            2481            2939     180.071E-03     184.916E-03
            2462            2939     180.071E-03     184.916E-03
            2463            2940     177.425E-03     182.538E-03
            2482            2940     177.425E-03     182.538E-03
            2481            2940     177.425E-03     182.538E-03
            2464            2940     177.425E-03     182.538E-03
            2483            2941     175.226E-03     180.547E-03
            2465            2941     175.226E-03     180.547E-03
            2482            2941     175.226E-03     180.547E-03
            2464            2941     175.226E-03     180.547E-03
            2465            2942     173.355E-03     178.776E-03
            2466            2942     173.355E-03     178.776E-03
            2484            2942     173.355E-03     178.776E-03
            2483            2942     173.355E-03     178.776E-03
            2466            2943     171.809E-03     177.246E-03
            2467            2943     171.809E-03     177.246E-03
            2485            2943     171.809E-03     177.246E-03
            2484            2943     171.809E-03     177.246E-03
            2467            2944     170.552E-03     175.903E-03
            2486            2944     170.552E-03     175.903E-03
            2468            2944     170.552E-03     175.903E-03
            2485            2944     170.552E-03     175.903E-03
            2487            2945     169.604E-03     174.790E-03
            2486            2945     169.604E-03     174.790E-03
            2468            2945     169.604E-03     174.790E-03
            2469            2945     169.604E-03     174.790E-03
            2488            2946     168.709E-03     173.645E-03
            2470            2946     168.709E-03     173.645E-03
            2469            2946     168.709E-03     173.645E-03
            2487            2946     168.709E-03     173.645E-03
            2470            2947     168.004E-03     172.547E-03
            2489            2947     168.004E-03     172.547E-03
            2488            2947     168.004E-03     172.547E-03
            2471            2947     168.004E-03     172.547E-03
            2489            2948     164.970E-03     168.553E-03
            2490            2948     164.970E-03     168.553E-03
            2471            2948     164.970E-03     168.553E-03
            2472            2948     164.970E-03     168.553E-03
            2472            2949     159.846E-03     162.030E-03
            2491            2949     159.846E-03     162.030E-03
            2490            2949     159.846E-03     162.030E-03
            2473            2949     159.846E-03     162.030E-03
            2473            2950     144.811E-03     143.837E-03
            2474            2950     144.811E-03     143.837E-03
            2492            2950     144.811E-03     143.837E-03
            2491            2950     144.811E-03     143.837E-03
            2493            2951     6.60255E-03     6.81339E-03
            2512            2951     6.60255E-03     6.81339E-03
            2494            2951     6.60255E-03     6.81339E-03
            2511            2951     6.60255E-03     6.81339E-03
            2512            2952     5.29368E-03     5.10682E-03
            2494            2952     5.29368E-03     5.10682E-03
            2495            2952     5.29368E-03     5.10682E-03
            2513            2952     5.29368E-03     5.10682E-03
            2496            2953     5.35510E-03     4.85207E-03
            2513            2953     5.35510E-03     4.85207E-03
            2495            2953     5.35510E-03     4.85207E-03
            2514            2953     5.35510E-03     4.85207E-03
            2497            2954     5.20351E-03     4.60670E-03
            2496            2954     5.20351E-03     4.60670E-03
            2515            2954     5.20351E-03     4.60670E-03
            2514            2954     5.20351E-03     4.60670E-03
            2498            2955     5.05669E-03     4.39946E-03
            2515            2955     5.05669E-03     4.39946E-03
            2516            2955     5.05669E-03     4.39946E-03
            2497            2955     5.05669E-03     4.39946E-03
            2498            2956     4.86351E-03     4.18657E-03
            2499            2956     4.86351E-03     4.18657E-03
            2517            2956     4.86351E-03     4.18657E-03
            2516            2956     4.86351E-03     4.18657E-03
            2499            2957     4.68571E-03     3.99887E-03
            2518            2957     4.68571E-03     3.99887E-03
            2517            2957     4.68571E-03     3.99887E-03
            2500            2957     4.68571E-03     3.99887E-03
            2519            2958     4.51618E-03     3.82329E-03
            2518            2958     4.51618E-03     3.82329E-03
            2501            2958     4.51618E-03     3.82329E-03
            2500            2958     4.51618E-03     3.82329E-03
            2502            2959     4.35382E-03     3.66050E-03
            2520            2959     4.35382E-03     3.66050E-03
            2501            2959     4.35382E-03     3.66050E-03
            2519            2959     4.35382E-03     3.66050E-03
            2520            2960     4.19544E-03     3.49990E-03
            2503            2960     4.19544E-03     3.49990E-03
            2521            2960     4.19544E-03     3.49990E-03
            2502            2960     4.19544E-03     3.49990E-03
            2521            2961     4.02653E-03     3.33098E-03
            2522            2961     4.02653E-03     3.33098E-03
            2503            2961     4.02653E-03     3.33098E-03
            2504            2961     4.02653E-03     3.33098E-03
            2504            2962     3.83302E-03     3.13309E-03
            2523            2962     3.83302E-03     3.13309E-03
            2522            2962     3.83302E-03     3.13309E-03
            2505            2962     3.83302E-03     3.13309E-03
            2524            2963     3.57865E-03     2.87086E-03
            2506            2963     3.57865E-03     2.87086E-03
            2523            2963     3.57865E-03     2.87086E-03
            2505            2963     3.57865E-03     2.87086E-03
            2507            2964     3.20013E-03     2.47810E-03
            2506            2964     3.20013E-03     2.47810E-03
            2524            2964     3.20013E-03     2.47810E-03
            2525            2964     3.20013E-03     2.47810E-03
            2526            2965     2.61364E-03     1.84899E-03
            2508            2965     2.61364E-03     1.84899E-03
            2507            2965     2.61364E-03     1.84899E-03
            2525            2965     2.61364E-03     1.84899E-03
            2508            2966     1.58911E-03     1.03697E-03
            2527            2966     1.58911E-03     1.03697E-03
            2526            2966     1.58911E-03     1.03697E-03
            2509            2966     1.58911E-03     1.03697E-03
            2527            2967     1.79679E-03     2.09997E-03
            2528            2967     1.79679E-03     2.09997E-03
            2510            2967     1.79679E-03     2.09997E-03
            2509            2967     1.79679E-03     2.09997E-03
            2530            2968     7.32847E-03     7.08669E-03
            2511            2968     7.32847E-03     7.08669E-03
            2512            2968     7.32847E-03     7.08669E-03
            2529            2968     7.32847E-03     7.08669E-03
            2530            2969     5.43651E-03     5.30971E-03
            2512            2969     5.43651E-03     5.30971E-03
            2513            2969     5.43651E-03     5.30971E-03
            2531            2969     5.43651E-03     5.30971E-03
            2531            2970     5.16651E-03     4.92738E-03
            2513            2970     5.16651E-03     4.92738E-03
            2514            2970     5.16651E-03     4.92738E-03
            2532            2970     5.16651E-03     4.92738E-03
            2515            2971     5.06369E-03     4.71561E-03
            2533            2971     5.06369E-03     4.71561E-03
            2532            2971     5.06369E-03     4.71561E-03
            2514            2971     5.06369E-03     4.71561E-03
            2516            2972     4.88825E-03     4.51659E-03
            2534            2972     4.88825E-03     4.51659E-03
            2533            2972     4.88825E-03     4.51659E-03
            2515            2972     4.88825E-03     4.51659E-03
            2516            2973     4.72166E-03     4.33761E-03
            2535            2973     4.72166E-03     4.33761E-03
            2517            2973     4.72166E-03     4.33761E-03
            2534            2973     4.72166E-03     4.33761E-03
            2517            2974     4.56202E-03     4.17284E-03
            2518            2974     4.56202E-03     4.17284E-03
            2536            2974     4.56202E-03     4.17284E-03
            2535            2974     4.56202E-03     4.17284E-03
            2518            2975     4.41331E-03     4.02378E-03
            2519            2975     4.41331E-03     4.02378E-03
            2536            2975     4.41331E-03     4.02378E-03
            2537            2975     4.41331E-03     4.02378E-03
            2519            2976     4.27537E-03     3.88555E-03
            2520            2976     4.27537E-03     3.88555E-03
            2537            2976     4.27537E-03     3.88555E-03
            2538            2976     4.27537E-03     3.88555E-03
            2539            2977     4.14401E-03     3.75618E-03
            2520            2977     4.14401E-03     3.75618E-03
            2521            2977     4.14401E-03     3.75618E-03
            2538            2977     4.14401E-03     3.75618E-03
            2522            2978     4.01736E-03     3.63018E-03
            2539            2978     4.01736E-03     3.63018E-03
            2521            2978     4.01736E-03     3.63018E-03
            2540            2978     4.01736E-03     3.63018E-03
            2522            2979     3.87952E-03     3.49303E-03
            2540            2979     3.87952E-03     3.49303E-03
            2541            2979     3.87952E-03     3.49303E-03
            2523            2979     3.87952E-03     3.49303E-03
            2524            2980     3.71553E-03     3.32519E-03
            2523            2980     3.71553E-03     3.32519E-03
            2542            2980     3.71553E-03     3.32519E-03
            2541            2980     3.71553E-03     3.32519E-03
            2525            2981     3.42862E-03     3.04244E-03
            2524            2981     3.42862E-03     3.04244E-03
            2543            2981     3.42862E-03     3.04244E-03
            2542            2981     3.42862E-03     3.04244E-03
            2543            2982     2.92141E-03     2.54684E-03
            2544            2982     2.92141E-03     2.54684E-03
            2526            2982     2.92141E-03     2.54684E-03
            2525            2982     2.92141E-03     2.54684E-03
            2526            2983     1.86670E-03     1.62608E-03
            2545            2983     1.86670E-03     1.62608E-03
            2544            2983     1.86670E-03     1.62608E-03
            2527            2983     1.86670E-03     1.62608E-03
            2528            2984     1.91952E-03     1.60672E-03
            2546            2984     1.91952E-03     1.60672E-03
            2545            2984     1.91952E-03     1.60672E-03
            2527            2984     1.91952E-03     1.60672E-03
            2530            2985     8.16295E-03     7.91137E-03
            2548            2985     8.16295E-03     7.91137E-03
            2547            2985     8.16295E-03     7.91137E-03
            2529            2985     8.16295E-03     7.91137E-03
            2548            2986     6.03075E-03     5.90775E-03
            2549            2986     6.03075E-03     5.90775E-03
            2531            2986     6.03075E-03     5.90775E-03
            2530            2986     6.03075E-03     5.90775E-03
            2549            2987     5.14153E-03     5.07657E-03
            2531            2987     5.14153E-03     5.07657E-03
            2550            2987     5.14153E-03     5.07657E-03
            2532            2987     5.14153E-03     5.07657E-03
            2533            2988     4.82667E-03     4.76291E-03
            2551            2988     4.82667E-03     4.76291E-03
            2532            2988     4.82667E-03     4.76291E-03
            2550            2988     4.82667E-03     4.76291E-03
            2551            2989     4.63012E-03     4.56224E-03
            2534            2989     4.63012E-03     4.56224E-03
            2552            2989     4.63012E-03     4.56224E-03
            2533            2989     4.63012E-03     4.56224E-03
            2534            2990     4.50018E-03     4.42058E-03
            2535            2990     4.50018E-03     4.42058E-03
            2552            2990     4.50018E-03     4.42058E-03
            2553            2990     4.50018E-03     4.42058E-03
            2553            2991     4.37853E-03     4.29501E-03
            2554            2991     4.37853E-03     4.29501E-03
            2535            2991     4.37853E-03     4.29501E-03
            2536            2991     4.37853E-03     4.29501E-03
            2537            2992     4.26820E-03     4.18120E-03
            2555            2992     4.26820E-03     4.18120E-03
            2536            2992     4.26820E-03     4.18120E-03
            2554            2992     4.26820E-03     4.18120E-03
            2556            2993     4.16131E-03     4.07380E-03
            2538            2993     4.16131E-03     4.07380E-03
            2537            2993     4.16131E-03     4.07380E-03
            2555            2993     4.16131E-03     4.07380E-03
            2556            2994     4.06087E-03     3.97245E-03
            2539            2994     4.06087E-03     3.97245E-03
            2538            2994     4.06087E-03     3.97245E-03
            2557            2994     4.06087E-03     3.97245E-03
            2558            2995     3.96583E-03     3.87734E-03
            2557            2995     3.96583E-03     3.87734E-03
            2539            2995     3.96583E-03     3.87734E-03
            2540            2995     3.96583E-03     3.87734E-03
            2558            2996     3.87601E-03     3.78537E-03
            2559            2996     3.87601E-03     3.78537E-03
            2541            2996     3.87601E-03     3.78537E-03
            2540            2996     3.87601E-03     3.78537E-03
            2559            2997     3.75803E-03     3.67019E-03
            2542            2997     3.75803E-03     3.67019E-03
            2560            2997     3.75803E-03     3.67019E-03
            2541            2997     3.75803E-03     3.67019E-03
            2543            2998     3.58850E-03     3.49854E-03
            2560            2998     3.58850E-03     3.49854E-03
            2561            2998     3.58850E-03     3.49854E-03
            2542            2998     3.58850E-03     3.49854E-03
            2543            2999     3.12270E-03     3.09757E-03
            2544            2999     3.12270E-03     3.09757E-03
            2562            2999     3.12270E-03     3.09757E-03
            2561            2999     3.12270E-03     3.09757E-03
            2544            3000     2.31456E-03     2.41638E-03
            2563            3000     2.31456E-03     2.41638E-03
            2545            3000     2.31456E-03     2.41638E-03
            2562            3000     2.31456E-03     2.41638E-03
            2546            3001     2.33457E-03     2.24765E-03
            2564            3001     2.33457E-03     2.24765E-03
            2545            3001     2.33457E-03     2.24765E-03
            2563            3001     2.33457E-03     2.24765E-03
            2547            3002     8.84580E-03     8.76371E-03
            2566            3002     8.84580E-03     8.76371E-03
            2548            3002     8.84580E-03     8.76371E-03
            2565            3002     8.84580E-03     8.76371E-03
            2567            3003     6.55697E-03     6.49578E-03
            2566            3003     6.55697E-03     6.49578E-03
            2548            3003     6.55697E-03     6.49578E-03
            2549            3003     6.55697E-03     6.49578E-03
            2567            3004     5.18232E-03     5.33058E-03
            2550            3004     5.18232E-03     5.33058E-03
            2568            3004     5.18232E-03     5.33058E-03
            2549            3004     5.18232E-03     5.33058E-03
            2568            3005     4.59228E-03     4.83945E-03
            2551            3005     4.59228E-03     4.83945E-03
            2550            3005     4.59228E-03     4.83945E-03
            2569            3005     4.59228E-03     4.83945E-03
            2570            3006     4.39783E-03     4.63036E-03
            2552            3006     4.39783E-03     4.63036E-03
            2551            3006     4.39783E-03     4.63036E-03
            2569            3006     4.39783E-03     4.63036E-03
            2570            3007     4.27155E-03     4.50135E-03
            2552            3007     4.27155E-03     4.50135E-03
            2571            3007     4.27155E-03     4.50135E-03
            2553            3007     4.27155E-03     4.50135E-03
            2572            3008     4.18983E-03     4.40876E-03
            2554            3008     4.18983E-03     4.40876E-03
            2571            3008     4.18983E-03     4.40876E-03
            2553            3008     4.18983E-03     4.40876E-03
            2554            3009     4.10798E-03     4.32207E-03
            2572            3009     4.10798E-03     4.32207E-03
            2555            3009     4.10798E-03     4.32207E-03
            2573            3009     4.10798E-03     4.32207E-03
            2556            3010     4.02762E-03     4.23580E-03
            2574            3010     4.02762E-03     4.23580E-03
            2555            3010     4.02762E-03     4.23580E-03
            2573            3010     4.02762E-03     4.23580E-03
            2556            3011     3.94750E-03     4.15101E-03
            2557            3011     3.94750E-03     4.15101E-03
            2574            3011     3.94750E-03     4.15101E-03
            2575            3011     3.94750E-03     4.15101E-03
            2575            3012     3.87099E-03     4.06852E-03
            2557            3012     3.87099E-03     4.06852E-03
            2576            3012     3.87099E-03     4.06852E-03
            2558            3012     3.87099E-03     4.06852E-03
            2577            3013     3.79904E-03     3.99141E-03
            2558            3013     3.79904E-03     3.99141E-03
            2559            3013     3.79904E-03     3.99141E-03
            2576            3013     3.79904E-03     3.99141E-03
            2560            3014     3.72227E-03     3.91112E-03
            2578            3014     3.72227E-03     3.91112E-03
            2559            3014     3.72227E-03     3.91112E-03
            2577            3014     3.72227E-03     3.91112E-03
            2561            3015     3.59862E-03     3.79635E-03
            2560            3015     3.59862E-03     3.79635E-03
            2579            3015     3.59862E-03     3.79635E-03
            2578            3015     3.59862E-03     3.79635E-03
            2579            3016     3.38589E-03     3.61542E-03
            2580            3016     3.38589E-03     3.61542E-03
            2562            3016     3.38589E-03     3.61542E-03
            2561            3016     3.38589E-03     3.61542E-03
            2581            3017     3.05795E-03     3.25525E-03
            2580            3017     3.05795E-03     3.25525E-03
            2563            3017     3.05795E-03     3.25525E-03
            2562            3017     3.05795E-03     3.25525E-03
            2582            3018     3.19767E-03     3.29900E-03
            2563            3018     3.19767E-03     3.29900E-03
            2581            3018     3.19767E-03     3.29900E-03
            2564            3018     3.19767E-03     3.29900E-03
            2583            3019     9.55570E-03     9.45641E-03
            2565            3019     9.55570E-03     9.45641E-03
            2566            3019     9.55570E-03     9.45641E-03
            2584            3019     9.55570E-03     9.45641E-03
            2584            3020     6.63254E-03     6.96270E-03
            2567            3020     6.63254E-03     6.96270E-03
            2566            3020     6.63254E-03     6.96270E-03
            2585            3020     6.63254E-03     6.96270E-03
            2585            3021     5.09441E-03     5.61946E-03
            2586            3021     5.09441E-03     5.61946E-03
            2568            3021     5.09441E-03     5.61946E-03
            2567            3021     5.09441E-03     5.61946E-03
            2569            3022     4.52356E-03     5.04774E-03
            2568            3022     4.52356E-03     5.04774E-03
            2587            3022     4.52356E-03     5.04774E-03
            2586            3022     4.52356E-03     5.04774E-03
            2569            3023     4.24382E-03     4.77685E-03
            2570            3023     4.24382E-03     4.77685E-03
            2588            3023     4.24382E-03     4.77685E-03
            2587            3023     4.24382E-03     4.77685E-03
            2571            3024     4.12109E-03     4.64164E-03
            2588            3024     4.12109E-03     4.64164E-03
            2570            3024     4.12109E-03     4.64164E-03
            2589            3024     4.12109E-03     4.64164E-03
            2571            3025     4.03594E-03     4.55081E-03
            2590            3025     4.03594E-03     4.55081E-03
            2572            3025     4.03594E-03     4.55081E-03
            2589            3025     4.03594E-03     4.55081E-03
            2591            3026     3.96614E-03     4.47202E-03
            2572            3026     3.96614E-03     4.47202E-03
            2590            3026     3.96614E-03     4.47202E-03
            2573            3026     3.96614E-03     4.47202E-03
            2573            3027     3.89506E-03     4.39235E-03
            2592            3027     3.89506E-03     4.39235E-03
            2574            3027     3.89506E-03     4.39235E-03
            2591            3027     3.89506E-03     4.39235E-03
            2574            3028     3.82145E-03     4.30807E-03
            2593            3028     3.82145E-03     4.30807E-03
            2592            3028     3.82145E-03     4.30807E-03
            2575            3028     3.82145E-03     4.30807E-03
            2576            3029     3.74871E-03     4.22428E-03
            2575            3029     3.74871E-03     4.22428E-03
            2594            3029     3.74871E-03     4.22428E-03
            2593            3029     3.74871E-03     4.22428E-03
            2576            3030     3.67356E-03     4.13880E-03
            2594            3030     3.67356E-03     4.13880E-03
            2595            3030     3.67356E-03     4.13880E-03
            2577            3030     3.67356E-03     4.13880E-03
            2596            3031     3.60798E-03     4.06543E-03
            2577            3031     3.60798E-03     4.06543E-03
            2578            3031     3.60798E-03     4.06543E-03
            2595            3031     3.60798E-03     4.06543E-03
            2597            3032     3.52065E-03     3.99229E-03
            2596            3032     3.52065E-03     3.99229E-03
            2579            3032     3.52065E-03     3.99229E-03
            2578            3032     3.52065E-03     3.99229E-03
            2580            3033     3.50047E-03     3.96820E-03
            2579            3033     3.50047E-03     3.96820E-03
            2597            3033     3.50047E-03     3.96820E-03
            2598            3033     3.50047E-03     3.96820E-03
            2599            3034     3.76671E-03     4.15724E-03
            2598            3034     3.76671E-03     4.15724E-03
            2580            3034     3.76671E-03     4.15724E-03
            2581            3034     3.76671E-03     4.15724E-03
            2581            3035     4.49548E-03     4.58103E-03
            2599            3035     4.49548E-03     4.58103E-03
            2582            3035     4.49548E-03     4.58103E-03
            2600            3035     4.49548E-03     4.58103E-03
            2584            3036     9.61623E-03     10.4925E-03
            2601            3036     9.61623E-03     10.4925E-03
            2602            3036     9.61623E-03     10.4925E-03
            2583            3036     9.61623E-03     10.4925E-03
            2602            3037     6.41300E-03     7.37349E-03
            2603            3037     6.41300E-03     7.37349E-03
            2584            3037     6.41300E-03     7.37349E-03
            2585            3037     6.41300E-03     7.37349E-03
            2585            3038     5.20714E-03     6.03807E-03
            2603            3038     5.20714E-03     6.03807E-03
            2586            3038     5.20714E-03     6.03807E-03
            2604            3038     5.20714E-03     6.03807E-03
            2587            3039     4.57099E-03     5.37723E-03
            2604            3039     4.57099E-03     5.37723E-03
            2605            3039     4.57099E-03     5.37723E-03
            2586            3039     4.57099E-03     5.37723E-03
            2605            3040     4.23286E-03     5.03457E-03
            2587            3040     4.23286E-03     5.03457E-03
            2588            3040     4.23286E-03     5.03457E-03
            2606            3040     4.23286E-03     5.03457E-03
            2607            3041     4.04900E-03     4.85101E-03
            2606            3041     4.04900E-03     4.85101E-03
            2589            3041     4.04900E-03     4.85101E-03
            2588            3041     4.04900E-03     4.85101E-03
            2589            3042     3.93578E-03     4.73409E-03
            2590            3042     3.93578E-03     4.73409E-03
            2608            3042     3.93578E-03     4.73409E-03
            2607            3042     3.93578E-03     4.73409E-03
            2608            3043     3.85257E-03     4.64227E-03
            2609            3043     3.85257E-03     4.64227E-03
            2590            3043     3.85257E-03     4.64227E-03
            2591            3043     3.85257E-03     4.64227E-03
            2609            3044     3.77754E-03     4.55496E-03
            2591            3044     3.77754E-03     4.55496E-03
            2592            3044     3.77754E-03     4.55496E-03
            2610            3044     3.77754E-03     4.55496E-03
            2593            3045     3.70388E-03     4.46668E-03
            2610            3045     3.70388E-03     4.46668E-03
            2592            3045     3.70388E-03     4.46668E-03
            2611            3045     3.70388E-03     4.46668E-03
            2594            3046     3.62494E-03     4.37254E-03
            2611            3046     3.62494E-03     4.37254E-03
            2593            3046     3.62494E-03     4.37254E-03
            2612            3046     3.62494E-03     4.37254E-03
            2595            3047     3.54594E-03     4.28021E-03
            2613            3047     3.54594E-03     4.28021E-03
            2612            3047     3.54594E-03     4.28021E-03
            2594            3047     3.54594E-03     4.28021E-03
            2595            3048     3.45553E-03     4.18751E-03
            2613            3048     3.45553E-03     4.18751E-03
            2614            3048     3.45553E-03     4.18751E-03
            2596            3048     3.45553E-03     4.18751E-03
            2597            3049     3.40712E-03     4.14694E-03
            2596            3049     3.40712E-03     4.14694E-03
            2614            3049     3.40712E-03     4.14694E-03
            2615            3049     3.40712E-03     4.14694E-03
            2598            3050     3.40798E-03     4.18937E-03
            2597            3050     3.40798E-03     4.18937E-03
            2615            3050     3.40798E-03     4.18937E-03
            2616            3050     3.40798E-03     4.18937E-03
            2598            3051     3.86952E-03     4.68724E-03
            2617            3051     3.86952E-03     4.68724E-03
            2616            3051     3.86952E-03     4.68724E-03
            2599            3051     3.86952E-03     4.68724E-03
            2617            3052     5.47287E-03     6.21566E-03
            2618            3052     5.47287E-03     6.21566E-03
            2600            3052     5.47287E-03     6.21566E-03
            2599            3052     5.47287E-03     6.21566E-03
            2620            3053     10.8987E-03     11.5137E-03
            2619            3053     10.8987E-03     11.5137E-03
            2601            3053     10.8987E-03     11.5137E-03
            2602            3053     10.8987E-03     11.5137E-03
            2621            3054     9.71935E-03     9.85655E-03
            2603            3054     9.71935E-03     9.85655E-03
            2620            3054     9.71935E-03     9.85655E-03
            2602            3054     9.71935E-03     9.85655E-03
            2621            3055     9.39809E-03     9.40320E-03
            2603            3055     9.39809E-03     9.40320E-03
            2604            3055     9.39809E-03     9.40320E-03
            2622            3055     9.39809E-03     9.40320E-03
            2605            3056     9.04006E-03     9.08648E-03
            2604            3056     9.04006E-03     9.08648E-03
            2622            3056     9.04006E-03     9.08648E-03
            2623            3056     9.04006E-03     9.08648E-03
            2605            3057     8.80371E-03     8.86285E-03
            2606            3057     8.80371E-03     8.86285E-03
            2624            3057     8.80371E-03     8.86285E-03
            2623            3057     8.80371E-03     8.86285E-03
            2607            3058     8.55569E-03     8.65422E-03
            2624            3058     8.55569E-03     8.65422E-03
            2606            3058     8.55569E-03     8.65422E-03
            2625            3058     8.55569E-03     8.65422E-03
            2608            3059     8.32186E-03     8.43434E-03
            2625            3059     8.32186E-03     8.43434E-03
            2626            3059     8.32186E-03     8.43434E-03
            2607            3059     8.32186E-03     8.43434E-03
            2627            3060     8.06953E-03     8.19601E-03
            2609            3060     8.06953E-03     8.19601E-03
            2626            3060     8.06953E-03     8.19601E-03
            2608            3060     8.06953E-03     8.19601E-03
            2610            3061     7.80001E-03     7.92808E-03
            2627            3061     7.80001E-03     7.92808E-03
            2628            3061     7.80001E-03     7.92808E-03
            2609            3061     7.80001E-03     7.92808E-03
            2610            3062     7.50921E-03     7.63701E-03
            2628            3062     7.50921E-03     7.63701E-03
            2629            3062     7.50921E-03     7.63701E-03
            2611            3062     7.50921E-03     7.63701E-03
            2611            3063     7.19270E-03     7.31422E-03
            2629            3063     7.19270E-03     7.31422E-03
            2630            3063     7.19270E-03     7.31422E-03
            2612            3063     7.19270E-03     7.31422E-03
            2613            3064     6.85355E-03     6.96679E-03
            2630            3064     6.85355E-03     6.96679E-03
            2631            3064     6.85355E-03     6.96679E-03
            2612            3064     6.85355E-03     6.96679E-03
            2613            3065     6.48449E-03     6.58772E-03
            2614            3065     6.48449E-03     6.58772E-03
            2631            3065     6.48449E-03     6.58772E-03
            2632            3065     6.48449E-03     6.58772E-03
            2633            3066     6.11246E-03     6.20596E-03
            2614            3066     6.11246E-03     6.20596E-03
            2632            3066     6.11246E-03     6.20596E-03
            2615            3066     6.11246E-03     6.20596E-03
            2615            3067     5.76761E-03     5.86171E-03
            2633            3067     5.76761E-03     5.86171E-03
            2634            3067     5.76761E-03     5.86171E-03
            2616            3067     5.76761E-03     5.86171E-03
            2617            3068     5.57970E-03     5.74500E-03
            2634            3068     5.57970E-03     5.74500E-03
            2635            3068     5.57970E-03     5.74500E-03
            2616            3068     5.57970E-03     5.74500E-03
            2635            3069     6.08561E-03     6.82358E-03
            2636            3069     6.08561E-03     6.82358E-03
            2618            3069     6.08561E-03     6.82358E-03
            2617            3069     6.08561E-03     6.82358E-03
            2638            3070     12.9252E-03     12.5350E-03
            2637            3070     12.9252E-03     12.5350E-03
            2619            3070     12.9252E-03     12.5350E-03
            2620            3070     12.9252E-03     12.5350E-03
            2639            3071     13.1098E-03     12.5589E-03
            2620            3071     13.1098E-03     12.5589E-03
            2621            3071     13.1098E-03     12.5589E-03
            2638            3071     13.1098E-03     12.5589E-03
            2621            3072     13.6395E-03     12.9886E-03
            2640            3072     13.6395E-03     12.9886E-03
            2622            3072     13.6395E-03     12.9886E-03
            2639            3072     13.6395E-03     12.9886E-03
            2640            3073     13.7231E-03     13.0737E-03
            2641            3073     13.7231E-03     13.0737E-03
            2622            3073     13.7231E-03     13.0737E-03
            2623            3073     13.7231E-03     13.0737E-03
            2624            3074     13.6244E-03     12.9855E-03
            2641            3074     13.6244E-03     12.9855E-03
            2642            3074     13.6244E-03     12.9855E-03
            2623            3074     13.6244E-03     12.9855E-03
            2642            3075     13.3588E-03     12.7458E-03
            2625            3075     13.3588E-03     12.7458E-03
            2624            3075     13.3588E-03     12.7458E-03
            2643            3075     13.3588E-03     12.7458E-03
            2644            3076     13.0042E-03     12.4117E-03
            2626            3076     13.0042E-03     12.4117E-03
            2625            3076     13.0042E-03     12.4117E-03
            2643            3076     13.0042E-03     12.4117E-03
            2645            3077     12.5764E-03     12.0017E-03
            2626            3077     12.5764E-03     12.0017E-03
            2644            3077     12.5764E-03     12.0017E-03
            2627            3077     12.5764E-03     12.0017E-03
            2645            3078     12.1001E-03     11.5389E-03
            2628            3078     12.1001E-03     11.5389E-03
            2627            3078     12.1001E-03     11.5389E-03
            2646            3078     12.1001E-03     11.5389E-03
            2646            3079     11.5814E-03     11.0272E-03
            2647            3079     11.5814E-03     11.0272E-03
            2629            3079     11.5814E-03     11.0272E-03
            2628            3079     11.5814E-03     11.0272E-03
            2630            3080     11.0233E-03     10.4715E-03
            2648            3080     11.0233E-03     10.4715E-03
            2647            3080     11.0233E-03     10.4715E-03
            2629            3080     11.0233E-03     10.4715E-03
            2631            3081     10.4206E-03     9.86321E-03
            2630            3081     10.4206E-03     9.86321E-03
            2649            3081     10.4206E-03     9.86321E-03
            2648            3081     10.4206E-03     9.86321E-03
            2650            3082     9.76782E-03     9.19766E-03
            2649            3082     9.76782E-03     9.19766E-03
            2632            3082     9.76782E-03     9.19766E-03
            2631            3082     9.76782E-03     9.19766E-03
            2651            3083     9.04680E-03     8.46019E-03
            2650            3083     9.04680E-03     8.46019E-03
            2633            3083     9.04680E-03     8.46019E-03
            2632            3083     9.04680E-03     8.46019E-03
            2651            3084     8.24935E-03     7.66284E-03
            2652            3084     8.24935E-03     7.66284E-03
            2633            3084     8.24935E-03     7.66284E-03
            2634            3084     8.24935E-03     7.66284E-03
            2634            3085     7.30633E-03     6.88314E-03
            2653            3085     7.30633E-03     6.88314E-03
            2635            3085     7.30633E-03     6.88314E-03
            2652            3085     7.30633E-03     6.88314E-03
            2636            3086     6.39346E-03     6.74364E-03
            2635            3086     6.39346E-03     6.74364E-03
            2653            3086     6.39346E-03     6.74364E-03
            2654            3086     6.39346E-03     6.74364E-03
            2638            3087     14.2631E-03     14.1142E-03
            2656            3087     14.2631E-03     14.1142E-03
            2655            3087     14.2631E-03     14.1142E-03
            2637            3087     14.2631E-03     14.1142E-03
            2638            3088     13.6069E-03     13.5843E-03
            2656            3088     13.6069E-03     13.5843E-03
            2639            3088     13.6069E-03     13.5843E-03
            2657            3088     13.6069E-03     13.5843E-03
            2640            3089     14.0392E-03     13.8792E-03
            2658            3089     14.0392E-03     13.8792E-03
            2657            3089     14.0392E-03     13.8792E-03
            2639            3089     14.0392E-03     13.8792E-03
            2659            3090     14.2059E-03     13.9391E-03
            2640            3090     14.2059E-03     13.9391E-03
            2641            3090     14.2059E-03     13.9391E-03
            2658            3090     14.2059E-03     13.9391E-03
            2642            3091     14.1041E-03     13.7878E-03
            2641            3091     14.1041E-03     13.7878E-03
            2659            3091     14.1041E-03     13.7878E-03
            2660            3091     14.1041E-03     13.7878E-03
            2642            3092     13.8335E-03     13.4875E-03
            2661            3092     13.8335E-03     13.4875E-03
            2660            3092     13.8335E-03     13.4875E-03
            2643            3092     13.8335E-03     13.4875E-03
            2644            3093     13.4445E-03     13.0878E-03
            2662            3093     13.4445E-03     13.0878E-03
            2661            3093     13.4445E-03     13.0878E-03
            2643            3093     13.4445E-03     13.0878E-03
            2662            3094     12.9885E-03     12.6271E-03
            2663            3094     12.9885E-03     12.6271E-03
            2644            3094     12.9885E-03     12.6271E-03
            2645            3094     12.9885E-03     12.6271E-03
            2663            3095     12.4876E-03     12.1233E-03
            2664            3095     12.4876E-03     12.1233E-03
            2646            3095     12.4876E-03     12.1233E-03
            2645            3095     12.4876E-03     12.1233E-03
            2665            3096     11.9530E-03     11.5871E-03
            2646            3096     11.9530E-03     11.5871E-03
            2664            3096     11.9530E-03     11.5871E-03
            2647            3096     11.9530E-03     11.5871E-03
            2647            3097     11.3852E-03     11.0164E-03
            2666            3097     11.3852E-03     11.0164E-03
            2665            3097     11.3852E-03     11.0164E-03
            2648            3097     11.3852E-03     11.0164E-03
            2667            3098     10.7745E-03     10.4033E-03
            2666            3098     10.7745E-03     10.4033E-03
            2649            3098     10.7745E-03     10.4033E-03
            2648            3098     10.7745E-03     10.4033E-03
            2668            3099     10.0959E-03     9.73039E-03
            2649            3099     10.0959E-03     9.73039E-03
            2667            3099     10.0959E-03     9.73039E-03
            2650            3099     10.0959E-03     9.73039E-03
            2650            3100     9.32133E-03     8.98389E-03
            2668            3100     9.32133E-03     8.98389E-03
            2669            3100     9.32133E-03     8.98389E-03
            2651            3100     9.32133E-03     8.98389E-03
            2669            3101     8.38650E-03     8.15311E-03
            2670            3101     8.38650E-03     8.15311E-03
            2651            3101     8.38650E-03     8.15311E-03
            2652            3101     8.38650E-03     8.15311E-03
            2652            3102     7.22747E-03     7.35480E-03
            2670            3102     7.22747E-03     7.35480E-03
            2653            3102     7.22747E-03     7.35480E-03
            2671            3102     7.22747E-03     7.35480E-03
            2653            3103     6.50374E-03     6.88418E-03
            2654            3103     6.50374E-03     6.88418E-03
            2671            3103     6.50374E-03     6.88418E-03
            2672            3103     6.50374E-03     6.88418E-03
            2674            3104     15.8169E-03     15.7158E-03
            2655            3104     15.8169E-03     15.7158E-03
            2656            3104     15.8169E-03     15.7158E-03
            2673            3104     15.8169E-03     15.7158E-03
            2675            3105     14.7418E-03     14.8620E-03
            2657            3105     14.7418E-03     14.8620E-03
            2656            3105     14.7418E-03     14.8620E-03
            2674            3105     14.7418E-03     14.8620E-03
            2676            3106     14.5955E-03     14.7201E-03
            2657            3106     14.5955E-03     14.7201E-03
            2658            3106     14.5955E-03     14.7201E-03
            2675            3106     14.5955E-03     14.7201E-03
            2659            3107     14.6209E-03     14.6574E-03
            2677            3107     14.6209E-03     14.6574E-03
            2676            3107     14.6209E-03     14.6574E-03
            2658            3107     14.6209E-03     14.6574E-03
            2659            3108     14.4574E-03     14.4145E-03
            2678            3108     14.4574E-03     14.4145E-03
            2677            3108     14.4574E-03     14.4145E-03
            2660            3108     14.4574E-03     14.4145E-03
            2678            3109     14.1430E-03     14.0492E-03
            2679            3109     14.1430E-03     14.0492E-03
            2660            3109     14.1430E-03     14.0492E-03
            2661            3109     14.1430E-03     14.0492E-03
            2680            3110     13.7253E-03     13.5987E-03
            2662            3110     13.7253E-03     13.5987E-03
            2679            3110     13.7253E-03     13.5987E-03
            2661            3110     13.7253E-03     13.5987E-03
            2663            3111     13.2492E-03     13.1005E-03
            2662            3111     13.2492E-03     13.1005E-03
            2680            3111     13.2492E-03     13.1005E-03
            2681            3111     13.2492E-03     13.1005E-03
            2663            3112     12.7353E-03     12.5743E-03
            2664            3112     12.7353E-03     12.5743E-03
            2681            3112     12.7353E-03     12.5743E-03
            2682            3112     12.7353E-03     12.5743E-03
            2664            3113     12.1991E-03     12.0289E-03
            2665            3113     12.1991E-03     12.0289E-03
            2683            3113     12.1991E-03     12.0289E-03
            2682            3113     12.1991E-03     12.0289E-03
            2684            3114     11.6329E-03     11.4606E-03
            2683            3114     11.6329E-03     11.4606E-03
            2666            3114     11.6329E-03     11.4606E-03
            2665            3114     11.6329E-03     11.4606E-03
            2684            3115     11.0256E-03     10.8587E-03
            2667            3115     11.0256E-03     10.8587E-03
            2666            3115     11.0256E-03     10.8587E-03
            2685            3115     11.0256E-03     10.8587E-03
            2685            3116     10.3453E-03     10.2056E-03
            2667            3116     10.3453E-03     10.2056E-03
            2686            3116     10.3453E-03     10.2056E-03
            2668            3116     10.3453E-03     10.2056E-03
            2668            3117     9.54985E-03     9.47272E-03
            2669            3117     9.54985E-03     9.47272E-03
            2686            3117     9.54985E-03     9.47272E-03
            2687            3117     9.54985E-03     9.47272E-03
            2669            3118     8.57995E-03     8.67187E-03
            2670            3118     8.57995E-03     8.67187E-03
            2688            3118     8.57995E-03     8.67187E-03
            2687            3118     8.57995E-03     8.67187E-03
            2688            3119     7.55092E-03     7.84014E-03
            2670            3119     7.55092E-03     7.84014E-03
            2689            3119     7.55092E-03     7.84014E-03
            2671            3119     7.55092E-03     7.84014E-03
            2690            3120     6.97744E-03     7.18393E-03
            2672            3120     6.97744E-03     7.18393E-03
            2671            3120     6.97744E-03     7.18393E-03
            2689            3120     6.97744E-03     7.18393E-03
            2691            3121     17.2015E-03     17.2213E-03
            2674            3121     17.2015E-03     17.2213E-03
            2673            3121     17.2015E-03     17.2213E-03
            2692            3121     17.2015E-03     17.2213E-03
            2693            3122     15.9701E-03     16.1189E-03
            2674            3122     15.9701E-03     16.1189E-03
            2675            3122     15.9701E-03     16.1189E-03
            2692            3122     15.9701E-03     16.1189E-03
            2694            3123     15.3506E-03     15.5996E-03
            2676            3123     15.3506E-03     15.5996E-03
            2693            3123     15.3506E-03     15.5996E-03
            2675            3123     15.3506E-03     15.5996E-03
            2695            3124     15.0302E-03     15.2569E-03
            2694            3124     15.0302E-03     15.2569E-03
            2676            3124     15.0302E-03     15.2569E-03
            2677            3124     15.0302E-03     15.2569E-03
            2696            3125     14.7100E-03     14.8817E-03
            2678            3125     14.7100E-03     14.8817E-03
            2695            3125     14.7100E-03     14.8817E-03
            2677            3125     14.7100E-03     14.8817E-03
            2678            3126     14.3028E-03     14.4264E-03
            2697            3126     14.3028E-03     14.4264E-03
            2696            3126     14.3028E-03     14.4264E-03
            2679            3126     14.3028E-03     14.4264E-03
            2680            3127     13.8424E-03     13.9246E-03
            2698            3127     13.8424E-03     13.9246E-03
            2697            3127     13.8424E-03     13.9246E-03
            2679            3127     13.8424E-03     13.9246E-03
            2680            3128     13.3406E-03     13.3976E-03
            2699            3128     13.3406E-03     13.3976E-03
            2681            3128     13.3406E-03     13.3976E-03
            2698            3128     13.3406E-03     13.3976E-03
            2700            3129     12.8268E-03     12.8628E-03
            2681            3129     12.8268E-03     12.8628E-03
            2682            3129     12.8268E-03     12.8628E-03
            2699            3129     12.8268E-03     12.8628E-03
            2701            3130     12.2947E-03     12.3212E-03
            2683            3130     12.2947E-03     12.3212E-03
            2700            3130     12.2947E-03     12.3212E-03
            2682            3130     12.2947E-03     12.3212E-03
            2701            3131     11.7502E-03     11.7729E-03
            2702            3131     11.7502E-03     11.7729E-03
            2683            3131     11.7502E-03     11.7729E-03
            2684            3131     11.7502E-03     11.7729E-03
            2702            3132     11.1656E-03     11.2023E-03
            2685            3132     11.1656E-03     11.2023E-03
            2703            3132     11.1656E-03     11.2023E-03
            2684            3132     11.1656E-03     11.2023E-03
            2704            3133     10.5215E-03     10.5902E-03
            2703            3133     10.5215E-03     10.5902E-03
            2686            3133     10.5215E-03     10.5902E-03
            2685            3133     10.5215E-03     10.5902E-03
            2705            3134     9.76780E-03     9.91589E-03
            2687            3134     9.76780E-03     9.91589E-03
            2704            3134     9.76780E-03     9.91589E-03
            2686            3134     9.76780E-03     9.91589E-03
            2706            3135     8.90212E-03     9.16228E-03
            2688            3135     8.90212E-03     9.16228E-03
            2705            3135     8.90212E-03     9.16228E-03
            2687            3135     8.90212E-03     9.16228E-03
            2688            3136     8.07275E-03     8.35970E-03
            2707            3136     8.07275E-03     8.35970E-03
            2689            3136     8.07275E-03     8.35970E-03
            2706            3136     8.07275E-03     8.35970E-03
            2707            3137     7.54906E-03     7.84360E-03
            2689            3137     7.54906E-03     7.84360E-03
            2708            3137     7.54906E-03     7.84360E-03
            2690            3137     7.54906E-03     7.84360E-03
            2709            3138     18.5508E-03     18.6391E-03
            2691            3138     18.5508E-03     18.6391E-03
            2692            3138     18.5508E-03     18.6391E-03
            2710            3138     18.5508E-03     18.6391E-03
            2692            3139     17.0708E-03     17.3030E-03
            2711            3139     17.0708E-03     17.3030E-03
            2693            3139     17.0708E-03     17.3030E-03
            2710            3139     17.0708E-03     17.3030E-03
            2711            3140     16.1240E-03     16.4248E-03
            2694            3140     16.1240E-03     16.4248E-03
            2693            3140     16.1240E-03     16.4248E-03
            2712            3140     16.1240E-03     16.4248E-03
            2695            3141     15.4323E-03     15.7811E-03
            2712            3141     15.4323E-03     15.7811E-03
            2694            3141     15.4323E-03     15.7811E-03
            2713            3141     15.4323E-03     15.7811E-03
            2714            3142     14.8693E-03     15.2041E-03
            2695            3142     14.8693E-03     15.2041E-03
            2696            3142     14.8693E-03     15.2041E-03
            2713            3142     14.8693E-03     15.2041E-03
            2715            3143     14.3387E-03     14.6381E-03
            2697            3143     14.3387E-03     14.6381E-03
            2696            3143     14.3387E-03     14.6381E-03
            2714            3143     14.3387E-03     14.6381E-03
            2698            3144     13.8042E-03     14.0775E-03
            2716            3144     13.8042E-03     14.0775E-03
            2715            3144     13.8042E-03     14.0775E-03
            2697            3144     13.8042E-03     14.0775E-03
            2698            3145     13.2862E-03     13.5300E-03
            2717            3145     13.2862E-03     13.5300E-03
            2716            3145     13.2862E-03     13.5300E-03
            2699            3145     13.2862E-03     13.5300E-03
            2700            3146     12.7664E-03     12.9927E-03
            2699            3146     12.7664E-03     12.9927E-03
            2718            3146     12.7664E-03     12.9927E-03
            2717            3146     12.7664E-03     12.9927E-03
            2700            3147     12.2573E-03     12.4700E-03
            2718            3147     12.2573E-03     12.4700E-03
            2701            3147     12.2573E-03     12.4700E-03
            2719            3147     12.2573E-03     12.4700E-03
            2719            3148     11.7385E-03     11.9509E-03
            2701            3148     11.7385E-03     11.9509E-03
            2702            3148     11.7385E-03     11.9509E-03
            2720            3148     11.7385E-03     11.9509E-03
            2702            3149     11.2119E-03     11.4329E-03
            2703            3149     11.2119E-03     11.4329E-03
            2721            3149     11.2119E-03     11.4329E-03
            2720            3149     11.2119E-03     11.4329E-03
            2704            3150     10.6359E-03     10.8898E-03
            2721            3150     10.6359E-03     10.8898E-03
            2722            3150     10.6359E-03     10.8898E-03
            2703            3150     10.6359E-03     10.8898E-03
            2705            3151     9.99792E-03     10.3047E-03
            2722            3151     9.99792E-03     10.3047E-03
            2704            3151     9.99792E-03     10.3047E-03
            2723            3151     9.99792E-03     10.3047E-03
            2706            3152     9.30928E-03     9.65092E-03
            2705            3152     9.30928E-03     9.65092E-03
            2724            3152     9.30928E-03     9.65092E-03
            2723            3152     9.30928E-03     9.65092E-03
            2724            3153     8.62794E-03     9.00462E-03
            2706            3153     8.62794E-03     9.00462E-03
            2707            3153     8.62794E-03     9.00462E-03
            2725            3153     8.62794E-03     9.00462E-03
            2708            3154     8.23730E-03     8.53277E-03
            2707            3154     8.23730E-03     8.53277E-03
            2726            3154     8.23730E-03     8.53277E-03
            2725            3154     8.23730E-03     8.53277E-03
            2710            3155     19.8235E-03     20.0312E-03
            2727            3155     19.8235E-03     20.0312E-03
            2728            3155     19.8235E-03     20.0312E-03
            2709            3155     19.8235E-03     20.0312E-03
            2729            3156     18.1159E-03     18.3767E-03
            2711            3156     18.1159E-03     18.3767E-03
            2710            3156     18.1159E-03     18.3767E-03
            2728            3156     18.1159E-03     18.3767E-03
            2712            3157     16.7675E-03     17.1571E-03
            2730            3157     16.7675E-03     17.1571E-03
            2711            3157     16.7675E-03     17.1571E-03
            2729            3157     16.7675E-03     17.1571E-03
            2731            3158     15.7507E-03     16.1917E-03
            2713            3158     15.7507E-03     16.1917E-03
            2712            3158     15.7507E-03     16.1917E-03
            2730            3158     15.7507E-03     16.1917E-03
            2731            3159     14.9330E-03     15.3908E-03
            2732            3159     14.9330E-03     15.3908E-03
            2713            3159     14.9330E-03     15.3908E-03
            2714            3159     14.9330E-03     15.3908E-03
            2732            3160     14.2437E-03     14.7049E-03
            2733            3160     14.2437E-03     14.7049E-03
            2714            3160     14.2437E-03     14.7049E-03
            2715            3160     14.2437E-03     14.7049E-03
            2715            3161     13.6554E-03     14.0927E-03
            2734            3161     13.6554E-03     14.0927E-03
            2716            3161     13.6554E-03     14.0927E-03
            2733            3161     13.6554E-03     14.0927E-03
            2716            3162     13.1063E-03     13.5264E-03
            2735            3162     13.1063E-03     13.5264E-03
            2734            3162     13.1063E-03     13.5264E-03
            2717            3162     13.1063E-03     13.5264E-03
            2717            3163     12.5975E-03     12.9992E-03
            2718            3163     12.5975E-03     12.9992E-03
            2735            3163     12.5975E-03     12.9992E-03
            2736            3163     12.5975E-03     12.9992E-03
            2737            3164     12.1051E-03     12.4971E-03
            2736            3164     12.1051E-03     12.4971E-03
            2718            3164     12.1051E-03     12.4971E-03
            2719            3164     12.1051E-03     12.4971E-03
            2738            3165     11.6343E-03     12.0217E-03
            2737            3165     11.6343E-03     12.0217E-03
            2719            3165     11.6343E-03     12.0217E-03
            2720            3165     11.6343E-03     12.0217E-03
            2720            3166     11.1634E-03     11.5579E-03
            2721            3166     11.1634E-03     11.5579E-03
            2739            3166     11.1634E-03     11.5579E-03
            2738            3166     11.1634E-03     11.5579E-03
            2721            3167     10.7062E-03     11.1147E-03
            2740            3167     10.7062E-03     11.1147E-03
            2722            3167     10.7062E-03     11.1147E-03
            2739            3167     10.7062E-03     11.1147E-03
            2740            3168     10.2249E-03     10.6503E-03
            2723            3168     10.2249E-03     10.6503E-03
            2722            3168     10.2249E-03     10.6503E-03
            2741            3168     10.2249E-03     10.6503E-03
            2723            3169     9.72024E-03     10.1683E-03
            2741            3169     9.72024E-03     10.1683E-03
            2742            3169     9.72024E-03     10.1683E-03
            2724            3169     9.72024E-03     10.1683E-03
            2724            3170     9.27187E-03     9.68665E-03
            2742            3170     9.27187E-03     9.68665E-03
            2743            3170     9.27187E-03     9.68665E-03
            2725            3170     9.27187E-03     9.68665E-03
            2744            3171     8.94988E-03     9.31589E-03
            2726            3171     8.94988E-03     9.31589E-03
            2725            3171     8.94988E-03     9.31589E-03
            2743            3171     8.94988E-03     9.31589E-03
            2728            3172     21.1345E-03     21.3643E-03
            2745            3172     21.1345E-03     21.3643E-03
            2746            3172     21.1345E-03     21.3643E-03
            2727            3172     21.1345E-03     21.3643E-03
            2746            3173     18.9863E-03     19.3776E-03
            2747            3173     18.9863E-03     19.3776E-03
            2728            3173     18.9863E-03     19.3776E-03
            2729            3173     18.9863E-03     19.3776E-03
            2748            3174     17.2758E-03     17.7245E-03
            2747            3174     17.2758E-03     17.7245E-03
            2730            3174     17.2758E-03     17.7245E-03
            2729            3174     17.2758E-03     17.7245E-03
            2730            3175     15.8946E-03     16.4289E-03
            2748            3175     15.8946E-03     16.4289E-03
            2749            3175     15.8946E-03     16.4289E-03
            2731            3175     15.8946E-03     16.4289E-03
            2731            3176     14.8418E-03     15.4392E-03
            2750            3176     14.8418E-03     15.4392E-03
            2749            3176     14.8418E-03     15.4392E-03
            2732            3176     14.8418E-03     15.4392E-03
            2751            3177     14.0629E-03     14.6612E-03
            2750            3177     14.0629E-03     14.6612E-03
            2732            3177     14.0629E-03     14.6612E-03
            2733            3177     14.0629E-03     14.6612E-03
            2751            3178     13.4131E-03     14.0071E-03
            2733            3178     13.4131E-03     14.0071E-03
            2752            3178     13.4131E-03     14.0071E-03
            2734            3178     13.4131E-03     14.0071E-03
            2752            3179     12.8584E-03     13.4385E-03
            2753            3179     12.8584E-03     13.4385E-03
            2735            3179     12.8584E-03     13.4385E-03
            2734            3179     12.8584E-03     13.4385E-03
            2753            3180     12.3534E-03     12.9224E-03
            2754            3180     12.3534E-03     12.9224E-03
            2736            3180     12.3534E-03     12.9224E-03
            2735            3180     12.3534E-03     12.9224E-03
            2754            3181     11.8887E-03     12.4493E-03
            2736            3181     11.8887E-03     12.4493E-03
            2755            3181     11.8887E-03     12.4493E-03
            2737            3181     11.8887E-03     12.4493E-03
            2755            3182     11.4530E-03     12.0095E-03
            2738            3182     11.4530E-03     12.0095E-03
            2737            3182     11.4530E-03     12.0095E-03
            2756            3182     11.4530E-03     12.0095E-03
            2756            3183     11.0565E-03     11.6125E-03
            2757            3183     11.0565E-03     11.6125E-03
            2739            3183     11.0565E-03     11.6125E-03
            2738            3183     11.0565E-03     11.6125E-03
            2739            3184     10.6929E-03     11.2487E-03
            2758            3184     10.6929E-03     11.2487E-03
            2757            3184     10.6929E-03     11.2487E-03
            2740            3184     10.6929E-03     11.2487E-03
            2741            3185     10.4139E-03     10.9615E-03
            2758            3185     10.4139E-03     10.9615E-03
            2740            3185     10.4139E-03     10.9615E-03
            2759            3185     10.4139E-03     10.9615E-03
            2742            3186     10.1620E-03     10.6880E-03
            2759            3186     10.1620E-03     10.6880E-03
            2760            3186     10.1620E-03     10.6880E-03
            2741            3186     10.1620E-03     10.6880E-03
            2742            3187     9.91639E-03     10.4183E-03
            2760            3187     9.91639E-03     10.4183E-03
            2743            3187     9.91639E-03     10.4183E-03
            2761            3187     9.91639E-03     10.4183E-03
            2761            3188     9.79580E-03     10.2049E-03
            2744            3188     9.79580E-03     10.2049E-03
            2762            3188     9.79580E-03     10.2049E-03
            2743            3188     9.79580E-03     10.2049E-03
            2746            3189     22.3144E-03     22.7570E-03
            2745            3189     22.3144E-03     22.7570E-03
            2764            3189     22.3144E-03     22.7570E-03
            2763            3189     22.3144E-03     22.7570E-03
            2764            3190     19.7577E-03     20.1378E-03
            2747            3190     19.7577E-03     20.1378E-03
            2746            3190     19.7577E-03     20.1378E-03
            2765            3190     19.7577E-03     20.1378E-03
            2748            3191     17.4660E-03     18.0169E-03
            2747            3191     17.4660E-03     18.0169E-03
            2765            3191     17.4660E-03     18.0169E-03
            2766            3191     17.4660E-03     18.0169E-03
            2749            3192     15.7680E-03     16.4665E-03
            2748            3192     15.7680E-03     16.4665E-03
            2766            3192     15.7680E-03     16.4665E-03
            2767            3192     15.7680E-03     16.4665E-03
            2750            3193     14.6514E-03     15.3757E-03
            2767            3193     14.6514E-03     15.3757E-03
            2749            3193     14.6514E-03     15.3757E-03
            2768            3193     14.6514E-03     15.3757E-03
            2751            3194     13.8035E-03     14.5417E-03
            2750            3194     13.8035E-03     14.5417E-03
            2768            3194     13.8035E-03     14.5417E-03
            2769            3194     13.8035E-03     14.5417E-03
            2769            3195     13.1405E-03     13.8779E-03
            2770            3195     13.1405E-03     13.8779E-03
            2751            3195     13.1405E-03     13.8779E-03
            2752            3195     13.1405E-03     13.8779E-03
            2770            3196     12.5815E-03     13.3142E-03
            2753            3196     12.5815E-03     13.3142E-03
            2771            3196     12.5815E-03     13.3142E-03
            2752            3196     12.5815E-03     13.3142E-03
            2754            3197     12.0876E-03     12.8166E-03
            2771            3197     12.0876E-03     12.8166E-03
            2772            3197     12.0876E-03     12.8166E-03
            2753            3197     12.0876E-03     12.8166E-03
            2772            3198     11.6423E-03     12.3669E-03
            2755            3198     11.6423E-03     12.3669E-03
            2754            3198     11.6423E-03     12.3669E-03
            2773            3198     11.6423E-03     12.3669E-03
            2755            3199     11.2384E-03     11.9609E-03
            2773            3199     11.2384E-03     11.9609E-03
            2756            3199     11.2384E-03     11.9609E-03
            2774            3199     11.2384E-03     11.9609E-03
            2756            3200     10.8898E-03     11.6067E-03
            2774            3200     10.8898E-03     11.6067E-03
            2757            3200     10.8898E-03     11.6067E-03
            2775            3200     10.8898E-03     11.6067E-03
            2775            3201     10.6200E-03     11.3301E-03
            2776            3201     10.6200E-03     11.3301E-03
            2758            3201     10.6200E-03     11.3301E-03
            2757            3201     10.6200E-03     11.3301E-03
            2759            3202     10.4595E-03     11.1486E-03
            2777            3202     10.4595E-03     11.1486E-03
            2776            3202     10.4595E-03     11.1486E-03
            2758            3202     10.4595E-03     11.1486E-03
            2760            3203     10.5484E-03     11.1778E-03
            2777            3203     10.5484E-03     11.1778E-03
            2778            3203     10.5484E-03     11.1778E-03
            2759            3203     10.5484E-03     11.1778E-03
            2779            3204     10.7012E-03     11.2496E-03
            2760            3204     10.7012E-03     11.2496E-03
            2778            3204     10.7012E-03     11.2496E-03
            2761            3204     10.7012E-03     11.2496E-03
            2779            3205     10.7245E-03     11.2297E-03
            2762            3205     10.7245E-03     11.2297E-03
            2761            3205     10.7245E-03     11.2297E-03
            2780            3205     10.7245E-03     11.2297E-03
            2763            3206     23.5887E-03     23.7338E-03
            2764            3206     23.5887E-03     23.7338E-03
            2782            3206     23.5887E-03     23.7338E-03
            2781            3206     23.5887E-03     23.7338E-03
            2765            3207     19.9377E-03     20.5063E-03
            2764            3207     19.9377E-03     20.5063E-03
            2783            3207     19.9377E-03     20.5063E-03
            2782            3207     19.9377E-03     20.5063E-03
            2783            3208     17.1490E-03     17.9737E-03
            2784            3208     17.1490E-03     17.9737E-03
            2765            3208     17.1490E-03     17.9737E-03
            2766            3208     17.1490E-03     17.9737E-03
            2766            3209     15.5283E-03     16.3732E-03
            2785            3209     15.5283E-03     16.3732E-03
            2767            3209     15.5283E-03     16.3732E-03
            2784            3209     15.5283E-03     16.3732E-03
            2786            3210     14.3875E-03     15.2447E-03
            2785            3210     14.3875E-03     15.2447E-03
            2768            3210     14.3875E-03     15.2447E-03
            2767            3210     14.3875E-03     15.2447E-03
            2768            3211     13.5437E-03     14.4112E-03
            2786            3211     13.5437E-03     14.4112E-03
            2769            3211     13.5437E-03     14.4112E-03
            2787            3211     13.5437E-03     14.4112E-03
            2770            3212     12.8823E-03     13.7553E-03
            2769            3212     12.8823E-03     13.7553E-03
            2788            3212     12.8823E-03     13.7553E-03
            2787            3212     12.8823E-03     13.7553E-03
            2771            3213     12.3237E-03     13.2054E-03
            2789            3213     12.3237E-03     13.2054E-03
            2788            3213     12.3237E-03     13.2054E-03
            2770            3213     12.3237E-03     13.2054E-03
            2789            3214     11.8401E-03     12.7258E-03
            2771            3214     11.8401E-03     12.7258E-03
            2790            3214     11.8401E-03     12.7258E-03
            2772            3214     11.8401E-03     12.7258E-03
            2791            3215     11.4026E-03     12.2927E-03
            2773            3215     11.4026E-03     12.2927E-03
            2772            3215     11.4026E-03     12.2927E-03
            2790            3215     11.4026E-03     12.2927E-03
            2774            3216     11.0211E-03     11.9101E-03
            2773            3216     11.0211E-03     11.9101E-03
            2792            3216     11.0211E-03     11.9101E-03
            2791            3216     11.0211E-03     11.9101E-03
            2774            3217     10.6944E-03     11.5816E-03
            2792            3217     10.6944E-03     11.5816E-03
            2775            3217     10.6944E-03     11.5816E-03
            2793            3217     10.6944E-03     11.5816E-03
            2776            3218     10.4761E-03     11.3506E-03
            2793            3218     10.4761E-03     11.3506E-03
            2794            3218     10.4761E-03     11.3506E-03
            2775            3218     10.4761E-03     11.3506E-03
            2776            3219     10.3993E-03     11.2562E-03
            2777            3219     10.3993E-03     11.2562E-03
            2794            3219     10.3993E-03     11.2562E-03
            2795            3219     10.3993E-03     11.2562E-03
            2778            3220     10.6019E-03     11.4108E-03
            2795            3220     10.6019E-03     11.4108E-03
            2777            3220     10.6019E-03     11.4108E-03
            2796            3220     10.6019E-03     11.4108E-03
            2778            3221     11.4073E-03     12.0781E-03
            2796            3221     11.4073E-03     12.0781E-03
            2797            3221     11.4073E-03     12.0781E-03
            2779            3221     11.4073E-03     12.0781E-03
            2798            3222     12.1544E-03     12.6314E-03
            2779            3222     12.1544E-03     12.6314E-03
            2797            3222     12.1544E-03     12.6314E-03
            2780            3222     12.1544E-03     12.6314E-03
            2799            3223     23.7525E-03     24.7514E-03
            2781            3223     23.7525E-03     24.7514E-03
            2782            3223     23.7525E-03     24.7514E-03
            2800            3223     23.7525E-03     24.7514E-03
            2783            3224     19.1787E-03     20.3276E-03
            2782            3224     19.1787E-03     20.3276E-03
            2800            3224     19.1787E-03     20.3276E-03
            2801            3224     19.1787E-03     20.3276E-03
            2784            3225     16.7884E-03     17.7962E-03
            2802            3225     16.7884E-03     17.7962E-03
            2801            3225     16.7884E-03     17.7962E-03
            2783            3225     16.7884E-03     17.7962E-03
            2785            3226     15.2807E-03     16.2434E-03
            2802            3226     15.2807E-03     16.2434E-03
            2803            3226     15.2807E-03     16.2434E-03
            2784            3226     15.2807E-03     16.2434E-03
            2786            3227     14.1714E-03     15.1375E-03
            2804            3227     14.1714E-03     15.1375E-03
            2803            3227     14.1714E-03     15.1375E-03
            2785            3227     14.1714E-03     15.1375E-03
            2787            3228     13.3489E-03     14.3303E-03
            2786            3228     13.3489E-03     14.3303E-03
            2805            3228     13.3489E-03     14.3303E-03
            2804            3228     13.3489E-03     14.3303E-03
            2806            3229     12.6759E-03     13.6851E-03
            2788            3229     12.6759E-03     13.6851E-03
            2787            3229     12.6759E-03     13.6851E-03
            2805            3229     12.6759E-03     13.6851E-03
            2806            3230     12.1203E-03     13.1505E-03
            2788            3230     12.1203E-03     13.1505E-03
            2789            3230     12.1203E-03     13.1505E-03
            2807            3230     12.1203E-03     13.1505E-03
            2789            3231     11.6293E-03     12.6786E-03
            2807            3231     11.6293E-03     12.6786E-03
            2808            3231     11.6293E-03     12.6786E-03
            2790            3231     11.6293E-03     12.6786E-03
            2808            3232     11.2012E-03     12.2608E-03
            2791            3232     11.2012E-03     12.2608E-03
            2790            3232     11.2012E-03     12.2608E-03
            2809            3232     11.2012E-03     12.2608E-03
            2810            3233     10.8185E-03     11.8836E-03
            2792            3233     10.8185E-03     11.8836E-03
            2809            3233     10.8185E-03     11.8836E-03
            2791            3233     10.8185E-03     11.8836E-03
            2811            3234     10.5132E-03     11.5756E-03
            2793            3234     10.5132E-03     11.5756E-03
            2792            3234     10.5132E-03     11.5756E-03
            2810            3234     10.5132E-03     11.5756E-03
            2812            3235     10.2871E-03     11.3440E-03
            2811            3235     10.2871E-03     11.3440E-03
            2793            3235     10.2871E-03     11.3440E-03
            2794            3235     10.2871E-03     11.3440E-03
            2794            3236     10.2529E-03     11.2961E-03
            2812            3236     10.2529E-03     11.2961E-03
            2813            3236     10.2529E-03     11.2961E-03
            2795            3236     10.2529E-03     11.2961E-03
            2814            3237     10.4303E-03     11.4635E-03
            2813            3237     10.4303E-03     11.4635E-03
            2796            3237     10.4303E-03     11.4635E-03
            2795            3237     10.4303E-03     11.4635E-03
            2796            3238     11.3259E-03     12.3235E-03
            2814            3238     11.3259E-03     12.3235E-03
            2797            3238     11.3259E-03     12.3235E-03
            2815            3238     11.3259E-03     12.3235E-03
            2798            3239     13.4106E-03     14.2890E-03
            2797            3239     13.4106E-03     14.2890E-03
            2815            3239     13.4106E-03     14.2890E-03
            2816            3239     13.4106E-03     14.2890E-03
            2817            3240     24.3237E-03     24.7995E-03
            2818            3240     24.3237E-03     24.7995E-03
            2800            3240     24.3237E-03     24.7995E-03
            2799            3240     24.3237E-03     24.7995E-03
            2800            3241     22.6101E-03     22.6088E-03
            2818            3241     22.6101E-03     22.6088E-03
            2801            3241     22.6101E-03     22.6088E-03
            2819            3241     22.6101E-03     22.6088E-03
            2801            3242     21.6771E-03     21.6055E-03
            2820            3242     21.6771E-03     21.6055E-03
            2802            3242     21.6771E-03     21.6055E-03
            2819            3242     21.6771E-03     21.6055E-03
            2803            3243     20.7863E-03     20.7934E-03
            2802            3243     20.7863E-03     20.7934E-03
            2820            3243     20.7863E-03     20.7934E-03
            2821            3243     20.7863E-03     20.7934E-03
            2804            3244     20.0367E-03     20.1019E-03
            2822            3244     20.0367E-03     20.1019E-03
            2821            3244     20.0367E-03     20.1019E-03
            2803            3244     20.0367E-03     20.1019E-03
            2822            3245     19.2995E-03     19.4555E-03
            2804            3245     19.2995E-03     19.4555E-03
            2805            3245     19.2995E-03     19.4555E-03
            2823            3245     19.2995E-03     19.4555E-03
            2824            3246     18.6044E-03     18.8173E-03
            2823            3246     18.6044E-03     18.8173E-03
            2805            3246     18.6044E-03     18.8173E-03
            2806            3246     18.6044E-03     18.8173E-03
            2825            3247     17.9096E-03     18.1805E-03
            2806            3247     17.9096E-03     18.1805E-03
            2807            3247     17.9096E-03     18.1805E-03
            2824            3247     17.9096E-03     18.1805E-03
            2807            3248     17.2256E-03     17.5301E-03
            2826            3248     17.2256E-03     17.5301E-03
            2808            3248     17.2256E-03     17.5301E-03
            2825            3248     17.2256E-03     17.5301E-03
            2826            3249     16.5422E-03     16.8733E-03
            2808            3249     16.5422E-03     16.8733E-03
            2827            3249     16.5422E-03     16.8733E-03
            2809            3249     16.5422E-03     16.8733E-03
            2810            3250     15.8659E-03     16.2064E-03
            2809            3250     15.8659E-03     16.2064E-03
            2828            3250     15.8659E-03     16.2064E-03
            2827            3250     15.8659E-03     16.2064E-03
            2811            3251     15.2085E-03     15.5471E-03
            2828            3251     15.2085E-03     15.5471E-03
            2810            3251     15.2085E-03     15.5471E-03
            2829            3251     15.2085E-03     15.5471E-03
            2812            3252     14.5859E-03     14.9043E-03
            2811            3252     14.5859E-03     14.9043E-03
            2830            3252     14.5859E-03     14.9043E-03
            2829            3252     14.5859E-03     14.9043E-03
            2813            3253     14.0449E-03     14.3252E-03
            2830            3253     14.0449E-03     14.3252E-03
            2831            3253     14.0449E-03     14.3252E-03
            2812            3253     14.0449E-03     14.3252E-03
            2813            3254     13.6607E-03     13.8737E-03
            2814            3254     13.6607E-03     13.8737E-03
            2831            3254     13.6607E-03     13.8737E-03
            2832            3254     13.6607E-03     13.8737E-03
            2815            3255     13.5822E-03     13.7325E-03
            2833            3255     13.5822E-03     13.7325E-03
            2832            3255     13.5822E-03     13.7325E-03
            2814            3255     13.5822E-03     13.7325E-03
            2834            3256     14.5951E-03     14.8174E-03
            2816            3256     14.5951E-03     14.8174E-03
            2833            3256     14.5951E-03     14.8174E-03
            2815            3256     14.5951E-03     14.8174E-03
            2817            3257     26.3038E-03     25.5049E-03
            2818            3257     26.3038E-03     25.5049E-03
            2836            3257     26.3038E-03     25.5049E-03
            2835            3257     26.3038E-03     25.5049E-03
            2837            3258     26.9466E-03     26.1961E-03
            2818            3258     26.9466E-03     26.1961E-03
            2819            3258     26.9466E-03     26.1961E-03
            2836            3258     26.9466E-03     26.1961E-03
            2838            3259     27.2081E-03     26.4546E-03
            2819            3259     27.2081E-03     26.4546E-03
            2820            3259     27.2081E-03     26.4546E-03
            2837            3259     27.2081E-03     26.4546E-03
            2820            3260     26.9812E-03     26.2921E-03
            2838            3260     26.9812E-03     26.2921E-03
            2839            3260     26.9812E-03     26.2921E-03
            2821            3260     26.9812E-03     26.2921E-03
            2839            3261     26.5056E-03     25.8832E-03
            2840            3261     26.5056E-03     25.8832E-03
            2821            3261     26.5056E-03     25.8832E-03
            2822            3261     26.5056E-03     25.8832E-03
            2822            3262     25.8436E-03     25.2932E-03
            2841            3262     25.8436E-03     25.2932E-03
            2823            3262     25.8436E-03     25.2932E-03
            2840            3262     25.8436E-03     25.2932E-03
            2823            3263     25.0665E-03     24.5744E-03
            2842            3263     25.0665E-03     24.5744E-03
            2841            3263     25.0665E-03     24.5744E-03
            2824            3263     25.0665E-03     24.5744E-03
            2843            3264     24.2053E-03     23.7596E-03
            2824            3264     24.2053E-03     23.7596E-03
            2842            3264     24.2053E-03     23.7596E-03
            2825            3264     24.2053E-03     23.7596E-03
            2843            3265     23.2839E-03     22.8735E-03
            2844            3265     23.2839E-03     22.8735E-03
            2826            3265     23.2839E-03     22.8735E-03
            2825            3265     23.2839E-03     22.8735E-03
            2827            3266     22.3205E-03     21.9303E-03
            2844            3266     22.3205E-03     21.9303E-03
            2845            3266     22.3205E-03     21.9303E-03
            2826            3266     22.3205E-03     21.9303E-03
            2827            3267     21.3183E-03     20.9380E-03
            2846            3267     21.3183E-03     20.9380E-03
            2845            3267     21.3183E-03     20.9380E-03
            2828            3267     21.3183E-03     20.9380E-03
            2846            3268     20.2900E-03     19.9024E-03
            2828            3268     20.2900E-03     19.9024E-03
            2847            3268     20.2900E-03     19.9024E-03
            2829            3268     20.2900E-03     19.9024E-03
            2847            3269     19.2299E-03     18.8203E-03
            2829            3269     19.2299E-03     18.8203E-03
            2848            3269     19.2299E-03     18.8203E-03
            2830            3269     19.2299E-03     18.8203E-03
            2849            3270     18.1633E-03     17.7137E-03
            2831            3270     18.1633E-03     17.7137E-03
            2848            3270     18.1633E-03     17.7137E-03
            2830            3270     18.1633E-03     17.7137E-03
            2849            3271     17.0644E-03     16.5741E-03
            2831            3271     17.0644E-03     16.5741E-03
            2832            3271     17.0644E-03     16.5741E-03
            2850            3271     17.0644E-03     16.5741E-03
            2850            3272     16.0190E-03     15.6015E-03
            2832            3272     16.0190E-03     15.6015E-03
            2851            3272     16.0190E-03     15.6015E-03
            2833            3272     16.0190E-03     15.6015E-03
            2852            3273     14.6657E-03     14.9325E-03
            2833            3273     14.6657E-03     14.9325E-03
            2851            3273     14.6657E-03     14.9325E-03
            2834            3273     14.6657E-03     14.9325E-03
            2836            3274     28.1908E-03     28.2230E-03
            2854            3274     28.1908E-03     28.2230E-03
            2835            3274     28.1908E-03     28.2230E-03
            2853            3274     28.1908E-03     28.2230E-03
            2837            3275     28.0112E-03     28.1408E-03
            2855            3275     28.0112E-03     28.1408E-03
            2854            3275     28.0112E-03     28.1408E-03
            2836            3275     28.0112E-03     28.1408E-03
            2856            3276     28.2249E-03     28.2212E-03
            2838            3276     28.2249E-03     28.2212E-03
            2855            3276     28.2249E-03     28.2212E-03
            2837            3276     28.2249E-03     28.2212E-03
            2856            3277     28.0068E-03     27.8989E-03
            2839            3277     28.0068E-03     27.8989E-03
            2857            3277     28.0068E-03     27.8989E-03
            2838            3277     28.0068E-03     27.8989E-03
            2840            3278     27.4771E-03     27.3175E-03
            2839            3278     27.4771E-03     27.3175E-03
            2858            3278     27.4771E-03     27.3175E-03
            2857            3278     27.4771E-03     27.3175E-03
            2859            3279     26.7452E-03     26.5642E-03
            2840            3279     26.7452E-03     26.5642E-03
            2841            3279     26.7452E-03     26.5642E-03
            2858            3279     26.7452E-03     26.5642E-03
            2860            3280     25.8847E-03     25.6973E-03
            2842            3280     25.8847E-03     25.6973E-03
            2841            3280     25.8847E-03     25.6973E-03
            2859            3280     25.8847E-03     25.6973E-03
            2861            3281     24.9441E-03     24.7604E-03
            2843            3281     24.9441E-03     24.7604E-03
            2860            3281     24.9441E-03     24.7604E-03
            2842            3281     24.9441E-03     24.7604E-03
            2861            3282     23.9588E-03     23.7766E-03
            2843            3282     23.9588E-03     23.7766E-03
            2862            3282     23.9588E-03     23.7766E-03
            2844            3282     23.9588E-03     23.7766E-03
            2863            3283     22.9385E-03     22.7597E-03
            2845            3283     22.9385E-03     22.7597E-03
            2862            3283     22.9385E-03     22.7597E-03
            2844            3283     22.9385E-03     22.7597E-03
            2845            3284     21.8952E-03     21.7149E-03
            2864            3284     21.8952E-03     21.7149E-03
            2846            3284     21.8952E-03     21.7149E-03
            2863            3284     21.8952E-03     21.7149E-03
            2847            3285     20.8206E-03     20.6393E-03
            2865            3285     20.8206E-03     20.6393E-03
            2864            3285     20.8206E-03     20.6393E-03
            2846            3285     20.8206E-03     20.6393E-03
            2866            3286     19.7055E-03     19.5304E-03
            2865            3286     19.7055E-03     19.5304E-03
            2847            3286     19.7055E-03     19.5304E-03
            2848            3286     19.7055E-03     19.5304E-03
            2849            3287     18.5287E-03     18.3875E-03
            2848            3287     18.5287E-03     18.3875E-03
            2867            3287     18.5287E-03     18.3875E-03
            2866            3287     18.5287E-03     18.3875E-03
            2850            3288     17.2444E-03     17.2261E-03
            2849            3288     17.2444E-03     17.2261E-03
            2868            3288     17.2444E-03     17.2261E-03
            2867            3288     17.2444E-03     17.2261E-03
            2869            3289     15.7544E-03     16.1958E-03
            2850            3289     15.7544E-03     16.1958E-03
            2851            3289     15.7544E-03     16.1958E-03
            2868            3289     15.7544E-03     16.1958E-03
            2870            3290     13.9782E-03     14.9744E-03
            2852            3290     13.9782E-03     14.9744E-03
            2851            3290     13.9782E-03     14.9744E-03
            2869            3290     13.9782E-03     14.9744E-03
            2871            3291     30.2355E-03     30.4472E-03
            2853            3291     30.2355E-03     30.4472E-03
            2854            3291     30.2355E-03     30.4472E-03
            2872            3291     30.2355E-03     30.4472E-03
            2873            3292     29.4859E-03     29.9582E-03
            2854            3292     29.4859E-03     29.9582E-03
            2872            3292     29.4859E-03     29.9582E-03
            2855            3292     29.4859E-03     29.9582E-03
            2873            3293     29.2275E-03     29.6653E-03
            2856            3293     29.2275E-03     29.6653E-03
            2855            3293     29.2275E-03     29.6653E-03
            2874            3293     29.2275E-03     29.6653E-03
            2856            3294     28.8563E-03     29.1912E-03
            2857            3294     28.8563E-03     29.1912E-03
            2874            3294     28.8563E-03     29.1912E-03
            2875            3294     28.8563E-03     29.1912E-03
            2875            3295     28.2271E-03     28.4589E-03
            2876            3295     28.2271E-03     28.4589E-03
            2858            3295     28.2271E-03     28.4589E-03
            2857            3295     28.2271E-03     28.4589E-03
            2859            3296     27.4119E-03     27.5721E-03
            2876            3296     27.4119E-03     27.5721E-03
            2858            3296     27.4119E-03     27.5721E-03
            2877            3296     27.4119E-03     27.5721E-03
            2878            3297     26.4771E-03     26.5922E-03
            2860            3297     26.4771E-03     26.5922E-03
            2859            3297     26.4771E-03     26.5922E-03
            2877            3297     26.4771E-03     26.5922E-03
            2861            3298     25.4813E-03     25.5624E-03
            2860            3298     25.4813E-03     25.5624E-03
            2879            3298     25.4813E-03     25.5624E-03
            2878            3298     25.4813E-03     25.5624E-03
            2879            3299     24.4453E-03     24.5090E-03
            2862            3299     24.4453E-03     24.5090E-03
            2880            3299     24.4453E-03     24.5090E-03
            2861            3299     24.4453E-03     24.5090E-03
            2880            3300     23.3945E-03     23.4441E-03
            2862            3300     23.3945E-03     23.4441E-03
            2881            3300     23.3945E-03     23.4441E-03
            2863            3300     23.3945E-03     23.4441E-03
            2863            3301     22.3211E-03     22.3687E-03
            2864            3301     22.3211E-03     22.3687E-03
            2881            3301     22.3211E-03     22.3687E-03
            2882            3301     22.3211E-03     22.3687E-03
            2882            3302     21.2208E-03     21.2767E-03
            2865            3302     21.2208E-03     21.2767E-03
            2864            3302     21.2208E-03     21.2767E-03
            2883            3302     21.2208E-03     21.2767E-03
            2883            3303     20.0680E-03     20.1635E-03
            2865            3303     20.0680E-03     20.1635E-03
            2866            3303     20.0680E-03     20.1635E-03
            2884            3303     20.0680E-03     20.1635E-03
            2866            3304     18.8151E-03     18.9972E-03
            2884            3304     18.8151E-03     18.9972E-03
            2867            3304     18.8151E-03     18.9972E-03
            2885            3304     18.8151E-03     18.9972E-03
            2867            3305     17.4119E-03     17.8267E-03
            2885            3305     17.4119E-03     17.8267E-03
            2868            3305     17.4119E-03     17.8267E-03
            2886            3305     17.4119E-03     17.8267E-03
            2886            3306     15.7824E-03     16.5013E-03
            2887            3306     15.7824E-03     16.5013E-03
            2869            3306     15.7824E-03     16.5013E-03
            2868            3306     15.7824E-03     16.5013E-03
            2870            3307     14.2142E-03     14.8776E-03
            2887            3307     14.2142E-03     14.8776E-03
            2888            3307     14.2142E-03     14.8776E-03
            2869            3307     14.2142E-03     14.8776E-03
            2872            3308     32.0671E-03     32.3767E-03
            2889            3308     32.0671E-03     32.3767E-03
            2890            3308     32.0671E-03     32.3767E-03
            2871            3308     32.0671E-03     32.3767E-03
            2890            3309     31.0256E-03     31.5693E-03
            2873            3309     31.0256E-03     31.5693E-03
            2872            3309     31.0256E-03     31.5693E-03
            2891            3309     31.0256E-03     31.5693E-03
            2892            3310     30.2635E-03     30.9222E-03
            2891            3310     30.2635E-03     30.9222E-03
            2874            3310     30.2635E-03     30.9222E-03
            2873            3310     30.2635E-03     30.9222E-03
            2875            3311     29.5759E-03     30.1813E-03
            2874            3311     29.5759E-03     30.1813E-03
            2893            3311     29.5759E-03     30.1813E-03
            2892            3311     29.5759E-03     30.1813E-03
            2876            3312     28.7613E-03     29.2882E-03
            2894            3312     28.7613E-03     29.2882E-03
            2893            3312     28.7613E-03     29.2882E-03
            2875            3312     28.7613E-03     29.2882E-03
            2877            3313     27.8233E-03     28.2725E-03
            2876            3313     27.8233E-03     28.2725E-03
            2895            3313     27.8233E-03     28.2725E-03
            2894            3313     27.8233E-03     28.2725E-03
            2878            3314     26.8160E-03     27.1972E-03
            2896            3314     26.8160E-03     27.1972E-03
            2877            3314     26.8160E-03     27.1972E-03
            2895            3314     26.8160E-03     27.1972E-03
            2879            3315     25.7636E-03     26.1007E-03
            2897            3315     25.7636E-03     26.1007E-03
            2878            3315     25.7636E-03     26.1007E-03
            2896            3315     25.7636E-03     26.1007E-03
            2879            3316     24.7044E-03     25.0050E-03
            2897            3316     24.7044E-03     25.0050E-03
            2898            3316     24.7044E-03     25.0050E-03
            2880            3316     24.7044E-03     25.0050E-03
            2898            3317     23.6328E-03     23.9160E-03
            2881            3317     23.6328E-03     23.9160E-03
            2880            3317     23.6328E-03     23.9160E-03
            2899            3317     23.6328E-03     23.9160E-03
            2900            3318     22.5595E-03     22.8361E-03
            2881            3318     22.5595E-03     22.8361E-03
            2899            3318     22.5595E-03     22.8361E-03
            2882            3318     22.5595E-03     22.8361E-03
            2901            3319     21.4593E-03     21.7567E-03
            2882            3319     21.4593E-03     21.7567E-03
            2883            3319     21.4593E-03     21.7567E-03
            2900            3319     21.4593E-03     21.7567E-03
            2883            3320     20.3080E-03     20.6530E-03
            2901            3320     20.3080E-03     20.6530E-03
            2902            3320     20.3080E-03     20.6530E-03
            2884            3320     20.3080E-03     20.6530E-03
            2884            3321     19.0587E-03     19.5197E-03
            2885            3321     19.0587E-03     19.5197E-03
            2902            3321     19.0587E-03     19.5197E-03
            2903            3321     19.0587E-03     19.5197E-03
            2903            3322     17.6486E-03     18.2753E-03
            2886            3322     17.6486E-03     18.2753E-03
            2885            3322     17.6486E-03     18.2753E-03
            2904            3322     17.6486E-03     18.2753E-03
            2905            3323     16.1347E-03     16.8307E-03
            2887            3323     16.1347E-03     16.8307E-03
            2886            3323     16.1347E-03     16.8307E-03
            2904            3323     16.1347E-03     16.8307E-03
            2887            3324     14.6326E-03     15.4283E-03
            2888            3324     14.6326E-03     15.4283E-03
            2906            3324     14.6326E-03     15.4283E-03
            2905            3324     14.6326E-03     15.4283E-03
            2908            3325     33.7923E-03     34.1853E-03
            2889            3325     33.7923E-03     34.1853E-03
            2907            3325     33.7923E-03     34.1853E-03
            2890            3325     33.7923E-03     34.1853E-03
            2909            3326     32.3875E-03     33.0207E-03
            2908            3326     32.3875E-03     33.0207E-03
            2891            3326     32.3875E-03     33.0207E-03
            2890            3326     32.3875E-03     33.0207E-03
            2910            3327     31.2452E-03     31.9786E-03
            2891            3327     31.2452E-03     31.9786E-03
            2892            3327     31.2452E-03     31.9786E-03
            2909            3327     31.2452E-03     31.9786E-03
            2910            3328     30.1522E-03     30.9286E-03
            2892            3328     30.1522E-03     30.9286E-03
            2911            3328     30.1522E-03     30.9286E-03
            2893            3328     30.1522E-03     30.9286E-03
            2894            3329     29.0797E-03     29.8143E-03
            2912            3329     29.0797E-03     29.8143E-03
            2911            3329     29.0797E-03     29.8143E-03
            2893            3329     29.0797E-03     29.8143E-03
            2913            3330     27.9909E-03     28.6597E-03
            2895            3330     27.9909E-03     28.6597E-03
            2912            3330     27.9909E-03     28.6597E-03
            2894            3330     27.9909E-03     28.6597E-03
            2913            3331     26.8859E-03     27.5005E-03
            2896            3331     26.8859E-03     27.5005E-03
            2895            3331     26.8859E-03     27.5005E-03
            2914            3331     26.8859E-03     27.5005E-03
            2896            3332     25.7999E-03     26.3600E-03
            2914            3332     25.7999E-03     26.3600E-03
            2897            3332     25.7999E-03     26.3600E-03
            2915            3332     25.7999E-03     26.3600E-03
            2916            3333     24.7174E-03     25.2425E-03
            2898            3333     24.7174E-03     25.2425E-03
            2915            3333     24.7174E-03     25.2425E-03
            2897            3333     24.7174E-03     25.2425E-03
            2917            3334     23.6554E-03     24.1558E-03
            2898            3334     23.6554E-03     24.1558E-03
            2899            3334     23.6554E-03     24.1558E-03
            2916            3334     23.6554E-03     24.1558E-03
            2918            3335     22.5941E-03     23.0915E-03
            2899            3335     22.5941E-03     23.0915E-03
            2900            3335     22.5941E-03     23.0915E-03
            2917            3335     22.5941E-03     23.0915E-03
            2901            3336     21.5361E-03     22.0480E-03
            2900            3336     21.5361E-03     22.0480E-03
            2919            3336     21.5361E-03     22.0480E-03
            2918            3336     21.5361E-03     22.0480E-03
            2902            3337     20.4382E-03     21.0021E-03
            2920            3337     20.4382E-03     21.0021E-03
            2919            3337     20.4382E-03     21.0021E-03
            2901            3337     20.4382E-03     21.0021E-03
            2921            3338     19.2658E-03     19.9126E-03
            2903            3338     19.2658E-03     19.9126E-03
            2902            3338     19.2658E-03     19.9126E-03
            2920            3338     19.2658E-03     19.9126E-03
            2921            3339     17.9904E-03     18.7085E-03
            2904            3339     17.9904E-03     18.7085E-03
            2903            3339     17.9904E-03     18.7085E-03
            2922            3339     17.9904E-03     18.7085E-03
            2922            3340     16.5880E-03     17.3981E-03
            2904            3340     16.5880E-03     17.3981E-03
            2923            3340     16.5880E-03     17.3981E-03
            2905            3340     16.5880E-03     17.3981E-03
            2905            3341     15.2626E-03     16.0405E-03
            2924            3341     15.2626E-03     16.0405E-03
            2923            3341     15.2626E-03     16.0405E-03
            2906            3341     15.2626E-03     16.0405E-03
            2925            3342     35.3878E-03     35.9148E-03
            2907            3342     35.3878E-03     35.9148E-03
            2926            3342     35.3878E-03     35.9148E-03
            2908            3342     35.3878E-03     35.9148E-03
            2908            3343     33.6497E-03     34.3063E-03
            2927            3343     33.6497E-03     34.3063E-03
            2909            3343     33.6497E-03     34.3063E-03
            2926            3343     33.6497E-03     34.3063E-03
            2928            3344     32.0117E-03     32.8417E-03
            2909            3344     32.0117E-03     32.8417E-03
            2910            3344     32.0117E-03     32.8417E-03
            2927            3344     32.0117E-03     32.8417E-03
            2910            3345     30.5360E-03     31.4160E-03
            2929            3345     30.5360E-03     31.4160E-03
            2911            3345     30.5360E-03     31.4160E-03
            2928            3345     30.5360E-03     31.4160E-03
            2911            3346     29.1700E-03     30.0430E-03
            2930            3346     29.1700E-03     30.0430E-03
            2929            3346     29.1700E-03     30.0430E-03
            2912            3346     29.1700E-03     30.0430E-03
            2931            3347     27.8970E-03     28.7481E-03
            2930            3347     27.8970E-03     28.7481E-03
            2912            3347     27.8970E-03     28.7481E-03
            2913            3347     27.8970E-03     28.7481E-03
            2932            3348     26.7258E-03     27.5254E-03
            2913            3348     26.7258E-03     27.5254E-03
            2914            3348     26.7258E-03     27.5254E-03
            2931            3348     26.7258E-03     27.5254E-03
            2914            3349     25.5989E-03     26.3576E-03
            2933            3349     25.5989E-03     26.3576E-03
            2932            3349     25.5989E-03     26.3576E-03
            2915            3349     25.5989E-03     26.3576E-03
            2915            3350     24.5216E-03     25.2448E-03
            2934            3350     24.5216E-03     25.2448E-03
            2933            3350     24.5216E-03     25.2448E-03
            2916            3350     24.5216E-03     25.2448E-03
            2934            3351     23.4709E-03     24.1733E-03
            2917            3351     23.4709E-03     24.1733E-03
            2935            3351     23.4709E-03     24.1733E-03
            2916            3351     23.4709E-03     24.1733E-03
            2935            3352     22.4534E-03     23.1480E-03
            2917            3352     22.4534E-03     23.1480E-03
            2918            3352     22.4534E-03     23.1480E-03
            2936            3352     22.4534E-03     23.1480E-03
            2936            3353     21.4465E-03     22.1535E-03
            2918            3353     21.4465E-03     22.1535E-03
            2937            3353     21.4465E-03     22.1535E-03
            2919            3353     21.4465E-03     22.1535E-03
            2920            3354     20.4641E-03     21.2009E-03
            2937            3354     20.4641E-03     21.2009E-03
            2938            3354     20.4641E-03     21.2009E-03
            2919            3354     20.4641E-03     21.2009E-03
            2939            3355     19.4463E-03     20.2250E-03
            2920            3355     19.4463E-03     20.2250E-03
            2921            3355     19.4463E-03     20.2250E-03
            2938            3355     19.4463E-03     20.2250E-03
            2940            3356     18.3517E-03     19.1882E-03
            2922            3356     18.3517E-03     19.1882E-03
            2939            3356     18.3517E-03     19.1882E-03
            2921            3356     18.3517E-03     19.1882E-03
            2923            3357     17.1902E-03     18.0395E-03
            2940            3357     17.1902E-03     18.0395E-03
            2922            3357     17.1902E-03     18.0395E-03
            2941            3357     17.1902E-03     18.0395E-03
            2924            3358     15.9513E-03     16.8026E-03
            2941            3358     15.9513E-03     16.8026E-03
            2942            3358     15.9513E-03     16.8026E-03
            2923            3358     15.9513E-03     16.8026E-03
            2926            3359     37.0014E-03     37.5263E-03
            2944            3359     37.0014E-03     37.5263E-03
            2943            3359     37.0014E-03     37.5263E-03
            2925            3359     37.0014E-03     37.5263E-03
            2944            3360     34.6700E-03     35.4702E-03
            2926            3360     34.6700E-03     35.4702E-03
            2945            3360     34.6700E-03     35.4702E-03
            2927            3360     34.6700E-03     35.4702E-03
            2927            3361     32.5553E-03     33.4312E-03
            2945            3361     32.5553E-03     33.4312E-03
            2928            3361     32.5553E-03     33.4312E-03
            2946            3361     32.5553E-03     33.4312E-03
            2947            3362     30.6254E-03     31.5753E-03
            2946            3362     30.6254E-03     31.5753E-03
            2928            3362     30.6254E-03     31.5753E-03
            2929            3362     30.6254E-03     31.5753E-03
            2948            3363     28.9641E-03     29.9704E-03
            2947            3363     28.9641E-03     29.9704E-03
            2929            3363     28.9641E-03     29.9704E-03
            2930            3363     28.9641E-03     29.9704E-03
            2931            3364     27.5904E-03     28.5749E-03
            2949            3364     27.5904E-03     28.5749E-03
            2948            3364     27.5904E-03     28.5749E-03
            2930            3364     27.5904E-03     28.5749E-03
            2950            3365     26.3527E-03     27.3109E-03
            2932            3365     26.3527E-03     27.3109E-03
            2949            3365     26.3527E-03     27.3109E-03
            2931            3365     26.3527E-03     27.3109E-03
            2950            3366     25.2218E-03     26.1491E-03
            2951            3366     25.2218E-03     26.1491E-03
            2933            3366     25.2218E-03     26.1491E-03
            2932            3366     25.2218E-03     26.1491E-03
            2933            3367     24.1525E-03     25.0542E-03
            2934            3367     24.1525E-03     25.0542E-03
            2952            3367     24.1525E-03     25.0542E-03
            2951            3367     24.1525E-03     25.0542E-03
            2934            3368     23.1330E-03     24.0187E-03
            2952            3368     23.1330E-03     24.0187E-03
            2935            3368     23.1330E-03     24.0187E-03
            2953            3368     23.1330E-03     24.0187E-03
            2936            3369     22.1543E-03     23.0323E-03
            2953            3369     22.1543E-03     23.0323E-03
            2935            3369     22.1543E-03     23.0323E-03
            2954            3369     22.1543E-03     23.0323E-03
            2936            3370     21.2291E-03     22.1105E-03
            2937            3370     21.2291E-03     22.1105E-03
            2954            3370     21.2291E-03     22.1105E-03
            2955            3370     21.2291E-03     22.1105E-03
            2938            3371     20.3458E-03     21.2362E-03
            2937            3371     20.3458E-03     21.2362E-03
            2956            3371     20.3458E-03     21.2362E-03
            2955            3371     20.3458E-03     21.2362E-03
            2938            3372     19.5613E-03     20.4668E-03
            2957            3372     19.5613E-03     20.4668E-03
            2939            3372     19.5613E-03     20.4668E-03
            2956            3372     19.5613E-03     20.4668E-03
            2958            3373     18.7608E-03     19.6814E-03
            2940            3373     18.7608E-03     19.6814E-03
            2957            3373     18.7608E-03     19.6814E-03
            2939            3373     18.7608E-03     19.6814E-03
            2940            3374     17.8402E-03     18.7711E-03
            2958            3374     17.8402E-03     18.7711E-03
            2959            3374     17.8402E-03     18.7711E-03
            2941            3374     17.8402E-03     18.7711E-03
            2960            3375     16.8260E-03     17.7224E-03
            2941            3375     16.8260E-03     17.7224E-03
            2942            3375     16.8260E-03     17.7224E-03
            2959            3375     16.8260E-03     17.7224E-03
            2943            3376     38.4057E-03     39.2170E-03
            2944            3376     38.4057E-03     39.2170E-03
            2961            3376     38.4057E-03     39.2170E-03
            2962            3376     38.4057E-03     39.2170E-03
            2962            3377     35.5395E-03     36.2780E-03
            2944            3377     35.5395E-03     36.2780E-03
            2963            3377     35.5395E-03     36.2780E-03
            2945            3377     35.5395E-03     36.2780E-03
            2963            3378     32.6561E-03     33.5688E-03
            2945            3378     32.6561E-03     33.5688E-03
            2964            3378     32.6561E-03     33.5688E-03
            2946            3378     32.6561E-03     33.5688E-03
            2964            3379     30.2721E-03     31.3532E-03
            2965            3379     30.2721E-03     31.3532E-03
            2946            3379     30.2721E-03     31.3532E-03
            2947            3379     30.2721E-03     31.3532E-03
            2965            3380     28.5317E-03     29.6294E-03
            2947            3380     28.5317E-03     29.6294E-03
            2948            3380     28.5317E-03     29.6294E-03
            2966            3380     28.5317E-03     29.6294E-03
            2948            3381     27.0850E-03     28.1838E-03
            2966            3381     27.0850E-03     28.1838E-03
            2949            3381     27.0850E-03     28.1838E-03
            2967            3381     27.0850E-03     28.1838E-03
            2950            3382     25.8437E-03     26.9334E-03
            2967            3382     25.8437E-03     26.9334E-03
            2968            3382     25.8437E-03     26.9334E-03
            2949            3382     25.8437E-03     26.9334E-03
            2968            3383     24.7233E-03     25.7984E-03
            2951            3383     24.7233E-03     25.7984E-03
            2969            3383     24.7233E-03     25.7984E-03
            2950            3383     24.7233E-03     25.7984E-03
            2951            3384     23.6761E-03     24.7436E-03
            2969            3384     23.6761E-03     24.7436E-03
            2952            3384     23.6761E-03     24.7436E-03
            2970            3384     23.6761E-03     24.7436E-03
            2970            3385     22.6895E-03     23.7481E-03
            2971            3385     22.6895E-03     23.7481E-03
            2952            3385     22.6895E-03     23.7481E-03
            2953            3385     22.6895E-03     23.7481E-03
            2972            3386     21.7535E-03     22.8097E-03
            2971            3386     21.7535E-03     22.8097E-03
            2953            3386     21.7535E-03     22.8097E-03
            2954            3386     21.7535E-03     22.8097E-03
            2955            3387     20.8871E-03     21.9374E-03
            2972            3387     20.8871E-03     21.9374E-03
            2973            3387     20.8871E-03     21.9374E-03
            2954            3387     20.8871E-03     21.9374E-03
            2974            3388     20.1204E-03     21.1686E-03
            2955            3388     20.1204E-03     21.1686E-03
            2973            3388     20.1204E-03     21.1686E-03
            2956            3388     20.1204E-03     21.1686E-03
            2975            3389     19.4786E-03     20.5142E-03
            2974            3389     19.4786E-03     20.5142E-03
            2957            3389     19.4786E-03     20.5142E-03
            2956            3389     19.4786E-03     20.5142E-03
            2976            3390     19.1188E-03     20.1271E-03
            2958            3390     19.1188E-03     20.1271E-03
            2975            3390     19.1188E-03     20.1271E-03
            2957            3390     19.1188E-03     20.1271E-03
            2959            3391     18.6985E-03     19.6935E-03
            2976            3391     18.6985E-03     19.6935E-03
            2958            3391     18.6985E-03     19.6935E-03
            2977            3391     18.6985E-03     19.6935E-03
            2978            3392     17.8607E-03     18.8371E-03
            2959            3392     17.8607E-03     18.8371E-03
            2960            3392     17.8607E-03     18.8371E-03
            2977            3392     17.8607E-03     18.8371E-03
            2961            3393     39.9436E-03     40.2502E-03
            2962            3393     39.9436E-03     40.2502E-03
            2979            3393     39.9436E-03     40.2502E-03
            2980            3393     39.9436E-03     40.2502E-03
            2962            3394     35.6453E-03     36.4490E-03
            2980            3394     35.6453E-03     36.4490E-03
            2981            3394     35.6453E-03     36.4490E-03
            2963            3394     35.6453E-03     36.4490E-03
            2981            3395     31.9848E-03     33.1057E-03
            2982            3395     31.9848E-03     33.1057E-03
            2964            3395     31.9848E-03     33.1057E-03
            2963            3395     31.9848E-03     33.1057E-03
            2964            3396     29.6649E-03     30.8188E-03
            2982            3396     29.6649E-03     30.8188E-03
            2983            3396     29.6649E-03     30.8188E-03
            2965            3396     29.6649E-03     30.8188E-03
            2983            3397     27.9079E-03     29.0755E-03
            2984            3397     27.9079E-03     29.0755E-03
            2966            3397     27.9079E-03     29.0755E-03
            2965            3397     27.9079E-03     29.0755E-03
            2966            3398     26.4833E-03     27.6725E-03
            2984            3398     26.4833E-03     27.6725E-03
            2985            3398     26.4833E-03     27.6725E-03
            2967            3398     26.4833E-03     27.6725E-03
            2967            3399     25.2721E-03     26.4718E-03
            2985            3399     25.2721E-03     26.4718E-03
            2986            3399     25.2721E-03     26.4718E-03
            2968            3399     25.2721E-03     26.4718E-03
            2986            3400     24.1717E-03     25.3896E-03
            2987            3400     24.1717E-03     25.3896E-03
            2969            3400     24.1717E-03     25.3896E-03
            2968            3400     24.1717E-03     25.3896E-03
            2969            3401     23.1589E-03     24.3858E-03
            2970            3401     23.1589E-03     24.3858E-03
            2988            3401     23.1589E-03     24.3858E-03
            2987            3401     23.1589E-03     24.3858E-03
            2970            3402     22.1961E-03     23.4330E-03
            2988            3402     22.1961E-03     23.4330E-03
            2971            3402     22.1961E-03     23.4330E-03
            2989            3402     22.1961E-03     23.4330E-03
            2971            3403     21.3014E-03     22.5379E-03
            2990            3403     21.3014E-03     22.5379E-03
            2989            3403     21.3014E-03     22.5379E-03
            2972            3403     21.3014E-03     22.5379E-03
            2973            3404     20.4720E-03     21.7063E-03
            2972            3404     20.4720E-03     21.7063E-03
            2990            3404     20.4720E-03     21.7063E-03
            2991            3404     20.4720E-03     21.7063E-03
            2992            3405     19.7764E-03     20.9921E-03
            2974            3405     19.7764E-03     20.9921E-03
            2973            3405     19.7764E-03     20.9921E-03
            2991            3405     19.7764E-03     20.9921E-03
            2974            3406     19.2546E-03     20.4466E-03
            2992            3406     19.2546E-03     20.4466E-03
            2975            3406     19.2546E-03     20.4466E-03
            2993            3406     19.2546E-03     20.4466E-03
            2975            3407     19.0642E-03     20.2032E-03
            2994            3407     19.0642E-03     20.2032E-03
            2993            3407     19.0642E-03     20.2032E-03
            2976            3407     19.0642E-03     20.2032E-03
            2976            3408     19.5525E-03     20.6006E-03
            2995            3408     19.5525E-03     20.6006E-03
            2994            3408     19.5525E-03     20.6006E-03
            2977            3408     19.5525E-03     20.6006E-03
            2996            3409     19.5737E-03     20.5757E-03
            2978            3409     19.5737E-03     20.5757E-03
            2995            3409     19.5737E-03     20.5757E-03
            2977            3409     19.5737E-03     20.5757E-03
            2979            3410     40.0190E-03     41.0799E-03
            2998            3410     40.0190E-03     41.0799E-03
            2997            3410     40.0190E-03     41.0799E-03
            2980            3410     40.0190E-03     41.0799E-03
            2999            3411     34.3397E-03     35.6308E-03
            2998            3411     34.3397E-03     35.6308E-03
            2981            3411     34.3397E-03     35.6308E-03
            2980            3411     34.3397E-03     35.6308E-03
            2981            3412     31.0868E-03     32.2563E-03
            3000            3412     31.0868E-03     32.2563E-03
            2999            3412     31.0868E-03     32.2563E-03
            2982            3412     31.0868E-03     32.2563E-03
            2982            3413     28.9458E-03     30.0984E-03
            2983            3413     28.9458E-03     30.0984E-03
            3000            3413     28.9458E-03     30.0984E-03
            3001            3413     28.9458E-03     30.0984E-03
            2983            3414     27.2513E-03     28.4489E-03
            3001            3414     27.2513E-03     28.4489E-03
            3002            3414     27.2513E-03     28.4489E-03
            2984            3414     27.2513E-03     28.4489E-03
            3003            3415     25.8967E-03     27.1479E-03
            2984            3415     25.8967E-03     27.1479E-03
            3002            3415     25.8967E-03     27.1479E-03
            2985            3415     25.8967E-03     27.1479E-03
            2986            3416     24.7025E-03     26.0161E-03
            3003            3416     24.7025E-03     26.0161E-03
            3004            3416     24.7025E-03     26.0161E-03
            2985            3416     24.7025E-03     26.0161E-03
            2986            3417     23.6396E-03     25.0017E-03
            3005            3417     23.6396E-03     25.0017E-03
            2987            3417     23.6396E-03     25.0017E-03
            3004            3417     23.6396E-03     25.0017E-03
            2987            3418     22.6420E-03     24.0446E-03
            3005            3418     22.6420E-03     24.0446E-03
            3006            3418     22.6420E-03     24.0446E-03
            2988            3418     22.6420E-03     24.0446E-03
            3006            3419     21.7147E-03     23.1410E-03
            2989            3419     21.7147E-03     23.1410E-03
            3007            3419     21.7147E-03     23.1410E-03
            2988            3419     21.7147E-03     23.1410E-03
            2990            3420     20.8353E-03     22.2741E-03
            2989            3420     20.8353E-03     22.2741E-03
            3008            3420     20.8353E-03     22.2741E-03
            3007            3420     20.8353E-03     22.2741E-03
            3008            3421     20.0500E-03     21.4832E-03
            2991            3421     20.0500E-03     21.4832E-03
            3009            3421     20.0500E-03     21.4832E-03
            2990            3421     20.0500E-03     21.4832E-03
            3010            3422     19.3580E-03     20.7736E-03
            2991            3422     19.3580E-03     20.7736E-03
            2992            3422     19.3580E-03     20.7736E-03
            3009            3422     19.3580E-03     20.7736E-03
            2993            3423     18.9116E-03     20.2858E-03
            3010            3423     18.9116E-03     20.2858E-03
            3011            3423     18.9116E-03     20.2858E-03
            2992            3423     18.9116E-03     20.2858E-03
            3011            3424     18.7176E-03     20.0399E-03
            3012            3424     18.7176E-03     20.0399E-03
            2993            3424     18.7176E-03     20.0399E-03
            2994            3424     18.7176E-03     20.0399E-03
            2995            3425     19.4499E-03     20.6684E-03
            3013            3425     19.4499E-03     20.6684E-03
            2994            3425     19.4499E-03     20.6684E-03
            3012            3425     19.4499E-03     20.6684E-03
            3014            3426     21.4274E-03     22.5233E-03
            2996            3426     21.4274E-03     22.5233E-03
            3013            3426     21.4274E-03     22.5233E-03
            2995            3426     21.4274E-03     22.5233E-03
            3015            3427     40.2435E-03     40.7906E-03
            3016            3427     40.2435E-03     40.7906E-03
            2997            3427     40.2435E-03     40.7906E-03
            2998            3427     40.2435E-03     40.7906E-03
            2998            3428     37.7432E-03     37.6414E-03
            3017            3428     37.7432E-03     37.6414E-03
            3016            3428     37.7432E-03     37.6414E-03
            2999            3428     37.7432E-03     37.6414E-03
            3000            3429     36.2048E-03     36.0744E-03
            3017            3429     36.2048E-03     36.0744E-03
            3018            3429     36.2048E-03     36.0744E-03
            2999            3429     36.2048E-03     36.0744E-03
            3000            3430     34.7695E-03     34.7886E-03
            3019            3430     34.7695E-03     34.7886E-03
            3001            3430     34.7695E-03     34.7886E-03
            3018            3430     34.7695E-03     34.7886E-03
            3001            3431     33.5085E-03     33.6519E-03
            3002            3431     33.5085E-03     33.6519E-03
            3019            3431     33.5085E-03     33.6519E-03
            3020            3431     33.5085E-03     33.6519E-03
            3002            3432     32.2656E-03     32.5664E-03
            3003            3432     32.2656E-03     32.5664E-03
            3020            3432     32.2656E-03     32.5664E-03
            3021            3432     32.2656E-03     32.5664E-03
            3003            3433     31.0688E-03     31.4746E-03
            3022            3433     31.0688E-03     31.4746E-03
            3004            3433     31.0688E-03     31.4746E-03
            3021            3433     31.0688E-03     31.4746E-03
            3004            3434     29.8671E-03     30.3732E-03
            3023            3434     29.8671E-03     30.3732E-03
            3022            3434     29.8671E-03     30.3732E-03
            3005            3434     29.8671E-03     30.3732E-03
            3005            3435     28.6752E-03     29.2418E-03
            3024            3435     28.6752E-03     29.2418E-03
            3006            3435     28.6752E-03     29.2418E-03
            3023            3435     28.6752E-03     29.2418E-03
            3007            3436     27.4819E-03     28.0948E-03
            3024            3436     27.4819E-03     28.0948E-03
            3006            3436     27.4819E-03     28.0948E-03
            3025            3436     27.4819E-03     28.0948E-03
            3007            3437     26.3001E-03     26.9297E-03
            3008            3437     26.3001E-03     26.9297E-03
            3026            3437     26.3001E-03     26.9297E-03
            3025            3437     26.3001E-03     26.9297E-03
            3008            3438     25.1487E-03     25.7737E-03
            3026            3438     25.1487E-03     25.7737E-03
            3009            3438     25.1487E-03     25.7737E-03
            3027            3438     25.1487E-03     25.7737E-03
            3010            3439     24.0551E-03     24.6422E-03
            3028            3439     24.0551E-03     24.6422E-03
            3009            3439     24.0551E-03     24.6422E-03
            3027            3439     24.0551E-03     24.6422E-03
            3029            3440     23.0899E-03     23.6012E-03
            3010            3440     23.0899E-03     23.6012E-03
            3011            3440     23.0899E-03     23.6012E-03
            3028            3440     23.0899E-03     23.6012E-03
            3012            3441     22.3597E-03     22.7356E-03
            3029            3441     22.3597E-03     22.7356E-03
            3030            3441     22.3597E-03     22.7356E-03
            3011            3441     22.3597E-03     22.7356E-03
            3013            3442     22.1077E-03     22.2976E-03
            3012            3442     22.1077E-03     22.2976E-03
            3030            3442     22.1077E-03     22.2976E-03
            3031            3442     22.1077E-03     22.2976E-03
            3013            3443     23.4824E-03     23.4095E-03
            3031            3443     23.4824E-03     23.4095E-03
            3032            3443     23.4824E-03     23.4095E-03
            3014            3443     23.4824E-03     23.4095E-03
            3033            3444     42.6026E-03     41.6447E-03
            3034            3444     42.6026E-03     41.6447E-03
            3016            3444     42.6026E-03     41.6447E-03
            3015            3444     42.6026E-03     41.6447E-03
            3035            3445     42.8569E-03     42.0488E-03
            3016            3445     42.8569E-03     42.0488E-03
            3034            3445     42.8569E-03     42.0488E-03
            3017            3445     42.8569E-03     42.0488E-03
            3017            3446     42.5813E-03     41.7971E-03
            3036            3446     42.5813E-03     41.7971E-03
            3018            3446     42.5813E-03     41.7971E-03
            3035            3446     42.5813E-03     41.7971E-03
            3018            3447     41.8589E-03     41.1769E-03
            3036            3447     41.8589E-03     41.1769E-03
            3019            3447     41.8589E-03     41.1769E-03
            3037            3447     41.8589E-03     41.1769E-03
            3038            3448     40.8617E-03     40.2912E-03
            3037            3448     40.8617E-03     40.2912E-03
            3019            3448     40.8617E-03     40.2912E-03
            3020            3448     40.8617E-03     40.2912E-03
            3038            3449     39.6767E-03     39.2192E-03
            3020            3449     39.6767E-03     39.2192E-03
            3021            3449     39.6767E-03     39.2192E-03
            3039            3449     39.6767E-03     39.2192E-03
            3039            3450     38.3609E-03     37.9978E-03
            3040            3450     38.3609E-03     37.9978E-03
            3021            3450     38.3609E-03     37.9978E-03
            3022            3450     38.3609E-03     37.9978E-03
            3041            3451     36.9562E-03     36.6668E-03
            3023            3451     36.9562E-03     36.6668E-03
            3022            3451     36.9562E-03     36.6668E-03
            3040            3451     36.9562E-03     36.6668E-03
            3042            3452     35.4827E-03     35.2497E-03
            3023            3452     35.4827E-03     35.2497E-03
            3041            3452     35.4827E-03     35.2497E-03
            3024            3452     35.4827E-03     35.2497E-03
            3025            3453     33.9695E-03     33.7686E-03
            3024            3453     33.9695E-03     33.7686E-03
            3042            3453     33.9695E-03     33.7686E-03
            3043            3453     33.9695E-03     33.7686E-03
            3025            3454     32.4184E-03     32.2332E-03
            3043            3454     32.4184E-03     32.2332E-03
            3044            3454     32.4184E-03     32.2332E-03
            3026            3454     32.4184E-03     32.2332E-03
            3027            3455     30.8595E-03     30.6628E-03
            3045            3455     30.8595E-03     30.6628E-03
            3044            3455     30.8595E-03     30.6628E-03
            3026            3455     30.8595E-03     30.6628E-03
            3045            3456     29.2868E-03     29.0556E-03
            3027            3456     29.2868E-03     29.0556E-03
            3046            3456     29.2868E-03     29.0556E-03
            3028            3456     29.2868E-03     29.0556E-03
            3029            3457     27.7693E-03     27.4724E-03
            3028            3457     27.7693E-03     27.4724E-03
            3046            3457     27.7693E-03     27.4724E-03
            3047            3457     27.7693E-03     27.4724E-03
            3030            3458     26.2680E-03     25.8947E-03
            3047            3458     26.2680E-03     25.8947E-03
            3029            3458     26.2680E-03     25.8947E-03
            3048            3458     26.2680E-03     25.8947E-03
            3048            3459     25.0369E-03     24.6945E-03
            3049            3459     25.0369E-03     24.6945E-03
            3031            3459     25.0369E-03     24.6945E-03
            3030            3459     25.0369E-03     24.6945E-03
            3050            3460     23.4324E-03     23.8535E-03
            3031            3460     23.4324E-03     23.8535E-03
            3032            3460     23.4324E-03     23.8535E-03
            3049            3460     23.4324E-03     23.8535E-03
            3034            3461     45.0376E-03     45.2285E-03
            3033            3461     45.0376E-03     45.2285E-03
            3051            3461     45.0376E-03     45.2285E-03
            3052            3461     45.0376E-03     45.2285E-03
            3052            3462     44.5910E-03     44.9228E-03
            3035            3462     44.5910E-03     44.9228E-03
            3034            3462     44.5910E-03     44.9228E-03
            3053            3462     44.5910E-03     44.9228E-03
            3053            3463     44.2335E-03     44.4464E-03
            3054            3463     44.2335E-03     44.4464E-03
            3036            3463     44.2335E-03     44.4464E-03
            3035            3463     44.2335E-03     44.4464E-03
            3036            3464     43.4479E-03     43.5433E-03
            3054            3464     43.4479E-03     43.5433E-03
            3055            3464     43.4479E-03     43.5433E-03
            3037            3464     43.4479E-03     43.5433E-03
            3055            3465     42.3434E-03     42.3782E-03
            3056            3465     42.3434E-03     42.3782E-03
            3038            3465     42.3434E-03     42.3782E-03
            3037            3465     42.3434E-03     42.3782E-03
            3038            3466     41.0243E-03     41.0408E-03
            3056            3466     41.0243E-03     41.0408E-03
            3039            3466     41.0243E-03     41.0408E-03
            3057            3466     41.0243E-03     41.0408E-03
            3058            3467     39.5749E-03     39.5869E-03
            3039            3467     39.5749E-03     39.5869E-03
            3057            3467     39.5749E-03     39.5869E-03
            3040            3467     39.5749E-03     39.5869E-03
            3059            3468     38.0378E-03     38.0607E-03
            3041            3468     38.0378E-03     38.0607E-03
            3058            3468     38.0378E-03     38.0607E-03
            3040            3468     38.0378E-03     38.0607E-03
            3042            3469     36.4592E-03     36.4868E-03
            3059            3469     36.4592E-03     36.4868E-03
            3041            3469     36.4592E-03     36.4868E-03
            3060            3469     36.4592E-03     36.4868E-03
            3043            3470     34.8456E-03     34.8807E-03
            3042            3470     34.8456E-03     34.8807E-03
            3060            3470     34.8456E-03     34.8807E-03
            3061            3470     34.8456E-03     34.8807E-03
            3044            3471     33.2199E-03     33.2536E-03
            3062            3471     33.2199E-03     33.2536E-03
            3061            3471     33.2199E-03     33.2536E-03
            3043            3471     33.2199E-03     33.2536E-03
            3063            3472     31.5732E-03     31.6057E-03
            3062            3472     31.5732E-03     31.6057E-03
            3044            3472     31.5732E-03     31.6057E-03
            3045            3472     31.5732E-03     31.6057E-03
            3064            3473     29.9119E-03     29.9493E-03
            3045            3473     29.9119E-03     29.9493E-03
            3046            3473     29.9119E-03     29.9493E-03
            3063            3473     29.9119E-03     29.9493E-03
            3046            3474     28.2184E-03     28.2953E-03
            3064            3474     28.2184E-03     28.2953E-03
            3047            3474     28.2184E-03     28.2953E-03
            3065            3474     28.2184E-03     28.2953E-03
            3065            3475     26.4675E-03     26.6917E-03
            3047            3475     26.4675E-03     26.6917E-03
            3048            3475     26.4675E-03     26.6917E-03
            3066            3475     26.4675E-03     26.6917E-03
            3066            3476     24.5549E-03     25.3626E-03
            3067            3476     24.5549E-03     25.3626E-03
            3048            3476     24.5549E-03     25.3626E-03
            3049            3476     24.5549E-03     25.3626E-03
            3050            3477     21.8991E-03     23.5038E-03
            3067            3477     21.8991E-03     23.5038E-03
            3068            3477     21.8991E-03     23.5038E-03
            3049            3477     21.8991E-03     23.5038E-03
            3070            3478     47.4519E-03     47.9918E-03
            3052            3478     47.4519E-03     47.9918E-03
            3069            3478     47.4519E-03     47.9918E-03
            3051            3478     47.4519E-03     47.9918E-03
            3053            3479     46.4737E-03     47.3045E-03
            3070            3479     46.4737E-03     47.3045E-03
            3052            3479     46.4737E-03     47.3045E-03
            3071            3479     46.4737E-03     47.3045E-03
            3053            3480     45.7397E-03     46.5236E-03
            3054            3480     45.7397E-03     46.5236E-03
            3071            3480     45.7397E-03     46.5236E-03
            3072            3480     45.7397E-03     46.5236E-03
            3073            3481     44.7588E-03     45.4333E-03
            3055            3481     44.7588E-03     45.4333E-03
            3054            3481     44.7588E-03     45.4333E-03
            3072            3481     44.7588E-03     45.4333E-03
            3055            3482     43.5134E-03     44.0566E-03
            3074            3482     43.5134E-03     44.0566E-03
            3073            3482     43.5134E-03     44.0566E-03
            3056            3482     43.5134E-03     44.0566E-03
            3056            3483     42.0660E-03     42.5150E-03
            3074            3483     42.0660E-03     42.5150E-03
            3075            3483     42.0660E-03     42.5150E-03
            3057            3483     42.0660E-03     42.5150E-03
            3058            3484     40.4949E-03     40.8837E-03
            3076            3484     40.4949E-03     40.8837E-03
            3075            3484     40.4949E-03     40.8837E-03
            3057            3484     40.4949E-03     40.8837E-03
            3076            3485     38.8654E-03     39.2066E-03
            3058            3485     38.8654E-03     39.2066E-03
            3077            3485     38.8654E-03     39.2066E-03
            3059            3485     38.8654E-03     39.2066E-03
            3060            3486     37.1967E-03     37.5140E-03
            3078            3486     37.1967E-03     37.5140E-03
            3059            3486     37.1967E-03     37.5140E-03
            3077            3486     37.1967E-03     37.5140E-03
            3079            3487     35.5221E-03     35.8196E-03
            3061            3487     35.5221E-03     35.8196E-03
            3060            3487     35.5221E-03     35.8196E-03
            3078            3487     35.5221E-03     35.8196E-03
            3079            3488     33.8321E-03     34.1272E-03
            3080            3488     33.8321E-03     34.1272E-03
            3062            3488     33.8321E-03     34.1272E-03
            3061            3488     33.8321E-03     34.1272E-03
            3063            3489     32.1277E-03     32.4335E-03
            3080            3489     32.1277E-03     32.4335E-03
            3062            3489     32.1277E-03     32.4335E-03
            3081            3489     32.1277E-03     32.4335E-03
            3064            3490     30.3865E-03     30.7450E-03
            3063            3490     30.3865E-03     30.7450E-03
            3082            3490     30.3865E-03     30.7450E-03
            3081            3490     30.3865E-03     30.7450E-03
            3083            3491     28.5540E-03     29.0249E-03
            3064            3491     28.5540E-03     29.0249E-03
            3065            3491     28.5540E-03     29.0249E-03
            3082            3491     28.5540E-03     29.0249E-03
            3083            3492     26.5888E-03     27.3634E-03
            3066            3492     26.5888E-03     27.3634E-03
            3065            3492     26.5888E-03     27.3634E-03
            3084            3492     26.5888E-03     27.3634E-03
            3066            3493     24.2648E-03     25.4513E-03
            3085            3493     24.2648E-03     25.4513E-03
            3084            3493     24.2648E-03     25.4513E-03
            3067            3493     24.2648E-03     25.4513E-03
            3086            3494     21.7555E-03     22.8976E-03
            3067            3494     21.7555E-03     22.8976E-03
            3068            3494     21.7555E-03     22.8976E-03
            3085            3494     21.7555E-03     22.8976E-03
            3088            3495     49.6308E-03     50.2260E-03
            3070            3495     49.6308E-03     50.2260E-03
            3087            3495     49.6308E-03     50.2260E-03
            3069            3495     49.6308E-03     50.2260E-03
            3071            3496     48.3190E-03     49.2665E-03
            3089            3496     48.3190E-03     49.2665E-03
            3088            3496     48.3190E-03     49.2665E-03
            3070            3496     48.3190E-03     49.2665E-03
            3071            3497     47.0929E-03     48.1821E-03
            3072            3497     47.0929E-03     48.1821E-03
            3089            3497     47.0929E-03     48.1821E-03
            3090            3497     47.0929E-03     48.1821E-03
            3072            3498     45.8182E-03     46.8345E-03
            3091            3498     45.8182E-03     46.8345E-03
            3090            3498     45.8182E-03     46.8345E-03
            3073            3498     45.8182E-03     46.8345E-03
            3091            3499     44.3472E-03     45.2656E-03
            3073            3499     44.3472E-03     45.2656E-03
            3074            3499     44.3472E-03     45.2656E-03
            3092            3499     44.3472E-03     45.2656E-03
            3093            3500     42.7445E-03     43.5539E-03
            3074            3500     42.7445E-03     43.5539E-03
            3092            3500     42.7445E-03     43.5539E-03
            3075            3500     42.7445E-03     43.5539E-03
            3076            3501     41.0676E-03     41.7808E-03
            3075            3501     41.0676E-03     41.7808E-03
            3094            3501     41.0676E-03     41.7808E-03
            3093            3501     41.0676E-03     41.7808E-03
            3076            3502     39.3488E-03     39.9973E-03
            3077            3502     39.3488E-03     39.9973E-03
            3094            3502     39.3488E-03     39.9973E-03
            3095            3502     39.3488E-03     39.9973E-03
            3077            3503     37.6323E-03     38.2274E-03
            3096            3503     37.6323E-03     38.2274E-03
            3078            3503     37.6323E-03     38.2274E-03
            3095            3503     37.6323E-03     38.2274E-03
            3078            3504     35.9105E-03     36.4795E-03
            3096            3504     35.9105E-03     36.4795E-03
            3097            3504     35.9105E-03     36.4795E-03
            3079            3504     35.9105E-03     36.4795E-03
            3079            3505     34.1974E-03     34.7567E-03
            3098            3505     34.1974E-03     34.7567E-03
            3080            3505     34.1974E-03     34.7567E-03
            3097            3505     34.1974E-03     34.7567E-03
            3080            3506     32.4670E-03     33.0548E-03
            3081            3506     32.4670E-03     33.0548E-03
            3098            3506     32.4670E-03     33.0548E-03
            3099            3506     32.4670E-03     33.0548E-03
            3081            3507     30.6882E-03     31.3412E-03
            3099            3507     30.6882E-03     31.3412E-03
            3082            3507     30.6882E-03     31.3412E-03
            3100            3507     30.6882E-03     31.3412E-03
            3083            3508     28.8135E-03     29.6239E-03
            3100            3508     28.8135E-03     29.6239E-03
            3101            3508     28.8135E-03     29.6239E-03
            3082            3508     28.8135E-03     29.6239E-03
            3084            3509     26.7251E-03     27.7602E-03
            3101            3509     26.7251E-03     27.7602E-03
            3102            3509     26.7251E-03     27.7602E-03
            3083            3509     26.7251E-03     27.7602E-03
            3102            3510     24.4264E-03     25.5691E-03
            3084            3510     24.4264E-03     25.5691E-03
            3103            3510     24.4264E-03     25.5691E-03
            3085            3510     24.4264E-03     25.5691E-03
            3086            3511     21.9582E-03     23.2725E-03
            3104            3511     21.9582E-03     23.2725E-03
            3085            3511     21.9582E-03     23.2725E-03
            3103            3511     21.9582E-03     23.2725E-03
            3106            3512     51.6285E-03     52.3276E-03
            3088            3512     51.6285E-03     52.3276E-03
            3087            3512     51.6285E-03     52.3276E-03
            3105            3512     51.6285E-03     52.3276E-03
            3089            3513     49.9178E-03     50.9546E-03
            3106            3513     49.9178E-03     50.9546E-03
            3088            3513     49.9178E-03     50.9546E-03
            3107            3513     49.9178E-03     50.9546E-03
            3108            3514     48.2881E-03     49.4725E-03
            3090            3514     48.2881E-03     49.4725E-03
            3089            3514     48.2881E-03     49.4725E-03
            3107            3514     48.2881E-03     49.4725E-03
            3091            3515     46.5817E-03     47.8152E-03
            3108            3515     46.5817E-03     47.8152E-03
            3090            3515     46.5817E-03     47.8152E-03
            3109            3515     46.5817E-03     47.8152E-03
            3092            3516     44.8363E-03     46.0047E-03
            3109            3516     44.8363E-03     46.0047E-03
            3110            3516     44.8363E-03     46.0047E-03
            3091            3516     44.8363E-03     46.0047E-03
            3092            3517     43.0515E-03     44.1245E-03
            3093            3517     43.0515E-03     44.1245E-03
            3111            3517     43.0515E-03     44.1245E-03
            3110            3517     43.0515E-03     44.1245E-03
            3112            3518     41.2523E-03     42.2413E-03
            3093            3518     41.2523E-03     42.2413E-03
            3111            3518     41.2523E-03     42.2413E-03
            3094            3518     41.2523E-03     42.2413E-03
            3112            3519     39.4814E-03     40.3894E-03
            3094            3519     39.4814E-03     40.3894E-03
            3095            3519     39.4814E-03     40.3894E-03
            3113            3519     39.4814E-03     40.3894E-03
            3095            3520     37.7234E-03     38.5774E-03
            3114            3520     37.7234E-03     38.5774E-03
            3113            3520     37.7234E-03     38.5774E-03
            3096            3520     37.7234E-03     38.5774E-03
            3096            3521     35.9971E-03     36.8143E-03
            3097            3521     35.9971E-03     36.8143E-03
            3114            3521     35.9971E-03     36.8143E-03
            3115            3521     35.9971E-03     36.8143E-03
            3115            3522     34.2809E-03     35.0926E-03
            3097            3522     34.2809E-03     35.0926E-03
            3098            3522     34.2809E-03     35.0926E-03
            3116            3522     34.2809E-03     35.0926E-03
            3117            3523     32.5752E-03     33.4086E-03
            3099            3523     32.5752E-03     33.4086E-03
            3098            3523     32.5752E-03     33.4086E-03
            3116            3523     32.5752E-03     33.4086E-03
            3118            3524     30.8315E-03     31.7394E-03
            3117            3524     30.8315E-03     31.7394E-03
            3100            3524     30.8315E-03     31.7394E-03
            3099            3524     30.8315E-03     31.7394E-03
            3119            3525     28.9910E-03     30.0171E-03
            3101            3525     28.9910E-03     30.0171E-03
            3100            3525     28.9910E-03     30.0171E-03
            3118            3525     28.9910E-03     30.0171E-03
            3101            3526     26.9946E-03     28.1318E-03
            3120            3526     26.9946E-03     28.1318E-03
            3102            3526     26.9946E-03     28.1318E-03
            3119            3526     26.9946E-03     28.1318E-03
            3121            3527     24.7668E-03     26.0488E-03
            3103            3527     24.7668E-03     26.0488E-03
            3102            3527     24.7668E-03     26.0488E-03
            3120            3527     24.7668E-03     26.0488E-03
            3121            3528     22.4835E-03     23.7664E-03
            3122            3528     22.4835E-03     23.7664E-03
            3103            3528     22.4835E-03     23.7664E-03
            3104            3528     22.4835E-03     23.7664E-03
            3124            3529     53.4587E-03     54.3023E-03
            3105            3529     53.4587E-03     54.3023E-03
            3106            3529     53.4587E-03     54.3023E-03
            3123            3529     53.4587E-03     54.3023E-03
            3124            3530     51.3533E-03     52.4117E-03
            3106            3530     51.3533E-03     52.4117E-03
            3125            3530     51.3533E-03     52.4117E-03
            3107            3530     51.3533E-03     52.4117E-03
            3107            3531     49.1629E-03     50.4516E-03
            3108            3531     49.1629E-03     50.4516E-03
            3125            3531     49.1629E-03     50.4516E-03
            3126            3531     49.1629E-03     50.4516E-03
            3109            3532     47.0266E-03     48.3746E-03
            3108            3532     47.0266E-03     48.3746E-03
            3126            3532     47.0266E-03     48.3746E-03
            3127            3532     47.0266E-03     48.3746E-03
            3127            3533     44.9525E-03     46.2738E-03
            3109            3533     44.9525E-03     46.2738E-03
            3110            3533     44.9525E-03     46.2738E-03
            3128            3533     44.9525E-03     46.2738E-03
            3111            3534     42.9590E-03     44.2339E-03
            3110            3534     42.9590E-03     44.2339E-03
            3129            3534     42.9590E-03     44.2339E-03
            3128            3534     42.9590E-03     44.2339E-03
            3112            3535     41.0812E-03     42.2756E-03
            3129            3535     41.0812E-03     42.2756E-03
            3111            3535     41.0812E-03     42.2756E-03
            3130            3535     41.0812E-03     42.2756E-03
            3131            3536     39.2598E-03     40.3879E-03
            3112            3536     39.2598E-03     40.3879E-03
            3130            3536     39.2598E-03     40.3879E-03
            3113            3536     39.2598E-03     40.3879E-03
            3131            3537     37.5012E-03     38.5749E-03
            3113            3537     37.5012E-03     38.5749E-03
            3114            3537     37.5012E-03     38.5749E-03
            3132            3537     37.5012E-03     38.5749E-03
            3115            3538     35.7809E-03     36.8218E-03
            3132            3538     35.7809E-03     36.8218E-03
            3133            3538     35.7809E-03     36.8218E-03
            3114            3538     35.7809E-03     36.8218E-03
            3134            3539     34.1039E-03     35.1339E-03
            3116            3539     34.1039E-03     35.1339E-03
            3115            3539     34.1039E-03     35.1339E-03
            3133            3539     34.1039E-03     35.1339E-03
            3116            3540     32.4444E-03     33.4935E-03
            3134            3540     32.4444E-03     33.4935E-03
            3135            3540     32.4444E-03     33.4935E-03
            3117            3540     32.4444E-03     33.4935E-03
            3135            3541     30.8119E-03     31.9104E-03
            3118            3541     30.8119E-03     31.9104E-03
            3136            3541     30.8119E-03     31.9104E-03
            3117            3541     30.8119E-03     31.9104E-03
            3136            3542     29.1236E-03     30.2945E-03
            3118            3542     29.1236E-03     30.2945E-03
            3119            3542     29.1236E-03     30.2945E-03
            3137            3542     29.1236E-03     30.2945E-03
            3120            3543     27.3045E-03     28.5720E-03
            3137            3543     27.3045E-03     28.5720E-03
            3138            3543     27.3045E-03     28.5720E-03
            3119            3543     27.3045E-03     28.5720E-03
            3138            3544     25.3201E-03     26.6440E-03
            3139            3544     25.3201E-03     26.6440E-03
            3121            3544     25.3201E-03     26.6440E-03
            3120            3544     25.3201E-03     26.6440E-03
            3122            3545     23.1210E-03     24.4851E-03
            3121            3545     23.1210E-03     24.4851E-03
            3140            3545     23.1210E-03     24.4851E-03
            3139            3545     23.1210E-03     24.4851E-03
            3141            3546     55.2901E-03     56.1065E-03
            3142            3546     55.2901E-03     56.1065E-03
            3123            3546     55.2901E-03     56.1065E-03
            3124            3546     55.2901E-03     56.1065E-03
            3125            3547     52.4687E-03     53.6881E-03
            3142            3547     52.4687E-03     53.6881E-03
            3124            3547     52.4687E-03     53.6881E-03
            3143            3547     52.4687E-03     53.6881E-03
            3143            3548     49.7080E-03     51.0331E-03
            3144            3548     49.7080E-03     51.0331E-03
            3125            3548     49.7080E-03     51.0331E-03
            3126            3548     49.7080E-03     51.0331E-03
            3126            3549     47.0413E-03     48.4368E-03
            3127            3549     47.0413E-03     48.4368E-03
            3145            3549     47.0413E-03     48.4368E-03
            3144            3549     47.0413E-03     48.4368E-03
            3128            3550     44.6189E-03     46.0675E-03
            3146            3550     44.6189E-03     46.0675E-03
            3127            3550     44.6189E-03     46.0675E-03
            3145            3550     44.6189E-03     46.0675E-03
            3129            3551     42.5189E-03     43.9217E-03
            3128            3551     42.5189E-03     43.9217E-03
            3146            3551     42.5189E-03     43.9217E-03
            3147            3551     42.5189E-03     43.9217E-03
            3129            3552     40.5715E-03     41.9243E-03
            3130            3552     40.5715E-03     41.9243E-03
            3147            3552     40.5715E-03     41.9243E-03
            3148            3552     40.5715E-03     41.9243E-03
            3131            3553     38.7491E-03     40.0521E-03
            3130            3553     38.7491E-03     40.0521E-03
            3148            3553     38.7491E-03     40.0521E-03
            3149            3553     38.7491E-03     40.0521E-03
            3149            3554     37.0033E-03     38.2646E-03
            3131            3554     37.0033E-03     38.2646E-03
            3150            3554     37.0033E-03     38.2646E-03
            3132            3554     37.0033E-03     38.2646E-03
            3150            3555     35.3181E-03     36.5549E-03
            3151            3555     35.3181E-03     36.5549E-03
            3133            3555     35.3181E-03     36.5549E-03
            3132            3555     35.3181E-03     36.5549E-03
            3134            3556     33.6846E-03     34.9098E-03
            3152            3556     33.6846E-03     34.9098E-03
            3151            3556     33.6846E-03     34.9098E-03
            3133            3556     33.6846E-03     34.9098E-03
            3152            3557     32.1146E-03     33.3481E-03
            3153            3557     32.1146E-03     33.3481E-03
            3135            3557     32.1146E-03     33.3481E-03
            3134            3557     32.1146E-03     33.3481E-03
            3153            3558     30.5893E-03     31.8437E-03
            3135            3558     30.5893E-03     31.8437E-03
            3136            3558     30.5893E-03     31.8437E-03
            3154            3558     30.5893E-03     31.8437E-03
            3155            3559     29.1680E-03     30.4664E-03
            3137            3559     29.1680E-03     30.4664E-03
            3136            3559     29.1680E-03     30.4664E-03
            3154            3559     29.1680E-03     30.4664E-03
            3155            3560     27.6839E-03     29.0408E-03
            3137            3560     27.6839E-03     29.0408E-03
            3156            3560     27.6839E-03     29.0408E-03
            3138            3560     27.6839E-03     29.0408E-03
            3156            3561     25.9747E-03     27.3758E-03
            3157            3561     25.9747E-03     27.3758E-03
            3138            3561     25.9747E-03     27.3758E-03
            3139            3561     25.9747E-03     27.3758E-03
            3157            3562     24.0082E-03     25.4279E-03
            3140            3562     24.0082E-03     25.4279E-03
            3158            3562     24.0082E-03     25.4279E-03
            3139            3562     24.0082E-03     25.4279E-03
            3142            3563     56.8329E-03     58.0120E-03
            3159            3563     56.8329E-03     58.0120E-03
            3141            3563     56.8329E-03     58.0120E-03
            3160            3563     56.8329E-03     58.0120E-03
            3142            3564     53.3679E-03     54.4778E-03
            3160            3564     53.3679E-03     54.4778E-03
            3143            3564     53.3679E-03     54.4778E-03
            3161            3564     53.3679E-03     54.4778E-03
            3162            3565     49.6673E-03     50.9694E-03
            3143            3565     49.6673E-03     50.9694E-03
            3161            3565     49.6673E-03     50.9694E-03
            3144            3565     49.6673E-03     50.9694E-03
            3144            3566     46.4276E-03     47.9244E-03
            3162            3566     46.4276E-03     47.9244E-03
            3163            3566     46.4276E-03     47.9244E-03
            3145            3566     46.4276E-03     47.9244E-03
            3146            3567     43.9250E-03     45.4262E-03
            3163            3567     43.9250E-03     45.4262E-03
            3164            3567     43.9250E-03     45.4262E-03
            3145            3567     43.9250E-03     45.4262E-03
            3147            3568     41.7525E-03     43.2404E-03
            3165            3568     41.7525E-03     43.2404E-03
            3146            3568     41.7525E-03     43.2404E-03
            3164            3568     41.7525E-03     43.2404E-03
            3166            3569     39.8148E-03     41.2832E-03
            3147            3569     39.8148E-03     41.2832E-03
            3165            3569     39.8148E-03     41.2832E-03
            3148            3569     39.8148E-03     41.2832E-03
            3148            3570     38.0193E-03     39.4616E-03
            3167            3570     38.0193E-03     39.4616E-03
            3166            3570     38.0193E-03     39.4616E-03
            3149            3570     38.0193E-03     39.4616E-03
            3167            3571     36.3079E-03     37.7373E-03
            3168            3571     36.3079E-03     37.7373E-03
            3149            3571     36.3079E-03     37.7373E-03
            3150            3571     36.3079E-03     37.7373E-03
            3168            3572     34.6700E-03     36.0852E-03
            3169            3572     34.6700E-03     36.0852E-03
            3150            3572     34.6700E-03     36.0852E-03
            3151            3572     34.6700E-03     36.0852E-03
            3151            3573     33.0911E-03     34.5029E-03
            3170            3573     33.0911E-03     34.5029E-03
            3169            3573     33.0911E-03     34.5029E-03
            3152            3573     33.0911E-03     34.5029E-03
            3153            3574     31.5936E-03     32.9994E-03
            3171            3574     31.5936E-03     32.9994E-03
            3170            3574     31.5936E-03     32.9994E-03
            3152            3574     31.5936E-03     32.9994E-03
            3153            3575     30.2112E-03     31.6215E-03
            3171            3575     30.2112E-03     31.6215E-03
            3172            3575     30.2112E-03     31.6215E-03
            3154            3575     30.2112E-03     31.6215E-03
            3154            3576     28.9635E-03     30.3729E-03
            3172            3576     28.9635E-03     30.3729E-03
            3173            3576     28.9635E-03     30.3729E-03
            3155            3576     28.9635E-03     30.3729E-03
            3173            3577     28.0252E-03     29.4480E-03
            3155            3577     28.0252E-03     29.4480E-03
            3156            3577     28.0252E-03     29.4480E-03
            3174            3577     28.0252E-03     29.4480E-03
            3174            3578     26.9130E-03     28.3988E-03
            3156            3578     26.9130E-03     28.3988E-03
            3175            3578     26.9130E-03     28.3988E-03
            3157            3578     26.9130E-03     28.3988E-03
            3157            3579     25.1472E-03     26.6324E-03
            3158            3579     25.1472E-03     26.6324E-03
            3175            3579     25.1472E-03     26.6324E-03
            3176            3579     25.1472E-03     26.6324E-03
            3178            3580     58.5409E-03     58.9982E-03
            3177            3580     58.5409E-03     58.9982E-03
            3159            3580     58.5409E-03     58.9982E-03
            3160            3580     58.5409E-03     58.9982E-03
            3160            3581     53.3065E-03     54.3705E-03
            3178            3581     53.3065E-03     54.3705E-03
            3161            3581     53.3065E-03     54.3705E-03
            3179            3581     53.3065E-03     54.3705E-03
            3161            3582     48.5819E-03     50.0317E-03
            3162            3582     48.5819E-03     50.0317E-03
            3180            3582     48.5819E-03     50.0317E-03
            3179            3582     48.5819E-03     50.0317E-03
            3162            3583     45.4203E-03     46.9093E-03
            3180            3583     45.4203E-03     46.9093E-03
            3181            3583     45.4203E-03     46.9093E-03
            3163            3583     45.4203E-03     46.9093E-03
            3164            3584     42.9160E-03     44.4176E-03
            3181            3584     42.9160E-03     44.4176E-03
            3182            3584     42.9160E-03     44.4176E-03
            3163            3584     42.9160E-03     44.4176E-03
            3182            3585     40.7902E-03     42.3220E-03
            3183            3585     40.7902E-03     42.3220E-03
            3164            3585     40.7902E-03     42.3220E-03
            3165            3585     40.7902E-03     42.3220E-03
            3165            3586     38.9132E-03     40.4598E-03
            3166            3586     38.9132E-03     40.4598E-03
            3184            3586     38.9132E-03     40.4598E-03
            3183            3586     38.9132E-03     40.4598E-03
            3167            3587     37.1592E-03     38.7329E-03
            3166            3587     37.1592E-03     38.7329E-03
            3184            3587     37.1592E-03     38.7329E-03
            3185            3587     37.1592E-03     38.7329E-03
            3168            3588     35.5076E-03     37.0948E-03
            3167            3588     35.5076E-03     37.0948E-03
            3185            3588     35.5076E-03     37.0948E-03
            3186            3588     35.5076E-03     37.0948E-03
            3187            3589     33.9107E-03     35.5131E-03
            3169            3589     33.9107E-03     35.5131E-03
            3186            3589     33.9107E-03     35.5131E-03
            3168            3589     33.9107E-03     35.5131E-03
            3188            3590     32.3937E-03     33.9961E-03
            3187            3590     32.3937E-03     33.9961E-03
            3169            3590     32.3937E-03     33.9961E-03
            3170            3590     32.3937E-03     33.9961E-03
            3188            3591     30.9511E-03     32.5503E-03
            3170            3591     30.9511E-03     32.5503E-03
            3189            3591     30.9511E-03     32.5503E-03
            3171            3591     30.9511E-03     32.5503E-03
            3189            3592     29.6653E-03     31.2401E-03
            3190            3592     29.6653E-03     31.2401E-03
            3172            3592     29.6653E-03     31.2401E-03
            3171            3592     29.6653E-03     31.2401E-03
            3190            3593     28.5818E-03     30.1283E-03
            3191            3593     28.5818E-03     30.1283E-03
            3172            3593     28.5818E-03     30.1283E-03
            3173            3593     28.5818E-03     30.1283E-03
            3174            3594     27.8807E-03     29.3737E-03
            3173            3594     27.8807E-03     29.3737E-03
            3191            3594     27.8807E-03     29.3737E-03
            3192            3594     27.8807E-03     29.3737E-03
            3174            3595     27.9373E-03     29.4016E-03
            3175            3595     27.9373E-03     29.4016E-03
            3193            3595     27.9373E-03     29.4016E-03
            3192            3595     27.9373E-03     29.4016E-03
            3194            3596     27.1525E-03     28.7351E-03
            3175            3596     27.1525E-03     28.7351E-03
            3176            3596     27.1525E-03     28.7351E-03
            3193            3596     27.1525E-03     28.7351E-03
            3178            3597     58.4001E-03     59.5325E-03
            3195            3597     58.4001E-03     59.5325E-03
            3177            3597     58.4001E-03     59.5325E-03
            3196            3597     58.4001E-03     59.5325E-03
            3179            3598     51.3723E-03     52.8303E-03
            3197            3598     51.3723E-03     52.8303E-03
            3178            3598     51.3723E-03     52.8303E-03
            3196            3598     51.3723E-03     52.8303E-03
            3198            3599     47.1097E-03     48.4536E-03
            3180            3599     47.1097E-03     48.4536E-03
            3179            3599     47.1097E-03     48.4536E-03
            3197            3599     47.1097E-03     48.4536E-03
            3181            3600     44.1989E-03     45.5517E-03
            3198            3600     44.1989E-03     45.5517E-03
            3199            3600     44.1989E-03     45.5517E-03
            3180            3600     44.1989E-03     45.5517E-03
            3199            3601     41.7941E-03     43.2326E-03
            3182            3601     41.7941E-03     43.2326E-03
            3200            3601     41.7941E-03     43.2326E-03
            3181            3601     41.7941E-03     43.2326E-03
            3201            3602     39.7886E-03     41.3200E-03
            3200            3602     39.7886E-03     41.3200E-03
            3183            3602     39.7886E-03     41.3200E-03
            3182            3602     39.7886E-03     41.3200E-03
            3202            3603     37.9595E-03     39.5897E-03
            3184            3603     37.9595E-03     39.5897E-03
            3183            3603     37.9595E-03     39.5897E-03
            3201            3603     37.9595E-03     39.5897E-03
            3202            3604     36.2792E-03     37.9868E-03
            3203            3604     36.2792E-03     37.9868E-03
            3185            3604     36.2792E-03     37.9868E-03
            3184            3604     36.2792E-03     37.9868E-03
            3185            3605     34.6671E-03     36.4379E-03
            3204            3605     34.6671E-03     36.4379E-03
            3203            3605     34.6671E-03     36.4379E-03
            3186            3605     34.6671E-03     36.4379E-03
            3186            3606     33.1337E-03     34.9422E-03
            3187            3606     33.1337E-03     34.9422E-03
            3205            3606     33.1337E-03     34.9422E-03
            3204            3606     33.1337E-03     34.9422E-03
            3188            3607     31.6507E-03     33.4789E-03
            3187            3607     31.6507E-03     33.4789E-03
            3206            3607     31.6507E-03     33.4789E-03
            3205            3607     31.6507E-03     33.4789E-03
            3189            3608     30.2782E-03     32.0974E-03
            3206            3608     30.2782E-03     32.0974E-03
            3188            3608     30.2782E-03     32.0974E-03
            3207            3608     30.2782E-03     32.0974E-03
            3208            3609     29.0127E-03     30.8017E-03
            3189            3609     29.0127E-03     30.8017E-03
            3190            3609     29.0127E-03     30.8017E-03
            3207            3609     29.0127E-03     30.8017E-03
            3209            3610     28.0474E-03     29.7666E-03
            3208            3610     28.0474E-03     29.7666E-03
            3191            3610     28.0474E-03     29.7666E-03
            3190            3610     28.0474E-03     29.7666E-03
            3191            3611     27.3790E-03     29.0044E-03
            3192            3611     27.3790E-03     29.0044E-03
            3209            3611     27.3790E-03     29.0044E-03
            3210            3611     27.3790E-03     29.0044E-03
            3210            3612     27.8545E-03     29.3127E-03
            3193            3612     27.8545E-03     29.3127E-03
            3211            3612     27.8545E-03     29.3127E-03
            3192            3612     27.8545E-03     29.3127E-03
            3193            3613     29.6448E-03     31.0050E-03
            3212            3613     29.6448E-03     31.0050E-03
            3211            3613     29.6448E-03     31.0050E-03
            3194            3613     29.6448E-03     31.0050E-03
            3196            3614     58.1167E-03     58.8461E-03
            3195            3614     58.1167E-03     58.8461E-03
            3214            3614     58.1167E-03     58.8461E-03
            3213            3614     58.1167E-03     58.8461E-03
            3197            3615     54.6306E-03     54.4659E-03
            3215            3615     54.6306E-03     54.4659E-03
            3214            3615     54.6306E-03     54.4659E-03
            3196            3615     54.6306E-03     54.4659E-03
            3197            3616     52.3706E-03     52.2034E-03
            3216            3616     52.3706E-03     52.2034E-03
            3215            3616     52.3706E-03     52.2034E-03
            3198            3616     52.3706E-03     52.2034E-03
            3198            3617     50.2511E-03     50.3134E-03
            3199            3617     50.2511E-03     50.3134E-03
            3217            3617     50.2511E-03     50.3134E-03
            3216            3617     50.2511E-03     50.3134E-03
            3200            3618     48.3631E-03     48.6103E-03
            3217            3618     48.3631E-03     48.6103E-03
            3199            3618     48.3631E-03     48.6103E-03
            3218            3618     48.3631E-03     48.6103E-03
            3218            3619     46.4817E-03     46.9540E-03
            3219            3619     46.4817E-03     46.9540E-03
            3200            3619     46.4817E-03     46.9540E-03
            3201            3619     46.4817E-03     46.9540E-03
            3202            3620     44.6697E-03     45.2875E-03
            3220            3620     44.6697E-03     45.2875E-03
            3219            3620     44.6697E-03     45.2875E-03
            3201            3620     44.6697E-03     45.2875E-03
            3221            3621     42.8381E-03     43.5926E-03
            3202            3621     42.8381E-03     43.5926E-03
            3220            3621     42.8381E-03     43.5926E-03
            3203            3621     42.8381E-03     43.5926E-03
            3204            3622     41.0281E-03     41.8622E-03
            3203            3622     41.0281E-03     41.8622E-03
            3222            3622     41.0281E-03     41.8622E-03
            3221            3622     41.0281E-03     41.8622E-03
            3222            3623     39.2059E-03     40.1021E-03
            3204            3623     39.2059E-03     40.1021E-03
            3205            3623     39.2059E-03     40.1021E-03
            3223            3623     39.2059E-03     40.1021E-03
            3224            3624     37.4083E-03     38.3251E-03
            3223            3624     37.4083E-03     38.3251E-03
            3205            3624     37.4083E-03     38.3251E-03
            3206            3624     37.4083E-03     38.3251E-03
            3224            3625     35.6377E-03     36.5497E-03
            3207            3625     35.6377E-03     36.5497E-03
            3225            3625     35.6377E-03     36.5497E-03
            3206            3625     35.6377E-03     36.5497E-03
            3225            3626     33.9537E-03     34.8137E-03
            3226            3626     33.9537E-03     34.8137E-03
            3208            3626     33.9537E-03     34.8137E-03
            3207            3626     33.9537E-03     34.8137E-03
            3208            3627     32.4265E-03     33.1820E-03
            3226            3627     32.4265E-03     33.1820E-03
            3227            3627     32.4265E-03     33.1820E-03
            3209            3627     32.4265E-03     33.1820E-03
            3227            3628     31.2160E-03     31.7758E-03
            3210            3628     31.2160E-03     31.7758E-03
            3209            3628     31.2160E-03     31.7758E-03
            3228            3628     31.2160E-03     31.7758E-03
            3210            3629     30.6513E-03     30.9147E-03
            3228            3629     30.6513E-03     30.9147E-03
            3229            3629     30.6513E-03     30.9147E-03
            3211            3629     30.6513E-03     30.9147E-03
            3212            3630     32.2632E-03     31.9727E-03
            3211            3630     32.2632E-03     31.9727E-03
            3230            3630     32.2632E-03     31.9727E-03
            3229            3630     32.2632E-03     31.9727E-03
            3214            3631     60.8714E-03     59.8329E-03
            3213            3631     60.8714E-03     59.8329E-03
            3232            3631     60.8714E-03     59.8329E-03
            3231            3631     60.8714E-03     59.8329E-03
            3214            3632     60.4613E-03     59.6630E-03
            3233            3632     60.4613E-03     59.6630E-03
            3232            3632     60.4613E-03     59.6630E-03
            3215            3632     60.4613E-03     59.6630E-03
            3215            3633     59.4963E-03     58.7562E-03
            3216            3633     59.4963E-03     58.7562E-03
            3233            3633     59.4963E-03     58.7562E-03
            3234            3633     59.4963E-03     58.7562E-03
            3235            3634     58.1410E-03     57.5189E-03
            3217            3634     58.1410E-03     57.5189E-03
            3234            3634     58.1410E-03     57.5189E-03
            3216            3634     58.1410E-03     57.5189E-03
            3217            3635     56.4620E-03     56.0059E-03
            3235            3635     56.4620E-03     56.0059E-03
            3236            3635     56.4620E-03     56.0059E-03
            3218            3635     56.4620E-03     56.0059E-03
            3218            3636     54.6138E-03     54.2968E-03
            3236            3636     54.6138E-03     54.2968E-03
            3219            3636     54.6138E-03     54.2968E-03
            3237            3636     54.6138E-03     54.2968E-03
            3238            3637     52.6170E-03     52.4190E-03
            3219            3637     52.6170E-03     52.4190E-03
            3237            3637     52.6170E-03     52.4190E-03
            3220            3637     52.6170E-03     52.4190E-03
            3220            3638     50.5368E-03     50.4306E-03
            3238            3638     50.5368E-03     50.4306E-03
            3221            3638     50.5368E-03     50.4306E-03
            3239            3638     50.5368E-03     50.4306E-03
            3240            3639     48.3909E-03     48.3448E-03
            3222            3639     48.3909E-03     48.3448E-03
            3239            3639     48.3909E-03     48.3448E-03
            3221            3639     48.3909E-03     48.3448E-03
            3223            3640     46.2082E-03     46.2027E-03
            3241            3640     46.2082E-03     46.2027E-03
            3222            3640     46.2082E-03     46.2027E-03
            3240            3640     46.2082E-03     46.2027E-03
            3241            3641     43.9940E-03     44.0006E-03
            3242            3641     43.9940E-03     44.0006E-03
            3224            3641     43.9940E-03     44.0006E-03
            3223            3641     43.9940E-03     44.0006E-03
            3242            3642     41.7873E-03     41.7826E-03
            3243            3642     41.7873E-03     41.7826E-03
            3224            3642     41.7873E-03     41.7826E-03
            3225            3642     41.7873E-03     41.7826E-03
            3244            3643     39.5705E-03     39.5223E-03
            3225            3643     39.5705E-03     39.5223E-03
            3243            3643     39.5705E-03     39.5223E-03
            3226            3643     39.5705E-03     39.5223E-03
            3226            3644     37.4648E-03     37.3334E-03
            3244            3644     37.4648E-03     37.3334E-03
            3227            3644     37.4648E-03     37.3334E-03
            3245            3644     37.4648E-03     37.3334E-03
            3245            3645     35.3934E-03     35.1629E-03
            3228            3645     35.3934E-03     35.1629E-03
            3227            3645     35.3934E-03     35.1629E-03
            3246            3645     35.3934E-03     35.1629E-03
            3247            3646     33.8048E-03     33.5596E-03
            3228            3646     33.8048E-03     33.5596E-03
            3229            3646     33.8048E-03     33.5596E-03
            3246            3646     33.8048E-03     33.5596E-03
            3247            3647     31.8205E-03     32.4419E-03
            3230            3647     31.8205E-03     32.4419E-03
            3229            3647     31.8205E-03     32.4419E-03
            3248            3647     31.8205E-03     32.4419E-03
            3232            3648     63.9122E-03     64.2980E-03
            3249            3648     63.9122E-03     64.2980E-03
            3250            3648     63.9122E-03     64.2980E-03
            3231            3648     63.9122E-03     64.2980E-03
            3251            3649     62.9011E-03     63.5318E-03
            3250            3649     62.9011E-03     63.5318E-03
            3232            3649     62.9011E-03     63.5318E-03
            3233            3649     62.9011E-03     63.5318E-03
            3251            3650     61.7570E-03     62.2555E-03
            3233            3650     61.7570E-03     62.2555E-03
            3234            3650     61.7570E-03     62.2555E-03
            3252            3650     61.7570E-03     62.2555E-03
            3252            3651     60.1856E-03     60.5703E-03
            3235            3651     60.1856E-03     60.5703E-03
            3253            3651     60.1856E-03     60.5703E-03
            3234            3651     60.1856E-03     60.5703E-03
            3253            3652     58.3221E-03     58.6138E-03
            3236            3652     58.3221E-03     58.6138E-03
            3235            3652     58.3221E-03     58.6138E-03
            3254            3652     58.3221E-03     58.6138E-03
            3236            3653     56.2343E-03     56.5053E-03
            3254            3653     56.2343E-03     56.5053E-03
            3255            3653     56.2343E-03     56.5053E-03
            3237            3653     56.2343E-03     56.5053E-03
            3237            3654     54.0350E-03     54.2991E-03
            3238            3654     54.0350E-03     54.2991E-03
            3255            3654     54.0350E-03     54.2991E-03
            3256            3654     54.0350E-03     54.2991E-03
            3256            3655     51.7689E-03     52.0361E-03
            3238            3655     51.7689E-03     52.0361E-03
            3257            3655     51.7689E-03     52.0361E-03
            3239            3655     51.7689E-03     52.0361E-03
            3240            3656     49.4713E-03     49.7472E-03
            3257            3656     49.4713E-03     49.7472E-03
            3258            3656     49.4713E-03     49.7472E-03
            3239            3656     49.4713E-03     49.7472E-03
            3258            3657     47.1657E-03     47.4410E-03
            3240            3657     47.1657E-03     47.4410E-03
            3241            3657     47.1657E-03     47.4410E-03
            3259            3657     47.1657E-03     47.4410E-03
            3241            3658     44.8590E-03     45.1347E-03
            3242            3658     44.8590E-03     45.1347E-03
            3259            3658     44.8590E-03     45.1347E-03
            3260            3658     44.8590E-03     45.1347E-03
            3243            3659     42.5527E-03     42.8197E-03
            3261            3659     42.5527E-03     42.8197E-03
            3242            3659     42.5527E-03     42.8197E-03
            3260            3659     42.5527E-03     42.8197E-03
            3243            3660     40.2556E-03     40.5274E-03
            3244            3660     40.2556E-03     40.5274E-03
            3262            3660     40.2556E-03     40.5274E-03
            3261            3660     40.2556E-03     40.5274E-03
            3263            3661     37.9400E-03     38.2524E-03
            3245            3661     37.9400E-03     38.2524E-03
            3262            3661     37.9400E-03     38.2524E-03
            3244            3661     37.9400E-03     38.2524E-03
            3245            3662     35.6093E-03     36.0823E-03
            3263            3662     35.6093E-03     36.0823E-03
            3246            3662     35.6093E-03     36.0823E-03
            3264            3662     35.6093E-03     36.0823E-03
            3246            3663     33.1354E-03     34.3096E-03
            3264            3663     33.1354E-03     34.3096E-03
            3265            3663     33.1354E-03     34.3096E-03
            3247            3663     33.1354E-03     34.3096E-03
            3265            3664     29.5039E-03     31.7009E-03
            3247            3664     29.5039E-03     31.7009E-03
            3248            3664     29.5039E-03     31.7009E-03
            3266            3664     29.5039E-03     31.7009E-03
            3249            3665     66.6687E-03     67.6566E-03
            3268            3665     66.6687E-03     67.6566E-03
            3267            3665     66.6687E-03     67.6566E-03
            3250            3665     66.6687E-03     67.6566E-03
            3250            3666     65.1830E-03     66.4450E-03
            3268            3666     65.1830E-03     66.4450E-03
            3251            3666     65.1830E-03     66.4450E-03
            3269            3666     65.1830E-03     66.4450E-03
            3269            3667     63.6504E-03     64.9078E-03
            3270            3667     63.6504E-03     64.9078E-03
            3252            3667     63.6504E-03     64.9078E-03
            3251            3667     63.6504E-03     64.9078E-03
            3270            3668     61.8186E-03     62.9162E-03
            3271            3668     61.8186E-03     62.9162E-03
            3253            3668     61.8186E-03     62.9162E-03
            3252            3668     61.8186E-03     62.9162E-03
            3271            3669     59.7128E-03     60.6501E-03
            3254            3669     59.7128E-03     60.6501E-03
            3272            3669     59.7128E-03     60.6501E-03
            3253            3669     59.7128E-03     60.6501E-03
            3255            3670     57.4289E-03     58.2407E-03
            3254            3670     57.4289E-03     58.2407E-03
            3272            3670     57.4289E-03     58.2407E-03
            3273            3670     57.4289E-03     58.2407E-03
            3256            3671     55.0628E-03     55.7816E-03
            3255            3671     55.0628E-03     55.7816E-03
            3273            3671     55.0628E-03     55.7816E-03
            3274            3671     55.0628E-03     55.7816E-03
            3274            3672     52.6543E-03     53.3169E-03
            3275            3672     52.6543E-03     53.3169E-03
            3257            3672     52.6543E-03     53.3169E-03
            3256            3672     52.6543E-03     53.3169E-03
            3258            3673     50.2547E-03     50.8732E-03
            3276            3673     50.2547E-03     50.8732E-03
            3275            3673     50.2547E-03     50.8732E-03
            3257            3673     50.2547E-03     50.8732E-03
            3258            3674     47.8578E-03     48.4541E-03
            3276            3674     47.8578E-03     48.4541E-03
            3277            3674     47.8578E-03     48.4541E-03
            3259            3674     47.8578E-03     48.4541E-03
            3278            3675     45.4867E-03     46.0699E-03
            3277            3675     45.4867E-03     46.0699E-03
            3260            3675     45.4867E-03     46.0699E-03
            3259            3675     45.4867E-03     46.0699E-03
            3261            3676     43.1130E-03     43.7096E-03
            3278            3676     43.1130E-03     43.7096E-03
            3279            3676     43.1130E-03     43.7096E-03
            3260            3676     43.1130E-03     43.7096E-03
            3280            3677     40.7324E-03     41.3835E-03
            3279            3677     40.7324E-03     41.3835E-03
            3261            3677     40.7324E-03     41.3835E-03
            3262            3677     40.7324E-03     41.3835E-03
            3262            3678     38.2697E-03     39.0539E-03
            3263            3678     38.2697E-03     39.0539E-03
            3280            3678     38.2697E-03     39.0539E-03
            3281            3678     38.2697E-03     39.0539E-03
            3264            3679     35.6654E-03     36.8141E-03
            3282            3679     35.6654E-03     36.8141E-03
            3263            3679     35.6654E-03     36.8141E-03
            3281            3679     35.6654E-03     36.8141E-03
            3282            3680     32.5629E-03     34.2287E-03
            3283            3680     32.5629E-03     34.2287E-03
            3265            3680     32.5629E-03     34.2287E-03
            3264            3680     32.5629E-03     34.2287E-03
            3283            3681     28.9906E-03     30.6641E-03
            3265            3681     28.9906E-03     30.6641E-03
            3266            3681     28.9906E-03     30.6641E-03
            3284            3681     28.9906E-03     30.6641E-03
            3285            3682     69.1924E-03     70.1328E-03
            3286            3682     69.1924E-03     70.1328E-03
            3267            3682     69.1924E-03     70.1328E-03
            3268            3682     69.1924E-03     70.1328E-03
            3269            3683     67.1750E-03     68.7126E-03
            3286            3683     67.1750E-03     68.7126E-03
            3287            3683     67.1750E-03     68.7126E-03
            3268            3683     67.1750E-03     68.7126E-03
            3270            3684     65.1913E-03     66.8079E-03
            3269            3684     65.1913E-03     66.8079E-03
            3287            3684     65.1913E-03     66.8079E-03
            3288            3684     65.1913E-03     66.8079E-03
            3271            3685     62.9791E-03     64.5268E-03
            3270            3685     62.9791E-03     64.5268E-03
            3289            3685     62.9791E-03     64.5268E-03
            3288            3685     62.9791E-03     64.5268E-03
            3289            3686     60.5824E-03     61.9910E-03
            3272            3686     60.5824E-03     61.9910E-03
            3290            3686     60.5824E-03     61.9910E-03
            3271            3686     60.5824E-03     61.9910E-03
            3291            3687     58.1122E-03     59.3537E-03
            3272            3687     58.1122E-03     59.3537E-03
            3290            3687     58.1122E-03     59.3537E-03
            3273            3687     58.1122E-03     59.3537E-03
            3291            3688     55.5912E-03     56.7179E-03
            3292            3688     55.5912E-03     56.7179E-03
            3273            3688     55.5912E-03     56.7179E-03
            3274            3688     55.5912E-03     56.7179E-03
            3274            3689     53.1047E-03     54.1283E-03
            3275            3689     53.1047E-03     54.1283E-03
            3292            3689     53.1047E-03     54.1283E-03
            3293            3689     53.1047E-03     54.1283E-03
            3293            3690     50.6273E-03     51.5870E-03
            3276            3690     50.6273E-03     51.5870E-03
            3275            3690     50.6273E-03     51.5870E-03
            3294            3690     50.6273E-03     51.5870E-03
            3276            3691     48.1970E-03     49.1131E-03
            3294            3691     48.1970E-03     49.1131E-03
            3277            3691     48.1970E-03     49.1131E-03
            3295            3691     48.1970E-03     49.1131E-03
            3277            3692     45.7798E-03     46.6837E-03
            3278            3692     45.7798E-03     46.6837E-03
            3296            3692     45.7798E-03     46.6837E-03
            3295            3692     45.7798E-03     46.6837E-03
            3278            3693     43.3983E-03     44.3267E-03
            3279            3693     43.3983E-03     44.3267E-03
            3296            3693     43.3983E-03     44.3267E-03
            3297            3693     43.3983E-03     44.3267E-03
            3280            3694     40.9739E-03     41.9827E-03
            3297            3694     40.9739E-03     41.9827E-03
            3279            3694     40.9739E-03     41.9827E-03
            3298            3694     40.9739E-03     41.9827E-03
            3280            3695     38.4731E-03     39.6652E-03
            3298            3695     38.4731E-03     39.6652E-03
            3281            3695     38.4731E-03     39.6652E-03
            3299            3695     38.4731E-03     39.6652E-03
            3299            3696     35.7082E-03     37.1887E-03
            3300            3696     35.7082E-03     37.1887E-03
            3281            3696     35.7082E-03     37.1887E-03
            3282            3696     35.7082E-03     37.1887E-03
            3283            3697     32.5620E-03     34.2025E-03
            3300            3697     32.5620E-03     34.2025E-03
            3282            3697     32.5620E-03     34.2025E-03
            3301            3697     32.5620E-03     34.2025E-03
            3301            3698     29.0482E-03     30.9221E-03
            3302            3698     29.0482E-03     30.9221E-03
            3284            3698     29.0482E-03     30.9221E-03
            3283            3698     29.0482E-03     30.9221E-03
            3286            3699     71.2839E-03     72.5091E-03
            3285            3699     71.2839E-03     72.5091E-03
            3304            3699     71.2839E-03     72.5091E-03
            3303            3699     71.2839E-03     72.5091E-03
            3305            3700     68.9375E-03     70.4502E-03
            3304            3700     68.9375E-03     70.4502E-03
            3286            3700     68.9375E-03     70.4502E-03
            3287            3700     68.9375E-03     70.4502E-03
            3287            3701     66.3059E-03     68.1204E-03
            3306            3701     66.3059E-03     68.1204E-03
            3288            3701     66.3059E-03     68.1204E-03
            3305            3701     66.3059E-03     68.1204E-03
            3306            3702     63.6200E-03     65.4289E-03
            3288            3702     63.6200E-03     65.4289E-03
            3307            3702     63.6200E-03     65.4289E-03
            3289            3702     63.6200E-03     65.4289E-03
            3307            3703     60.9126E-03     62.5967E-03
            3308            3703     60.9126E-03     62.5967E-03
            3289            3703     60.9126E-03     62.5967E-03
            3290            3703     60.9126E-03     62.5967E-03
            3291            3704     58.2101E-03     59.7892E-03
            3308            3704     58.2101E-03     59.7892E-03
            3309            3704     58.2101E-03     59.7892E-03
            3290            3704     58.2101E-03     59.7892E-03
            3309            3705     55.6205E-03     57.0589E-03
            3292            3705     55.6205E-03     57.0589E-03
            3310            3705     55.6205E-03     57.0589E-03
            3291            3705     55.6205E-03     57.0589E-03
            3293            3706     53.0639E-03     54.4057E-03
            3310            3706     53.0639E-03     54.4057E-03
            3311            3706     53.0639E-03     54.4057E-03
            3292            3706     53.0639E-03     54.4057E-03
            3312            3707     50.5793E-03     51.8435E-03
            3293            3707     50.5793E-03     51.8435E-03
            3294            3707     50.5793E-03     51.8435E-03
            3311            3707     50.5793E-03     51.8435E-03
            3294            3708     48.1264E-03     49.3460E-03
            3295            3708     48.1264E-03     49.3460E-03
            3313            3708     48.1264E-03     49.3460E-03
            3312            3708     48.1264E-03     49.3460E-03
            3313            3709     45.7316E-03     46.9374E-03
            3296            3709     45.7316E-03     46.9374E-03
            3314            3709     45.7316E-03     46.9374E-03
            3295            3709     45.7316E-03     46.9374E-03
            3315            3710     43.3463E-03     44.5762E-03
            3296            3710     43.3463E-03     44.5762E-03
            3297            3710     43.3463E-03     44.5762E-03
            3314            3710     43.3463E-03     44.5762E-03
            3298            3711     40.9994E-03     42.3100E-03
            3316            3711     40.9994E-03     42.3100E-03
            3315            3711     40.9994E-03     42.3100E-03
            3297            3711     40.9994E-03     42.3100E-03
            3317            3712     38.5490E-03     40.0165E-03
            3316            3712     38.5490E-03     40.0165E-03
            3298            3712     38.5490E-03     40.0165E-03
            3299            3712     38.5490E-03     40.0165E-03
            3317            3713     35.8943E-03     37.5026E-03
            3299            3713     35.8943E-03     37.5026E-03
            3318            3713     35.8943E-03     37.5026E-03
            3300            3713     35.8943E-03     37.5026E-03
            3301            3714     32.8961E-03     34.7168E-03
            3319            3714     32.8961E-03     34.7168E-03
            3300            3714     32.8961E-03     34.7168E-03
            3318            3714     32.8961E-03     34.7168E-03
            3302            3715     29.5581E-03     31.4428E-03
            3301            3715     29.5581E-03     31.4428E-03
            3319            3715     29.5581E-03     31.4428E-03
            3320            3715     29.5581E-03     31.4428E-03
            3303            3716     73.4357E-03     74.5428E-03
            3304            3716     73.4357E-03     74.5428E-03
            3322            3716     73.4357E-03     74.5428E-03
            3321            3716     73.4357E-03     74.5428E-03
            3323            3717     70.2096E-03     71.9430E-03
            3304            3717     70.2096E-03     71.9430E-03
            3305            3717     70.2096E-03     71.9430E-03
            3322            3717     70.2096E-03     71.9430E-03
            3323            3718     66.9609E-03     68.8045E-03
            3306            3718     66.9609E-03     68.8045E-03
            3305            3718     66.9609E-03     68.8045E-03
            3324            3718     66.9609E-03     68.8045E-03
            3324            3719     63.6792E-03     65.5681E-03
            3306            3719     63.6792E-03     65.5681E-03
            3325            3719     63.6792E-03     65.5681E-03
            3307            3719     63.6792E-03     65.5681E-03
            3326            3720     60.5807E-03     62.4726E-03
            3307            3720     60.5807E-03     62.4726E-03
            3308            3720     60.5807E-03     62.4726E-03
            3325            3720     60.5807E-03     62.4726E-03
            3309            3721     57.7992E-03     59.5745E-03
            3326            3721     57.7992E-03     59.5745E-03
            3327            3721     57.7992E-03     59.5745E-03
            3308            3721     57.7992E-03     59.5745E-03
            3327            3722     55.1343E-03     56.8162E-03
            3310            3722     55.1343E-03     56.8162E-03
            3309            3722     55.1343E-03     56.8162E-03
            3328            3722     55.1343E-03     56.8162E-03
            3310            3723     52.5941E-03     54.1878E-03
            3329            3723     52.5941E-03     54.1878E-03
            3311            3723     52.5941E-03     54.1878E-03
            3328            3723     52.5941E-03     54.1878E-03
            3311            3724     50.1134E-03     51.6453E-03
            3330            3724     50.1134E-03     51.6453E-03
            3312            3724     50.1134E-03     51.6453E-03
            3329            3724     50.1134E-03     51.6453E-03
            3312            3725     47.6973E-03     49.1918E-03
            3330            3725     47.6973E-03     49.1918E-03
            3331            3725     47.6973E-03     49.1918E-03
            3313            3725     47.6973E-03     49.1918E-03
            3331            3726     45.3217E-03     46.8022E-03
            3332            3726     45.3217E-03     46.8022E-03
            3313            3726     45.3217E-03     46.8022E-03
            3314            3726     45.3217E-03     46.8022E-03
            3332            3727     43.0146E-03     44.5119E-03
            3314            3727     43.0146E-03     44.5119E-03
            3315            3727     43.0146E-03     44.5119E-03
            3333            3727     43.0146E-03     44.5119E-03
            3333            3728     40.7295E-03     42.2821E-03
            3316            3728     40.7295E-03     42.2821E-03
            3334            3728     40.7295E-03     42.2821E-03
            3315            3728     40.7295E-03     42.2821E-03
            3317            3729     38.5342E-03     40.1660E-03
            3334            3729     38.5342E-03     40.1660E-03
            3316            3729     38.5342E-03     40.1660E-03
            3335            3729     38.5342E-03     40.1660E-03
            3317            3730     36.1887E-03     37.9787E-03
            3336            3730     36.1887E-03     37.9787E-03
            3318            3730     36.1887E-03     37.9787E-03
            3335            3730     36.1887E-03     37.9787E-03
            3336            3731     33.5019E-03     35.3770E-03
            3337            3731     33.5019E-03     35.3770E-03
            3319            3731     33.5019E-03     35.3770E-03
            3318            3731     33.5019E-03     35.3770E-03
            3320            3732     30.3794E-03     32.3481E-03
            3338            3732     30.3794E-03     32.3481E-03
            3319            3732     30.3794E-03     32.3481E-03
            3337            3732     30.3794E-03     32.3481E-03
            3339            3733     75.1150E-03     76.6913E-03
            3340            3733     75.1150E-03     76.6913E-03
            3322            3733     75.1150E-03     76.6913E-03
            3321            3733     75.1150E-03     76.6913E-03
            3322            3734     71.2102E-03     72.7472E-03
            3341            3734     71.2102E-03     72.7472E-03
            3340            3734     71.2102E-03     72.7472E-03
            3323            3734     71.2102E-03     72.7472E-03
            3323            3735     66.8408E-03     68.6269E-03
            3341            3735     66.8408E-03     68.6269E-03
            3342            3735     66.8408E-03     68.6269E-03
            3324            3735     66.8408E-03     68.6269E-03
            3343            3736     62.8964E-03     64.8778E-03
            3324            3736     62.8964E-03     64.8778E-03
            3325            3736     62.8964E-03     64.8778E-03
            3342            3736     62.8964E-03     64.8778E-03
            3325            3737     59.7299E-03     61.6801E-03
            3344            3737     59.7299E-03     61.6801E-03
            3326            3737     59.7299E-03     61.6801E-03
            3343            3737     59.7299E-03     61.6801E-03
            3345            3738     56.8790E-03     58.7772E-03
            3344            3738     56.8790E-03     58.7772E-03
            3327            3738     56.8790E-03     58.7772E-03
            3326            3738     56.8790E-03     58.7772E-03
            3328            3739     54.2554E-03     56.1000E-03
            3345            3739     54.2554E-03     56.1000E-03
            3346            3739     54.2554E-03     56.1000E-03
            3327            3739     54.2554E-03     56.1000E-03
            3328            3740     51.7526E-03     53.5502E-03
            3329            3740     51.7526E-03     53.5502E-03
            3347            3740     51.7526E-03     53.5502E-03
            3346            3740     51.7526E-03     53.5502E-03
            3348            3741     49.3255E-03     51.0944E-03
            3330            3741     49.3255E-03     51.0944E-03
            3329            3741     49.3255E-03     51.0944E-03
            3347            3741     49.3255E-03     51.0944E-03
            3349            3742     46.9559E-03     48.7042E-03
            3330            3742     46.9559E-03     48.7042E-03
            3348            3742     46.9559E-03     48.7042E-03
            3331            3742     46.9559E-03     48.7042E-03
            3349            3743     44.6402E-03     46.3818E-03
            3331            3743     44.6402E-03     46.3818E-03
            3332            3743     44.6402E-03     46.3818E-03
            3350            3743     44.6402E-03     46.3818E-03
            3351            3744     42.3911E-03     44.1360E-03
            3350            3744     42.3911E-03     44.1360E-03
            3333            3744     42.3911E-03     44.1360E-03
            3332            3744     42.3911E-03     44.1360E-03
            3334            3745     40.2520E-03     42.0096E-03
            3351            3745     40.2520E-03     42.0096E-03
            3352            3745     40.2520E-03     42.0096E-03
            3333            3745     40.2520E-03     42.0096E-03
            3334            3746     38.2218E-03     40.0169E-03
            3352            3746     38.2218E-03     40.0169E-03
            3335            3746     38.2218E-03     40.0169E-03
            3353            3746     38.2218E-03     40.0169E-03
            3336            3747     36.5020E-03     38.3547E-03
            3354            3747     36.5020E-03     38.3547E-03
            3353            3747     36.5020E-03     38.3547E-03
            3335            3747     36.5020E-03     38.3547E-03
            3337            3748     34.4797E-03     36.4872E-03
            3336            3748     34.4797E-03     36.4872E-03
            3354            3748     34.4797E-03     36.4872E-03
            3355            3748     34.4797E-03     36.4872E-03
            3356            3749     31.6049E-03     33.6503E-03
            3355            3749     31.6049E-03     33.6503E-03
            3337            3749     31.6049E-03     33.6503E-03
            3338            3749     31.6049E-03     33.6503E-03
            3357            3750     76.9979E-03     77.6220E-03
            3358            3750     76.9979E-03     77.6220E-03
            3340            3750     76.9979E-03     77.6220E-03
            3339            3750     76.9979E-03     77.6220E-03
            3341            3751     71.0003E-03     72.3986E-03
            3340            3751     71.0003E-03     72.3986E-03
            3358            3751     71.0003E-03     72.3986E-03
            3359            3751     71.0003E-03     72.3986E-03
            3360            3752     65.4068E-03     67.2658E-03
            3359            3752     65.4068E-03     67.2658E-03
            3342            3752     65.4068E-03     67.2658E-03
            3341            3752     65.4068E-03     67.2658E-03
            3361            3753     61.5501E-03     63.4649E-03
            3342            3753     61.5501E-03     63.4649E-03
            3360            3753     61.5501E-03     63.4649E-03
            3343            3753     61.5501E-03     63.4649E-03
            3343            3754     58.4010E-03     60.3157E-03
            3361            3754     58.4010E-03     60.3157E-03
            3362            3754     58.4010E-03     60.3157E-03
            3344            3754     58.4010E-03     60.3157E-03
            3345            3755     55.6275E-03     57.5722E-03
            3362            3755     55.6275E-03     57.5722E-03
            3363            3755     55.6275E-03     57.5722E-03
            3344            3755     55.6275E-03     57.5722E-03
            3364            3756     53.0937E-03     55.0487E-03
            3363            3756     53.0937E-03     55.0487E-03
            3346            3756     53.0937E-03     55.0487E-03
            3345            3756     53.0937E-03     55.0487E-03
            3346            3757     50.6636E-03     52.6433E-03
            3365            3757     50.6636E-03     52.6433E-03
            3347            3757     50.6636E-03     52.6433E-03
            3364            3757     50.6636E-03     52.6433E-03
            3365            3758     48.3163E-03     50.3098E-03
            3366            3758     48.3163E-03     50.3098E-03
            3348            3758     48.3163E-03     50.3098E-03
            3347            3758     48.3163E-03     50.3098E-03
            3366            3759     46.0072E-03     48.0138E-03
            3349            3759     46.0072E-03     48.0138E-03
            3367            3759     46.0072E-03     48.0138E-03
            3348            3759     46.0072E-03     48.0138E-03
            3367            3760     43.7618E-03     45.7710E-03
            3350            3760     43.7618E-03     45.7710E-03
            3368            3760     43.7618E-03     45.7710E-03
            3349            3760     43.7618E-03     45.7710E-03
            3350            3761     41.5779E-03     43.5803E-03
            3351            3761     41.5779E-03     43.5803E-03
            3368            3761     41.5779E-03     43.5803E-03
            3369            3761     41.5779E-03     43.5803E-03
            3352            3762     39.5428E-03     41.5263E-03
            3351            3762     39.5428E-03     41.5263E-03
            3369            3762     39.5428E-03     41.5263E-03
            3370            3762     39.5428E-03     41.5263E-03
            3352            3763     37.7109E-03     39.6631E-03
            3371            3763     37.7109E-03     39.6631E-03
            3353            3763     37.7109E-03     39.6631E-03
            3370            3763     37.7109E-03     39.6631E-03
            3353            3764     36.2768E-03     38.1859E-03
            3354            3764     36.2768E-03     38.1859E-03
            3372            3764     36.2768E-03     38.1859E-03
            3371            3764     36.2768E-03     38.1859E-03
            3373            3765     35.6616E-03     37.6089E-03
            3354            3765     35.6616E-03     37.6089E-03
            3355            3765     35.6616E-03     37.6089E-03
            3372            3765     35.6616E-03     37.6089E-03
            3373            3766     33.8913E-03     36.0907E-03
            3355            3766     33.8913E-03     36.0907E-03
            3356            3766     33.8913E-03     36.0907E-03
            3374            3766     33.8913E-03     36.0907E-03
            3376            3767     76.6606E-03     77.8772E-03
            3357            3767     76.6606E-03     77.8772E-03
            3375            3767     76.6606E-03     77.8772E-03
            3358            3767     76.6606E-03     77.8772E-03
            3358            3768     68.4924E-03     70.1585E-03
            3377            3768     68.4924E-03     70.1585E-03
            3359            3768     68.4924E-03     70.1585E-03
            3376            3768     68.4924E-03     70.1585E-03
            3378            3769     63.4085E-03     65.0061E-03
            3360            3769     63.4085E-03     65.0061E-03
            3377            3769     63.4085E-03     65.0061E-03
            3359            3769     63.4085E-03     65.0061E-03
            3379            3770     59.8646E-03     61.5165E-03
            3360            3770     59.8646E-03     61.5165E-03
            3361            3770     59.8646E-03     61.5165E-03
            3378            3770     59.8646E-03     61.5165E-03
            3361            3771     56.8386E-03     58.6393E-03
            3362            3771     56.8386E-03     58.6393E-03
            3379            3771     56.8386E-03     58.6393E-03
            3380            3771     56.8386E-03     58.6393E-03
            3362            3772     54.2338E-03     56.1701E-03
            3381            3772     54.2338E-03     56.1701E-03
            3380            3772     54.2338E-03     56.1701E-03
            3363            3772     54.2338E-03     56.1701E-03
            3382            3773     51.7832E-03     53.8524E-03
            3381            3773     51.7832E-03     53.8524E-03
            3363            3773     51.7832E-03     53.8524E-03
            3364            3773     51.7832E-03     53.8524E-03
            3364            3774     49.4651E-03     51.6343E-03
            3382            3774     49.4651E-03     51.6343E-03
            3383            3774     49.4651E-03     51.6343E-03
            3365            3774     49.4651E-03     51.6343E-03
            3365            3775     47.1891E-03     49.4336E-03
            3383            3775     47.1891E-03     49.4336E-03
            3384            3775     47.1891E-03     49.4336E-03
            3366            3775     47.1891E-03     49.4336E-03
            3367            3776     44.9706E-03     47.2621E-03
            3385            3776     44.9706E-03     47.2621E-03
            3366            3776     44.9706E-03     47.2621E-03
            3384            3776     44.9706E-03     47.2621E-03
            3386            3777     42.7790E-03     45.0906E-03
            3385            3777     42.7790E-03     45.0906E-03
            3367            3777     42.7790E-03     45.0906E-03
            3368            3777     42.7790E-03     45.0906E-03
            3368            3778     40.6866E-03     42.9888E-03
            3369            3778     40.6866E-03     42.9888E-03
            3386            3778     40.6866E-03     42.9888E-03
            3387            3778     40.6866E-03     42.9888E-03
            3370            3779     38.6876E-03     40.9462E-03
            3388            3779     38.6876E-03     40.9462E-03
            3369            3779     38.6876E-03     40.9462E-03
            3387            3779     38.6876E-03     40.9462E-03
            3389            3780     37.0147E-03     39.1798E-03
            3371            3780     37.0147E-03     39.1798E-03
            3370            3780     37.0147E-03     39.1798E-03
            3388            3780     37.0147E-03     39.1798E-03
            3390            3781     35.6583E-03     37.6936E-03
            3371            3781     35.6583E-03     37.6936E-03
            3389            3781     35.6583E-03     37.6936E-03
            3372            3781     35.6583E-03     37.6936E-03
            3372            3782     35.6336E-03     37.4308E-03
            3373            3782     35.6336E-03     37.4308E-03
            3391            3782     35.6336E-03     37.4308E-03
            3390            3782     35.6336E-03     37.4308E-03
            3374            3783     36.9948E-03     38.7294E-03
            3373            3783     36.9948E-03     38.7294E-03
            3391            3783     36.9948E-03     38.7294E-03
            3392            3783     36.9948E-03     38.7294E-03
            4348            4562     81.6018E-03     84.1714E-03
            4366            4562     81.6018E-03     84.1714E-03
            4365            4562     81.6018E-03     84.1714E-03
            4347            4562     81.6018E-03     84.1714E-03
            4366            4563     72.4827E-03     73.9737E-03
            4367            4563     72.4827E-03     73.9737E-03
            4349            4563     72.4827E-03     73.9737E-03
            4348            4563     72.4827E-03     73.9737E-03
            4349            4564     65.7646E-03     67.0519E-03
            4350            4564     65.7646E-03     67.0519E-03
            4368            4564     65.7646E-03     67.0519E-03
            4367            4564     65.7646E-03     67.0519E-03
            4369            4565     59.5595E-03     60.8844E-03
            4368            4565     59.5595E-03     60.8844E-03
            4351            4565     59.5595E-03     60.8844E-03
            4350            4565     59.5595E-03     60.8844E-03
            4352            4566     53.7987E-03     55.1631E-03
            4351            4566     53.7987E-03     55.1631E-03
            4370            4566     53.7987E-03     55.1631E-03
            4369            4566     53.7987E-03     55.1631E-03
            4352            4567     48.2061E-03     49.6721E-03
            4370            4567     48.2061E-03     49.6721E-03
            4371            4567     48.2061E-03     49.6721E-03
            4353            4567     48.2061E-03     49.6721E-03
            4353            4568     42.7616E-03     44.2905E-03
            4371            4568     42.7616E-03     44.2905E-03
            4354            4568     42.7616E-03     44.2905E-03
            4372            4568     42.7616E-03     44.2905E-03
            4355            4569     37.3762E-03     38.9770E-03
            4373            4569     37.3762E-03     38.9770E-03
            4372            4569     37.3762E-03     38.9770E-03
            4354            4569     37.3762E-03     38.9770E-03
            4355            4570     32.0395E-03     33.6814E-03
            4374            4570     32.0395E-03     33.6814E-03
            4373            4570     32.0395E-03     33.6814E-03
            4356            4570     32.0395E-03     33.6814E-03
            4356            4571     26.7228E-03     28.3964E-03
            4375            4571     26.7228E-03     28.3964E-03
            4374            4571     26.7228E-03     28.3964E-03
            4357            4571     26.7228E-03     28.3964E-03
            4357            4572     21.4146E-03     23.0973E-03
            4376            4572     21.4146E-03     23.0973E-03
            4358            4572     21.4146E-03     23.0973E-03
            4375            4572     21.4146E-03     23.0973E-03
            4358            4573     16.1224E-03     17.7872E-03
            4377            4573     16.1224E-03     17.7872E-03
            4376            4573     16.1224E-03     17.7872E-03
            4359            4573     16.1224E-03     17.7872E-03
            4378            4574     10.8345E-03     12.4491E-03
            4377            4574     10.8345E-03     12.4491E-03
            4359            4574     10.8345E-03     12.4491E-03
            4360            4574     10.8345E-03     12.4491E-03
            4379            4575     5.85376E-03     7.20803E-03
            4378            4575     5.85376E-03     7.20803E-03
            4360            4575     5.85376E-03     7.20803E-03
            4361            4575     5.85376E-03     7.20803E-03
            4362            4576     3.78408E-03     3.80802E-03
            4380            4576     3.78408E-03     3.80802E-03
            4361            4576     3.78408E-03     3.80802E-03
            4379            4576     3.78408E-03     3.80802E-03
            4380            4577     6.72572E-03     5.62877E-03
            4363            4577     6.72572E-03     5.62877E-03
            4381            4577     6.72572E-03     5.62877E-03
            4362            4577     6.72572E-03     5.62877E-03
            4364            4578     13.2975E-03     12.5224E-03
            4382            4578     13.2975E-03     12.5224E-03
            4381            4578     13.2975E-03     12.5224E-03
            4363            4578     13.2975E-03     12.5224E-03
            4383            4579     84.4393E-03     85.5515E-03
            4365            4579     84.4393E-03     85.5515E-03
            4384            4579     84.4393E-03     85.5515E-03
            4366            4579     84.4393E-03     85.5515E-03
            4385            4580     72.2171E-03     73.8608E-03
            4367            4580     72.2171E-03     73.8608E-03
            4384            4580     72.2171E-03     73.8608E-03
            4366            4580     72.2171E-03     73.8608E-03
            4386            4581     63.5462E-03     65.1229E-03
            4385            4581     63.5462E-03     65.1229E-03
            4368            4581     63.5462E-03     65.1229E-03
            4367            4581     63.5462E-03     65.1229E-03
            4386            4582     56.8369E-03     58.4195E-03
            4369            4582     56.8369E-03     58.4195E-03
            4368            4582     56.8369E-03     58.4195E-03
            4387            4582     56.8369E-03     58.4195E-03
            4387            4583     50.7878E-03     52.4687E-03
            4369            4583     50.7878E-03     52.4687E-03
            4370            4583     50.7878E-03     52.4687E-03
            4388            4583     50.7878E-03     52.4687E-03
            4370            4584     45.2812E-03     47.0675E-03
            4371            4584     45.2812E-03     47.0675E-03
            4389            4584     45.2812E-03     47.0675E-03
            4388            4584     45.2812E-03     47.0675E-03
            4390            4585     40.0036E-03     41.8941E-03
            4371            4585     40.0036E-03     41.8941E-03
            4372            4585     40.0036E-03     41.8941E-03
            4389            4585     40.0036E-03     41.8941E-03
            4372            4586     34.9029E-03     36.8798E-03
            4373            4586     34.9029E-03     36.8798E-03
            4391            4586     34.9029E-03     36.8798E-03
            4390            4586     34.9029E-03     36.8798E-03
            4391            4587     29.8817E-03     31.9207E-03
            4373            4587     29.8817E-03     31.9207E-03
            4374            4587     29.8817E-03     31.9207E-03
            4392            4587     29.8817E-03     31.9207E-03
            4375            4588     24.9140E-03     26.9889E-03
            4374            4588     24.9140E-03     26.9889E-03
            4392            4588     24.9140E-03     26.9889E-03
            4393            4588     24.9140E-03     26.9889E-03
            4394            4589     19.9780E-03     22.0522E-03
            4376            4589     19.9780E-03     22.0522E-03
            4375            4589     19.9780E-03     22.0522E-03
            4393            4589     19.9780E-03     22.0522E-03
            4376            4590     15.0624E-03     17.0889E-03
            4395            4590     15.0624E-03     17.0889E-03
            4394            4590     15.0624E-03     17.0889E-03
            4377            4590     15.0624E-03     17.0889E-03
            4377            4591     10.2426E-03     12.1193E-03
            4395            4591     10.2426E-03     12.1193E-03
            4396            4591     10.2426E-03     12.1193E-03
            4378            4591     10.2426E-03     12.1193E-03
            4397            4592     5.96656E-03     7.31131E-03
            4379            4592     5.96656E-03     7.31131E-03
            4396            4592     5.96656E-03     7.31131E-03
            4378            4592     5.96656E-03     7.31131E-03
            4380            4593     4.73054E-03     4.50791E-03
            4398            4593     4.73054E-03     4.50791E-03
            4379            4593     4.73054E-03     4.50791E-03
            4397            4593     4.73054E-03     4.50791E-03
            4380            4594     8.50600E-03     7.06574E-03
            4399            4594     8.50600E-03     7.06574E-03
            4398            4594     8.50600E-03     7.06574E-03
            4381            4594     8.50600E-03     7.06574E-03
            4399            4595     15.3755E-03     13.9347E-03
            4382            4595     15.3755E-03     13.9347E-03
            4381            4595     15.3755E-03     13.9347E-03
            4400            4595     15.3755E-03     13.9347E-03
            4401            4596     84.4379E-03     84.6311E-03
            4384            4596     84.4379E-03     84.6311E-03
            4402            4596     84.4379E-03     84.6311E-03
            4383            4596     84.4379E-03     84.6311E-03
            4403            4597     75.1300E-03     76.1353E-03
            4402            4597     75.1300E-03     76.1353E-03
            4385            4597     75.1300E-03     76.1353E-03
            4384            4597     75.1300E-03     76.1353E-03
            4404            4598     65.9663E-03     67.5579E-03
            4386            4598     65.9663E-03     67.5579E-03
            4403            4598     65.9663E-03     67.5579E-03
            4385            4598     65.9663E-03     67.5579E-03
            4405            4599     58.8475E-03     60.5666E-03
            4387            4599     58.8475E-03     60.5666E-03
            4386            4599     58.8475E-03     60.5666E-03
            4404            4599     58.8475E-03     60.5666E-03
            4387            4600     52.6184E-03     54.3603E-03
            4406            4600     52.6184E-03     54.3603E-03
            4405            4600     52.6184E-03     54.3603E-03
            4388            4600     52.6184E-03     54.3603E-03
            4406            4601     46.8678E-03     48.6593E-03
            4388            4601     46.8678E-03     48.6593E-03
            4389            4601     46.8678E-03     48.6593E-03
            4407            4601     46.8678E-03     48.6593E-03
            4408            4602     41.4471E-03     43.2487E-03
            4407            4602     41.4471E-03     43.2487E-03
            4390            4602     41.4471E-03     43.2487E-03
            4389            4602     41.4471E-03     43.2487E-03
            4391            4603     36.1830E-03     38.0079E-03
            4408            4603     36.1830E-03     38.0079E-03
            4390            4603     36.1830E-03     38.0079E-03
            4409            4603     36.1830E-03     38.0079E-03
            4410            4604     31.0428E-03     32.8690E-03
            4409            4604     31.0428E-03     32.8690E-03
            4391            4604     31.0428E-03     32.8690E-03
            4392            4604     31.0428E-03     32.8690E-03
            4393            4605     25.9709E-03     27.7893E-03
            4410            4605     25.9709E-03     27.7893E-03
            4392            4605     25.9709E-03     27.7893E-03
            4411            4605     25.9709E-03     27.7893E-03
            4393            4606     20.9738E-03     22.7524E-03
            4411            4606     20.9738E-03     22.7524E-03
            4394            4606     20.9738E-03     22.7524E-03
            4412            4606     20.9738E-03     22.7524E-03
            4394            4607     16.0734E-03     17.7602E-03
            4413            4607     16.0734E-03     17.7602E-03
            4412            4607     16.0734E-03     17.7602E-03
            4395            4607     16.0734E-03     17.7602E-03
            4395            4608     11.4467E-03     12.8914E-03
            4396            4608     11.4467E-03     12.8914E-03
            4414            4608     11.4467E-03     12.8914E-03
            4413            4608     11.4467E-03     12.8914E-03
            4396            4609     7.67181E-03     8.46620E-03
            4397            4609     7.67181E-03     8.46620E-03
            4414            4609     7.67181E-03     8.46620E-03
            4415            4609     7.67181E-03     8.46620E-03
            4397            4610     6.86965E-03     6.29100E-03
            4398            4610     6.86965E-03     6.29100E-03
            4416            4610     6.86965E-03     6.29100E-03
            4415            4610     6.86965E-03     6.29100E-03
            4398            4611     10.0761E-03     8.33498E-03
            4416            4611     10.0761E-03     8.33498E-03
            4399            4611     10.0761E-03     8.33498E-03
            4417            4611     10.0761E-03     8.33498E-03
            4399            4612     14.7750E-03     12.6615E-03
            4400            4612     14.7750E-03     12.6615E-03
            4418            4612     14.7750E-03     12.6615E-03
            4417            4612     14.7750E-03     12.6615E-03
            4420            4613     81.6550E-03     82.9542E-03
            4419            4613     81.6550E-03     82.9542E-03
            4401            4613     81.6550E-03     82.9542E-03
            4402            4613     81.6550E-03     82.9542E-03
            4421            4614     74.9603E-03     76.1210E-03
            4420            4614     74.9603E-03     76.1210E-03
            4402            4614     74.9603E-03     76.1210E-03
            4403            4614     74.9603E-03     76.1210E-03
            4404            4615     67.4980E-03     68.8925E-03
            4403            4615     67.4980E-03     68.8925E-03
            4421            4615     67.4980E-03     68.8925E-03
            4422            4615     67.4980E-03     68.8925E-03
            4423            4616     60.3570E-03     62.0505E-03
            4405            4616     60.3570E-03     62.0505E-03
            4422            4616     60.3570E-03     62.0505E-03
            4404            4616     60.3570E-03     62.0505E-03
            4423            4617     54.1276E-03     55.8636E-03
            4424            4617     54.1276E-03     55.8636E-03
            4405            4617     54.1276E-03     55.8636E-03
            4406            4617     54.1276E-03     55.8636E-03
            4406            4618     48.2960E-03     50.0211E-03
            4424            4618     48.2960E-03     50.0211E-03
            4407            4618     48.2960E-03     50.0211E-03
            4425            4618     48.2960E-03     50.0211E-03
            4426            4619     42.7516E-03     44.4604E-03
            4407            4619     42.7516E-03     44.4604E-03
            4408            4619     42.7516E-03     44.4604E-03
            4425            4619     42.7516E-03     44.4604E-03
            4426            4620     37.3948E-03     39.0606E-03
            4427            4620     37.3948E-03     39.0606E-03
            4408            4620     37.3948E-03     39.0606E-03
            4409            4620     37.3948E-03     39.0606E-03
            4427            4621     32.1527E-03     33.7889E-03
            4428            4621     32.1527E-03     33.7889E-03
            4409            4621     32.1527E-03     33.7889E-03
            4410            4621     32.1527E-03     33.7889E-03
            4410            4622     27.0220E-03     28.6109E-03
            4428            4622     27.0220E-03     28.6109E-03
            4429            4622     27.0220E-03     28.6109E-03
            4411            4622     27.0220E-03     28.6109E-03
            4412            4623     21.9952E-03     23.5249E-03
            4429            4623     21.9952E-03     23.5249E-03
            4430            4623     21.9952E-03     23.5249E-03
            4411            4623     21.9952E-03     23.5249E-03
            4430            4624     17.1631E-03     18.5682E-03
            4431            4624     17.1631E-03     18.5682E-03
            4412            4624     17.1631E-03     18.5682E-03
            4413            4624     17.1631E-03     18.5682E-03
            4414            4625     12.6892E-03     13.8390E-03
            4413            4625     12.6892E-03     13.8390E-03
            4431            4625     12.6892E-03     13.8390E-03
            4432            4625     12.6892E-03     13.8390E-03
            4432            4626     9.31228E-03     9.79178E-03
            4433            4626     9.31228E-03     9.79178E-03
            4415            4626     9.31228E-03     9.79178E-03
            4414            4626     9.31228E-03     9.79178E-03
            4415            4627     8.39815E-03     7.70305E-03
            4416            4627     8.39815E-03     7.70305E-03
            4433            4627     8.39815E-03     7.70305E-03
            4434            4627     8.39815E-03     7.70305E-03
            4416            4628     10.2668E-03     8.61523E-03
            4417            4628     10.2668E-03     8.61523E-03
            4434            4628     10.2668E-03     8.61523E-03
            4435            4628     10.2668E-03     8.61523E-03
            4436            4629     13.6872E-03     11.8221E-03
            4435            4629     13.6872E-03     11.8221E-03
            4418            4629     13.6872E-03     11.8221E-03
            4417            4629     13.6872E-03     11.8221E-03
            4438            4630     79.2048E-03     80.0445E-03
            4437            4630     79.2048E-03     80.0445E-03
            4419            4630     79.2048E-03     80.0445E-03
            4420            4630     79.2048E-03     80.0445E-03
            4421            4631     73.4116E-03     74.7756E-03
            4438            4631     73.4116E-03     74.7756E-03
            4439            4631     73.4116E-03     74.7756E-03
            4420            4631     73.4116E-03     74.7756E-03
            4440            4632     67.3524E-03     68.8476E-03
            4422            4632     67.3524E-03     68.8476E-03
            4439            4632     67.3524E-03     68.8476E-03
            4421            4632     67.3524E-03     68.8476E-03
            4441            4633     61.1440E-03     62.7154E-03
            4422            4633     61.1440E-03     62.7154E-03
            4440            4633     61.1440E-03     62.7154E-03
            4423            4633     61.1440E-03     62.7154E-03
            4424            4634     55.0626E-03     56.7255E-03
            4441            4634     55.0626E-03     56.7255E-03
            4442            4634     55.0626E-03     56.7255E-03
            4423            4634     55.0626E-03     56.7255E-03
            4425            4635     49.3400E-03     50.9585E-03
            4424            4635     49.3400E-03     50.9585E-03
            4442            4635     49.3400E-03     50.9585E-03
            4443            4635     49.3400E-03     50.9585E-03
            4444            4636     43.7839E-03     45.3411E-03
            4426            4636     43.7839E-03     45.3411E-03
            4443            4636     43.7839E-03     45.3411E-03
            4425            4636     43.7839E-03     45.3411E-03
            4445            4637     38.3864E-03     39.8828E-03
            4426            4637     38.3864E-03     39.8828E-03
            4444            4637     38.3864E-03     39.8828E-03
            4427            4637     38.3864E-03     39.8828E-03
            4428            4638     33.1125E-03     34.5419E-03
            4445            4638     33.1125E-03     34.5419E-03
            4427            4638     33.1125E-03     34.5419E-03
            4446            4638     33.1125E-03     34.5419E-03
            4428            4639     27.9521E-03     29.3271E-03
            4446            4639     27.9521E-03     29.3271E-03
            4447            4639     27.9521E-03     29.3271E-03
            4429            4639     27.9521E-03     29.3271E-03
            4447            4640     22.9515E-03     24.2531E-03
            4448            4640     22.9515E-03     24.2531E-03
            4429            4640     22.9515E-03     24.2531E-03
            4430            4640     22.9515E-03     24.2531E-03
            4430            4641     18.1794E-03     19.3715E-03
            4448            4641     18.1794E-03     19.3715E-03
            4449            4641     18.1794E-03     19.3715E-03
            4431            4641     18.1794E-03     19.3715E-03
            4431            4642     13.9043E-03     14.8421E-03
            4450            4642     13.9043E-03     14.8421E-03
            4432            4642     13.9043E-03     14.8421E-03
            4449            4642     13.9043E-03     14.8421E-03
            4451            4643     10.6827E-03     11.0519E-03
            4433            4643     10.6827E-03     11.0519E-03
            4450            4643     10.6827E-03     11.0519E-03
            4432            4643     10.6827E-03     11.0519E-03
            4433            4644     9.39746E-03     8.84216E-03
            4452            4644     9.39746E-03     8.84216E-03
            4451            4644     9.39746E-03     8.84216E-03
            4434            4644     9.39746E-03     8.84216E-03
            4453            4645     10.5787E-03     9.17555E-03
            4435            4645     10.5787E-03     9.17555E-03
            4452            4645     10.5787E-03     9.17555E-03
            4434            4645     10.5787E-03     9.17555E-03
            4453            4646     13.4944E-03     11.6425E-03
            4454            4646     13.4944E-03     11.6425E-03
            4436            4646     13.4944E-03     11.6425E-03
            4435            4646     13.4944E-03     11.6425E-03
            4456            4647     76.3839E-03     77.3551E-03
            4438            4647     76.3839E-03     77.3551E-03
            4437            4647     76.3839E-03     77.3551E-03
            4455            4647     76.3839E-03     77.3551E-03
            4456            4648     71.5997E-03     72.8097E-03
            4439            4648     71.5997E-03     72.8097E-03
            4457            4648     71.5997E-03     72.8097E-03
            4438            4648     71.5997E-03     72.8097E-03
            4439            4649     66.3909E-03     67.8682E-03
            4457            4649     66.3909E-03     67.8682E-03
            4440            4649     66.3909E-03     67.8682E-03
            4458            4649     66.3909E-03     67.8682E-03
            4458            4650     60.9559E-03     62.5059E-03
            4440            4650     60.9559E-03     62.5059E-03
            4441            4650     60.9559E-03     62.5059E-03
            4459            4650     60.9559E-03     62.5059E-03
            4459            4651     55.4160E-03     56.9217E-03
            4441            4651     55.4160E-03     56.9217E-03
            4442            4651     55.4160E-03     56.9217E-03
            4460            4651     55.4160E-03     56.9217E-03
            4460            4652     49.8676E-03     51.3236E-03
            4442            4652     49.8676E-03     51.3236E-03
            4461            4652     49.8676E-03     51.3236E-03
            4443            4652     49.8676E-03     51.3236E-03
            4443            4653     44.4362E-03     45.7986E-03
            4462            4653     44.4362E-03     45.7986E-03
            4444            4653     44.4362E-03     45.7986E-03
            4461            4653     44.4362E-03     45.7986E-03
            4444            4654     39.0841E-03     40.3611E-03
            4445            4654     39.0841E-03     40.3611E-03
            4462            4654     39.0841E-03     40.3611E-03
            4463            4654     39.0841E-03     40.3611E-03
            4445            4655     33.8400E-03     35.0468E-03
            4464            4655     33.8400E-03     35.0468E-03
            4446            4655     33.8400E-03     35.0468E-03
            4463            4655     33.8400E-03     35.0468E-03
            4446            4656     28.7240E-03     29.8671E-03
            4464            4656     28.7240E-03     29.8671E-03
            4447            4656     28.7240E-03     29.8671E-03
            4465            4656     28.7240E-03     29.8671E-03
            4465            4657     23.7784E-03     24.8659E-03
            4466            4657     23.7784E-03     24.8659E-03
            4447            4657     23.7784E-03     24.8659E-03
            4448            4657     23.7784E-03     24.8659E-03
            4467            4658     19.1285E-03     20.1285E-03
            4448            4658     19.1285E-03     20.1285E-03
            4466            4658     19.1285E-03     20.1285E-03
            4449            4658     19.1285E-03     20.1285E-03
            4449            4659     15.0141E-03     15.8216E-03
            4450            4659     15.0141E-03     15.8216E-03
            4468            4659     15.0141E-03     15.8216E-03
            4467            4659     15.0141E-03     15.8216E-03
            4468            4660     11.9067E-03     12.2836E-03
            4469            4660     11.9067E-03     12.2836E-03
            4451            4660     11.9067E-03     12.2836E-03
            4450            4660     11.9067E-03     12.2836E-03
            4470            4661     10.5908E-03     10.1995E-03
            4452            4661     10.5908E-03     10.1995E-03
            4469            4661     10.5908E-03     10.1995E-03
            4451            4661     10.5908E-03     10.1995E-03
            4453            4662     11.3319E-03     10.1146E-03
            4470            4662     11.3319E-03     10.1146E-03
            4452            4662     11.3319E-03     10.1146E-03
            4471            4662     11.3319E-03     10.1146E-03
            4453            4663     13.6235E-03     11.9416E-03
            4454            4663     13.6235E-03     11.9416E-03
            4471            4663     13.6235E-03     11.9416E-03
            4472            4663     13.6235E-03     11.9416E-03
            4456            4664     73.5621E-03     74.4101E-03
            4473            4664     73.5621E-03     74.4101E-03
            4474            4664     73.5621E-03     74.4101E-03
            4455            4664     73.5621E-03     74.4101E-03
            4474            4665     69.3997E-03     70.6291E-03
            4475            4665     69.3997E-03     70.6291E-03
            4456            4665     69.3997E-03     70.6291E-03
            4457            4665     69.3997E-03     70.6291E-03
            4457            4666     64.9807E-03     66.3669E-03
            4476            4666     64.9807E-03     66.3669E-03
            4458            4666     64.9807E-03     66.3669E-03
            4475            4666     64.9807E-03     66.3669E-03
            4459            4667     60.1695E-03     61.5820E-03
            4458            4667     60.1695E-03     61.5820E-03
            4477            4667     60.1695E-03     61.5820E-03
            4476            4667     60.1695E-03     61.5820E-03
            4478            4668     55.1065E-03     56.4346E-03
            4459            4668     55.1065E-03     56.4346E-03
            4460            4668     55.1065E-03     56.4346E-03
            4477            4668     55.1065E-03     56.4346E-03
            4461            4669     49.9015E-03     51.1113E-03
            4478            4669     49.9015E-03     51.1113E-03
            4479            4669     49.9015E-03     51.1113E-03
            4460            4669     49.9015E-03     51.1113E-03
            4480            4670     44.6537E-03     45.7625E-03
            4461            4670     44.6537E-03     45.7625E-03
            4479            4670     44.6537E-03     45.7625E-03
            4462            4670     44.6537E-03     45.7625E-03
            4462            4671     39.4515E-03     40.4661E-03
            4481            4671     39.4515E-03     40.4661E-03
            4480            4671     39.4515E-03     40.4661E-03
            4463            4671     39.4515E-03     40.4661E-03
            4463            4672     34.3217E-03     35.2662E-03
            4481            4672     34.3217E-03     35.2662E-03
            4482            4672     34.3217E-03     35.2662E-03
            4464            4672     34.3217E-03     35.2662E-03
            4483            4673     29.3165E-03     30.2108E-03
            4482            4673     29.3165E-03     30.2108E-03
            4465            4673     29.3165E-03     30.2108E-03
            4464            4673     29.3165E-03     30.2108E-03
            4466            4674     24.5047E-03     25.3607E-03
            4484            4674     24.5047E-03     25.3607E-03
            4483            4674     24.5047E-03     25.3607E-03
            4465            4674     24.5047E-03     25.3607E-03
            4466            4675     20.0072E-03     20.8214E-03
            4485            4675     20.0072E-03     20.8214E-03
            4484            4675     20.0072E-03     20.8214E-03
            4467            4675     20.0072E-03     20.8214E-03
            4467            4676     16.0647E-03     16.7829E-03
            4485            4676     16.0647E-03     16.7829E-03
            4486            4676     16.0647E-03     16.7829E-03
            4468            4676     16.0647E-03     16.7829E-03
            4487            4677     13.1773E-03     13.5805E-03
            4468            4677     13.1773E-03     13.5805E-03
            4486            4677     13.1773E-03     13.5805E-03
            4469            4677     13.1773E-03     13.5805E-03
            4469            4678     11.8388E-03     11.6449E-03
            4487            4678     11.8388E-03     11.6449E-03
            4470            4678     11.8388E-03     11.6449E-03
            4488            4678     11.8388E-03     11.6449E-03
            4489            4679     12.3033E-03     11.3722E-03
            4470            4679     12.3033E-03     11.3722E-03
            4471            4679     12.3033E-03     11.3722E-03
            4488            4679     12.3033E-03     11.3722E-03
            4490            4680     14.1702E-03     12.6446E-03
            4471            4680     14.1702E-03     12.6446E-03
            4489            4680     14.1702E-03     12.6446E-03
            4472            4680     14.1702E-03     12.6446E-03
            4473            4681     70.4860E-03     71.2531E-03
            4491            4681     70.4860E-03     71.2531E-03
            4492            4681     70.4860E-03     71.2531E-03
            4474            4681     70.4860E-03     71.2531E-03
            4492            4682     66.9728E-03     68.1456E-03
            4475            4682     66.9728E-03     68.1456E-03
            4474            4682     66.9728E-03     68.1456E-03
            4493            4682     66.9728E-03     68.1456E-03
            4476            4683     63.1429E-03     64.4113E-03
            4493            4683     63.1429E-03     64.4113E-03
            4475            4683     63.1429E-03     64.4113E-03
            4494            4683     63.1429E-03     64.4113E-03
            4477            4684     58.9132E-03     60.0661E-03
            4476            4684     58.9132E-03     60.0661E-03
            4494            4684     58.9132E-03     60.0661E-03
            4495            4684     58.9132E-03     60.0661E-03
            4478            4685     54.2730E-03     55.3039E-03
            4477            4685     54.2730E-03     55.3039E-03
            4496            4685     54.2730E-03     55.3039E-03
            4495            4685     54.2730E-03     55.3039E-03
            4497            4686     49.4271E-03     50.3211E-03
            4478            4686     49.4271E-03     50.3211E-03
            4496            4686     49.4271E-03     50.3211E-03
            4479            4686     49.4271E-03     50.3211E-03
            4479            4687     44.4700E-03     45.2528E-03
            4498            4687     44.4700E-03     45.2528E-03
            4497            4687     44.4700E-03     45.2528E-03
            4480            4687     44.4700E-03     45.2528E-03
            4480            4688     39.4939E-03     40.2017E-03
            4498            4688     39.4939E-03     40.2017E-03
            4499            4688     39.4939E-03     40.2017E-03
            4481            4688     39.4939E-03     40.2017E-03
            4499            4689     34.5767E-03     35.2272E-03
            4482            4689     34.5767E-03     35.2272E-03
            4500            4689     34.5767E-03     35.2272E-03
            4481            4689     34.5767E-03     35.2272E-03
            4483            4690     29.7735E-03     30.3919E-03
            4500            4690     29.7735E-03     30.3919E-03
            4482            4690     29.7735E-03     30.3919E-03
            4501            4690     29.7735E-03     30.3919E-03
            4484            4691     25.1657E-03     25.7725E-03
            4483            4691     25.1657E-03     25.7725E-03
            4501            4691     25.1657E-03     25.7725E-03
            4502            4691     25.1657E-03     25.7725E-03
            4485            4692     20.8808E-03     21.4922E-03
            4484            4692     20.8808E-03     21.4922E-03
            4503            4692     20.8808E-03     21.4922E-03
            4502            4692     20.8808E-03     21.4922E-03
            4503            4693     17.1540E-03     17.7609E-03
            4504            4693     17.1540E-03     17.7609E-03
            4486            4693     17.1540E-03     17.7609E-03
            4485            4693     17.1540E-03     17.7609E-03
            4504            4694     14.3832E-03     14.8923E-03
            4487            4694     14.3832E-03     14.8923E-03
            4505            4694     14.3832E-03     14.8923E-03
            4486            4694     14.3832E-03     14.8923E-03
            4505            4695     13.1446E-03     13.2074E-03
            4488            4695     13.1446E-03     13.2074E-03
            4506            4695     13.1446E-03     13.2074E-03
            4487            4695     13.1446E-03     13.2074E-03
            4506            4696     13.4505E-03     12.8474E-03
            4489            4696     13.4505E-03     12.8474E-03
            4488            4696     13.4505E-03     12.8474E-03
            4507            4696     13.4505E-03     12.8474E-03
            4489            4697     14.9509E-03     13.7233E-03
            4490            4697     14.9509E-03     13.7233E-03
            4507            4697     14.9509E-03     13.7233E-03
            4508            4697     14.9509E-03     13.7233E-03
            4509            4698     67.0295E-03     67.8538E-03
            4491            4698     67.0295E-03     67.8538E-03
            4510            4698     67.0295E-03     67.8538E-03
            4492            4698     67.0295E-03     67.8538E-03
            4510            4699     64.1943E-03     65.1851E-03
            4493            4699     64.1943E-03     65.1851E-03
            4492            4699     64.1943E-03     65.1851E-03
            4511            4699     64.1943E-03     65.1851E-03
            4493            4700     60.9776E-03     61.8699E-03
            4511            4700     60.9776E-03     61.8699E-03
            4494            4700     60.9776E-03     61.8699E-03
            4512            4700     60.9776E-03     61.8699E-03
            4494            4701     57.1589E-03     57.9190E-03
            4513            4701     57.1589E-03     57.9190E-03
            4512            4701     57.1589E-03     57.9190E-03
            4495            4701     57.1589E-03     57.9190E-03
            4514            4702     52.9850E-03     53.5703E-03
            4495            4702     52.9850E-03     53.5703E-03
            4496            4702     52.9850E-03     53.5703E-03
            4513            4702     52.9850E-03     53.5703E-03
            4515            4703     48.5208E-03     48.9975E-03
            4497            4703     48.5208E-03     48.9975E-03
            4514            4703     48.5208E-03     48.9975E-03
            4496            4703     48.5208E-03     48.9975E-03
            4516            4704     43.9204E-03     44.3303E-03
            4498            4704     43.9204E-03     44.3303E-03
            4497            4704     43.9204E-03     44.3303E-03
            4515            4704     43.9204E-03     44.3303E-03
            4499            4705     39.2791E-03     39.6405E-03
            4517            4705     39.2791E-03     39.6405E-03
            4516            4705     39.2791E-03     39.6405E-03
            4498            4705     39.2791E-03     39.6405E-03
            4517            4706     34.6672E-03     35.0090E-03
            4499            4706     34.6672E-03     35.0090E-03
            4500            4706     34.6672E-03     35.0090E-03
            4518            4706     34.6672E-03     35.0090E-03
            4500            4707     30.1644E-03     30.4964E-03
            4519            4707     30.1644E-03     30.4964E-03
            4501            4707     30.1644E-03     30.4964E-03
            4518            4707     30.1644E-03     30.4964E-03
            4501            4708     25.8497E-03     26.1930E-03
            4502            4708     25.8497E-03     26.1930E-03
            4520            4708     25.8497E-03     26.1930E-03
            4519            4708     25.8497E-03     26.1930E-03
            4521            4709     21.8440E-03     22.2279E-03
            4503            4709     21.8440E-03     22.2279E-03
            4520            4709     21.8440E-03     22.2279E-03
            4502            4709     21.8440E-03     22.2279E-03
            4521            4710     18.3483E-03     18.8048E-03
            4504            4710     18.3483E-03     18.8048E-03
            4503            4710     18.3483E-03     18.8048E-03
            4522            4710     18.3483E-03     18.8048E-03
            4523            4711     15.6676E-03     16.2348E-03
            4504            4711     15.6676E-03     16.2348E-03
            4522            4711     15.6676E-03     16.2348E-03
            4505            4711     15.6676E-03     16.2348E-03
            4506            4712     14.3127E-03     14.8364E-03
            4523            4712     14.3127E-03     14.8364E-03
            4524            4712     14.3127E-03     14.8364E-03
            4505            4712     14.3127E-03     14.8364E-03
            4525            4713     14.6763E-03     14.5250E-03
            4524            4713     14.6763E-03     14.5250E-03
            4506            4713     14.6763E-03     14.5250E-03
            4507            4713     14.6763E-03     14.5250E-03
            4507            4714     15.9100E-03     15.0100E-03
            4508            4714     15.9100E-03     15.0100E-03
            4525            4714     15.9100E-03     15.0100E-03
            4526            4714     15.9100E-03     15.0100E-03
            4527            4715     63.1999E-03     63.4392E-03
            4509            4715     63.1999E-03     63.4392E-03
            4510            4715     63.1999E-03     63.4392E-03
            4528            4715     63.1999E-03     63.4392E-03
            4528            4716     61.0815E-03     61.4693E-03
            4510            4716     61.0815E-03     61.4693E-03
            4511            4716     61.0815E-03     61.4693E-03
            4529            4716     61.0815E-03     61.4693E-03
            4530            4717     58.2994E-03     58.5577E-03
            4529            4717     58.2994E-03     58.5577E-03
            4512            4717     58.2994E-03     58.5577E-03
            4511            4717     58.2994E-03     58.5577E-03
            4512            4718     55.0052E-03     55.0858E-03
            4513            4718     55.0052E-03     55.0858E-03
            4531            4718     55.0052E-03     55.0858E-03
            4530            4718     55.0052E-03     55.0858E-03
            4532            4719     51.2698E-03     51.2811E-03
            4513            4719     51.2698E-03     51.2811E-03
            4531            4719     51.2698E-03     51.2811E-03
            4514            4719     51.2698E-03     51.2811E-03
            4514            4720     47.2713E-03     47.2663E-03
            4533            4720     47.2713E-03     47.2663E-03
            4532            4720     47.2713E-03     47.2663E-03
            4515            4720     47.2713E-03     47.2663E-03
            4533            4721     43.1223E-03     43.1198E-03
            4516            4721     43.1223E-03     43.1198E-03
            4515            4721     43.1223E-03     43.1198E-03
            4534            4721     43.1223E-03     43.1198E-03
            4534            4722     38.9076E-03     38.9300E-03
            4535            4722     38.9076E-03     38.9300E-03
            4516            4722     38.9076E-03     38.9300E-03
            4517            4722     38.9076E-03     38.9300E-03
            4535            4723     34.7141E-03     34.7530E-03
            4518            4723     34.7141E-03     34.7530E-03
            4536            4723     34.7141E-03     34.7530E-03
            4517            4723     34.7141E-03     34.7530E-03
            4536            4724     30.6055E-03     30.6708E-03
            4537            4724     30.6055E-03     30.6708E-03
            4518            4724     30.6055E-03     30.6708E-03
            4519            4724     30.6055E-03     30.6708E-03
            4537            4725     26.6722E-03     26.7641E-03
            4520            4725     26.6722E-03     26.7641E-03
            4519            4725     26.6722E-03     26.7641E-03
            4538            4725     26.6722E-03     26.7641E-03
            4521            4726     23.0167E-03     23.1599E-03
            4520            4726     23.0167E-03     23.1599E-03
            4539            4726     23.0167E-03     23.1599E-03
            4538            4726     23.0167E-03     23.1599E-03
            4521            4727     19.7878E-03     20.0414E-03
            4540            4727     19.7878E-03     20.0414E-03
            4539            4727     19.7878E-03     20.0414E-03
            4522            4727     19.7878E-03     20.0414E-03
            4541            4728     17.2207E-03     17.6709E-03
            4522            4728     17.2207E-03     17.6709E-03
            4540            4728     17.2207E-03     17.6709E-03
            4523            4728     17.2207E-03     17.6709E-03
            4524            4729     15.5279E-03     16.3839E-03
            4542            4729     15.5279E-03     16.3839E-03
            4523            4729     15.5279E-03     16.3839E-03
            4541            4729     15.5279E-03     16.3839E-03
            4542            4730     15.3413E-03     16.3400E-03
            4543            4730     15.3413E-03     16.3400E-03
            4525            4730     15.3413E-03     16.3400E-03
            4524            4730     15.3413E-03     16.3400E-03
            4526            4731     16.9510E-03     16.7684E-03
            4543            4731     16.9510E-03     16.7684E-03
            4525            4731     16.9510E-03     16.7684E-03
            4544            4731     16.9510E-03     16.7684E-03
            4528            4732     58.8689E-03     57.9037E-03
            4527            4732     58.8689E-03     57.9037E-03
            4545            4732     58.8689E-03     57.9037E-03
            4546            4732     58.8689E-03     57.9037E-03
            4528            4733     57.4939E-03     56.6580E-03
            4547            4733     57.4939E-03     56.6580E-03
            4529            4733     57.4939E-03     56.6580E-03
            4546            4733     57.4939E-03     56.6580E-03
            4547            4734     55.2649E-03     54.3798E-03
            4529            4734     55.2649E-03     54.3798E-03
            4530            4734     55.2649E-03     54.3798E-03
            4548            4734     55.2649E-03     54.3798E-03
            4549            4735     52.4723E-03     51.6992E-03
            4548            4735     52.4723E-03     51.6992E-03
            4531            4735     52.4723E-03     51.6992E-03
            4530            4735     52.4723E-03     51.6992E-03
            4532            4736     49.2828E-03     48.6496E-03
            4549            4736     49.2828E-03     48.6496E-03
            4531            4736     49.2828E-03     48.6496E-03
            4550            4736     49.2828E-03     48.6496E-03
            4550            4737     45.8478E-03     45.3517E-03
            4533            4737     45.8478E-03     45.3517E-03
            4551            4737     45.8478E-03     45.3517E-03
            4532            4737     45.8478E-03     45.3517E-03
            4533            4738     42.2487E-03     41.8766E-03
            4552            4738     42.2487E-03     41.8766E-03
            4534            4738     42.2487E-03     41.8766E-03
            4551            4738     42.2487E-03     41.8766E-03
            4552            4739     38.5740E-03     38.2927E-03
            4535            4739     38.5740E-03     38.2927E-03
            4553            4739     38.5740E-03     38.2927E-03
            4534            4739     38.5740E-03     38.2927E-03
            4536            4740     34.8848E-03     34.6828E-03
            4553            4740     34.8848E-03     34.6828E-03
            4554            4740     34.8848E-03     34.6828E-03
            4535            4740     34.8848E-03     34.6828E-03
            4555            4741     31.2644E-03     31.1098E-03
            4536            4741     31.2644E-03     31.1098E-03
            4554            4741     31.2644E-03     31.1098E-03
            4537            4741     31.2644E-03     31.1098E-03
            4555            4742     27.7784E-03     27.6715E-03
            4537            4742     27.7784E-03     27.6715E-03
            4556            4742     27.7784E-03     27.6715E-03
            4538            4742     27.7784E-03     27.6715E-03
            4539            4743     24.5353E-03     24.4628E-03
            4557            4743     24.5353E-03     24.4628E-03
            4556            4743     24.5353E-03     24.4628E-03
            4538            4743     24.5353E-03     24.4628E-03
            4558            4744     21.6304E-03     21.6395E-03
            4539            4744     21.6304E-03     21.6395E-03
            4557            4744     21.6304E-03     21.6395E-03
            4540            4744     21.6304E-03     21.6395E-03
            4540            4745     19.2061E-03     19.3799E-03
            4559            4745     19.2061E-03     19.3799E-03
            4558            4745     19.2061E-03     19.3799E-03
            4541            4745     19.2061E-03     19.3799E-03
            4560            4746     17.3757E-03     17.9402E-03
            4542            4746     17.3757E-03     17.9402E-03
            4541            4746     17.3757E-03     17.9402E-03
            4559            4746     17.3757E-03     17.9402E-03
            4561            4747     16.1000E-03     17.6657E-03
            4560            4747     16.1000E-03     17.6657E-03
            4542            4747     16.1000E-03     17.6657E-03
            4543            4747     16.1000E-03     17.6657E-03
            4561            4748     16.1847E-03     18.7963E-03
            4544            4748     16.1847E-03     18.7963E-03
            4562            4748     16.1847E-03     18.7963E-03
            4543            4748     16.1847E-03     18.7963E-03
            4564            4749     56.8919E-03     57.9158E-03
            4546            4749     56.8919E-03     57.9158E-03
            4545            4749     56.8919E-03     57.9158E-03
            4563            4749     56.8919E-03     57.9158E-03
            4547            4750     51.5666E-03     51.5091E-03
            4565            4750     51.5666E-03     51.5091E-03
            4546            4750     51.5666E-03     51.5091E-03
            4564            4750     51.5666E-03     51.5091E-03
            4547            4751     47.6671E-03     47.5417E-03
            4548            4751     47.6671E-03     47.5417E-03
            4565            4751     47.6671E-03     47.5417E-03
            4566            4751     47.6671E-03     47.5417E-03
            4567            4752     43.9484E-03     43.9790E-03
            4549            4752     43.9484E-03     43.9790E-03
            4566            4752     43.9484E-03     43.9790E-03
            4548            4752     43.9484E-03     43.9790E-03
            4567            4753     40.4641E-03     40.6255E-03
            4549            4753     40.4641E-03     40.6255E-03
            4568            4753     40.4641E-03     40.6255E-03
            4550            4753     40.4641E-03     40.6255E-03
            4550            4754     37.0174E-03     37.3571E-03
            4569            4754     37.0174E-03     37.3571E-03
            4568            4754     37.0174E-03     37.3571E-03
            4551            4754     37.0174E-03     37.3571E-03
            4552            4755     33.6432E-03     34.0963E-03
            4569            4755     33.6432E-03     34.0963E-03
            4570            4755     33.6432E-03     34.0963E-03
            4551            4755     33.6432E-03     34.0963E-03
            4552            4756     30.2845E-03     30.8526E-03
            4570            4756     30.2845E-03     30.8526E-03
            4571            4756     30.2845E-03     30.8526E-03
            4553            4756     30.2845E-03     30.8526E-03
            4553            4757     26.9820E-03     27.6146E-03
            4572            4757     26.9820E-03     27.6146E-03
            4554            4757     26.9820E-03     27.6146E-03
            4571            4757     26.9820E-03     27.6146E-03
            4572            4758     23.7262E-03     24.4090E-03
            4573            4758     23.7262E-03     24.4090E-03
            4554            4758     23.7262E-03     24.4090E-03
            4555            4758     23.7262E-03     24.4090E-03
            4573            4759     20.5751E-03     21.2681E-03
            4556            4759     20.5751E-03     21.2681E-03
            4555            4759     20.5751E-03     21.2681E-03
            4574            4759     20.5751E-03     21.2681E-03
            4557            4760     17.5701E-03     18.2419E-03
            4575            4760     17.5701E-03     18.2419E-03
            4574            4760     17.5701E-03     18.2419E-03
            4556            4760     17.5701E-03     18.2419E-03
            4575            4761     14.8367E-03     15.4179E-03
            4576            4761     14.8367E-03     15.4179E-03
            4558            4761     14.8367E-03     15.4179E-03
            4557            4761     14.8367E-03     15.4179E-03
            4558            4762     12.7328E-03     13.0808E-03
            4576            4762     12.7328E-03     13.0808E-03
            4577            4762     12.7328E-03     13.0808E-03
            4559            4762     12.7328E-03     13.0808E-03
            4560            4763     11.8333E-03     11.8181E-03
            4559            4763     11.8333E-03     11.8181E-03
            4577            4763     11.8333E-03     11.8181E-03
            4578            4763     11.8333E-03     11.8181E-03
            4579            4764     12.2091E-03     12.3626E-03
            4561            4764     12.2091E-03     12.3626E-03
            4578            4764     12.2091E-03     12.3626E-03
            4560            4764     12.2091E-03     12.3626E-03
            4579            4765     13.8586E-03     15.8383E-03
            4562            4765     13.8586E-03     15.8383E-03
            4580            4765     13.8586E-03     15.8383E-03
            4561            4765     13.8586E-03     15.8383E-03
            4582            4766     58.5552E-03     59.5609E-03
            4564            4766     58.5552E-03     59.5609E-03
            4563            4766     58.5552E-03     59.5609E-03
            4581            4766     58.5552E-03     59.5609E-03
            4582            4767     48.9961E-03     50.3696E-03
            4565            4767     48.9961E-03     50.3696E-03
            4564            4767     48.9961E-03     50.3696E-03
            4583            4767     48.9961E-03     50.3696E-03
            4565            4768     42.4249E-03     43.7325E-03
            4566            4768     42.4249E-03     43.7325E-03
            4584            4768     42.4249E-03     43.7325E-03
            4583            4768     42.4249E-03     43.7325E-03
            4566            4769     37.5367E-03     38.8105E-03
            4585            4769     37.5367E-03     38.8105E-03
            4567            4769     37.5367E-03     38.8105E-03
            4584            4769     37.5367E-03     38.8105E-03
            4585            4770     33.2648E-03     34.5818E-03
            4568            4770     33.2648E-03     34.5818E-03
            4567            4770     33.2648E-03     34.5818E-03
            4586            4770     33.2648E-03     34.5818E-03
            4587            4771     29.5005E-03     30.8678E-03
            4568            4771     29.5005E-03     30.8678E-03
            4586            4771     29.5005E-03     30.8678E-03
            4569            4771     29.5005E-03     30.8678E-03
            4570            4772     25.9782E-03     27.3999E-03
            4569            4772     25.9782E-03     27.3999E-03
            4587            4772     25.9782E-03     27.3999E-03
            4588            4772     25.9782E-03     27.3999E-03
            4571            4773     22.6487E-03     24.1148E-03
            4588            4773     22.6487E-03     24.1148E-03
            4570            4773     22.6487E-03     24.1148E-03
            4589            4773     22.6487E-03     24.1148E-03
            4590            4774     19.4276E-03     20.9177E-03
            4589            4774     19.4276E-03     20.9177E-03
            4571            4774     19.4276E-03     20.9177E-03
            4572            4774     19.4276E-03     20.9177E-03
            4573            4775     16.2974E-03     17.7893E-03
            4590            4775     16.2974E-03     17.7893E-03
            4572            4775     16.2974E-03     17.7893E-03
            4591            4775     16.2974E-03     17.7893E-03
            4592            4776     13.2533E-03     14.7047E-03
            4591            4776     13.2533E-03     14.7047E-03
            4574            4776     13.2533E-03     14.7047E-03
            4573            4776     13.2533E-03     14.7047E-03
            4575            4777     10.3383E-03     11.6869E-03
            4574            4777     10.3383E-03     11.6869E-03
            4592            4777     10.3383E-03     11.6869E-03
            4593            4777     10.3383E-03     11.6869E-03
            4575            4778     7.71970E-03     8.82092E-03
            4594            4778     7.71970E-03     8.82092E-03
            4593            4778     7.71970E-03     8.82092E-03
            4576            4778     7.71970E-03     8.82092E-03
            4594            4779     5.98460E-03     6.50525E-03
            4595            4779     5.98460E-03     6.50525E-03
            4576            4779     5.98460E-03     6.50525E-03
            4577            4779     5.98460E-03     6.50525E-03
            4577            4780     5.97849E-03     5.62532E-03
            4595            4780     5.97849E-03     5.62532E-03
            4578            4780     5.97849E-03     5.62532E-03
            4596            4780     5.97849E-03     5.62532E-03
            4579            4781     8.43698E-03     7.45797E-03
            4578            4781     8.43698E-03     7.45797E-03
            4597            4781     8.43698E-03     7.45797E-03
            4596            4781     8.43698E-03     7.45797E-03
            4598            4782     12.7004E-03     11.5576E-03
            4580            4782     12.7004E-03     11.5576E-03
            4579            4782     12.7004E-03     11.5576E-03
            4597            4782     12.7004E-03     11.5576E-03
            4600            4783     57.9651E-03     58.0733E-03
            4581            4783     57.9651E-03     58.0733E-03
            4599            4783     57.9651E-03     58.0733E-03
            4582            4783     57.9651E-03     58.0733E-03
            4583            4784     50.8162E-03     51.5113E-03
            4600            4784     50.8162E-03     51.5113E-03
            4601            4784     50.8162E-03     51.5113E-03
            4582            4784     50.8162E-03     51.5113E-03
            4584            4785     43.9588E-03     45.1011E-03
            4602            4785     43.9588E-03     45.1011E-03
            4601            4785     43.9588E-03     45.1011E-03
            4583            4785     43.9588E-03     45.1011E-03
            4602            4786     38.8155E-03     40.0766E-03
            4603            4786     38.8155E-03     40.0766E-03
            4584            4786     38.8155E-03     40.0766E-03
            4585            4786     38.8155E-03     40.0766E-03
            4585            4787     34.4839E-03     35.7641E-03
            4586            4787     34.4839E-03     35.7641E-03
            4603            4787     34.4839E-03     35.7641E-03
            4604            4787     34.4839E-03     35.7641E-03
            4604            4788     30.6005E-03     31.9226E-03
            4587            4788     30.6005E-03     31.9226E-03
            4586            4788     30.6005E-03     31.9226E-03
            4605            4788     30.6005E-03     31.9226E-03
            4588            4789     27.0452E-03     28.3712E-03
            4605            4789     27.0452E-03     28.3712E-03
            4606            4789     27.0452E-03     28.3712E-03
            4587            4789     27.0452E-03     28.3712E-03
            4589            4790     23.6654E-03     24.9995E-03
            4607            4790     23.6654E-03     24.9995E-03
            4588            4790     23.6654E-03     24.9995E-03
            4606            4790     23.6654E-03     24.9995E-03
            4589            4791     20.4338E-03     21.7534E-03
            4590            4791     20.4338E-03     21.7534E-03
            4607            4791     20.4338E-03     21.7534E-03
            4608            4791     20.4338E-03     21.7534E-03
            4608            4792     17.3068E-03     18.5932E-03
            4609            4792     17.3068E-03     18.5932E-03
            4591            4792     17.3068E-03     18.5932E-03
            4590            4792     17.3068E-03     18.5932E-03
            4610            4793     14.3102E-03     15.5247E-03
            4592            4793     14.3102E-03     15.5247E-03
            4591            4793     14.3102E-03     15.5247E-03
            4609            4793     14.3102E-03     15.5247E-03
            4611            4794     11.4936E-03     12.5675E-03
            4610            4794     11.4936E-03     12.5675E-03
            4592            4794     11.4936E-03     12.5675E-03
            4593            4794     11.4936E-03     12.5675E-03
            4611            4795     9.08100E-03     9.87042E-03
            4612            4795     9.08100E-03     9.87042E-03
            4594            4795     9.08100E-03     9.87042E-03
            4593            4795     9.08100E-03     9.87042E-03
            4594            4796     7.46539E-03     7.73031E-03
            4612            4796     7.46539E-03     7.73031E-03
            4613            4796     7.46539E-03     7.73031E-03
            4595            4796     7.46539E-03     7.73031E-03
            4614            4797     7.46001E-03     6.99738E-03
            4613            4797     7.46001E-03     6.99738E-03
            4596            4797     7.46001E-03     6.99738E-03
            4595            4797     7.46001E-03     6.99738E-03
            4615            4798     9.32304E-03     8.27181E-03
            4597            4798     9.32304E-03     8.27181E-03
            4614            4798     9.32304E-03     8.27181E-03
            4596            4798     9.32304E-03     8.27181E-03
            4615            4799     11.8109E-03     10.5215E-03
            4597            4799     11.8109E-03     10.5215E-03
            4598            4799     11.8109E-03     10.5215E-03
            4616            4799     11.8109E-03     10.5215E-03
            4617            4800     55.2321E-03     56.1408E-03
            4599            4800     55.2321E-03     56.1408E-03
            4600            4800     55.2321E-03     56.1408E-03
            4618            4800     55.2321E-03     56.1408E-03
            4619            4801     50.2097E-03     50.9561E-03
            4618            4801     50.2097E-03     50.9561E-03
            4600            4801     50.2097E-03     50.9561E-03
            4601            4801     50.2097E-03     50.9561E-03
            4601            4802     44.7781E-03     45.6935E-03
            4620            4802     44.7781E-03     45.6935E-03
            4602            4802     44.7781E-03     45.6935E-03
            4619            4802     44.7781E-03     45.6935E-03
            4602            4803     39.7265E-03     40.8793E-03
            4620            4803     39.7265E-03     40.8793E-03
            4621            4803     39.7265E-03     40.8793E-03
            4603            4803     39.7265E-03     40.8793E-03
            4622            4804     35.4700E-03     36.6878E-03
            4604            4804     35.4700E-03     36.6878E-03
            4621            4804     35.4700E-03     36.6878E-03
            4603            4804     35.4700E-03     36.6878E-03
            4604            4805     31.6073E-03     32.8343E-03
            4623            4805     31.6073E-03     32.8343E-03
            4622            4805     31.6073E-03     32.8343E-03
            4605            4805     31.6073E-03     32.8343E-03
            4605            4806     28.0232E-03     29.2516E-03
            4624            4806     28.0232E-03     29.2516E-03
            4606            4806     28.0232E-03     29.2516E-03
            4623            4806     28.0232E-03     29.2516E-03
            4606            4807     24.6373E-03     25.8356E-03
            4607            4807     24.6373E-03     25.8356E-03
            4625            4807     24.6373E-03     25.8356E-03
            4624            4807     24.6373E-03     25.8356E-03
            4607            4808     21.3855E-03     22.5515E-03
            4608            4808     21.3855E-03     22.5515E-03
            4625            4808     21.3855E-03     22.5515E-03
            4626            4808     21.3855E-03     22.5515E-03
            4608            4809     18.2724E-03     19.3800E-03
            4627            4809     18.2724E-03     19.3800E-03
            4626            4809     18.2724E-03     19.3800E-03
            4609            4809     18.2724E-03     19.3800E-03
            4628            4810     15.3008E-03     16.3215E-03
            4610            4810     15.3008E-03     16.3215E-03
            4609            4810     15.3008E-03     16.3215E-03
            4627            4810     15.3008E-03     16.3215E-03
            4629            4811     12.5717E-03     13.4360E-03
            4628            4811     12.5717E-03     13.4360E-03
            4610            4811     12.5717E-03     13.4360E-03
            4611            4811     12.5717E-03     13.4360E-03
            4630            4812     10.2246E-03     10.8171E-03
            4629            4812     10.2246E-03     10.8171E-03
            4612            4812     10.2246E-03     10.8171E-03
            4611            4812     10.2246E-03     10.8171E-03
            4630            4813     8.67135E-03     8.79159E-03
            4612            4813     8.67135E-03     8.79159E-03
            4631            4813     8.67135E-03     8.79159E-03
            4613            4813     8.67135E-03     8.79159E-03
            4614            4814     8.36853E-03     7.86849E-03
            4631            4814     8.36853E-03     7.86849E-03
            4632            4814     8.36853E-03     7.86849E-03
            4613            4814     8.36853E-03     7.86849E-03
            4633            4815     9.24370E-03     8.25122E-03
            4615            4815     9.24370E-03     8.25122E-03
            4614            4815     9.24370E-03     8.25122E-03
            4632            4815     9.24370E-03     8.25122E-03
            4634            4816     10.9324E-03     9.74308E-03
            4633            4816     10.9324E-03     9.74308E-03
            4615            4816     10.9324E-03     9.74308E-03
            4616            4816     10.9324E-03     9.74308E-03
            4635            4817     52.8399E-03     53.3837E-03
            4618            4817     52.8399E-03     53.3837E-03
            4617            4817     52.8399E-03     53.3837E-03
            4636            4817     52.8399E-03     53.3837E-03
            4618            4818     48.5816E-03     49.4644E-03
            4637            4818     48.5816E-03     49.4644E-03
            4636            4818     48.5816E-03     49.4644E-03
            4619            4818     48.5816E-03     49.4644E-03
            4619            4819     44.3324E-03     45.2846E-03
            4637            4819     44.3324E-03     45.2846E-03
            4620            4819     44.3324E-03     45.2846E-03
            4638            4819     44.3324E-03     45.2846E-03
            4621            4820     40.0962E-03     41.1254E-03
            4639            4820     40.0962E-03     41.1254E-03
            4620            4820     40.0962E-03     41.1254E-03
            4638            4820     40.0962E-03     41.1254E-03
            4639            4821     36.0521E-03     37.1780E-03
            4621            4821     36.0521E-03     37.1780E-03
            4622            4821     36.0521E-03     37.1780E-03
            4640            4821     36.0521E-03     37.1780E-03
            4640            4822     32.3473E-03     33.4718E-03
            4623            4822     32.3473E-03     33.4718E-03
            4622            4822     32.3473E-03     33.4718E-03
            4641            4822     32.3473E-03     33.4718E-03
            4642            4823     28.8187E-03     29.9184E-03
            4623            4823     28.8187E-03     29.9184E-03
            4624            4823     28.8187E-03     29.9184E-03
            4641            4823     28.8187E-03     29.9184E-03
            4625            4824     25.4512E-03     26.5133E-03
            4624            4824     25.4512E-03     26.5133E-03
            4643            4824     25.4512E-03     26.5133E-03
            4642            4824     25.4512E-03     26.5133E-03
            4644            4825     22.2163E-03     23.2245E-03
            4625            4825     22.2163E-03     23.2245E-03
            4643            4825     22.2163E-03     23.2245E-03
            4626            4825     22.2163E-03     23.2245E-03
            4644            4826     19.1107E-03     20.0578E-03
            4627            4826     19.1107E-03     20.0578E-03
            4626            4826     19.1107E-03     20.0578E-03
            4645            4826     19.1107E-03     20.0578E-03
            4645            4827     16.1828E-03     17.0367E-03
            4627            4827     16.1828E-03     17.0367E-03
            4646            4827     16.1828E-03     17.0367E-03
            4628            4827     16.1828E-03     17.0367E-03
            4646            4828     13.4898E-03     14.2016E-03
            4629            4828     13.4898E-03     14.2016E-03
            4647            4828     13.4898E-03     14.2016E-03
            4628            4828     13.4898E-03     14.2016E-03
            4647            4829     11.2144E-03     11.6775E-03
            4629            4829     11.2144E-03     11.6775E-03
            4630            4829     11.2144E-03     11.6775E-03
            4648            4829     11.2144E-03     11.6775E-03
            4649            4830     9.60898E-03     9.67098E-03
            4630            4830     9.60898E-03     9.67098E-03
            4648            4830     9.60898E-03     9.67098E-03
            4631            4830     9.60898E-03     9.67098E-03
            4632            4831     8.91990E-03     8.47588E-03
            4649            4831     8.91990E-03     8.47588E-03
            4631            4831     8.91990E-03     8.47588E-03
            4650            4831     8.91990E-03     8.47588E-03
            4650            4832     9.34281E-03     8.44086E-03
            4632            4832     9.34281E-03     8.44086E-03
            4651            4832     9.34281E-03     8.44086E-03
            4633            4832     9.34281E-03     8.44086E-03
            4651            4833     10.6858E-03     9.51922E-03
            4633            4833     10.6858E-03     9.51922E-03
            4652            4833     10.6858E-03     9.51922E-03
            4634            4833     10.6858E-03     9.51922E-03
            4654            4834     50.2209E-03     50.8654E-03
            4635            4834     50.2209E-03     50.8654E-03
            4636            4834     50.2209E-03     50.8654E-03
            4653            4834     50.2209E-03     50.8654E-03
            4654            4835     46.8440E-03     47.5773E-03
            4637            4835     46.8440E-03     47.5773E-03
            4636            4835     46.8440E-03     47.5773E-03
            4655            4835     46.8440E-03     47.5773E-03
            4656            4836     43.3151E-03     44.2494E-03
            4655            4836     43.3151E-03     44.2494E-03
            4637            4836     43.3151E-03     44.2494E-03
            4638            4836     43.3151E-03     44.2494E-03
            4638            4837     39.7740E-03     40.7776E-03
            4639            4837     39.7740E-03     40.7776E-03
            4657            4837     39.7740E-03     40.7776E-03
            4656            4837     39.7740E-03     40.7776E-03
            4658            4838     36.2377E-03     37.2436E-03
            4639            4838     36.2377E-03     37.2436E-03
            4640            4838     36.2377E-03     37.2436E-03
            4657            4838     36.2377E-03     37.2436E-03
            4659            4839     32.7359E-03     33.7408E-03
            4641            4839     32.7359E-03     33.7408E-03
            4640            4839     32.7359E-03     33.7408E-03
            4658            4839     32.7359E-03     33.7408E-03
            4660            4840     29.3565E-03     30.3110E-03
            4641            4840     29.3565E-03     30.3110E-03
            4642            4840     29.3565E-03     30.3110E-03
            4659            4840     29.3565E-03     30.3110E-03
            4642            4841     26.0543E-03     26.9573E-03
            4660            4841     26.0543E-03     26.9573E-03
            4661            4841     26.0543E-03     26.9573E-03
            4643            4841     26.0543E-03     26.9573E-03
            4661            4842     22.8622E-03     23.7093E-03
            4662            4842     22.8622E-03     23.7093E-03
            4643            4842     22.8622E-03     23.7093E-03
            4644            4842     22.8622E-03     23.7093E-03
            4644            4843     19.7996E-03     20.5833E-03
            4645            4843     19.7996E-03     20.5833E-03
            4663            4843     19.7996E-03     20.5833E-03
            4662            4843     19.7996E-03     20.5833E-03
            4663            4844     16.9082E-03     17.6166E-03
            4664            4844     16.9082E-03     17.6166E-03
            4645            4844     16.9082E-03     17.6166E-03
            4646            4844     16.9082E-03     17.6166E-03
            4665            4845     14.2829E-03     14.8702E-03
            4647            4845     14.2829E-03     14.8702E-03
            4646            4845     14.2829E-03     14.8702E-03
            4664            4845     14.2829E-03     14.8702E-03
            4648            4846     12.0519E-03     12.4390E-03
            4666            4846     12.0519E-03     12.4390E-03
            4647            4846     12.0519E-03     12.4390E-03
            4665            4846     12.0519E-03     12.4390E-03
            4648            4847     10.4035E-03     10.4691E-03
            4667            4847     10.4035E-03     10.4691E-03
            4649            4847     10.4035E-03     10.4691E-03
            4666            4847     10.4035E-03     10.4691E-03
            4667            4848     9.59336E-03     9.21864E-03
            4650            4848     9.59336E-03     9.21864E-03
            4649            4848     9.59336E-03     9.21864E-03
            4668            4848     9.59336E-03     9.21864E-03
            4668            4849     9.71375E-03     8.90695E-03
            4669            4849     9.71375E-03     8.90695E-03
            4650            4849     9.71375E-03     8.90695E-03
            4651            4849     9.71375E-03     8.90695E-03
            4669            4850     10.6677E-03     9.57596E-03
            4651            4850     10.6677E-03     9.57596E-03
            4652            4850     10.6677E-03     9.57596E-03
            4670            4850     10.6677E-03     9.57596E-03
            4654            4851     47.7094E-03     48.2095E-03
            4653            4851     47.7094E-03     48.2095E-03
            4672            4851     47.7094E-03     48.2095E-03
            4671            4851     47.7094E-03     48.2095E-03
            4673            4852     44.8492E-03     45.6141E-03
            4672            4852     44.8492E-03     45.6141E-03
            4655            4852     44.8492E-03     45.6141E-03
            4654            4852     44.8492E-03     45.6141E-03
            4656            4853     42.0475E-03     42.9067E-03
            4673            4853     42.0475E-03     42.9067E-03
            4655            4853     42.0475E-03     42.9067E-03
            4674            4853     42.0475E-03     42.9067E-03
            4675            4854     39.0795E-03     40.0027E-03
            4656            4854     39.0795E-03     40.0027E-03
            4674            4854     39.0795E-03     40.0027E-03
            4657            4854     39.0795E-03     40.0027E-03
            4658            4855     35.9850E-03     36.8932E-03
            4676            4855     35.9850E-03     36.8932E-03
            4675            4855     35.9850E-03     36.8932E-03
            4657            4855     35.9850E-03     36.8932E-03
            4659            4856     32.8143E-03     33.6548E-03
            4658            4856     32.8143E-03     33.6548E-03
            4677            4856     32.8143E-03     33.6548E-03
            4676            4856     32.8143E-03     33.6548E-03
            4659            4857     29.5969E-03     30.3839E-03
            4677            4857     29.5969E-03     30.3839E-03
            4678            4857     29.5969E-03     30.3839E-03
            4660            4857     29.5969E-03     30.3839E-03
            4678            4858     26.4233E-03     27.1430E-03
            4661            4858     26.4233E-03     27.1430E-03
            4679            4858     26.4233E-03     27.1430E-03
            4660            4858     26.4233E-03     27.1430E-03
            4679            4859     23.3102E-03     23.9765E-03
            4661            4859     23.3102E-03     23.9765E-03
            4662            4859     23.3102E-03     23.9765E-03
            4680            4859     23.3102E-03     23.9765E-03
            4662            4860     20.3180E-03     20.9335E-03
            4681            4860     20.3180E-03     20.9335E-03
            4680            4860     20.3180E-03     20.9335E-03
            4663            4860     20.3180E-03     20.9335E-03
            4682            4861     17.5018E-03     18.0622E-03
            4681            4861     17.5018E-03     18.0622E-03
            4663            4861     17.5018E-03     18.0622E-03
            4664            4861     17.5018E-03     18.0622E-03
            4665            4862     14.9506E-03     15.4350E-03
            4683            4862     14.9506E-03     15.4350E-03
            4682            4862     14.9506E-03     15.4350E-03
            4664            4862     14.9506E-03     15.4350E-03
            4665            4863     12.7912E-03     13.1343E-03
            4683            4863     12.7912E-03     13.1343E-03
            4666            4863     12.7912E-03     13.1343E-03
            4684            4863     12.7912E-03     13.1343E-03
            4684            4864     11.2016E-03     11.2948E-03
            4685            4864     11.2016E-03     11.2948E-03
            4666            4864     11.2016E-03     11.2948E-03
            4667            4864     11.2016E-03     11.2948E-03
            4686            4865     10.3266E-03     10.0539E-03
            4668            4865     10.3266E-03     10.0539E-03
            4667            4865     10.3266E-03     10.0539E-03
            4685            4865     10.3266E-03     10.0539E-03
            4686            4866     10.2320E-03     9.55032E-03
            4669            4866     10.2320E-03     9.55032E-03
            4668            4866     10.2320E-03     9.55032E-03
            4687            4866     10.2320E-03     9.55032E-03
            4669            4867     10.8938E-03     9.89871E-03
            4687            4867     10.8938E-03     9.89871E-03
            4670            4867     10.8938E-03     9.89871E-03
            4688            4867     10.8938E-03     9.89871E-03
            4689            4868     44.9935E-03     45.4959E-03
            4690            4868     44.9935E-03     45.4959E-03
            4671            4868     44.9935E-03     45.4959E-03
            4672            4868     44.9935E-03     45.4959E-03
            4672            4869     42.7993E-03     43.4821E-03
            4690            4869     42.7993E-03     43.4821E-03
            4673            4869     42.7993E-03     43.4821E-03
            4691            4869     42.7993E-03     43.4821E-03
            4674            4870     40.5461E-03     41.3766E-03
            4673            4870     40.5461E-03     41.3766E-03
            4692            4870     40.5461E-03     41.3766E-03
            4691            4870     40.5461E-03     41.3766E-03
            4675            4871     38.1271E-03     38.9361E-03
            4693            4871     38.1271E-03     38.9361E-03
            4692            4871     38.1271E-03     38.9361E-03
            4674            4871     38.1271E-03     38.9361E-03
            4676            4872     35.4492E-03     36.1853E-03
            4693            4872     35.4492E-03     36.1853E-03
            4675            4872     35.4492E-03     36.1853E-03
            4694            4872     35.4492E-03     36.1853E-03
            4694            4873     32.5650E-03     33.2214E-03
            4677            4873     32.5650E-03     33.2214E-03
            4676            4873     32.5650E-03     33.2214E-03
            4695            4873     32.5650E-03     33.2214E-03
            4696            4874     29.5782E-03     30.1480E-03
            4678            4874     29.5782E-03     30.1480E-03
            4677            4874     29.5782E-03     30.1480E-03
            4695            4874     29.5782E-03     30.1480E-03
            4678            4875     26.5500E-03     27.0629E-03
            4696            4875     26.5500E-03     27.0629E-03
            4679            4875     26.5500E-03     27.0629E-03
            4697            4875     26.5500E-03     27.0629E-03
            4697            4876     23.5711E-03     24.0335E-03
            4679            4876     23.5711E-03     24.0335E-03
            4698            4876     23.5711E-03     24.0335E-03
            4680            4876     23.5711E-03     24.0335E-03
            4680            4877     20.6881E-03     21.1189E-03
            4681            4877     20.6881E-03     21.1189E-03
            4699            4877     20.6881E-03     21.1189E-03
            4698            4877     20.6881E-03     21.1189E-03
            4700            4878     17.9827E-03     18.3883E-03
            4681            4878     17.9827E-03     18.3883E-03
            4699            4878     17.9827E-03     18.3883E-03
            4682            4878     17.9827E-03     18.3883E-03
            4682            4879     15.5349E-03     15.9135E-03
            4683            4879     15.5349E-03     15.9135E-03
            4701            4879     15.5349E-03     15.9135E-03
            4700            4879     15.5349E-03     15.9135E-03
            4702            4880     13.4817E-03     13.8009E-03
            4684            4880     13.4817E-03     13.8009E-03
            4701            4880     13.4817E-03     13.8009E-03
            4683            4880     13.4817E-03     13.8009E-03
            4684            4881     11.9683E-03     12.1240E-03
            4703            4881     11.9683E-03     12.1240E-03
            4702            4881     11.9683E-03     12.1240E-03
            4685            4881     11.9683E-03     12.1240E-03
            4704            4882     11.0986E-03     10.9661E-03
            4686            4882     11.0986E-03     10.9661E-03
            4685            4882     11.0986E-03     10.9661E-03
            4703            4882     11.0986E-03     10.9661E-03
            4687            4883     10.9051E-03     10.3903E-03
            4704            4883     10.9051E-03     10.3903E-03
            4686            4883     10.9051E-03     10.3903E-03
            4705            4883     10.9051E-03     10.3903E-03
            4706            4884     11.2832E-03     10.4023E-03
            4705            4884     11.2832E-03     10.4023E-03
            4688            4884     11.2832E-03     10.4023E-03
            4687            4884     11.2832E-03     10.4023E-03
            4708            4885     42.1970E-03     42.6066E-03
            4690            4885     42.1970E-03     42.6066E-03
            4707            4885     42.1970E-03     42.6066E-03
            4689            4885     42.1970E-03     42.6066E-03
            4690            4886     40.5507E-03     41.2427E-03
            4709            4886     40.5507E-03     41.2427E-03
            4691            4886     40.5507E-03     41.2427E-03
            4708            4886     40.5507E-03     41.2427E-03
            4710            4887     38.9193E-03     39.6266E-03
            4692            4887     38.9193E-03     39.6266E-03
            4691            4887     38.9193E-03     39.6266E-03
            4709            4887     38.9193E-03     39.6266E-03
            4711            4888     36.9717E-03     37.5934E-03
            4692            4888     36.9717E-03     37.5934E-03
            4693            4888     36.9717E-03     37.5934E-03
            4710            4888     36.9717E-03     37.5934E-03
            4712            4889     34.6580E-03     35.1590E-03
            4693            4889     34.6580E-03     35.1590E-03
            4694            4889     34.6580E-03     35.1590E-03
            4711            4889     34.6580E-03     35.1590E-03
            4713            4890     32.0625E-03     32.4571E-03
            4712            4890     32.0625E-03     32.4571E-03
            4695            4890     32.0625E-03     32.4571E-03
            4694            4890     32.0625E-03     32.4571E-03
            4696            4891     29.2990E-03     29.6238E-03
            4714            4891     29.2990E-03     29.6238E-03
            4713            4891     29.2990E-03     29.6238E-03
            4695            4891     29.2990E-03     29.6238E-03
            4696            4892     26.4786E-03     26.7479E-03
            4715            4892     26.4786E-03     26.7479E-03
            4714            4892     26.4786E-03     26.7479E-03
            4697            4892     26.4786E-03     26.7479E-03
            4698            4893     23.6683E-03     23.9113E-03
            4697            4893     23.6683E-03     23.9113E-03
            4715            4893     23.6683E-03     23.9113E-03
            4716            4893     23.6683E-03     23.9113E-03
            4698            4894     20.9544E-03     21.1828E-03
            4716            4894     20.9544E-03     21.1828E-03
            4717            4894     20.9544E-03     21.1828E-03
            4699            4894     20.9544E-03     21.1828E-03
            4700            4895     18.3954E-03     18.6327E-03
            4699            4895     18.3954E-03     18.6327E-03
            4717            4895     18.3954E-03     18.6327E-03
            4718            4895     18.3954E-03     18.6327E-03
            4718            4896     16.0958E-03     16.3526E-03
            4701            4896     16.0958E-03     16.3526E-03
            4700            4896     16.0958E-03     16.3526E-03
            4719            4896     16.0958E-03     16.3526E-03
            4720            4897     14.1467E-03     14.4325E-03
            4701            4897     14.1467E-03     14.4325E-03
            4702            4897     14.1467E-03     14.4325E-03
            4719            4897     14.1467E-03     14.4325E-03
            4702            4898     12.7064E-03     12.9762E-03
            4721            4898     12.7064E-03     12.9762E-03
            4720            4898     12.7064E-03     12.9762E-03
            4703            4898     12.7064E-03     12.9762E-03
            4703            4899     11.9055E-03     11.9614E-03
            4722            4899     11.9055E-03     11.9614E-03
            4721            4899     11.9055E-03     11.9614E-03
            4704            4899     11.9055E-03     11.9614E-03
            4723            4900     11.6347E-03     11.3418E-03
            4704            4900     11.6347E-03     11.3418E-03
            4705            4900     11.6347E-03     11.3418E-03
            4722            4900     11.6347E-03     11.3418E-03
            4723            4901     11.8120E-03     11.1471E-03
            4724            4901     11.8120E-03     11.1471E-03
            4705            4901     11.8120E-03     11.1471E-03
            4706            4901     11.8120E-03     11.1471E-03
            4726            4902     39.1299E-03     39.5582E-03
            4708            4902     39.1299E-03     39.5582E-03
            4707            4902     39.1299E-03     39.5582E-03
            4725            4902     39.1299E-03     39.5582E-03
            4708            4903     38.1770E-03     38.7354E-03
            4709            4903     38.1770E-03     38.7354E-03
            4726            4903     38.1770E-03     38.7354E-03
            4727            4903     38.1770E-03     38.7354E-03
            4728            4904     37.1638E-03     37.6225E-03
            4709            4904     37.1638E-03     37.6225E-03
            4727            4904     37.1638E-03     37.6225E-03
            4710            4904     37.1638E-03     37.6225E-03
            4728            4905     35.6388E-03     35.9253E-03
            4710            4905     35.6388E-03     35.9253E-03
            4711            4905     35.6388E-03     35.9253E-03
            4729            4905     35.6388E-03     35.9253E-03
            4711            4906     33.6311E-03     33.7914E-03
            4729            4906     33.6311E-03     33.7914E-03
            4730            4906     33.6311E-03     33.7914E-03
            4712            4906     33.6311E-03     33.7914E-03
            4731            4907     31.3162E-03     31.3968E-03
            4730            4907     31.3162E-03     31.3968E-03
            4713            4907     31.3162E-03     31.3968E-03
            4712            4907     31.3162E-03     31.3968E-03
            4713            4908     28.8189E-03     28.8528E-03
            4732            4908     28.8189E-03     28.8528E-03
            4714            4908     28.8189E-03     28.8528E-03
            4731            4908     28.8189E-03     28.8528E-03
            4714            4909     26.2410E-03     26.2566E-03
            4733            4909     26.2410E-03     26.2566E-03
            4715            4909     26.2410E-03     26.2566E-03
            4732            4909     26.2410E-03     26.2566E-03
            4716            4910     23.6709E-03     23.6804E-03
            4715            4910     23.6709E-03     23.6804E-03
            4734            4910     23.6709E-03     23.6804E-03
            4733            4910     23.6709E-03     23.6804E-03
            4734            4911     21.1699E-03     21.1949E-03
            4716            4911     21.1699E-03     21.1949E-03
            4717            4911     21.1699E-03     21.1949E-03
            4735            4911     21.1699E-03     21.1949E-03
            4736            4912     18.8213E-03     18.8752E-03
            4718            4912     18.8213E-03     18.8752E-03
            4735            4912     18.8213E-03     18.8752E-03
            4717            4912     18.8213E-03     18.8752E-03
            4719            4913     16.6854E-03     16.8041E-03
            4718            4913     16.6854E-03     16.8041E-03
            4737            4913     16.6854E-03     16.8041E-03
            4736            4913     16.6854E-03     16.8041E-03
            4719            4914     14.8768E-03     15.0848E-03
            4738            4914     14.8768E-03     15.0848E-03
            4720            4914     14.8768E-03     15.0848E-03
            4737            4914     14.8768E-03     15.0848E-03
            4721            4915     13.4656E-03     13.8114E-03
            4739            4915     13.4656E-03     13.8114E-03
            4738            4915     13.4656E-03     13.8114E-03
            4720            4915     13.4656E-03     13.8114E-03
            4721            4916     12.6143E-03     13.0247E-03
            4722            4916     12.6143E-03     13.0247E-03
            4740            4916     12.6143E-03     13.0247E-03
            4739            4916     12.6143E-03     13.0247E-03
            4740            4917     12.4356E-03     12.4747E-03
            4741            4917     12.4356E-03     12.4747E-03
            4723            4917     12.4356E-03     12.4747E-03
            4722            4917     12.4356E-03     12.4747E-03
            4741            4918     12.4395E-03     11.9876E-03
            4723            4918     12.4395E-03     11.9876E-03
            4742            4918     12.4395E-03     11.9876E-03
            4724            4918     12.4395E-03     11.9876E-03
            4725            4919     35.7660E-03     35.8992E-03
            4726            4919     35.7660E-03     35.8992E-03
            4743            4919     35.7660E-03     35.8992E-03
            4744            4919     35.7660E-03     35.8992E-03
            4745            4920     35.7612E-03     35.8842E-03
            4727            4920     35.7612E-03     35.8842E-03
            4744            4920     35.7612E-03     35.8842E-03
            4726            4920     35.7612E-03     35.8842E-03
            4745            4921     35.2984E-03     35.2076E-03
            4727            4921     35.2984E-03     35.2076E-03
            4746            4921     35.2984E-03     35.2076E-03
            4728            4921     35.2984E-03     35.2076E-03
            4746            4922     34.0726E-03     33.8544E-03
            4728            4922     34.0726E-03     33.8544E-03
            4729            4922     34.0726E-03     33.8544E-03
            4747            4922     34.0726E-03     33.8544E-03
            4747            4923     32.3772E-03     32.1032E-03
            4748            4923     32.3772E-03     32.1032E-03
            4729            4923     32.3772E-03     32.1032E-03
            4730            4923     32.3772E-03     32.1032E-03
            4748            4924     30.3718E-03     30.0935E-03
            4730            4924     30.3718E-03     30.0935E-03
            4749            4924     30.3718E-03     30.0935E-03
            4731            4924     30.3718E-03     30.0935E-03
            4750            4925     28.1938E-03     27.9303E-03
            4749            4925     28.1938E-03     27.9303E-03
            4732            4925     28.1938E-03     27.9303E-03
            4731            4925     28.1938E-03     27.9303E-03
            4732            4926     25.9304E-03     25.6922E-03
            4733            4926     25.9304E-03     25.6922E-03
            4750            4926     25.9304E-03     25.6922E-03
            4751            4926     25.9304E-03     25.6922E-03
            4751            4927     23.6559E-03     23.4508E-03
            4752            4927     23.6559E-03     23.4508E-03
            4734            4927     23.6559E-03     23.4508E-03
            4733            4927     23.6559E-03     23.4508E-03
            4753            4928     21.4395E-03     21.2706E-03
            4752            4928     21.4395E-03     21.2706E-03
            4735            4928     21.4395E-03     21.2706E-03
            4734            4928     21.4395E-03     21.2706E-03
            4753            4929     19.3359E-03     19.2190E-03
            4754            4929     19.3359E-03     19.2190E-03
            4735            4929     19.3359E-03     19.2190E-03
            4736            4929     19.3359E-03     19.2190E-03
            4737            4930     17.4199E-03     17.3754E-03
            4755            4930     17.4199E-03     17.3754E-03
            4754            4930     17.4199E-03     17.3754E-03
            4736            4930     17.4199E-03     17.3754E-03
            4738            4931     15.7411E-03     15.8275E-03
            4755            4931     15.7411E-03     15.8275E-03
            4737            4931     15.7411E-03     15.8275E-03
            4756            4931     15.7411E-03     15.8275E-03
            4739            4932     14.3885E-03     14.6656E-03
            4756            4932     14.3885E-03     14.6656E-03
            4738            4932     14.3885E-03     14.6656E-03
            4757            4932     14.3885E-03     14.6656E-03
            4757            4933     13.3582E-03     13.9928E-03
            4739            4933     13.3582E-03     13.9928E-03
            4740            4933     13.3582E-03     13.9928E-03
            4758            4933     13.3582E-03     13.9928E-03
            4741            4934     12.8751E-03     13.7435E-03
            4740            4934     12.8751E-03     13.7435E-03
            4758            4934     12.8751E-03     13.7435E-03
            4759            4934     12.8751E-03     13.7435E-03
            4741            4935     13.1147E-03     13.2769E-03
            4742            4935     13.1147E-03     13.2769E-03
            4760            4935     13.1147E-03     13.2769E-03
            4759            4935     13.1147E-03     13.2769E-03
            4743            4936     32.4443E-03     31.5037E-03
            4762            4936     32.4443E-03     31.5037E-03
            4744            4936     32.4443E-03     31.5037E-03
            4761            4936     32.4443E-03     31.5037E-03
            4745            4937     33.4146E-03     32.4716E-03
            4763            4937     33.4146E-03     32.4716E-03
            4762            4937     33.4146E-03     32.4716E-03
            4744            4937     33.4146E-03     32.4716E-03
            4745            4938     33.2079E-03     32.2668E-03
            4763            4938     33.2079E-03     32.2668E-03
            4764            4938     33.2079E-03     32.2668E-03
            4746            4938     33.2079E-03     32.2668E-03
            4746            4939     32.2885E-03     31.4387E-03
            4747            4939     32.2885E-03     31.4387E-03
            4765            4939     32.2885E-03     31.4387E-03
            4764            4939     32.2885E-03     31.4387E-03
            4747            4940     30.9445E-03     30.2126E-03
            4765            4940     30.9445E-03     30.2126E-03
            4766            4940     30.9445E-03     30.2126E-03
            4748            4940     30.9445E-03     30.2126E-03
            4748            4941     29.3361E-03     28.7098E-03
            4766            4941     29.3361E-03     28.7098E-03
            4749            4941     29.3361E-03     28.7098E-03
            4767            4941     29.3361E-03     28.7098E-03
            4749            4942     27.5512E-03     27.0219E-03
            4767            4942     27.5512E-03     27.0219E-03
            4768            4942     27.5512E-03     27.0219E-03
            4750            4942     27.5512E-03     27.0219E-03
            4769            4943     25.6736E-03     25.2256E-03
            4750            4943     25.6736E-03     25.2256E-03
            4751            4943     25.6736E-03     25.2256E-03
            4768            4943     25.6736E-03     25.2256E-03
            4770            4944     23.7616E-03     23.3827E-03
            4752            4944     23.7616E-03     23.3827E-03
            4769            4944     23.7616E-03     23.3827E-03
            4751            4944     23.7616E-03     23.3827E-03
            4753            4945     21.8741E-03     21.5556E-03
            4771            4945     21.8741E-03     21.5556E-03
            4770            4945     21.8741E-03     21.5556E-03
            4752            4945     21.8741E-03     21.5556E-03
            4772            4946     20.0640E-03     19.8056E-03
            4771            4946     20.0640E-03     19.8056E-03
            4753            4946     20.0640E-03     19.8056E-03
            4754            4946     20.0640E-03     19.8056E-03
            4755            4947     18.3836E-03     18.1910E-03
            4773            4947     18.3836E-03     18.1910E-03
            4754            4947     18.3836E-03     18.1910E-03
            4772            4947     18.3836E-03     18.1910E-03
            4774            4948     16.8759E-03     16.7862E-03
            4773            4948     16.8759E-03     16.7862E-03
            4756            4948     16.8759E-03     16.7862E-03
            4755            4948     16.8759E-03     16.7862E-03
            4757            4949     15.5759E-03     15.6552E-03
            4774            4949     15.5759E-03     15.6552E-03
            4756            4949     15.5759E-03     15.6552E-03
            4775            4949     15.5759E-03     15.6552E-03
            4757            4950     14.4745E-03     14.8697E-03
            4776            4950     14.4745E-03     14.8697E-03
            4758            4950     14.4745E-03     14.8697E-03
            4775            4950     14.4745E-03     14.8697E-03
            4759            4951     13.4461E-03     14.5857E-03
            4777            4951     13.4461E-03     14.5857E-03
            4758            4951     13.4461E-03     14.5857E-03
            4776            4951     13.4461E-03     14.5857E-03
            4759            4952     12.7432E-03     14.6945E-03
            4777            4952     12.7432E-03     14.6945E-03
            4760            4952     12.7432E-03     14.6945E-03
            4778            4952     12.7432E-03     14.6945E-03
            4762            4953     31.3510E-03     31.8244E-03
            4780            4953     31.3510E-03     31.8244E-03
            4761            4953     31.3510E-03     31.8244E-03
            4779            4953     31.3510E-03     31.8244E-03
            4763            4954     28.7027E-03     28.5822E-03
            4780            4954     28.7027E-03     28.5822E-03
            4762            4954     28.7027E-03     28.5822E-03
            4781            4954     28.7027E-03     28.5822E-03
            4763            4955     26.8517E-03     26.7098E-03
            4764            4955     26.8517E-03     26.7098E-03
            4781            4955     26.8517E-03     26.7098E-03
            4782            4955     26.8517E-03     26.7098E-03
            4782            4956     25.1308E-03     25.0884E-03
            4783            4956     25.1308E-03     25.0884E-03
            4764            4956     25.1308E-03     25.0884E-03
            4765            4956     25.1308E-03     25.0884E-03
            4784            4957     23.5337E-03     23.5764E-03
            4766            4957     23.5337E-03     23.5764E-03
            4783            4957     23.5337E-03     23.5764E-03
            4765            4957     23.5337E-03     23.5764E-03
            4785            4958     21.9650E-03     22.1045E-03
            4784            4958     21.9650E-03     22.1045E-03
            4767            4958     21.9650E-03     22.1045E-03
            4766            4958     21.9650E-03     22.1045E-03
            4785            4959     20.4263E-03     20.6300E-03
            4786            4959     20.4263E-03     20.6300E-03
            4767            4959     20.4263E-03     20.6300E-03
            4768            4959     20.4263E-03     20.6300E-03
            4768            4960     18.9066E-03     19.1603E-03
            4787            4960     18.9066E-03     19.1603E-03
            4786            4960     18.9066E-03     19.1603E-03
            4769            4960     18.9066E-03     19.1603E-03
            4788            4961     17.4148E-03     17.6929E-03
            4770            4961     17.4148E-03     17.6929E-03
            4787            4961     17.4148E-03     17.6929E-03
            4769            4961     17.4148E-03     17.6929E-03
            4788            4962     15.9827E-03     16.2638E-03
            4770            4962     15.9827E-03     16.2638E-03
            4771            4962     15.9827E-03     16.2638E-03
            4789            4962     15.9827E-03     16.2638E-03
            4789            4963     14.6223E-03     14.8808E-03
            4771            4963     14.6223E-03     14.8808E-03
            4772            4963     14.6223E-03     14.8808E-03
            4790            4963     14.6223E-03     14.8808E-03
            4772            4964     13.4021E-03     13.6128E-03
            4791            4964     13.4021E-03     13.6128E-03
            4773            4964     13.4021E-03     13.6128E-03
            4790            4964     13.4021E-03     13.6128E-03
            4792            4965     12.3414E-03     12.4710E-03
            4791            4965     12.3414E-03     12.4710E-03
            4773            4965     12.3414E-03     12.4710E-03
            4774            4965     12.3414E-03     12.4710E-03
            4775            4966     11.5510E-03     11.6025E-03
            4792            4966     11.5510E-03     11.6025E-03
            4793            4966     11.5510E-03     11.6025E-03
            4774            4966     11.5510E-03     11.6025E-03
            4776            4967     11.0547E-03     11.0361E-03
            4775            4967     11.0547E-03     11.0361E-03
            4793            4967     11.0547E-03     11.0361E-03
            4794            4967     11.0547E-03     11.0361E-03
            4794            4968     10.9505E-03     11.0925E-03
            4776            4968     10.9505E-03     11.0925E-03
            4777            4968     10.9505E-03     11.0925E-03
            4795            4968     10.9505E-03     11.0925E-03
            4796            4969     11.2632E-03     12.3784E-03
            4777            4969     11.2632E-03     12.3784E-03
            4778            4969     11.2632E-03     12.3784E-03
            4795            4969     11.2632E-03     12.3784E-03
            4779            4970     32.2695E-03     33.1252E-03
            4798            4970     32.2695E-03     33.1252E-03
            4780            4970     32.2695E-03     33.1252E-03
            4797            4970     32.2695E-03     33.1252E-03
            4798            4971     25.9493E-03     27.0138E-03
            4799            4971     25.9493E-03     27.0138E-03
            4780            4971     25.9493E-03     27.0138E-03
            4781            4971     25.9493E-03     27.0138E-03
            4781            4972     21.9706E-03     23.0036E-03
            4782            4972     21.9706E-03     23.0036E-03
            4799            4972     21.9706E-03     23.0036E-03
            4800            4972     21.9706E-03     23.0036E-03
            4801            4973     19.3375E-03     20.3305E-03
            4782            4973     19.3375E-03     20.3305E-03
            4783            4973     19.3375E-03     20.3305E-03
            4800            4973     19.3375E-03     20.3305E-03
            4783            4974     17.2130E-03     18.2073E-03
            4802            4974     17.2130E-03     18.2073E-03
            4784            4974     17.2130E-03     18.2073E-03
            4801            4974     17.2130E-03     18.2073E-03
            4803            4975     15.4926E-03     16.4864E-03
            4784            4975     15.4926E-03     16.4864E-03
            4802            4975     15.4926E-03     16.4864E-03
            4785            4975     15.4926E-03     16.4864E-03
            4804            4976     13.9742E-03     14.9580E-03
            4785            4976     13.9742E-03     14.9580E-03
            4786            4976     13.9742E-03     14.9580E-03
            4803            4976     13.9742E-03     14.9580E-03
            4805            4977     12.6171E-03     13.5808E-03
            4786            4977     12.6171E-03     13.5808E-03
            4804            4977     12.6171E-03     13.5808E-03
            4787            4977     12.6171E-03     13.5808E-03
            4788            4978     11.3681E-03     12.2871E-03
            4806            4978     11.3681E-03     12.2871E-03
            4805            4978     11.3681E-03     12.2871E-03
            4787            4978     11.3681E-03     12.2871E-03
            4806            4979     10.2262E-03     11.0787E-03
            4788            4979     10.2262E-03     11.0787E-03
            4807            4979     10.2262E-03     11.0787E-03
            4789            4979     10.2262E-03     11.0787E-03
            4790            4980     9.19788E-03     9.94505E-03
            4808            4980     9.19788E-03     9.94505E-03
            4807            4980     9.19788E-03     9.94505E-03
            4789            4980     9.19788E-03     9.94505E-03
            4790            4981     8.32461E-03     8.92133E-03
            4791            4981     8.32461E-03     8.92133E-03
            4808            4981     8.32461E-03     8.92133E-03
            4809            4981     8.32461E-03     8.92133E-03
            4792            4982     7.65594E-03     8.04359E-03
            4810            4982     7.65594E-03     8.04359E-03
            4809            4982     7.65594E-03     8.04359E-03
            4791            4982     7.65594E-03     8.04359E-03
            4810            4983     7.32779E-03     7.44327E-03
            4792            4983     7.32779E-03     7.44327E-03
            4811            4983     7.32779E-03     7.44327E-03
            4793            4983     7.32779E-03     7.44327E-03
            4793            4984     7.40840E-03     7.21885E-03
            4811            4984     7.40840E-03     7.21885E-03
            4812            4984     7.40840E-03     7.21885E-03
            4794            4984     7.40840E-03     7.21885E-03
            4795            4985     8.31863E-03     7.85065E-03
            4794            4985     8.31863E-03     7.85065E-03
            4812            4985     8.31863E-03     7.85065E-03
            4813            4985     8.31863E-03     7.85065E-03
            4813            4986     9.92490E-03     9.27684E-03
            4796            4986     9.92490E-03     9.27684E-03
            4795            4986     9.92490E-03     9.27684E-03
            4814            4986     9.92490E-03     9.27684E-03
            4797            4987     30.9873E-03     31.0240E-03
            4798            4987     30.9873E-03     31.0240E-03
            4816            4987     30.9873E-03     31.0240E-03
            4815            4987     30.9873E-03     31.0240E-03
            4816            4988     26.6264E-03     27.0377E-03
            4799            4988     26.6264E-03     27.0377E-03
            4798            4988     26.6264E-03     27.0377E-03
            4817            4988     26.6264E-03     27.0377E-03
            4817            4989     22.6664E-03     23.3996E-03
            4799            4989     22.6664E-03     23.3996E-03
            4818            4989     22.6664E-03     23.3996E-03
            4800            4989     22.6664E-03     23.3996E-03
            4819            4990     19.9805E-03     20.8234E-03
            4818            4990     19.9805E-03     20.8234E-03
            4801            4990     19.9805E-03     20.8234E-03
            4800            4990     19.9805E-03     20.8234E-03
            4801            4991     17.9279E-03     18.7782E-03
            4802            4991     17.9279E-03     18.7782E-03
            4819            4991     17.9279E-03     18.7782E-03
            4820            4991     17.9279E-03     18.7782E-03
            4820            4992     16.2000E-03     17.0622E-03
            4821            4992     16.2000E-03     17.0622E-03
            4802            4992     16.2000E-03     17.0622E-03
            4803            4992     16.2000E-03     17.0622E-03
            4804            4993     14.7177E-03     15.5547E-03
            4821            4993     14.7177E-03     15.5547E-03
            4822            4993     14.7177E-03     15.5547E-03
            4803            4993     14.7177E-03     15.5547E-03
            4822            4994     13.3694E-03     14.1753E-03
            4804            4994     13.3694E-03     14.1753E-03
            4805            4994     13.3694E-03     14.1753E-03
            4823            4994     13.3694E-03     14.1753E-03
            4806            4995     12.1482E-03     12.9028E-03
            4823            4995     12.1482E-03     12.9028E-03
            4805            4995     12.1482E-03     12.9028E-03
            4824            4995     12.1482E-03     12.9028E-03
            4807            4996     11.0300E-03     11.7141E-03
            4825            4996     11.0300E-03     11.7141E-03
            4824            4996     11.0300E-03     11.7141E-03
            4806            4996     11.0300E-03     11.7141E-03
            4825            4997     10.0414E-03     10.6272E-03
            4808            4997     10.0414E-03     10.6272E-03
            4826            4997     10.0414E-03     10.6272E-03
            4807            4997     10.0414E-03     10.6272E-03
            4827            4998     9.19556E-03     9.64645E-03
            4808            4998     9.19556E-03     9.64645E-03
            4809            4998     9.19556E-03     9.64645E-03
            4826            4998     9.19556E-03     9.64645E-03
            4810            4999     8.56214E-03     8.83437E-03
            4827            4999     8.56214E-03     8.83437E-03
            4809            4999     8.56214E-03     8.83437E-03
            4828            4999     8.56214E-03     8.83437E-03
            4828            5000     8.17045E-03     8.22058E-03
            4829            5000     8.17045E-03     8.22058E-03
            4810            5000     8.17045E-03     8.22058E-03
            4811            5000     8.17045E-03     8.22058E-03
            4811            5001     8.17430E-03     7.98545E-03
            4829            5001     8.17430E-03     7.98545E-03
            4830            5001     8.17430E-03     7.98545E-03
            4812            5001     8.17430E-03     7.98545E-03
            4813            5002     8.59796E-03     8.20369E-03
            4812            5002     8.59796E-03     8.20369E-03
            4830            5002     8.59796E-03     8.20369E-03
            4831            5002     8.59796E-03     8.20369E-03
            4831            5003     8.93366E-03     8.40936E-03
            4813            5003     8.93366E-03     8.40936E-03
            4814            5003     8.93366E-03     8.40936E-03
            4832            5003     8.93366E-03     8.40936E-03
            4833            5004     28.2456E-03     28.7635E-03
            4816            5004     28.2456E-03     28.7635E-03
            4834            5004     28.2456E-03     28.7635E-03
            4815            5004     28.2456E-03     28.7635E-03
            4835            5005     25.5240E-03     25.9336E-03
            4816            5005     25.5240E-03     25.9336E-03
            4834            5005     25.5240E-03     25.9336E-03
            4817            5005     25.5240E-03     25.9336E-03
            4817            5006     22.7778E-03     23.2966E-03
            4835            5006     22.7778E-03     23.2966E-03
            4818            5006     22.7778E-03     23.2966E-03
            4836            5006     22.7778E-03     23.2966E-03
            4818            5007     20.3473E-03     21.0256E-03
            4836            5007     20.3473E-03     21.0256E-03
            4837            5007     20.3473E-03     21.0256E-03
            4819            5007     20.3473E-03     21.0256E-03
            4819            5008     18.4595E-03     19.1859E-03
            4837            5008     18.4595E-03     19.1859E-03
            4838            5008     18.4595E-03     19.1859E-03
            4820            5008     18.4595E-03     19.1859E-03
            4838            5009     16.8387E-03     17.5528E-03
            4839            5009     16.8387E-03     17.5528E-03
            4820            5009     16.8387E-03     17.5528E-03
            4821            5009     16.8387E-03     17.5528E-03
            4840            5010     15.3859E-03     16.0833E-03
            4839            5010     15.3859E-03     16.0833E-03
            4821            5010     15.3859E-03     16.0833E-03
            4822            5010     15.3859E-03     16.0833E-03
            4841            5011     14.0717E-03     14.7237E-03
            4840            5011     14.0717E-03     14.7237E-03
            4823            5011     14.0717E-03     14.7237E-03
            4822            5011     14.0717E-03     14.7237E-03
            4841            5012     12.8565E-03     13.4600E-03
            4842            5012     12.8565E-03     13.4600E-03
            4824            5012     12.8565E-03     13.4600E-03
            4823            5012     12.8565E-03     13.4600E-03
            4843            5013     11.7600E-03     12.2952E-03
            4825            5013     11.7600E-03     12.2952E-03
            4824            5013     11.7600E-03     12.2952E-03
            4842            5013     11.7600E-03     12.2952E-03
            4825            5014     10.7792E-03     11.2283E-03
            4844            5014     10.7792E-03     11.2283E-03
            4826            5014     10.7792E-03     11.2283E-03
            4843            5014     10.7792E-03     11.2283E-03
            4827            5015     9.95334E-03     10.2862E-03
            4845            5015     9.95334E-03     10.2862E-03
            4844            5015     9.95334E-03     10.2862E-03
            4826            5015     9.95334E-03     10.2862E-03
            4827            5016     9.28836E-03     9.46909E-03
            4845            5016     9.28836E-03     9.46909E-03
            4846            5016     9.28836E-03     9.46909E-03
            4828            5016     9.28836E-03     9.46909E-03
            4829            5017     8.83260E-03     8.82345E-03
            4846            5017     8.83260E-03     8.82345E-03
            4828            5017     8.83260E-03     8.82345E-03
            4847            5017     8.83260E-03     8.82345E-03
            4847            5018     8.59520E-03     8.37491E-03
            4848            5018     8.59520E-03     8.37491E-03
            4829            5018     8.59520E-03     8.37491E-03
            4830            5018     8.59520E-03     8.37491E-03
            4831            5019     8.42048E-03     7.97587E-03
            4849            5019     8.42048E-03     7.97587E-03
            4848            5019     8.42048E-03     7.97587E-03
            4830            5019     8.42048E-03     7.97587E-03
            4850            5020     8.32331E-03     7.69122E-03
            4832            5020     8.32331E-03     7.69122E-03
            4831            5020     8.32331E-03     7.69122E-03
            4849            5020     8.32331E-03     7.69122E-03
            4834            5021     25.8420E-03     26.1097E-03
            4852            5021     25.8420E-03     26.1097E-03
            4833            5021     25.8420E-03     26.1097E-03
            4851            5021     25.8420E-03     26.1097E-03
            4834            5022     23.7871E-03     24.2688E-03
            4835            5022     23.7871E-03     24.2688E-03
            4852            5022     23.7871E-03     24.2688E-03
            4853            5022     23.7871E-03     24.2688E-03
            4836            5023     22.0111E-03     22.5441E-03
            4835            5023     22.0111E-03     22.5441E-03
            4854            5023     22.0111E-03     22.5441E-03
            4853            5023     22.0111E-03     22.5441E-03
            4836            5024     20.3247E-03     20.8859E-03
            4855            5024     20.3247E-03     20.8859E-03
            4837            5024     20.3247E-03     20.8859E-03
            4854            5024     20.3247E-03     20.8859E-03
            4837            5025     18.7208E-03     19.3211E-03
            4838            5025     18.7208E-03     19.3211E-03
            4855            5025     18.7208E-03     19.3211E-03
            4856            5025     18.7208E-03     19.3211E-03
            4838            5026     17.2820E-03     17.8645E-03
            4857            5026     17.2820E-03     17.8645E-03
            4839            5026     17.2820E-03     17.8645E-03
            4856            5026     17.2820E-03     17.8645E-03
            4840            5027     15.9223E-03     16.4668E-03
            4857            5027     15.9223E-03     16.4668E-03
            4839            5027     15.9223E-03     16.4668E-03
            4858            5027     15.9223E-03     16.4668E-03
            4840            5028     14.6427E-03     15.1483E-03
            4841            5028     14.6427E-03     15.1483E-03
            4858            5028     14.6427E-03     15.1483E-03
            4859            5028     14.6427E-03     15.1483E-03
            4841            5029     13.4554E-03     13.9096E-03
            4842            5029     13.4554E-03     13.9096E-03
            4860            5029     13.4554E-03     13.9096E-03
            4859            5029     13.4554E-03     13.9096E-03
            4842            5030     12.3645E-03     12.7646E-03
            4861            5030     12.3645E-03     12.7646E-03
            4843            5030     12.3645E-03     12.7646E-03
            4860            5030     12.3645E-03     12.7646E-03
            4862            5031     11.3997E-03     11.7292E-03
            4844            5031     11.3997E-03     11.7292E-03
            4861            5031     11.3997E-03     11.7292E-03
            4843            5031     11.3997E-03     11.7292E-03
            4862            5032     10.5650E-03     10.8026E-03
            4863            5032     10.5650E-03     10.8026E-03
            4844            5032     10.5650E-03     10.8026E-03
            4845            5032     10.5650E-03     10.8026E-03
            4845            5033     9.87740E-03     9.99040E-03
            4846            5033     9.87740E-03     9.99040E-03
            4863            5033     9.87740E-03     9.99040E-03
            4864            5033     9.87740E-03     9.99040E-03
            4865            5034     9.32901E-03     9.27879E-03
            4846            5034     9.32901E-03     9.27879E-03
            4847            5034     9.32901E-03     9.27879E-03
            4864            5034     9.32901E-03     9.27879E-03
            4866            5035     8.84317E-03     8.58719E-03
            4847            5035     8.84317E-03     8.58719E-03
            4865            5035     8.84317E-03     8.58719E-03
            4848            5035     8.84317E-03     8.58719E-03
            4849            5036     8.43073E-03     7.96202E-03
            4866            5036     8.43073E-03     7.96202E-03
            4867            5036     8.43073E-03     7.96202E-03
            4848            5036     8.43073E-03     7.96202E-03
            4867            5037     8.11670E-03     7.49293E-03
            4868            5037     8.11670E-03     7.49293E-03
            4849            5037     8.11670E-03     7.49293E-03
            4850            5037     8.11670E-03     7.49293E-03
            4869            5038     23.3417E-03     23.6651E-03
            4870            5038     23.3417E-03     23.6651E-03
            4851            5038     23.3417E-03     23.6651E-03
            4852            5038     23.3417E-03     23.6651E-03
            4852            5039     22.0419E-03     22.4315E-03
            4870            5039     22.0419E-03     22.4315E-03
            4871            5039     22.0419E-03     22.4315E-03
            4853            5039     22.0419E-03     22.4315E-03
            4853            5040     20.9360E-03     21.4406E-03
            4871            5040     20.9360E-03     21.4406E-03
            4872            5040     20.9360E-03     21.4406E-03
            4854            5040     20.9360E-03     21.4406E-03
            4873            5041     19.8709E-03     20.3855E-03
            4854            5041     19.8709E-03     20.3855E-03
            4872            5041     19.8709E-03     20.3855E-03
            4855            5041     19.8709E-03     20.3855E-03
            4874            5042     18.7280E-03     19.2005E-03
            4856            5042     18.7280E-03     19.2005E-03
            4855            5042     18.7280E-03     19.2005E-03
            4873            5042     18.7280E-03     19.2005E-03
            4875            5043     17.4996E-03     17.9382E-03
            4874            5043     17.4996E-03     17.9382E-03
            4857            5043     17.4996E-03     17.9382E-03
            4856            5043     17.4996E-03     17.9382E-03
            4857            5044     16.2702E-03     16.6612E-03
            4875            5044     16.2702E-03     16.6612E-03
            4876            5044     16.2702E-03     16.6612E-03
            4858            5044     16.2702E-03     16.6612E-03
            4858            5045     15.0555E-03     15.4031E-03
            4876            5045     15.0555E-03     15.4031E-03
            4877            5045     15.0555E-03     15.4031E-03
            4859            5045     15.0555E-03     15.4031E-03
            4877            5046     13.9009E-03     14.2102E-03
            4859            5046     13.9009E-03     14.2102E-03
            4878            5046     13.9009E-03     14.2102E-03
            4860            5046     13.9009E-03     14.2102E-03
            4878            5047     12.8370E-03     13.1043E-03
            4879            5047     12.8370E-03     13.1043E-03
            4860            5047     12.8370E-03     13.1043E-03
            4861            5047     12.8370E-03     13.1043E-03
            4879            5048     11.8819E-03     12.1043E-03
            4862            5048     11.8819E-03     12.1043E-03
            4861            5048     11.8819E-03     12.1043E-03
            4880            5048     11.8819E-03     12.1043E-03
            4880            5049     11.0548E-03     11.2163E-03
            4881            5049     11.0548E-03     11.2163E-03
            4862            5049     11.0548E-03     11.2163E-03
            4863            5049     11.0548E-03     11.2163E-03
            4882            5050     10.3529E-03     10.4236E-03
            4863            5050     10.3529E-03     10.4236E-03
            4881            5050     10.3529E-03     10.4236E-03
            4864            5050     10.3529E-03     10.4236E-03
            4883            5051     9.73105E-03     9.66863E-03
            4882            5051     9.73105E-03     9.66863E-03
            4865            5051     9.73105E-03     9.66863E-03
            4864            5051     9.73105E-03     9.66863E-03
            4865            5052     9.16723E-03     8.92810E-03
            4884            5052     9.16723E-03     8.92810E-03
            4883            5052     9.16723E-03     8.92810E-03
            4866            5052     9.16723E-03     8.92810E-03
            4885            5053     8.61032E-03     8.17467E-03
            4866            5053     8.61032E-03     8.17467E-03
            4867            5053     8.61032E-03     8.17467E-03
            4884            5053     8.61032E-03     8.17467E-03
            4885            5054     8.09048E-03     7.49446E-03
            4886            5054     8.09048E-03     7.49446E-03
            4867            5054     8.09048E-03     7.49446E-03
            4868            5054     8.09048E-03     7.49446E-03
            4888            5055     20.9230E-03     21.1442E-03
            4870            5055     20.9230E-03     21.1442E-03
            4887            5055     20.9230E-03     21.1442E-03
            4869            5055     20.9230E-03     21.1442E-03
            4889            5056     20.1814E-03     20.5916E-03
            4888            5056     20.1814E-03     20.5916E-03
            4871            5056     20.1814E-03     20.5916E-03
            4870            5056     20.1814E-03     20.5916E-03
            4872            5057     19.7785E-03     20.2137E-03
            4890            5057     19.7785E-03     20.2137E-03
            4889            5057     19.7785E-03     20.2137E-03
            4871            5057     19.7785E-03     20.2137E-03
            4873            5058     19.2490E-03     19.6590E-03
            4890            5058     19.2490E-03     19.6590E-03
            4872            5058     19.2490E-03     19.6590E-03
            4891            5058     19.2490E-03     19.6590E-03
            4892            5059     18.4888E-03     18.8315E-03
            4874            5059     18.4888E-03     18.8315E-03
            4891            5059     18.4888E-03     18.8315E-03
            4873            5059     18.4888E-03     18.8315E-03
            4874            5060     17.5198E-03     17.7849E-03
            4892            5060     17.5198E-03     17.7849E-03
            4893            5060     17.5198E-03     17.7849E-03
            4875            5060     17.5198E-03     17.7849E-03
            4894            5061     16.4165E-03     16.6379E-03
            4875            5061     16.4165E-03     16.6379E-03
            4876            5061     16.4165E-03     16.6379E-03
            4893            5061     16.4165E-03     16.6379E-03
            4876            5062     15.2940E-03     15.4766E-03
            4895            5062     15.2940E-03     15.4766E-03
            4894            5062     15.2940E-03     15.4766E-03
            4877            5062     15.2940E-03     15.4766E-03
            4877            5063     14.1952E-03     14.3517E-03
            4896            5063     14.1952E-03     14.3517E-03
            4878            5063     14.1952E-03     14.3517E-03
            4895            5063     14.1952E-03     14.3517E-03
            4897            5064     13.1714E-03     13.3087E-03
            4896            5064     13.1714E-03     13.3087E-03
            4879            5064     13.1714E-03     13.3087E-03
            4878            5064     13.1714E-03     13.3087E-03
            4879            5065     12.2488E-03     12.3673E-03
            4880            5065     12.2488E-03     12.3673E-03
            4897            5065     12.2488E-03     12.3673E-03
            4898            5065     12.2488E-03     12.3673E-03
            4898            5066     11.4420E-03     11.5389E-03
            4899            5066     11.4420E-03     11.5389E-03
            4880            5066     11.4420E-03     11.5389E-03
            4881            5066     11.4420E-03     11.5389E-03
            4881            5067     10.7425E-03     10.7998E-03
            4882            5067     10.7425E-03     10.7998E-03
            4899            5067     10.7425E-03     10.7998E-03
            4900            5067     10.7425E-03     10.7998E-03
            4882            5068     10.1324E-03     10.0981E-03
            4901            5068     10.1324E-03     10.0981E-03
            4900            5068     10.1324E-03     10.0981E-03
            4883            5068     10.1324E-03     10.0981E-03
            4902            5069     9.53232E-03     9.35918E-03
            4883            5069     9.53232E-03     9.35918E-03
            4901            5069     9.53232E-03     9.35918E-03
            4884            5069     9.53232E-03     9.35918E-03
            4902            5070     8.90355E-03     8.54892E-03
            4903            5070     8.90355E-03     8.54892E-03
            4885            5070     8.90355E-03     8.54892E-03
            4884            5070     8.90355E-03     8.54892E-03
            4904            5071     8.24054E-03     7.69193E-03
            4903            5071     8.24054E-03     7.69193E-03
            4886            5071     8.24054E-03     7.69193E-03
            4885            5071     8.24054E-03     7.69193E-03
            4887            5072     18.3740E-03     18.5870E-03
            4888            5072     18.3740E-03     18.5870E-03
            4905            5072     18.3740E-03     18.5870E-03
            4906            5072     18.3740E-03     18.5870E-03
            4889            5073     18.3469E-03     18.6829E-03
            4907            5073     18.3469E-03     18.6829E-03
            4906            5073     18.3469E-03     18.6829E-03
            4888            5073     18.3469E-03     18.6829E-03
            4908            5074     18.5686E-03     18.9297E-03
            4907            5074     18.5686E-03     18.9297E-03
            4890            5074     18.5686E-03     18.9297E-03
            4889            5074     18.5686E-03     18.9297E-03
            4891            5075     18.5621E-03     18.8055E-03
            4908            5075     18.5621E-03     18.8055E-03
            4890            5075     18.5621E-03     18.8055E-03
            4909            5075     18.5621E-03     18.8055E-03
            4909            5076     18.1122E-03     18.2468E-03
            4892            5076     18.1122E-03     18.2468E-03
            4891            5076     18.1122E-03     18.2468E-03
            4910            5076     18.1122E-03     18.2468E-03
            4910            5077     17.3327E-03     17.4046E-03
            4911            5077     17.3327E-03     17.4046E-03
            4892            5077     17.3327E-03     17.4046E-03
            4893            5077     17.3327E-03     17.4046E-03
            4894            5078     16.3889E-03     16.4143E-03
            4911            5078     16.3889E-03     16.4143E-03
            4893            5078     16.3889E-03     16.4143E-03
            4912            5078     16.3889E-03     16.4143E-03
            4912            5079     15.3658E-03     15.3737E-03
            4895            5079     15.3658E-03     15.3737E-03
            4894            5079     15.3658E-03     15.3737E-03
            4913            5079     15.3658E-03     15.3737E-03
            4913            5080     14.3562E-03     14.3560E-03
            4914            5080     14.3562E-03     14.3560E-03
            4896            5080     14.3562E-03     14.3560E-03
            4895            5080     14.3562E-03     14.3560E-03
            4897            5081     13.3980E-03     13.4008E-03
            4914            5081     13.3980E-03     13.4008E-03
            4915            5081     13.3980E-03     13.4008E-03
            4896            5081     13.3980E-03     13.4008E-03
            4897            5082     12.5289E-03     12.5448E-03
            4915            5082     12.5289E-03     12.5448E-03
            4916            5082     12.5289E-03     12.5448E-03
            4898            5082     12.5289E-03     12.5448E-03
            4917            5083     11.7608E-03     11.7928E-03
            4898            5083     11.7608E-03     11.7928E-03
            4899            5083     11.7608E-03     11.7928E-03
            4916            5083     11.7608E-03     11.7928E-03
            4900            5084     11.0931E-03     11.1441E-03
            4899            5084     11.0931E-03     11.1441E-03
            4918            5084     11.0931E-03     11.1441E-03
            4917            5084     11.0931E-03     11.1441E-03
            4901            5085     10.5018E-03     10.5509E-03
            4919            5085     10.5018E-03     10.5509E-03
            4918            5085     10.5018E-03     10.5509E-03
            4900            5085     10.5018E-03     10.5509E-03
            4919            5086     9.94373E-03     9.88482E-03
            4920            5086     9.94373E-03     9.88482E-03
            4901            5086     9.94373E-03     9.88482E-03
            4902            5086     9.94373E-03     9.88482E-03
            4920            5087     9.28902E-03     9.05785E-03
            4903            5087     9.28902E-03     9.05785E-03
            4921            5087     9.28902E-03     9.05785E-03
            4902            5087     9.28902E-03     9.05785E-03
            4922            5088     8.49341E-03     8.09693E-03
            4921            5088     8.49341E-03     8.09693E-03
            4904            5088     8.49341E-03     8.09693E-03
            4903            5088     8.49341E-03     8.09693E-03
            4905            5089     15.7265E-03     15.8565E-03
            4923            5089     15.7265E-03     15.8565E-03
            4906            5089     15.7265E-03     15.8565E-03
            4924            5089     15.7265E-03     15.8565E-03
            4906            5090     16.4707E-03     16.7612E-03
            4924            5090     16.4707E-03     16.7612E-03
            4907            5090     16.4707E-03     16.7612E-03
            4925            5090     16.4707E-03     16.7612E-03
            4925            5091     17.4756E-03     17.6004E-03
            4907            5091     17.4756E-03     17.6004E-03
            4908            5091     17.4756E-03     17.6004E-03
            4926            5091     17.4756E-03     17.6004E-03
            4908            5092     17.8280E-03     17.7882E-03
            4909            5092     17.8280E-03     17.7882E-03
            4926            5092     17.8280E-03     17.7882E-03
            4927            5092     17.8280E-03     17.7882E-03
            4928            5093     17.5793E-03     17.4559E-03
            4927            5093     17.5793E-03     17.4559E-03
            4910            5093     17.5793E-03     17.4559E-03
            4909            5093     17.5793E-03     17.4559E-03
            4910            5094     16.9893E-03     16.8201E-03
            4929            5094     16.9893E-03     16.8201E-03
            4928            5094     16.9893E-03     16.8201E-03
            4911            5094     16.9893E-03     16.8201E-03
            4912            5095     16.1929E-03     16.0156E-03
            4930            5095     16.1929E-03     16.0156E-03
            4929            5095     16.1929E-03     16.0156E-03
            4911            5095     16.1929E-03     16.0156E-03
            4930            5096     15.3177E-03     15.1427E-03
            4912            5096     15.3177E-03     15.1427E-03
            4913            5096     15.3177E-03     15.1427E-03
            4931            5096     15.3177E-03     15.1427E-03
            4932            5097     14.4222E-03     14.2658E-03
            4914            5097     14.4222E-03     14.2658E-03
            4913            5097     14.4222E-03     14.2658E-03
            4931            5097     14.4222E-03     14.2658E-03
            4914            5098     13.5661E-03     13.4361E-03
            4933            5098     13.5661E-03     13.4361E-03
            4915            5098     13.5661E-03     13.4361E-03
            4932            5098     13.5661E-03     13.4361E-03
            4915            5099     12.7718E-03     12.6788E-03
            4934            5099     12.7718E-03     12.6788E-03
            4916            5099     12.7718E-03     12.6788E-03
            4933            5099     12.7718E-03     12.6788E-03
            4917            5100     12.0608E-03     12.0221E-03
            4934            5100     12.0608E-03     12.0221E-03
            4935            5100     12.0608E-03     12.0221E-03
            4916            5100     12.0608E-03     12.0221E-03
            4918            5101     11.4315E-03     11.4573E-03
            4935            5101     11.4315E-03     11.4573E-03
            4917            5101     11.4315E-03     11.4573E-03
            4936            5101     11.4315E-03     11.4573E-03
            4937            5102     10.8608E-03     10.9757E-03
            4936            5102     10.8608E-03     10.9757E-03
            4918            5102     10.8608E-03     10.9757E-03
            4919            5102     10.8608E-03     10.9757E-03
            4919            5103     10.3232E-03     10.5000E-03
            4937            5103     10.3232E-03     10.5000E-03
            4938            5103     10.3232E-03     10.5000E-03
            4920            5103     10.3232E-03     10.5000E-03
            4921            5104     9.74775E-03     9.74777E-03
            4938            5104     9.74775E-03     9.74777E-03
            4939            5104     9.74775E-03     9.74777E-03
            4920            5104     9.74775E-03     9.74777E-03
            4922            5105     8.87598E-03     8.59431E-03
            4940            5105     8.87598E-03     8.59431E-03
            4921            5105     8.87598E-03     8.59431E-03
            4939            5105     8.87598E-03     8.59431E-03
            4924            5106     12.8787E-03     12.9674E-03
            4941            5106     12.8787E-03     12.9674E-03
            4923            5106     12.8787E-03     12.9674E-03
            4942            5106     12.8787E-03     12.9674E-03
            4925            5107     14.9004E-03     14.8011E-03
            4942            5107     14.9004E-03     14.8011E-03
            4943            5107     14.9004E-03     14.8011E-03
            4924            5107     14.9004E-03     14.8011E-03
            4925            5108     16.4590E-03     16.1164E-03
            4944            5108     16.4590E-03     16.1164E-03
            4943            5108     16.4590E-03     16.1164E-03
            4926            5108     16.4590E-03     16.1164E-03
            4927            5109     16.9524E-03     16.5297E-03
            4926            5109     16.9524E-03     16.5297E-03
            4944            5109     16.9524E-03     16.5297E-03
            4945            5109     16.9524E-03     16.5297E-03
            4946            5110     16.8940E-03     16.4606E-03
            4928            5110     16.8940E-03     16.4606E-03
            4945            5110     16.8940E-03     16.4606E-03
            4927            5110     16.8940E-03     16.4606E-03
            4929            5111     16.4919E-03     16.0768E-03
            4928            5111     16.4919E-03     16.0768E-03
            4947            5111     16.4919E-03     16.0768E-03
            4946            5111     16.4919E-03     16.0768E-03
            4947            5112     15.8985E-03     15.5141E-03
            4930            5112     15.8985E-03     15.5141E-03
            4929            5112     15.8985E-03     15.5141E-03
            4948            5112     15.8985E-03     15.5141E-03
            4949            5113     15.2015E-03     14.8572E-03
            4948            5113     15.2015E-03     14.8572E-03
            4931            5113     15.2015E-03     14.8572E-03
            4930            5113     15.2015E-03     14.8572E-03
            4949            5114     14.4708E-03     14.1676E-03
            4950            5114     14.4708E-03     14.1676E-03
            4931            5114     14.4708E-03     14.1676E-03
            4932            5114     14.4708E-03     14.1676E-03
            4933            5115     13.7413E-03     13.4869E-03
            4932            5115     13.7413E-03     13.4869E-03
            4951            5115     13.7413E-03     13.4869E-03
            4950            5115     13.7413E-03     13.4869E-03
            4951            5116     13.0491E-03     12.8506E-03
            4934            5116     13.0491E-03     12.8506E-03
            4933            5116     13.0491E-03     12.8506E-03
            4952            5116     13.0491E-03     12.8506E-03
            4953            5117     12.4021E-03     12.2734E-03
            4934            5117     12.4021E-03     12.2734E-03
            4935            5117     12.4021E-03     12.2734E-03
            4952            5117     12.4021E-03     12.2734E-03
            4953            5118     11.8093E-03     11.7794E-03
            4954            5118     11.8093E-03     11.7794E-03
            4935            5118     11.8093E-03     11.7794E-03
            4936            5118     11.8093E-03     11.7794E-03
            4937            5119     11.2548E-03     11.3504E-03
            4955            5119     11.2548E-03     11.3504E-03
            4954            5119     11.2548E-03     11.3504E-03
            4936            5119     11.2548E-03     11.3504E-03
            4955            5120     10.6889E-03     11.0058E-03
            4937            5120     10.6889E-03     11.0058E-03
            4938            5120     10.6889E-03     11.0058E-03
            4956            5120     10.6889E-03     11.0058E-03
            4956            5121     10.0855E-03     10.5921E-03
            4957            5121     10.0855E-03     10.5921E-03
            4939            5121     10.0855E-03     10.5921E-03
            4938            5121     10.0855E-03     10.5921E-03
            4957            5122     9.31717E-03     9.53976E-03
            4958            5122     9.31717E-03     9.53976E-03
            4940            5122     9.31717E-03     9.53976E-03
            4939            5122     9.31717E-03     9.53976E-03
            4941            5123     10.4734E-03     9.58656E-03
            4960            5123     10.4734E-03     9.58656E-03
            4959            5123     10.4734E-03     9.58656E-03
            4942            5123     10.4734E-03     9.58656E-03
            4961            5124     13.6780E-03     12.6573E-03
            4943            5124     13.6780E-03     12.6573E-03
            4942            5124     13.6780E-03     12.6573E-03
            4960            5124     13.6780E-03     12.6573E-03
            4944            5125     15.2313E-03     14.2802E-03
            4943            5125     15.2313E-03     14.2802E-03
            4962            5125     15.2313E-03     14.2802E-03
            4961            5125     15.2313E-03     14.2802E-03
            4963            5126     15.8888E-03     15.0595E-03
            4944            5126     15.8888E-03     15.0595E-03
            4962            5126     15.8888E-03     15.0595E-03
            4945            5126     15.8888E-03     15.0595E-03
            4963            5127     16.0700E-03     15.3423E-03
            4964            5127     16.0700E-03     15.3423E-03
            4946            5127     16.0700E-03     15.3423E-03
            4945            5127     16.0700E-03     15.3423E-03
            4964            5128     15.9300E-03     15.2950E-03
            4947            5128     15.9300E-03     15.2950E-03
            4946            5128     15.9300E-03     15.2950E-03
            4965            5128     15.9300E-03     15.2950E-03
            4947            5129     15.5936E-03     15.0385E-03
            4965            5129     15.5936E-03     15.0385E-03
            4948            5129     15.5936E-03     15.0385E-03
            4966            5129     15.5936E-03     15.0385E-03
            4966            5130     15.1297E-03     14.6428E-03
            4948            5130     15.1297E-03     14.6428E-03
            4967            5130     15.1297E-03     14.6428E-03
            4949            5130     15.1297E-03     14.6428E-03
            4967            5131     14.5906E-03     14.1709E-03
            4968            5131     14.5906E-03     14.1709E-03
            4950            5131     14.5906E-03     14.1709E-03
            4949            5131     14.5906E-03     14.1709E-03
            4968            5132     14.0191E-03     13.6602E-03
            4950            5132     14.0191E-03     13.6602E-03
            4969            5132     14.0191E-03     13.6602E-03
            4951            5132     14.0191E-03     13.6602E-03
            4970            5133     13.4344E-03     13.1431E-03
            4952            5133     13.4344E-03     13.1431E-03
            4969            5133     13.4344E-03     13.1431E-03
            4951            5133     13.4344E-03     13.1431E-03
            4971            5134     12.8631E-03     12.6413E-03
            4970            5134     12.8631E-03     12.6413E-03
            4953            5134     12.8631E-03     12.6413E-03
            4952            5134     12.8631E-03     12.6413E-03
            4971            5135     12.2972E-03     12.1668E-03
            4953            5135     12.2972E-03     12.1668E-03
            4972            5135     12.2972E-03     12.1668E-03
            4954            5135     12.2972E-03     12.1668E-03
            4954            5136     11.7459E-03     11.7346E-03
            4973            5136     11.7459E-03     11.7346E-03
            4955            5136     11.7459E-03     11.7346E-03
            4972            5136     11.7459E-03     11.7346E-03
            4956            5137     11.1541E-03     11.3271E-03
            4974            5137     11.1541E-03     11.3271E-03
            4955            5137     11.1541E-03     11.3271E-03
            4973            5137     11.1541E-03     11.3271E-03
            4957            5138     10.4664E-03     11.0418E-03
            4974            5138     10.4664E-03     11.0418E-03
            4956            5138     10.4664E-03     11.0418E-03
            4975            5138     10.4664E-03     11.0418E-03
            4958            5139     9.52864E-03     10.5063E-03
            4975            5139     9.52864E-03     10.5063E-03
            4957            5139     9.52864E-03     10.5063E-03
            4976            5139     9.52864E-03     10.5063E-03
            4978            5140     10.2202E-03     10.0666E-03
            4977            5140     10.2202E-03     10.0666E-03
            4960            5140     10.2202E-03     10.0666E-03
            4959            5140     10.2202E-03     10.0666E-03
            4960            5141     10.9990E-03     10.6656E-03
            4978            5141     10.9990E-03     10.6656E-03
            4979            5141     10.9990E-03     10.6656E-03
            4961            5141     10.9990E-03     10.6656E-03
            4962            5142     11.5609E-03     11.3451E-03
            4961            5142     11.5609E-03     11.3451E-03
            4979            5142     11.5609E-03     11.3451E-03
            4980            5142     11.5609E-03     11.3451E-03
            4963            5143     11.9853E-03     11.8257E-03
            4980            5143     11.9853E-03     11.8257E-03
            4981            5143     11.9853E-03     11.8257E-03
            4962            5143     11.9853E-03     11.8257E-03
            4963            5144     12.0862E-03     11.9885E-03
            4964            5144     12.0862E-03     11.9885E-03
            4982            5144     12.0862E-03     11.9885E-03
            4981            5144     12.0862E-03     11.9885E-03
            4983            5145     12.0410E-03     11.9777E-03
            4964            5145     12.0410E-03     11.9777E-03
            4982            5145     12.0410E-03     11.9777E-03
            4965            5145     12.0410E-03     11.9777E-03
            4984            5146     11.8725E-03     11.8359E-03
            4966            5146     11.8725E-03     11.8359E-03
            4965            5146     11.8725E-03     11.8359E-03
            4983            5146     11.8725E-03     11.8359E-03
            4984            5147     11.6490E-03     11.6248E-03
            4967            5147     11.6490E-03     11.6248E-03
            4985            5147     11.6490E-03     11.6248E-03
            4966            5147     11.6490E-03     11.6248E-03
            4986            5148     11.3850E-03     11.3676E-03
            4968            5148     11.3850E-03     11.3676E-03
            4967            5148     11.3850E-03     11.3676E-03
            4985            5148     11.3850E-03     11.3676E-03
            4969            5149     11.1070E-03     11.0912E-03
            4986            5149     11.1070E-03     11.0912E-03
            4987            5149     11.1070E-03     11.0912E-03
            4968            5149     11.1070E-03     11.0912E-03
            4988            5150     10.8242E-03     10.8081E-03
            4987            5150     10.8242E-03     10.8081E-03
            4969            5150     10.8242E-03     10.8081E-03
            4970            5150     10.8242E-03     10.8081E-03
            4971            5151     10.5463E-03     10.5311E-03
            4988            5151     10.5463E-03     10.5311E-03
            4989            5151     10.5463E-03     10.5311E-03
            4970            5151     10.5463E-03     10.5311E-03
            4989            5152     10.2644E-03     10.2507E-03
            4971            5152     10.2644E-03     10.2507E-03
            4990            5152     10.2644E-03     10.2507E-03
            4972            5152     10.2644E-03     10.2507E-03
            4991            5153     9.98371E-03     9.98155E-03
            4973            5153     9.98371E-03     9.98155E-03
            4972            5153     9.98371E-03     9.98155E-03
            4990            5153     9.98371E-03     9.98155E-03
            4974            5154     9.61519E-03     9.61604E-03
            4991            5154     9.61519E-03     9.61604E-03
            4973            5154     9.61519E-03     9.61604E-03
            4992            5154     9.61519E-03     9.61604E-03
            4975            5155     9.24560E-03     9.34640E-03
            4992            5155     9.24560E-03     9.34640E-03
            4974            5155     9.24560E-03     9.34640E-03
            4993            5155     9.24560E-03     9.34640E-03
            4975            5156     8.67334E-03     9.04259E-03
            4976            5156     8.67334E-03     9.04259E-03
            4994            5156     8.67334E-03     9.04259E-03
            4993            5156     8.67334E-03     9.04259E-03
            4996            5157     10.4159E-03     11.0425E-03
            4977            5157     10.4159E-03     11.0425E-03
            4995            5157     10.4159E-03     11.0425E-03
            4978            5157     10.4159E-03     11.0425E-03
            4997            5158     9.27057E-03     9.88910E-03
            4978            5158     9.27057E-03     9.88910E-03
            4996            5158     9.27057E-03     9.88910E-03
            4979            5158     9.27057E-03     9.88910E-03
            4997            5159     8.93346E-03     9.57105E-03
            4998            5159     8.93346E-03     9.57105E-03
            4979            5159     8.93346E-03     9.57105E-03
            4980            5159     8.93346E-03     9.57105E-03
            4998            5160     8.92416E-03     9.46643E-03
            4999            5160     8.92416E-03     9.46643E-03
            4980            5160     8.92416E-03     9.46643E-03
            4981            5160     8.92416E-03     9.46643E-03
            5000            5161     8.74949E-03     9.25150E-03
            4981            5161     8.74949E-03     9.25150E-03
            4982            5161     8.74949E-03     9.25150E-03
            4999            5161     8.74949E-03     9.25150E-03
            4983            5162     8.59603E-03     9.06005E-03
            5001            5162     8.59603E-03     9.06005E-03
            5000            5162     8.59603E-03     9.06005E-03
            4982            5162     8.59603E-03     9.06005E-03
            5002            5163     8.44878E-03     8.86985E-03
            4983            5163     8.44878E-03     8.86985E-03
            5001            5163     8.44878E-03     8.86985E-03
            4984            5163     8.44878E-03     8.86985E-03
            4984            5164     8.32530E-03     8.70622E-03
            5003            5164     8.32530E-03     8.70622E-03
            5002            5164     8.32530E-03     8.70622E-03
            4985            5164     8.32530E-03     8.70622E-03
            5004            5165     8.23034E-03     8.56028E-03
            4985            5165     8.23034E-03     8.56028E-03
            5003            5165     8.23034E-03     8.56028E-03
            4986            5165     8.23034E-03     8.56028E-03
            4986            5166     8.15794E-03     8.44138E-03
            4987            5166     8.15794E-03     8.44138E-03
            5005            5166     8.15794E-03     8.44138E-03
            5004            5166     8.15794E-03     8.44138E-03
            4988            5167     8.11255E-03     8.34187E-03
            4987            5167     8.11255E-03     8.34187E-03
            5006            5167     8.11255E-03     8.34187E-03
            5005            5167     8.11255E-03     8.34187E-03
            4988            5168     8.09067E-03     8.26984E-03
            5006            5168     8.09067E-03     8.26984E-03
            4989            5168     8.09067E-03     8.26984E-03
            5007            5168     8.09067E-03     8.26984E-03
            4989            5169     8.08429E-03     8.20876E-03
            5008            5169     8.08429E-03     8.20876E-03
            4990            5169     8.08429E-03     8.20876E-03
            5007            5169     8.08429E-03     8.20876E-03
            4991            5170     8.09757E-03     8.16452E-03
            5008            5170     8.09757E-03     8.16452E-03
            5009            5170     8.09757E-03     8.16452E-03
            4990            5170     8.09757E-03     8.16452E-03
            5010            5171     8.02725E-03     8.00600E-03
            5009            5171     8.02725E-03     8.00600E-03
            4991            5171     8.02725E-03     8.00600E-03
            4992            5171     8.02725E-03     8.00600E-03
            4992            5172     7.92397E-03     7.80751E-03
            5011            5172     7.92397E-03     7.80751E-03
            4993            5172     7.92397E-03     7.80751E-03
            5010            5172     7.92397E-03     7.80751E-03
            4994            5173     7.45780E-03     7.20594E-03
            4993            5173     7.45780E-03     7.20594E-03
            5012            5173     7.45780E-03     7.20594E-03
            5011            5173     7.45780E-03     7.20594E-03
            4995            5174     8.28596E-03     8.41918E-03
            5013            5174     8.28596E-03     8.41918E-03
            4996            5174     8.28596E-03     8.41918E-03
            5014            5174     8.28596E-03     8.41918E-03
            5015            5175     9.31088E-03     9.64310E-03
            4996            5175     9.31088E-03     9.64310E-03
            4997            5175     9.31088E-03     9.64310E-03
            5014            5175     9.31088E-03     9.64310E-03
            4997            5176     9.57736E-03     9.78772E-03
            5015            5176     9.57736E-03     9.78772E-03
            5016            5176     9.57736E-03     9.78772E-03
            4998            5176     9.57736E-03     9.78772E-03
            4999            5177     9.36156E-03     9.56719E-03
            4998            5177     9.36156E-03     9.56719E-03
            5016            5177     9.36156E-03     9.56719E-03
            5017            5177     9.36156E-03     9.56719E-03
            5017            5178     9.12522E-03     9.31421E-03
            4999            5178     9.12522E-03     9.31421E-03
            5018            5178     9.12522E-03     9.31421E-03
            5000            5178     9.12522E-03     9.31421E-03
            5000            5179     8.91101E-03     9.08749E-03
            5018            5179     8.91101E-03     9.08749E-03
            5001            5179     8.91101E-03     9.08749E-03
            5019            5179     8.91101E-03     9.08749E-03
            5020            5180     8.74867E-03     8.90956E-03
            5001            5180     8.74867E-03     8.90956E-03
            5019            5180     8.74867E-03     8.90956E-03
            5002            5180     8.74867E-03     8.90956E-03
            5003            5181     8.61798E-03     8.76078E-03
            5021            5181     8.61798E-03     8.76078E-03
            5002            5181     8.61798E-03     8.76078E-03
            5020            5181     8.61798E-03     8.76078E-03
            5004            5182     8.51373E-03     8.64046E-03
            5003            5182     8.51373E-03     8.64046E-03
            5022            5182     8.51373E-03     8.64046E-03
            5021            5182     8.51373E-03     8.64046E-03
            5022            5183     8.43194E-03     8.53884E-03
            5005            5183     8.43194E-03     8.53884E-03
            5004            5183     8.43194E-03     8.53884E-03
            5023            5183     8.43194E-03     8.53884E-03
            5005            5184     8.37331E-03     8.46221E-03
            5023            5184     8.37331E-03     8.46221E-03
            5006            5184     8.37331E-03     8.46221E-03
            5024            5184     8.37331E-03     8.46221E-03
            5006            5185     8.34005E-03     8.40868E-03
            5025            5185     8.34005E-03     8.40868E-03
            5007            5185     8.34005E-03     8.40868E-03
            5024            5185     8.34005E-03     8.40868E-03
            5007            5186     8.34445E-03     8.39250E-03
            5025            5186     8.34445E-03     8.39250E-03
            5008            5186     8.34445E-03     8.39250E-03
            5026            5186     8.34445E-03     8.39250E-03
            5027            5187     8.36241E-03     8.39356E-03
            5008            5187     8.36241E-03     8.39356E-03
            5026            5187     8.36241E-03     8.39356E-03
            5009            5187     8.36241E-03     8.39356E-03
            5010            5188     8.38161E-03     8.40579E-03
            5009            5188     8.38161E-03     8.40579E-03
            5028            5188     8.38161E-03     8.40579E-03
            5027            5188     8.38161E-03     8.40579E-03
            5011            5189     8.14021E-03     8.02513E-03
            5028            5189     8.14021E-03     8.02513E-03
            5010            5189     8.14021E-03     8.02513E-03
            5029            5189     8.14021E-03     8.02513E-03
            5030            5190     7.00194E-03     6.59583E-03
            5029            5190     7.00194E-03     6.59583E-03
            5011            5190     7.00194E-03     6.59583E-03
            5012            5190     7.00194E-03     6.59583E-03
            5013            5191     5.75739E-03     6.19337E-03
            5032            5191     5.75739E-03     6.19337E-03
            5031            5191     5.75739E-03     6.19337E-03
            5014            5191     5.75739E-03     6.19337E-03
            5014            5192     8.77804E-03     8.83374E-03
            5032            5192     8.77804E-03     8.83374E-03
            5033            5192     8.77804E-03     8.83374E-03
            5015            5192     8.77804E-03     8.83374E-03
            5015            5193     9.73155E-03     9.55706E-03
            5016            5193     9.73155E-03     9.55706E-03
            5034            5193     9.73155E-03     9.55706E-03
            5033            5193     9.73155E-03     9.55706E-03
            5016            5194     9.57702E-03     9.43211E-03
            5035            5194     9.57702E-03     9.43211E-03
            5034            5194     9.57702E-03     9.43211E-03
            5017            5194     9.57702E-03     9.43211E-03
            5017            5195     9.37625E-03     9.25751E-03
            5035            5195     9.37625E-03     9.25751E-03
            5018            5195     9.37625E-03     9.25751E-03
            5036            5195     9.37625E-03     9.25751E-03
            5036            5196     9.18493E-03     9.07488E-03
            5019            5196     9.18493E-03     9.07488E-03
            5037            5196     9.18493E-03     9.07488E-03
            5018            5196     9.18493E-03     9.07488E-03
            5037            5197     9.03181E-03     8.93411E-03
            5038            5197     9.03181E-03     8.93411E-03
            5020            5197     9.03181E-03     8.93411E-03
            5019            5197     9.03181E-03     8.93411E-03
            5039            5198     8.90789E-03     8.82159E-03
            5038            5198     8.90789E-03     8.82159E-03
            5020            5198     8.90789E-03     8.82159E-03
            5021            5198     8.90789E-03     8.82159E-03
            5021            5199     8.80028E-03     8.72684E-03
            5040            5199     8.80028E-03     8.72684E-03
            5039            5199     8.80028E-03     8.72684E-03
            5022            5199     8.80028E-03     8.72684E-03
            5022            5200     8.71092E-03     8.64920E-03
            5041            5200     8.71092E-03     8.64920E-03
            5040            5200     8.71092E-03     8.64920E-03
            5023            5200     8.71092E-03     8.64920E-03
            5023            5201     8.63559E-03     8.58730E-03
            5041            5201     8.63559E-03     8.58730E-03
            5042            5201     8.63559E-03     8.58730E-03
            5024            5201     8.63559E-03     8.58730E-03
            5025            5202     8.58233E-03     8.54576E-03
            5042            5202     8.58233E-03     8.54576E-03
            5024            5202     8.58233E-03     8.54576E-03
            5043            5202     8.58233E-03     8.54576E-03
            5025            5203     8.55344E-03     8.53142E-03
            5044            5203     8.55344E-03     8.53142E-03
            5026            5203     8.55344E-03     8.53142E-03
            5043            5203     8.55344E-03     8.53142E-03
            5045            5204     8.53757E-03     8.53150E-03
            5027            5204     8.53757E-03     8.53150E-03
            5026            5204     8.53757E-03     8.53150E-03
            5044            5204     8.53757E-03     8.53150E-03
            5027            5205     8.49324E-03     8.52898E-03
            5028            5205     8.49324E-03     8.52898E-03
            5046            5205     8.49324E-03     8.52898E-03
            5045            5205     8.49324E-03     8.52898E-03
            5028            5206     8.13480E-03     8.10133E-03
            5046            5206     8.13480E-03     8.10133E-03
            5047            5206     8.13480E-03     8.10133E-03
            5029            5206     8.13480E-03     8.10133E-03
            5048            5207     6.93568E-03     6.58696E-03
            5047            5207     6.93568E-03     6.58696E-03
            5029            5207     6.93568E-03     6.58696E-03
            5030            5207     6.93568E-03     6.58696E-03
            5049            5208     5.05431E-03     5.22810E-03
            5031            5208     5.05431E-03     5.22810E-03
            5050            5208     5.05431E-03     5.22810E-03
            5032            5208     5.05431E-03     5.22810E-03
            5050            5209     8.22367E-03     7.67817E-03
            5051            5209     8.22367E-03     7.67817E-03
            5032            5209     8.22367E-03     7.67817E-03
            5033            5209     8.22367E-03     7.67817E-03
            5034            5210     9.21199E-03     8.72139E-03
            5051            5210     9.21199E-03     8.72139E-03
            5052            5210     9.21199E-03     8.72139E-03
            5033            5210     9.21199E-03     8.72139E-03
            5052            5211     9.54594E-03     9.06528E-03
            5034            5211     9.54594E-03     9.06528E-03
            5053            5211     9.54594E-03     9.06528E-03
            5035            5211     9.54594E-03     9.06528E-03
            5053            5212     9.51396E-03     9.08682E-03
            5035            5212     9.51396E-03     9.08682E-03
            5036            5212     9.51396E-03     9.08682E-03
            5054            5212     9.51396E-03     9.08682E-03
            5037            5213     9.42775E-03     9.03791E-03
            5054            5213     9.42775E-03     9.03791E-03
            5055            5213     9.42775E-03     9.03791E-03
            5036            5213     9.42775E-03     9.03791E-03
            5055            5214     9.31702E-03     8.96875E-03
            5037            5214     9.31702E-03     8.96875E-03
            5056            5214     9.31702E-03     8.96875E-03
            5038            5214     9.31702E-03     8.96875E-03
            5039            5215     9.20545E-03     8.89962E-03
            5038            5215     9.20545E-03     8.89962E-03
            5057            5215     9.20545E-03     8.89962E-03
            5056            5215     9.20545E-03     8.89962E-03
            5057            5216     9.10236E-03     8.83509E-03
            5058            5216     9.10236E-03     8.83509E-03
            5040            5216     9.10236E-03     8.83509E-03
            5039            5216     9.10236E-03     8.83509E-03
            5040            5217     9.00224E-03     8.77942E-03
            5059            5217     9.00224E-03     8.77942E-03
            5041            5217     9.00224E-03     8.77942E-03
            5058            5217     9.00224E-03     8.77942E-03
            5059            5218     8.91258E-03     8.73070E-03
            5060            5218     8.91258E-03     8.73070E-03
            5041            5218     8.91258E-03     8.73070E-03
            5042            5218     8.91258E-03     8.73070E-03
            5060            5219     8.82650E-03     8.69050E-03
            5042            5219     8.82650E-03     8.69050E-03
            5061            5219     8.82650E-03     8.69050E-03
            5043            5219     8.82650E-03     8.69050E-03
            5043            5220     8.73769E-03     8.64611E-03
            5061            5220     8.73769E-03     8.64611E-03
            5062            5220     8.73769E-03     8.64611E-03
            5044            5220     8.73769E-03     8.64611E-03
            5044            5221     8.63937E-03     8.59313E-03
            5045            5221     8.63937E-03     8.59313E-03
            5063            5221     8.63937E-03     8.59313E-03
            5062            5221     8.63937E-03     8.59313E-03
            5045            5222     8.41515E-03     8.40199E-03
            5063            5222     8.41515E-03     8.40199E-03
            5064            5222     8.41515E-03     8.40199E-03
            5046            5222     8.41515E-03     8.40199E-03
            5047            5223     8.04011E-03     8.08811E-03
            5065            5223     8.04011E-03     8.08811E-03
            5064            5223     8.04011E-03     8.08811E-03
            5046            5223     8.04011E-03     8.08811E-03
            5066            5224     7.12815E-03     7.18005E-03
            5065            5224     7.12815E-03     7.18005E-03
            5047            5224     7.12815E-03     7.18005E-03
            5048            5224     7.12815E-03     7.18005E-03
            5175            5310     103.509E-03     104.943E-03
            5194            5310     103.509E-03     104.943E-03
            5176            5310     103.509E-03     104.943E-03
            5193            5310     103.509E-03     104.943E-03
            5194            5311     91.6921E-03     94.1591E-03
            5176            5311     91.6921E-03     94.1591E-03
            5177            5311     91.6921E-03     94.1591E-03
            5195            5311     91.6921E-03     94.1591E-03
            5177            5312     82.8384E-03     85.6364E-03
            5196            5312     82.8384E-03     85.6364E-03
            5178            5312     82.8384E-03     85.6364E-03
            5195            5312     82.8384E-03     85.6364E-03
            5197            5313     75.6653E-03     78.5556E-03
            5179            5313     75.6653E-03     78.5556E-03
            5196            5313     75.6653E-03     78.5556E-03
            5178            5313     75.6653E-03     78.5556E-03
            5198            5314     68.6313E-03     71.7027E-03
            5180            5314     68.6313E-03     71.7027E-03
            5197            5314     68.6313E-03     71.7027E-03
            5179            5314     68.6313E-03     71.7027E-03
            5181            5315     61.8920E-03     65.0762E-03
            5199            5315     61.8920E-03     65.0762E-03
            5180            5315     61.8920E-03     65.0762E-03
            5198            5315     61.8920E-03     65.0762E-03
            5182            5316     55.2079E-03     58.4869E-03
            5199            5316     55.2079E-03     58.4869E-03
            5181            5316     55.2079E-03     58.4869E-03
            5200            5316     55.2079E-03     58.4869E-03
            5182            5317     48.6434E-03     52.0068E-03
            5183            5317     48.6434E-03     52.0068E-03
            5200            5317     48.6434E-03     52.0068E-03
            5201            5317     48.6434E-03     52.0068E-03
            5201            5318     42.2163E-03     45.6256E-03
            5183            5318     42.2163E-03     45.6256E-03
            5184            5318     42.2163E-03     45.6256E-03
            5202            5318     42.2163E-03     45.6256E-03
            5203            5319     36.0065E-03     39.4358E-03
            5202            5319     36.0065E-03     39.4358E-03
            5184            5319     36.0065E-03     39.4358E-03
            5185            5319     36.0065E-03     39.4358E-03
            5185            5320     30.1635E-03     33.5294E-03
            5204            5320     30.1635E-03     33.5294E-03
            5203            5320     30.1635E-03     33.5294E-03
            5186            5320     30.1635E-03     33.5294E-03
            5204            5321     24.9518E-03     28.1032E-03
            5187            5321     24.9518E-03     28.1032E-03
            5205            5321     24.9518E-03     28.1032E-03
            5186            5321     24.9518E-03     28.1032E-03
            5187            5322     20.8263E-03     23.4488E-03
            5188            5322     20.8263E-03     23.4488E-03
            5205            5322     20.8263E-03     23.4488E-03
            5206            5322     20.8263E-03     23.4488E-03
            5189            5323     18.6078E-03     20.1219E-03
            5188            5323     18.6078E-03     20.1219E-03
            5206            5323     18.6078E-03     20.1219E-03
            5207            5323     18.6078E-03     20.1219E-03
            5189            5324     18.6616E-03     18.5120E-03
            5208            5324     18.6616E-03     18.5120E-03
            5190            5324     18.6616E-03     18.5120E-03
            5207            5324     18.6616E-03     18.5120E-03
            5191            5325     22.0216E-03     20.1997E-03
            5208            5325     22.0216E-03     20.1997E-03
            5190            5325     22.0216E-03     20.1997E-03
            5209            5325     22.0216E-03     20.1997E-03
            5192            5326     27.8397E-03     24.9487E-03
            5210            5326     27.8397E-03     24.9487E-03
            5209            5326     27.8397E-03     24.9487E-03
            5191            5326     27.8397E-03     24.9487E-03
            5194            5327     102.656E-03     103.149E-03
            5193            5327     102.656E-03     103.149E-03
            5211            5327     102.656E-03     103.149E-03
            5212            5327     102.656E-03     103.149E-03
            5194            5328     94.3621E-03     96.2295E-03
            5195            5328     94.3621E-03     96.2295E-03
            5213            5328     94.3621E-03     96.2295E-03
            5212            5328     94.3621E-03     96.2295E-03
            5196            5329     85.3627E-03     87.7081E-03
            5213            5329     85.3627E-03     87.7081E-03
            5214            5329     85.3627E-03     87.7081E-03
            5195            5329     85.3627E-03     87.7081E-03
            5196            5330     77.8317E-03     80.2132E-03
            5197            5330     77.8317E-03     80.2132E-03
            5214            5330     77.8317E-03     80.2132E-03
            5215            5330     77.8317E-03     80.2132E-03
            5198            5331     70.7502E-03     73.0528E-03
            5216            5331     70.7502E-03     73.0528E-03
            5215            5331     70.7502E-03     73.0528E-03
            5197            5331     70.7502E-03     73.0528E-03
            5199            5332     63.8812E-03     66.1848E-03
            5216            5332     63.8812E-03     66.1848E-03
            5217            5332     63.8812E-03     66.1848E-03
            5198            5332     63.8812E-03     66.1848E-03
            5217            5333     57.1936E-03     59.5031E-03
            5218            5333     57.1936E-03     59.5031E-03
            5200            5333     57.1936E-03     59.5031E-03
            5199            5333     57.1936E-03     59.5031E-03
            5200            5334     50.6581E-03     52.9850E-03
            5219            5334     50.6581E-03     52.9850E-03
            5218            5334     50.6581E-03     52.9850E-03
            5201            5334     50.6581E-03     52.9850E-03
            5201            5335     44.3296E-03     46.6646E-03
            5202            5335     44.3296E-03     46.6646E-03
            5219            5335     44.3296E-03     46.6646E-03
            5220            5335     44.3296E-03     46.6646E-03
            5203            5336     38.2792E-03     40.5858E-03
            5220            5336     38.2792E-03     40.5858E-03
            5221            5336     38.2792E-03     40.5858E-03
            5202            5336     38.2792E-03     40.5858E-03
            5221            5337     32.6603E-03     34.8890E-03
            5203            5337     32.6603E-03     34.8890E-03
            5204            5337     32.6603E-03     34.8890E-03
            5222            5337     32.6603E-03     34.8890E-03
            5204            5338     27.7234E-03     29.7525E-03
            5205            5338     27.7234E-03     29.7525E-03
            5222            5338     27.7234E-03     29.7525E-03
            5223            5338     27.7234E-03     29.7525E-03
            5205            5339     23.9388E-03     25.5888E-03
            5206            5339     23.9388E-03     25.5888E-03
            5223            5339     23.9388E-03     25.5888E-03
            5224            5339     23.9388E-03     25.5888E-03
            5224            5340     21.7861E-03     22.7412E-03
            5225            5340     21.7861E-03     22.7412E-03
            5206            5340     21.7861E-03     22.7412E-03
            5207            5340     21.7861E-03     22.7412E-03
            5207            5341     21.9831E-03     21.7597E-03
            5226            5341     21.9831E-03     21.7597E-03
            5208            5341     21.9831E-03     21.7597E-03
            5225            5341     21.9831E-03     21.7597E-03
            5209            5342     24.0598E-03     22.5070E-03
            5227            5342     24.0598E-03     22.5070E-03
            5226            5342     24.0598E-03     22.5070E-03
            5208            5342     24.0598E-03     22.5070E-03
            5227            5343     25.7037E-03     23.1045E-03
            5209            5343     25.7037E-03     23.1045E-03
            5210            5343     25.7037E-03     23.1045E-03
            5228            5343     25.7037E-03     23.1045E-03
            5211            5344     98.1075E-03     100.215E-03
            5212            5344     98.1075E-03     100.215E-03
            5229            5344     98.1075E-03     100.215E-03
            5230            5344     98.1075E-03     100.215E-03
            5230            5345     93.3087E-03     94.9088E-03
            5213            5345     93.3087E-03     94.9088E-03
            5212            5345     93.3087E-03     94.9088E-03
            5231            5345     93.3087E-03     94.9088E-03
            5231            5346     86.2839E-03     87.8743E-03
            5214            5346     86.2839E-03     87.8743E-03
            5213            5346     86.2839E-03     87.8743E-03
            5232            5346     86.2839E-03     87.8743E-03
            5215            5347     78.8525E-03     80.4692E-03
            5233            5347     78.8525E-03     80.4692E-03
            5232            5347     78.8525E-03     80.4692E-03
            5214            5347     78.8525E-03     80.4692E-03
            5234            5348     72.0447E-03     73.4967E-03
            5215            5348     72.0447E-03     73.4967E-03
            5216            5348     72.0447E-03     73.4967E-03
            5233            5348     72.0447E-03     73.4967E-03
            5234            5349     65.3291E-03     66.7094E-03
            5235            5349     65.3291E-03     66.7094E-03
            5217            5349     65.3291E-03     66.7094E-03
            5216            5349     65.3291E-03     66.7094E-03
            5235            5350     58.8214E-03     60.1656E-03
            5236            5350     58.8214E-03     60.1656E-03
            5218            5350     58.8214E-03     60.1656E-03
            5217            5350     58.8214E-03     60.1656E-03
            5218            5351     52.4914E-03     53.8131E-03
            5237            5351     52.4914E-03     53.8131E-03
            5236            5351     52.4914E-03     53.8131E-03
            5219            5351     52.4914E-03     53.8131E-03
            5220            5352     46.3838E-03     47.6780E-03
            5219            5352     46.3838E-03     47.6780E-03
            5237            5352     46.3838E-03     47.6780E-03
            5238            5352     46.3838E-03     47.6780E-03
            5238            5353     40.5764E-03     41.8343E-03
            5239            5353     40.5764E-03     41.8343E-03
            5220            5353     40.5764E-03     41.8343E-03
            5221            5353     40.5764E-03     41.8343E-03
            5239            5354     35.1977E-03     36.3784E-03
            5240            5354     35.1977E-03     36.3784E-03
            5221            5354     35.1977E-03     36.3784E-03
            5222            5354     35.1977E-03     36.3784E-03
            5240            5355     30.4935E-03     31.5641E-03
            5241            5355     30.4935E-03     31.5641E-03
            5223            5355     30.4935E-03     31.5641E-03
            5222            5355     30.4935E-03     31.5641E-03
            5241            5356     26.7909E-03     27.6583E-03
            5224            5356     26.7909E-03     27.6583E-03
            5223            5356     26.7909E-03     27.6583E-03
            5242            5356     26.7909E-03     27.6583E-03
            5225            5357     24.5328E-03     25.1383E-03
            5224            5357     24.5328E-03     25.1383E-03
            5242            5357     24.5328E-03     25.1383E-03
            5243            5357     24.5328E-03     25.1383E-03
            5244            5358     24.0569E-03     24.1986E-03
            5225            5358     24.0569E-03     24.1986E-03
            5243            5358     24.0569E-03     24.1986E-03
            5226            5358     24.0569E-03     24.1986E-03
            5226            5359     24.5689E-03     23.5025E-03
            5245            5359     24.5689E-03     23.5025E-03
            5227            5359     24.5689E-03     23.5025E-03
            5244            5359     24.5689E-03     23.5025E-03
            5246            5360     24.4762E-03     22.1786E-03
            5245            5360     24.4762E-03     22.1786E-03
            5227            5360     24.4762E-03     22.1786E-03
            5228            5360     24.4762E-03     22.1786E-03
            5248            5361     93.7435E-03     94.2736E-03
            5230            5361     93.7435E-03     94.2736E-03
            5247            5361     93.7435E-03     94.2736E-03
            5229            5361     93.7435E-03     94.2736E-03
            5248            5362     89.9949E-03     91.1909E-03
            5249            5362     89.9949E-03     91.1909E-03
            5230            5362     89.9949E-03     91.1909E-03
            5231            5362     89.9949E-03     91.1909E-03
            5232            5363     84.7158E-03     85.5521E-03
            5250            5363     84.7158E-03     85.5521E-03
            5231            5363     84.7158E-03     85.5521E-03
            5249            5363     84.7158E-03     85.5521E-03
            5250            5364     78.7390E-03     79.2806E-03
            5232            5364     78.7390E-03     79.2806E-03
            5251            5364     78.7390E-03     79.2806E-03
            5233            5364     78.7390E-03     79.2806E-03
            5251            5365     72.4181E-03     72.9124E-03
            5233            5365     72.4181E-03     72.9124E-03
            5252            5365     72.4181E-03     72.9124E-03
            5234            5365     72.4181E-03     72.9124E-03
            5252            5366     66.2552E-03     66.6638E-03
            5253            5366     66.2552E-03     66.6638E-03
            5235            5366     66.2552E-03     66.6638E-03
            5234            5366     66.2552E-03     66.6638E-03
            5254            5367     60.1480E-03     60.5196E-03
            5235            5367     60.1480E-03     60.5196E-03
            5253            5367     60.1480E-03     60.5196E-03
            5236            5367     60.1480E-03     60.5196E-03
            5255            5368     54.2060E-03     54.5318E-03
            5236            5368     54.2060E-03     54.5318E-03
            5254            5368     54.2060E-03     54.5318E-03
            5237            5368     54.2060E-03     54.5318E-03
            5256            5369     48.4511E-03     48.7457E-03
            5255            5369     48.4511E-03     48.7457E-03
            5238            5369     48.4511E-03     48.7457E-03
            5237            5369     48.4511E-03     48.7457E-03
            5239            5370     42.9630E-03     43.2193E-03
            5257            5370     42.9630E-03     43.2193E-03
            5238            5370     42.9630E-03     43.2193E-03
            5256            5370     42.9630E-03     43.2193E-03
            5239            5371     37.8670E-03     38.0950E-03
            5257            5371     37.8670E-03     38.0950E-03
            5240            5371     37.8670E-03     38.0950E-03
            5258            5371     37.8670E-03     38.0950E-03
            5240            5372     33.3304E-03     33.5284E-03
            5258            5372     33.3304E-03     33.5284E-03
            5241            5372     33.3304E-03     33.5284E-03
            5259            5372     33.3304E-03     33.5284E-03
            5242            5373     29.6034E-03     29.8138E-03
            5260            5373     29.6034E-03     29.8138E-03
            5241            5373     29.6034E-03     29.8138E-03
            5259            5373     29.6034E-03     29.8138E-03
            5261            5374     26.9863E-03     27.2422E-03
            5242            5374     26.9863E-03     27.2422E-03
            5243            5374     26.9863E-03     27.2422E-03
            5260            5374     26.9863E-03     27.2422E-03
            5244            5375     25.3174E-03     25.8191E-03
            5261            5375     25.3174E-03     25.8191E-03
            5243            5375     25.3174E-03     25.8191E-03
            5262            5375     25.3174E-03     25.8191E-03
            5262            5376     24.6947E-03     25.1362E-03
            5245            5376     24.6947E-03     25.1362E-03
            5244            5376     24.6947E-03     25.1362E-03
            5263            5376     24.6947E-03     25.1362E-03
            5263            5377     24.5437E-03     23.3945E-03
            5245            5377     24.5437E-03     23.3945E-03
            5264            5377     24.5437E-03     23.3945E-03
            5246            5377     24.5437E-03     23.3945E-03
            5266            5378     87.7287E-03     87.5256E-03
            5248            5378     87.7287E-03     87.5256E-03
            5265            5378     87.7287E-03     87.5256E-03
            5247            5378     87.7287E-03     87.5256E-03
            5266            5379     85.5571E-03     85.2642E-03
            5248            5379     85.5571E-03     85.2642E-03
            5267            5379     85.5571E-03     85.2642E-03
            5249            5379     85.5571E-03     85.2642E-03
            5267            5380     81.9615E-03     81.5070E-03
            5250            5380     81.9615E-03     81.5070E-03
            5268            5380     81.9615E-03     81.5070E-03
            5249            5380     81.9615E-03     81.5070E-03
            5268            5381     77.4193E-03     76.8971E-03
            5250            5381     77.4193E-03     76.8971E-03
            5251            5381     77.4193E-03     76.8971E-03
            5269            5381     77.4193E-03     76.8971E-03
            5252            5382     72.2466E-03     71.6963E-03
            5269            5382     72.2466E-03     71.6963E-03
            5251            5382     72.2466E-03     71.6963E-03
            5270            5382     72.2466E-03     71.6963E-03
            5270            5383     66.8339E-03     66.2868E-03
            5253            5383     66.8339E-03     66.2868E-03
            5252            5383     66.8339E-03     66.2868E-03
            5271            5383     66.8339E-03     66.2868E-03
            5253            5384     61.3887E-03     60.7806E-03
            5271            5384     61.3887E-03     60.7806E-03
            5254            5384     61.3887E-03     60.7806E-03
            5272            5384     61.3887E-03     60.7806E-03
            5272            5385     55.9639E-03     55.3229E-03
            5254            5385     55.9639E-03     55.3229E-03
            5273            5385     55.9639E-03     55.3229E-03
            5255            5385     55.9639E-03     55.3229E-03
            5273            5386     50.6631E-03     49.9842E-03
            5274            5386     50.6631E-03     49.9842E-03
            5256            5386     50.6631E-03     49.9842E-03
            5255            5386     50.6631E-03     49.9842E-03
            5275            5387     45.5721E-03     44.8811E-03
            5257            5387     45.5721E-03     44.8811E-03
            5274            5387     45.5721E-03     44.8811E-03
            5256            5387     45.5721E-03     44.8811E-03
            5276            5388     40.7826E-03     40.1206E-03
            5257            5388     40.7826E-03     40.1206E-03
            5275            5388     40.7826E-03     40.1206E-03
            5258            5388     40.7826E-03     40.1206E-03
            5277            5389     36.4434E-03     35.8532E-03
            5276            5389     36.4434E-03     35.8532E-03
            5259            5389     36.4434E-03     35.8532E-03
            5258            5389     36.4434E-03     35.8532E-03
            5260            5390     32.6826E-03     32.2603E-03
            5259            5390     32.6826E-03     32.2603E-03
            5277            5390     32.6826E-03     32.2603E-03
            5278            5390     32.6826E-03     32.2603E-03
            5260            5391     29.5772E-03     29.4342E-03
            5261            5391     29.5772E-03     29.4342E-03
            5278            5391     29.5772E-03     29.4342E-03
            5279            5391     29.5772E-03     29.4342E-03
            5262            5392     27.1425E-03     27.4803E-03
            5261            5392     27.1425E-03     27.4803E-03
            5280            5392     27.1425E-03     27.4803E-03
            5279            5392     27.1425E-03     27.4803E-03
            5280            5393     24.9719E-03     26.4150E-03
            5263            5393     24.9719E-03     26.4150E-03
            5262            5393     24.9719E-03     26.4150E-03
            5281            5393     24.9719E-03     26.4150E-03
            5281            5394     22.8275E-03     25.3183E-03
            5282            5394     22.8275E-03     25.3183E-03
            5263            5394     22.8275E-03     25.3183E-03
            5264            5394     22.8275E-03     25.3183E-03
            5757            5777     488.524E-06     524.295E-06
            5739            5777     488.524E-06     524.295E-06
            5758            5777     488.524E-06     524.295E-06
            5740            5777     488.524E-06     524.295E-06
            5740            5778     369.175E-06     410.445E-06
            5758            5778     369.175E-06     410.445E-06
            5759            5778     369.175E-06     410.445E-06
            5741            5778     369.175E-06     410.445E-06
            5759            5779     328.745E-06     369.229E-06
            5741            5779     328.745E-06     369.229E-06
            5760            5779     328.745E-06     369.229E-06
            5742            5779     328.745E-06     369.229E-06
            5761            5780     318.422E-06     356.975E-06
            5760            5780     318.422E-06     356.975E-06
            5743            5780     318.422E-06     356.975E-06
            5742            5780     318.422E-06     356.975E-06
            5761            5781     310.601E-06     347.027E-06
            5762            5781     310.601E-06     347.027E-06
            5743            5781     310.601E-06     347.027E-06
            5744            5781     310.601E-06     347.027E-06
            5745            5782     303.261E-06     338.404E-06
            5744            5782     303.261E-06     338.404E-06
            5763            5782     303.261E-06     338.404E-06
            5762            5782     303.261E-06     338.404E-06
            5763            5783     295.112E-06     329.009E-06
            5746            5783     295.112E-06     329.009E-06
            5764            5783     295.112E-06     329.009E-06
            5745            5783     295.112E-06     329.009E-06
            5746            5784     287.561E-06     320.089E-06
            5764            5784     287.561E-06     320.089E-06
            5747            5784     287.561E-06     320.089E-06
            5765            5784     287.561E-06     320.089E-06
            5748            5785     280.330E-06     311.222E-06
            5747            5785     280.330E-06     311.222E-06
            5765            5785     280.330E-06     311.222E-06
            5766            5785     280.330E-06     311.222E-06
            5749            5786     274.163E-06     303.082E-06
            5766            5786     274.163E-06     303.082E-06
            5767            5786     274.163E-06     303.082E-06
            5748            5786     274.163E-06     303.082E-06
            5768            5787     268.805E-06     295.484E-06
            5749            5787     268.805E-06     295.484E-06
            5750            5787     268.805E-06     295.484E-06
            5767            5787     268.805E-06     295.484E-06
            5751            5788     264.660E-06     288.554E-06
            5768            5788     264.660E-06     288.554E-06
            5769            5788     264.660E-06     288.554E-06
            5750            5788     264.660E-06     288.554E-06
            5770            5789     261.404E-06     282.389E-06
            5751            5789     261.404E-06     282.389E-06
            5752            5789     261.404E-06     282.389E-06
            5769            5789     261.404E-06     282.389E-06
            5753            5790     259.490E-06     276.635E-06
            5771            5790     259.490E-06     276.635E-06
            5770            5790     259.490E-06     276.635E-06
            5752            5790     259.490E-06     276.635E-06
            5771            5791     257.890E-06     271.378E-06
            5753            5791     257.890E-06     271.378E-06
            5772            5791     257.890E-06     271.378E-06
            5754            5791     257.890E-06     271.378E-06
            5772            5792     254.745E-06     270.690E-06
            5755            5792     254.745E-06     270.690E-06
            5754            5792     254.745E-06     270.690E-06
            5773            5792     254.745E-06     270.690E-06
            5755            5793     253.848E-06     270.947E-06
            5773            5793     253.848E-06     270.947E-06
            5774            5793     253.848E-06     270.947E-06
            5756            5793     253.848E-06     270.947E-06
            5775            5794     401.650E-06     405.809E-06
            5758            5794     401.650E-06     405.809E-06
            5776            5794     401.650E-06     405.809E-06
            5757            5794     401.650E-06     405.809E-06
            5776            5795     365.301E-06     382.338E-06
            5759            5795     365.301E-06     382.338E-06
            5777            5795     365.301E-06     382.338E-06
            5758            5795     365.301E-06     382.338E-06
            5778            5796     347.912E-06     370.832E-06
            5759            5796     347.912E-06     370.832E-06
            5760            5796     347.912E-06     370.832E-06
            5777            5796     347.912E-06     370.832E-06
            5779            5797     340.413E-06     362.998E-06
            5761            5797     340.413E-06     362.998E-06
            5778            5797     340.413E-06     362.998E-06
            5760            5797     340.413E-06     362.998E-06
            5762            5798     331.506E-06     351.992E-06
            5779            5798     331.506E-06     351.992E-06
            5780            5798     331.506E-06     351.992E-06
            5761            5798     331.506E-06     351.992E-06
            5763            5799     320.048E-06     340.542E-06
            5780            5799     320.048E-06     340.542E-06
            5781            5799     320.048E-06     340.542E-06
            5762            5799     320.048E-06     340.542E-06
            5782            5800     310.533E-06     330.047E-06
            5781            5800     310.533E-06     330.047E-06
            5764            5800     310.533E-06     330.047E-06
            5763            5800     310.533E-06     330.047E-06
            5782            5801     301.391E-06     320.336E-06
            5783            5801     301.391E-06     320.336E-06
            5764            5801     301.391E-06     320.336E-06
            5765            5801     301.391E-06     320.336E-06
            5766            5802     293.809E-06     311.836E-06
            5784            5802     293.809E-06     311.836E-06
            5783            5802     293.809E-06     311.836E-06
            5765            5802     293.809E-06     311.836E-06
            5767            5803     287.055E-06     304.055E-06
            5784            5803     287.055E-06     304.055E-06
            5785            5803     287.055E-06     304.055E-06
            5766            5803     287.055E-06     304.055E-06
            5768            5804     281.444E-06     297.284E-06
            5767            5804     281.444E-06     297.284E-06
            5786            5804     281.444E-06     297.284E-06
            5785            5804     281.444E-06     297.284E-06
            5787            5805     276.812E-06     291.164E-06
            5769            5805     276.812E-06     291.164E-06
            5768            5805     276.812E-06     291.164E-06
            5786            5805     276.812E-06     291.164E-06
            5788            5806     273.038E-06     286.124E-06
            5769            5806     273.038E-06     286.124E-06
            5770            5806     273.038E-06     286.124E-06
            5787            5806     273.038E-06     286.124E-06
            5788            5807     270.652E-06     281.678E-06
            5771            5807     270.652E-06     281.678E-06
            5789            5807     270.652E-06     281.678E-06
            5770            5807     270.652E-06     281.678E-06
            5772            5808     269.579E-06     277.877E-06
            5771            5808     269.579E-06     277.877E-06
            5789            5808     269.579E-06     277.877E-06
            5790            5808     269.579E-06     277.877E-06
            5773            5809     270.864E-06     273.371E-06
            5772            5809     270.864E-06     273.371E-06
            5791            5809     270.864E-06     273.371E-06
            5790            5809     270.864E-06     273.371E-06
            5791            5810     279.555E-06     264.570E-06
            5773            5810     279.555E-06     264.570E-06
            5792            5810     279.555E-06     264.570E-06
            5774            5810     279.555E-06     264.570E-06
            5794            5811     278.605E-06     288.392E-06
            5775            5811     278.605E-06     288.392E-06
            5793            5811     278.605E-06     288.392E-06
            5776            5811     278.605E-06     288.392E-06
            5776            5812     311.944E-06     328.248E-06
            5794            5812     311.944E-06     328.248E-06
            5795            5812     311.944E-06     328.248E-06
            5777            5812     311.944E-06     328.248E-06
            5777            5813     353.299E-06     361.834E-06
            5795            5813     353.299E-06     361.834E-06
            5796            5813     353.299E-06     361.834E-06
            5778            5813     353.299E-06     361.834E-06
            5779            5814     356.128E-06     360.576E-06
            5778            5814     356.128E-06     360.576E-06
            5797            5814     356.128E-06     360.576E-06
            5796            5814     356.128E-06     360.576E-06
            5780            5815     345.668E-06     351.269E-06
            5797            5815     345.668E-06     351.269E-06
            5798            5815     345.668E-06     351.269E-06
            5779            5815     345.668E-06     351.269E-06
            5780            5816     334.889E-06     339.574E-06
            5781            5816     334.889E-06     339.574E-06
            5799            5816     334.889E-06     339.574E-06
            5798            5816     334.889E-06     339.574E-06
            5781            5817     323.761E-06     328.884E-06
            5799            5817     323.761E-06     328.884E-06
            5800            5817     323.761E-06     328.884E-06
            5782            5817     323.761E-06     328.884E-06
            5800            5818     314.854E-06     319.725E-06
            5801            5818     314.854E-06     319.725E-06
            5783            5818     314.854E-06     319.725E-06
            5782            5818     314.854E-06     319.725E-06
            5802            5819     306.899E-06     311.772E-06
            5801            5819     306.899E-06     311.772E-06
            5783            5819     306.899E-06     311.772E-06
            5784            5819     306.899E-06     311.772E-06
            5784            5820     300.276E-06     305.071E-06
            5785            5820     300.276E-06     305.071E-06
            5802            5820     300.276E-06     305.071E-06
            5803            5820     300.276E-06     305.071E-06
            5804            5821     294.518E-06     299.108E-06
            5785            5821     294.518E-06     299.108E-06
            5803            5821     294.518E-06     299.108E-06
            5786            5821     294.518E-06     299.108E-06
            5787            5822     289.538E-06     294.272E-06
            5804            5822     289.538E-06     294.272E-06
            5805            5822     289.538E-06     294.272E-06
            5786            5822     289.538E-06     294.272E-06
            5806            5823     285.638E-06     290.007E-06
            5787            5823     285.638E-06     290.007E-06
            5788            5823     285.638E-06     290.007E-06
            5805            5823     285.638E-06     290.007E-06
            5788            5824     282.183E-06     287.206E-06
            5806            5824     282.183E-06     287.206E-06
            5807            5824     282.183E-06     287.206E-06
            5789            5824     282.183E-06     287.206E-06
            5807            5825     281.224E-06     284.983E-06
            5789            5825     281.224E-06     284.983E-06
            5808            5825     281.224E-06     284.983E-06
            5790            5825     281.224E-06     284.983E-06
            5809            5826     287.586E-06     276.371E-06
            5808            5826     287.586E-06     276.371E-06
            5790            5826     287.586E-06     276.371E-06
            5791            5826     287.586E-06     276.371E-06
            5810            5827     293.241E-06     263.843E-06
            5791            5827     293.241E-06     263.843E-06
            5792            5827     293.241E-06     263.843E-06
            5809            5827     293.241E-06     263.843E-06
            5794            5828     185.757E-06     183.206E-06
            5811            5828     185.757E-06     183.206E-06
            5812            5828     185.757E-06     183.206E-06
            5793            5828     185.757E-06     183.206E-06
            5795            5829     272.832E-06     273.619E-06
            5812            5829     272.832E-06     273.619E-06
            5794            5829     272.832E-06     273.619E-06
            5813            5829     272.832E-06     273.619E-06
            5813            5830     341.078E-06     330.262E-06
            5796            5830     341.078E-06     330.262E-06
            5814            5830     341.078E-06     330.262E-06
            5795            5830     341.078E-06     330.262E-06
            5796            5831     354.888E-06     342.629E-06
            5797            5831     354.888E-06     342.629E-06
            5814            5831     354.888E-06     342.629E-06
            5815            5831     354.888E-06     342.629E-06
            5797            5832     351.468E-06     339.564E-06
            5816            5832     351.468E-06     339.564E-06
            5815            5832     351.468E-06     339.564E-06
            5798            5832     351.468E-06     339.564E-06
            5799            5833     343.270E-06     332.356E-06
            5816            5833     343.270E-06     332.356E-06
            5817            5833     343.270E-06     332.356E-06
            5798            5833     343.270E-06     332.356E-06
            5800            5834     334.924E-06     324.693E-06
            5817            5834     334.924E-06     324.693E-06
            5799            5834     334.924E-06     324.693E-06
            5818            5834     334.924E-06     324.693E-06
            5819            5835     327.028E-06     317.618E-06
            5800            5835     327.028E-06     317.618E-06
            5818            5835     327.028E-06     317.618E-06
            5801            5835     327.028E-06     317.618E-06
            5801            5836     320.109E-06     311.539E-06
            5820            5836     320.109E-06     311.539E-06
            5819            5836     320.109E-06     311.539E-06
            5802            5836     320.109E-06     311.539E-06
            5802            5837     313.817E-06     306.143E-06
            5803            5837     313.817E-06     306.143E-06
            5820            5837     313.817E-06     306.143E-06
            5821            5837     313.817E-06     306.143E-06
            5803            5838     308.218E-06     301.608E-06
            5821            5838     308.218E-06     301.608E-06
            5804            5838     308.218E-06     301.608E-06
            5822            5838     308.218E-06     301.608E-06
            5822            5839     303.270E-06     297.630E-06
            5804            5839     303.270E-06     297.630E-06
            5805            5839     303.270E-06     297.630E-06
            5823            5839     303.270E-06     297.630E-06
            5823            5840     298.776E-06     294.710E-06
            5805            5840     298.776E-06     294.710E-06
            5806            5840     298.776E-06     294.710E-06
            5824            5840     298.776E-06     294.710E-06
            5807            5841     295.212E-06     292.393E-06
            5824            5841     295.212E-06     292.393E-06
            5806            5841     295.212E-06     292.393E-06
            5825            5841     295.212E-06     292.393E-06
            5807            5842     292.177E-06     291.207E-06
            5826            5842     292.177E-06     291.207E-06
            5825            5842     292.177E-06     291.207E-06
            5808            5842     292.177E-06     291.207E-06
            5827            5843     290.889E-06     291.016E-06
            5808            5843     290.889E-06     291.016E-06
            5826            5843     290.889E-06     291.016E-06
            5809            5843     290.889E-06     291.016E-06
            5828            5844     298.382E-06     285.029E-06
            5827            5844     298.382E-06     285.029E-06
            5809            5844     298.382E-06     285.029E-06
            5810            5844     298.382E-06     285.029E-06
            5812            5845     152.193E-06     162.930E-06
            5811            5845     152.193E-06     162.930E-06
            5829            5845     152.193E-06     162.930E-06
            5830            5845     152.193E-06     162.930E-06
            5813            5846     251.428E-06     216.487E-06
            5812            5846     251.428E-06     216.487E-06
            5831            5846     251.428E-06     216.487E-06
            5830            5846     251.428E-06     216.487E-06
            5814            5847     313.461E-06     280.364E-06
            5813            5847     313.461E-06     280.364E-06
            5831            5847     313.461E-06     280.364E-06
            5832            5847     313.461E-06     280.364E-06
            5815            5848     340.411E-06     310.197E-06
            5814            5848     340.411E-06     310.197E-06
            5833            5848     340.411E-06     310.197E-06
            5832            5848     340.411E-06     310.197E-06
            5833            5849     349.052E-06     319.671E-06
            5834            5849     349.052E-06     319.671E-06
            5815            5849     349.052E-06     319.671E-06
            5816            5849     349.052E-06     319.671E-06
            5835            5850     348.164E-06     321.136E-06
            5816            5850     348.164E-06     321.136E-06
            5834            5850     348.164E-06     321.136E-06
            5817            5850     348.164E-06     321.136E-06
            5835            5851     344.441E-06     318.798E-06
            5817            5851     344.441E-06     318.798E-06
            5818            5851     344.441E-06     318.798E-06
            5836            5851     344.441E-06     318.798E-06
            5819            5852     339.164E-06     315.375E-06
            5836            5852     339.164E-06     315.375E-06
            5818            5852     339.164E-06     315.375E-06
            5837            5852     339.164E-06     315.375E-06
            5820            5853     333.599E-06     311.573E-06
            5819            5853     333.599E-06     311.573E-06
            5838            5853     333.599E-06     311.573E-06
            5837            5853     333.599E-06     311.573E-06
            5820            5854     328.064E-06     307.948E-06
            5838            5854     328.064E-06     307.948E-06
            5839            5854     328.064E-06     307.948E-06
            5821            5854     328.064E-06     307.948E-06
            5839            5855     322.694E-06     304.719E-06
            5821            5855     322.694E-06     304.719E-06
            5822            5855     322.694E-06     304.719E-06
            5840            5855     322.694E-06     304.719E-06
            5823            5856     317.731E-06     301.917E-06
            5841            5856     317.731E-06     301.917E-06
            5822            5856     317.731E-06     301.917E-06
            5840            5856     317.731E-06     301.917E-06
            5824            5857     312.969E-06     299.821E-06
            5841            5857     312.969E-06     299.821E-06
            5823            5857     312.969E-06     299.821E-06
            5842            5857     312.969E-06     299.821E-06
            5843            5858     308.847E-06     298.188E-06
            5825            5858     308.847E-06     298.188E-06
            5824            5858     308.847E-06     298.188E-06
            5842            5858     308.847E-06     298.188E-06
            5844            5859     304.102E-06     297.506E-06
            5825            5859     304.102E-06     297.506E-06
            5843            5859     304.102E-06     297.506E-06
            5826            5859     304.102E-06     297.506E-06
            5844            5860     297.064E-06     302.078E-06
            5827            5860     297.064E-06     302.078E-06
            5826            5860     297.064E-06     302.078E-06
            5845            5860     297.064E-06     302.078E-06
            5846            5861     291.565E-06     309.545E-06
            5827            5861     291.565E-06     309.545E-06
            5845            5861     291.565E-06     309.545E-06
            5828            5861     291.565E-06     309.545E-06


  Minimum                            59.9919E-06     137.597E-06
      At Element                             856            5811
            Node                             308             197

  Maximum                            203.890E-03     204.663E-03
      At Element                            2475            2475
            Node                             524             524

           Total                         257.708         262.195


********************************************************************************
Field Output Report, written Fri Feb 15 16:32:46 2019

Source 1
---------

   ODB: C:/Scratch/A320-19.odb
   Step: Jam2
   Frame: Increment      1: Step Time =    1.000

Loc 1 : Element nodal  values at shell < ALUMINIUM > < 5 section points > from source 1 : SNEG, (fraction = -1.0) ( Average criteria = 75%, Not averaged across region boundaries )
Loc 2 : Element nodal  values at shell < ALUMINIUM > < 5 section points > from source 1 : SPOS, (fraction = 1.0) ( Average criteria = 75%, Not averaged across region boundaries )

Output sorted by column "Node Label".

Field Output reported at element nodes for region: A320-1.Region_1
   Computation algorithm: EXTRAPOLATE_COMPUTE_AVERAGE
   Averaged at nodes
   Averaging regions: ODB_REGIONS

   Element Label      Node Label         S.Mises         S.Mises
                                          @Loc 1          @Loc 2
-----------------------------------------------------------------
            2271               3     2.21106E-03     2.55873E-03
             874               3     2.21106E-03     2.55873E-03
            2325               4     84.3043E-06     183.631E-06
            3976               6     97.8517E-03     100.989E-03
            1756               6     97.8517E-03     100.989E-03
            4066               8     95.3757E-03     102.942E-03
            3410               8     95.3757E-03     102.942E-03
            5864              10     75.5859E-03     75.6947E-03
            3500              10     75.5859E-03     75.6947E-03
            5084              15     3.00456E-03     3.77453E-03
            6566              15     3.00456E-03     3.77453E-03
            2288              16     3.67540E-03     3.63496E-03
             857              16     3.67540E-03     3.63496E-03
            2342              19     251.216E-06     296.436E-06
            1739              20     39.4416E-03     39.4811E-03
            3959              20     39.4416E-03     39.4811E-03
            4049              23     43.5324E-03     70.7238E-03
            3393              23     43.5324E-03     70.7238E-03
            5847              24     21.3700E-03     21.1765E-03
            3483              24     21.3700E-03     21.1765E-03
            5067              26     1.27882E-03     2.33335E-03
            6549              26     1.27882E-03     2.33335E-03
            5174              27     112.100E-06     214.044E-06
            5157              28     268.471E-06     327.164E-06
            2289              38     319.364E-06     353.735E-06
            2271              38     319.364E-06     353.735E-06
            2289              39     151.911E-06     156.375E-06
            2307              39     151.911E-06     156.375E-06
            2307              40     59.9919E-06     139.587E-06
            2325              40     59.9919E-06     139.587E-06
            1738             102     99.3194E-03     99.6787E-03
            1756             102     99.3194E-03     99.6787E-03
            1738             103     96.7975E-03     96.4966E-03
            1720             103     96.7975E-03     96.4966E-03
            1720             104     93.3613E-03     94.8920E-03
            1702             104     93.3613E-03     94.8920E-03
            1702             105     90.9433E-03     91.2620E-03
            1684             105     90.9433E-03     91.2620E-03
            1684             106     87.6463E-03     88.7412E-03
            1666             106     87.6463E-03     88.7412E-03
            1666             107     84.8729E-03     85.1960E-03
            1648             107     84.8729E-03     85.1960E-03
            1648             108     81.1327E-03     82.1221E-03
            1630             108     81.1327E-03     82.1221E-03
            1630             109     77.1403E-03     77.0864E-03
            1612             109     77.1403E-03     77.0864E-03
            1612             110     72.3833E-03     71.4484E-03
            1594             110     72.3833E-03     71.4484E-03
            1576             111     72.9689E-03     75.2819E-03
            1594             111     72.9689E-03     75.2819E-03
            1558             112     76.7514E-03     77.1181E-03
            1576             112     76.7514E-03     77.1181E-03
            1558             113     74.2441E-03     74.0346E-03
            1540             113     74.2441E-03     74.0346E-03
            1540             114     71.1026E-03     72.2429E-03
            1522             114     71.1026E-03     72.2429E-03
            1504             115     68.7337E-03     69.0599E-03
            1522             115     68.7337E-03     69.0599E-03
            1504             116     65.9758E-03     66.6746E-03
            1486             116     65.9758E-03     66.6746E-03
            1486             117     63.3984E-03     63.8562E-03
            1468             117     63.3984E-03     63.8562E-03
            1468             118     60.4934E-03     60.8886E-03
            1450             118     60.4934E-03     60.8886E-03
            1450             119     57.3589E-03     57.8766E-03
            1432             119     57.3589E-03     57.8766E-03
            1414             120     53.6503E-03     53.6987E-03
            1432             120     53.6503E-03     53.6987E-03
            1396             121     49.5517E-03     48.7189E-03
            1414             121     49.5517E-03     48.7189E-03
            1396             122     50.4474E-03     52.0207E-03
            1378             122     50.4474E-03     52.0207E-03
            1378             123     53.5655E-03     53.9519E-03
            1360             123     53.5655E-03     53.9519E-03
            1360             124     51.0436E-03     50.8754E-03
            1342             124     51.0436E-03     50.8754E-03
            1324             125     48.0869E-03     48.9047E-03
            1342             125     48.0869E-03     48.9047E-03
            1324             126     45.8136E-03     46.0127E-03
            1306             126     45.8136E-03     46.0127E-03
            1306             127     43.2707E-03     43.7536E-03
            1288             127     43.2707E-03     43.7536E-03
            1270             128     40.9109E-03     41.1765E-03
            1288             128     40.9109E-03     41.1765E-03
            1252             129     38.2736E-03     38.5409E-03
            1270             129     38.2736E-03     38.5409E-03
            1252             130     35.5040E-03     35.7670E-03
            1234             130     35.5040E-03     35.7670E-03
            1216             131     32.1857E-03     32.2685E-03
            1234             131     32.1857E-03     32.2685E-03
            1198             132     28.6568E-03     27.9838E-03
            1216             132     28.6568E-03     27.9838E-03
            1180             133     29.8185E-03     30.6993E-03
            1198             133     29.8185E-03     30.6993E-03
            1180             134     32.3063E-03     32.7073E-03
            1162             134     32.3063E-03     32.7073E-03
            1144             135     29.7875E-03     29.6691E-03
            1162             135     29.7875E-03     29.6691E-03
            1126             136     27.0230E-03     27.5488E-03
            1144             136     27.0230E-03     27.5488E-03
            1108             137     24.8553E-03     24.9439E-03
            1126             137     24.8553E-03     24.9439E-03
            1090             138     22.5300E-03     22.8193E-03
            1108             138     22.5300E-03     22.8193E-03
            1090             139     20.3897E-03     20.4857E-03
            1072             139     20.3897E-03     20.4857E-03
            1054             140     18.0230E-03     18.1805E-03
            1072             140     18.0230E-03     18.1805E-03
            1036             141     15.6168E-03     15.6605E-03
            1054             141     15.6168E-03     15.6605E-03
            1018             142     12.7016E-03     12.8546E-03
            1036             142     12.7016E-03     12.8546E-03
            1000             143     9.79749E-03     9.30698E-03
            1018             143     9.79749E-03     9.30698E-03
            1000             144     11.1367E-03     11.3023E-03
             982             144     11.1367E-03     11.3023E-03
             982             145     12.8039E-03     13.2043E-03
             964             145     12.8039E-03     13.2043E-03
             964             146     10.2164E-03     10.1472E-03
             946             146     10.2164E-03     10.1472E-03
             928             147     7.56208E-03     7.85388E-03
             946             147     7.56208E-03     7.85388E-03
             910             148     5.51164E-03     5.48834E-03
             928             148     5.51164E-03     5.48834E-03
             892             149     3.73086E-03     4.01822E-03
             910             149     3.73086E-03     4.01822E-03
             892             150     3.52818E-03     4.10367E-03
             874             150     3.52818E-03     4.10367E-03
            4048             162     98.5619E-03     100.517E-03
            4066             162     98.5619E-03     100.517E-03
            4030             163     97.0090E-03     97.2437E-03
            4048             163     97.0090E-03     97.2437E-03
            4030             164     93.7061E-03     94.0593E-03
            4012             164     93.7061E-03     94.0593E-03
            3994             165     90.5002E-03     87.7676E-03
            4012             165     90.5002E-03     87.7676E-03
            3994             166     92.2086E-03     92.1541E-03
            3976             166     92.2086E-03     92.1541E-03
            3500             178     79.2512E-03     78.2553E-03
            3482             178     79.2512E-03     78.2553E-03
            3464             179     84.1447E-03     84.1518E-03
            3482             179     84.1447E-03     84.1518E-03
            3464             180     87.5852E-03     89.9351E-03
            3446             180     87.5852E-03     89.9351E-03
            3446             181     91.6311E-03     91.6338E-03
            3428             181     91.6311E-03     91.6338E-03
            3410             182     94.1632E-03     95.6276E-03
            3428             182     94.1632E-03     95.6276E-03
            6566             250     6.21133E-03     6.72043E-03
            6548             250     6.21133E-03     6.72043E-03
            6530             251     7.66529E-03     7.33448E-03
            6548             251     7.66529E-03     7.33448E-03
            6512             252     9.50424E-03     8.87860E-03
            6530             252     9.50424E-03     8.87860E-03
            6512             253     11.0793E-03     11.9535E-03
            6494             253     11.0793E-03     11.9535E-03
            6476             254     11.3052E-03     12.4372E-03
            6494             254     11.3052E-03     12.4372E-03
            6458             255     12.5599E-03     12.2325E-03
            6476             255     12.5599E-03     12.2325E-03
            6458             256     15.2647E-03     14.8965E-03
            6440             256     15.2647E-03     14.8965E-03
            6440             257     17.5239E-03     17.2047E-03
            6422             257     17.5239E-03     17.2047E-03
            6422             258     19.5378E-03     19.5217E-03
            6404             258     19.5378E-03     19.5217E-03
            6386             259     21.6839E-03     21.6558E-03
            6404             259     21.6839E-03     21.6558E-03
            6386             260     23.6357E-03     23.9065E-03
            6368             260     23.6357E-03     23.9065E-03
            6368             261     25.8853E-03     25.9844E-03
            6350             261     25.8853E-03     25.9844E-03
            6332             262     27.8778E-03     28.5250E-03
            6350             262     27.8778E-03     28.5250E-03
            6314             263     30.4967E-03     30.3779E-03
            6332             263     30.4967E-03     30.3779E-03
            6314             264     32.6351E-03     33.5448E-03
            6296             264     32.6351E-03     33.5448E-03
            6278             265     30.7244E-03     31.6902E-03
            6296             265     30.7244E-03     31.6902E-03
            6260             266     30.4599E-03     29.3483E-03
            6278             266     30.4599E-03     29.3483E-03
            6242             267     34.0124E-03     33.8339E-03
            6260             267     34.0124E-03     33.8339E-03
            6242             268     37.1184E-03     37.1628E-03
            6224             268     37.1184E-03     37.1628E-03
            6206             269     39.8144E-03     39.9269E-03
            6224             269     39.8144E-03     39.9269E-03
            6206             270     42.3398E-03     42.7002E-03
            6188             270     42.3398E-03     42.7002E-03
            6170             271     44.9173E-03     45.2302E-03
            6188             271     44.9173E-03     45.2302E-03
            6152             272     47.1969E-03     47.8684E-03
            6170             272     47.1969E-03     47.8684E-03
            6152             273     49.8081E-03     50.1787E-03
            6134             273     49.8081E-03     50.1787E-03
            6116             274     52.0214E-03     53.1633E-03
            6134             274     52.0214E-03     53.1633E-03
            6116             275     54.9351E-03     54.9232E-03
            6098             275     54.9351E-03     54.9232E-03
            6098             276     57.2458E-03     58.1381E-03
            6080             276     57.2458E-03     58.1381E-03
            6080             277     54.5729E-03     56.0336E-03
            6062             277     54.5729E-03     56.0336E-03
            6044             278     54.3092E-03     52.9255E-03
            6062             278     54.3092E-03     52.9255E-03
            6044             279     58.4049E-03     58.4161E-03
            6026             279     58.4049E-03     58.4161E-03
            6026             280     62.0567E-03     62.4752E-03
            6008             280     62.0567E-03     62.4752E-03
            5990             281     65.0995E-03     65.6062E-03
            6008             281     65.0995E-03     65.6062E-03
            5972             282     68.0714E-03     68.6579E-03
            5990             282     68.0714E-03     68.6579E-03
            5954             283     70.6776E-03     71.6269E-03
            5972             283     70.6776E-03     71.6269E-03
            5954             284     73.5741E-03     74.1694E-03
            5936             284     73.5741E-03     74.1694E-03
            5936             285     75.9644E-03     77.5161E-03
            5918             285     75.9644E-03     77.5161E-03
            5918             286     79.1378E-03     79.2004E-03
            5900             286     79.1378E-03     79.2004E-03
            5882             287     81.5721E-03     82.4048E-03
            5900             287     81.5721E-03     82.4048E-03
            5882             288     77.8220E-03     81.1215E-03
            5864             288     77.8220E-03     81.1215E-03
            2324             326     274.951E-06     275.731E-06
            2342             326     274.951E-06     275.731E-06
            2324             327     296.404E-06     250.080E-06
            2306             327     296.404E-06     250.080E-06
            2306             328     265.711E-06     264.344E-06
            2288             328     265.711E-06     264.344E-06
             857             329     3.85232E-03     3.86107E-03
            2287             329     3.85232E-03     3.86107E-03
            2288             329     3.85232E-03     3.86107E-03
             858             329     3.85232E-03     3.86107E-03
             859             330     4.13265E-03     4.16852E-03
            2287             330     4.13265E-03     4.16852E-03
            2286             330     4.13265E-03     4.16852E-03
             858             330     4.13265E-03     4.16852E-03
            2285             331     4.39144E-03     4.41177E-03
            2286             331     4.39144E-03     4.41177E-03
             860             331     4.39144E-03     4.41177E-03
             859             331     4.39144E-03     4.41177E-03
            2285             332     4.63964E-03     4.65457E-03
            2284             332     4.63964E-03     4.65457E-03
             861             332     4.63964E-03     4.65457E-03
             860             332     4.63964E-03     4.65457E-03
            2283             333     4.79551E-03     4.79527E-03
            2284             333     4.79551E-03     4.79527E-03
             862             333     4.79551E-03     4.79527E-03
             861             333     4.79551E-03     4.79527E-03
             863             334     4.91048E-03     4.89783E-03
             862             334     4.91048E-03     4.89783E-03
            2283             334     4.91048E-03     4.89783E-03
            2282             334     4.91048E-03     4.89783E-03
             864             335     4.99045E-03     4.96329E-03
             863             335     4.99045E-03     4.96329E-03
            2282             335     4.99045E-03     4.96329E-03
            2281             335     4.99045E-03     4.96329E-03
            2280             336     5.04673E-03     5.00344E-03
             864             336     5.04673E-03     5.00344E-03
            2281             336     5.04673E-03     5.00344E-03
             865             336     5.04673E-03     5.00344E-03
             866             337     5.09044E-03     5.03253E-03
            2279             337     5.09044E-03     5.03253E-03
            2280             337     5.09044E-03     5.03253E-03
             865             337     5.09044E-03     5.03253E-03
            2279             338     5.11580E-03     5.04081E-03
             866             338     5.11580E-03     5.04081E-03
            2278             338     5.11580E-03     5.04081E-03
             867             338     5.11580E-03     5.04081E-03
             868             339     5.12115E-03     5.03079E-03
            2277             339     5.12115E-03     5.03079E-03
             867             339     5.12115E-03     5.03079E-03
            2278             339     5.12115E-03     5.03079E-03
            2277             340     5.08982E-03     4.98233E-03
             869             340     5.08982E-03     4.98233E-03
            2276             340     5.08982E-03     4.98233E-03
             868             340     5.08982E-03     4.98233E-03
            2275             341     4.98861E-03     4.86425E-03
            2276             341     4.98861E-03     4.86425E-03
             869             341     4.98861E-03     4.86425E-03
             870             341     4.98861E-03     4.86425E-03
            2275             342     4.80830E-03     4.65552E-03
            2274             342     4.80830E-03     4.65552E-03
             871             342     4.80830E-03     4.65552E-03
             870             342     4.80830E-03     4.65552E-03
             872             343     4.41621E-03     4.24804E-03
            2274             343     4.41621E-03     4.24804E-03
             871             343     4.41621E-03     4.24804E-03
            2273             343     4.41621E-03     4.24804E-03
            2273             344     3.91476E-03     3.66881E-03
             873             344     3.91476E-03     3.66881E-03
             872             344     3.91476E-03     3.66881E-03
            2272             344     3.91476E-03     3.66881E-03
             874             345     2.95528E-03     2.96166E-03
            2272             345     2.95528E-03     2.96166E-03
             873             345     2.95528E-03     2.96166E-03
            2271             345     2.95528E-03     2.96166E-03
            3976             346     91.9290E-03     94.2933E-03
            1755             346     91.9290E-03     94.2933E-03
            1756             346     91.9290E-03     94.2933E-03
            3975             346     91.9290E-03     94.2933E-03
            3974             347     82.3763E-03     83.6629E-03
            3975             347     82.3763E-03     83.6629E-03
            1755             347     82.3763E-03     83.6629E-03
            1754             347     82.3763E-03     83.6629E-03
            1753             348     75.1752E-03     76.2715E-03
            3974             348     75.1752E-03     76.2715E-03
            1754             348     75.1752E-03     76.2715E-03
            3973             348     75.1752E-03     76.2715E-03
            3973             349     68.4983E-03     69.6400E-03
            3972             349     68.4983E-03     69.6400E-03
            1752             349     68.4983E-03     69.6400E-03
            1753             349     68.4983E-03     69.6400E-03
            3971             350     62.2975E-03     63.4765E-03
            3972             350     62.2975E-03     63.4765E-03
            1752             350     62.2975E-03     63.4765E-03
            1751             350     62.2975E-03     63.4765E-03
            1751             351     56.3154E-03     57.5842E-03
            3971             351     56.3154E-03     57.5842E-03
            3970             351     56.3154E-03     57.5842E-03
            1750             351     56.3154E-03     57.5842E-03
            1749             352     50.5720E-03     51.8787E-03
            3970             352     50.5720E-03     51.8787E-03
            1750             352     50.5720E-03     51.8787E-03
            3969             352     50.5720E-03     51.8787E-03
            3969             353     45.0060E-03     46.3497E-03
            3968             353     45.0060E-03     46.3497E-03
            1749             353     45.0060E-03     46.3497E-03
            1748             353     45.0060E-03     46.3497E-03
            1748             354     39.6614E-03     40.9990E-03
            3968             354     39.6614E-03     40.9990E-03
            1747             354     39.6614E-03     40.9990E-03
            3967             354     39.6614E-03     40.9990E-03
            1746             355     34.5624E-03     35.8727E-03
            1747             355     34.5624E-03     35.8727E-03
            3967             355     34.5624E-03     35.8727E-03
            3966             355     34.5624E-03     35.8727E-03
            3966             356     29.7717E-03     31.0179E-03
            1745             356     29.7717E-03     31.0179E-03
            1746             356     29.7717E-03     31.0179E-03
            3965             356     29.7717E-03     31.0179E-03
            3964             357     25.4017E-03     26.5280E-03
            3965             357     25.4017E-03     26.5280E-03
            1744             357     25.4017E-03     26.5280E-03
            1745             357     25.4017E-03     26.5280E-03
            1743             358     21.7785E-03     22.5585E-03
            3964             358     21.7785E-03     22.5585E-03
            1744             358     21.7785E-03     22.5585E-03
            3963             358     21.7785E-03     22.5585E-03
            1743             359     21.1787E-03     20.9285E-03
            1742             359     21.1787E-03     20.9285E-03
            3963             359     21.1787E-03     20.9285E-03
            3962             359     21.1787E-03     20.9285E-03
            3962             360     24.0852E-03     23.0413E-03
            1742             360     24.0852E-03     23.0413E-03
            1741             360     24.0852E-03     23.0413E-03
            3961             360     24.0852E-03     23.0413E-03
            1740             361     28.3876E-03     27.4449E-03
            3961             361     28.3876E-03     27.4449E-03
            1741             361     28.3876E-03     27.4449E-03
            3960             361     28.3876E-03     27.4449E-03
            3959             362     35.1026E-03     34.7089E-03
            3960             362     35.1026E-03     34.7089E-03
            1740             362     35.1026E-03     34.7089E-03
            1739             362     35.1026E-03     34.7089E-03
            1721             363     33.8723E-03     32.4789E-03
            1739             363     33.8723E-03     32.4789E-03
            1703             364     30.1955E-03     27.6869E-03
            1721             364     30.1955E-03     27.6869E-03
            1703             365     27.7355E-03     25.8292E-03
            1685             365     27.7355E-03     25.8292E-03
            1667             366     26.7978E-03     24.5776E-03
            1685             366     26.7978E-03     24.5776E-03
            1649             367     25.8552E-03     23.9209E-03
            1667             367     25.8552E-03     23.9209E-03
            1649             368     25.7638E-03     23.6104E-03
            1631             368     25.7638E-03     23.6104E-03
            1631             369     25.2843E-03     23.7902E-03
            1613             369     25.2843E-03     23.7902E-03
            1613             370     26.3929E-03     24.0718E-03
            1595             370     26.3929E-03     24.0718E-03
            1595             371     24.4467E-03     26.5676E-03
            1577             371     24.4467E-03     26.5676E-03
            1577             372     25.2697E-03     29.5629E-03
            1559             372     25.2697E-03     29.5629E-03
            1559             373     28.1722E-03     27.0594E-03
            1541             373     28.1722E-03     27.0594E-03
            1541             374     24.7185E-03     22.9197E-03
            1523             374     24.7185E-03     22.9197E-03
            1523             375     22.6108E-03     21.2108E-03
            1505             375     22.6108E-03     21.2108E-03
            1505             376     21.5605E-03     19.9875E-03
            1487             376     21.5605E-03     19.9875E-03
            1487             377     20.7198E-03     19.2508E-03
            1469             377     20.7198E-03     19.2508E-03
            1469             378     20.1525E-03     18.7131E-03
            1451             378     20.1525E-03     18.7131E-03
            1451             379     19.9229E-03     18.4563E-03
            1433             379     19.9229E-03     18.4563E-03
            1415             380     19.5051E-03     18.4697E-03
            1433             380     19.5051E-03     18.4697E-03
            1397             381     20.1616E-03     18.5929E-03
            1415             381     20.1616E-03     18.5929E-03
            1379             382     18.2524E-03     20.3112E-03
            1397             382     18.2524E-03     20.3112E-03
            1361             383     19.2549E-03     22.5182E-03
            1379             383     19.2549E-03     22.5182E-03
            1361             384     21.6395E-03     20.7461E-03
            1343             384     21.6395E-03     20.7461E-03
            1343             385     18.4746E-03     17.3417E-03
            1325             385     18.4746E-03     17.3417E-03
            1325             386     16.7037E-03     15.7399E-03
            1307             386     16.7037E-03     15.7399E-03
            1307             387     15.6725E-03     14.6289E-03
            1289             387     15.6725E-03     14.6289E-03
            1271             388     14.8641E-03     13.8758E-03
            1289             388     14.8641E-03     13.8758E-03
            1253             389     14.2603E-03     13.2934E-03
            1271             389     14.2603E-03     13.2934E-03
            1235             390     13.9037E-03     12.9491E-03
            1253             390     13.9037E-03     12.9491E-03
            1235             391     13.4488E-03     12.7784E-03
            1217             391     13.4488E-03     12.7784E-03
            1199             392     13.6987E-03     12.8003E-03
            1217             392     13.6987E-03     12.8003E-03
            1181             393     12.0990E-03     13.7952E-03
            1199             393     12.0990E-03     13.7952E-03
            1181             394     13.4417E-03     15.4842E-03
            1163             394     13.4417E-03     15.4842E-03
            1163             395     15.2416E-03     14.6427E-03
            1145             395     15.2416E-03     14.6427E-03
            1127             396     12.4652E-03     11.9391E-03
            1145             396     12.4652E-03     11.9391E-03
            1109             397     11.0163E-03     10.4427E-03
            1127             397     11.0163E-03     10.4427E-03
            1091             398     10.0331E-03     9.45477E-03
            1109             398     10.0331E-03     9.45477E-03
            1073             399     9.29458E-03     8.72230E-03
            1091             399     9.29458E-03     8.72230E-03
            1073             400     8.73222E-03     8.16886E-03
            1055             400     8.73222E-03     8.16886E-03
            1055             401     8.36096E-03     7.86384E-03
            1037             401     8.36096E-03     7.86384E-03
            1019             402     8.06600E-03     7.69256E-03
            1037             402     8.06600E-03     7.69256E-03
            1019             403     8.16936E-03     7.93830E-03
            1001             403     8.16936E-03     7.93830E-03
             983             404     7.75922E-03     8.72171E-03
            1001             404     7.75922E-03     8.72171E-03
             983             405     8.65041E-03     9.28389E-03
             965             405     8.65041E-03     9.28389E-03
             965             406     8.67284E-03     8.38561E-03
             947             406     8.67284E-03     8.38561E-03
             929             407     6.59025E-03     6.33591E-03
             947             407     6.59025E-03     6.33591E-03
             911             408     5.63838E-03     5.22616E-03
             929             408     5.63838E-03     5.22616E-03
             911             409     5.21085E-03     4.82802E-03
             893             409     5.21085E-03     4.82802E-03
             875             410     5.36099E-03     5.19482E-03
             893             410     5.36099E-03     5.19482E-03
             875             411     6.30975E-03     6.39485E-03
             857             411     6.30975E-03     6.39485E-03
            2342             497     265.233E-06     285.861E-06
            2341             497     265.233E-06     285.861E-06
            2340             498     283.009E-06     274.139E-06
            2341             498     283.009E-06     274.139E-06
            2340             499     285.861E-06     274.323E-06
            2339             499     285.861E-06     274.323E-06
            2339             500     287.160E-06     274.277E-06
            2338             500     287.160E-06     274.277E-06
            2337             501     290.307E-06     272.575E-06
            2338             501     290.307E-06     272.575E-06
            2337             502     292.899E-06     272.376E-06
            2336             502     292.899E-06     272.376E-06
            2336             503     295.690E-06     272.114E-06
            2335             503     295.690E-06     272.114E-06
            2334             504     298.896E-06     272.446E-06
            2335             504     298.896E-06     272.446E-06
            2334             505     301.687E-06     272.639E-06
            2333             505     301.687E-06     272.639E-06
            2332             506     305.339E-06     273.851E-06
            2333             506     305.339E-06     273.851E-06
            2331             507     307.707E-06     274.001E-06
            2332             507     307.707E-06     274.001E-06
            2331             508     312.141E-06     276.255E-06
            2330             508     312.141E-06     276.255E-06
            2330             509     312.786E-06     275.739E-06
            2329             509     312.786E-06     275.739E-06
            2328             510     319.877E-06     277.651E-06
            2329             510     319.877E-06     277.651E-06
            2327             511     308.555E-06     269.467E-06
            2328             511     308.555E-06     269.467E-06
            2327             512     279.983E-06     236.389E-06
            2326             512     279.983E-06     236.389E-06
            2326             513     179.240E-06     200.698E-06
            2325             513     179.240E-06     200.698E-06
            3977             548     47.8220E-03     72.9940E-03
            3959             548     47.8220E-03     72.9940E-03
            3977             549     62.3611E-03     84.7541E-03
            3995             549     62.3611E-03     84.7541E-03
            3995             550     66.6363E-03     53.1458E-03
            4013             550     66.6363E-03     53.1458E-03
            4031             551     64.7754E-03     52.0057E-03
            4013             551     64.7754E-03     52.0057E-03
            4031             552     61.8984E-03     83.9033E-03
            4049             552     61.8984E-03     83.9033E-03
            4050             570     30.0667E-03     54.2096E-03
            3394             570     30.0667E-03     54.2096E-03
            4049             570     30.0667E-03     54.2096E-03
            3393             570     30.0667E-03     54.2096E-03
            4051             571     16.7990E-03     36.1830E-03
            3395             571     16.7990E-03     36.1830E-03
            4050             571     16.7990E-03     36.1830E-03
            3394             571     16.7990E-03     36.1830E-03
            4051             572     18.9415E-03     35.8637E-03
            3395             572     18.9415E-03     35.8637E-03
            3396             572     18.9415E-03     35.8637E-03
            4052             572     18.9415E-03     35.8637E-03
            3396             573     23.1181E-03     38.9326E-03
            3397             573     23.1181E-03     38.9326E-03
            4052             573     23.1181E-03     38.9326E-03
            4053             573     23.1181E-03     38.9326E-03
            4054             574     27.4561E-03     42.8744E-03
            3397             574     27.4561E-03     42.8744E-03
            4053             574     27.4561E-03     42.8744E-03
            3398             574     27.4561E-03     42.8744E-03
            3398             575     31.8931E-03     46.8833E-03
            3399             575     31.8931E-03     46.8833E-03
            4054             575     31.8931E-03     46.8833E-03
            4055             575     31.8931E-03     46.8833E-03
            3400             576     36.5700E-03     50.8354E-03
            4055             576     36.5700E-03     50.8354E-03
            4056             576     36.5700E-03     50.8354E-03
            3399             576     36.5700E-03     50.8354E-03
            4056             577     41.2747E-03     54.7634E-03
            3401             577     41.2747E-03     54.7634E-03
            3400             577     41.2747E-03     54.7634E-03
            4057             577     41.2747E-03     54.7634E-03
            3402             578     46.0459E-03     58.6249E-03
            4057             578     46.0459E-03     58.6249E-03
            3401             578     46.0459E-03     58.6249E-03
            4058             578     46.0459E-03     58.6249E-03
            3402             579     50.7619E-03     62.4459E-03
            4059             579     50.7619E-03     62.4459E-03
            3403             579     50.7619E-03     62.4459E-03
            4058             579     50.7619E-03     62.4459E-03
            3404             580     55.4978E-03     66.1863E-03
            3403             580     55.4978E-03     66.1863E-03
            4060             580     55.4978E-03     66.1863E-03
            4059             580     55.4978E-03     66.1863E-03
            4061             581     60.0874E-03     69.8340E-03
            3404             581     60.0874E-03     69.8340E-03
            3405             581     60.0874E-03     69.8340E-03
            4060             581     60.0874E-03     69.8340E-03
            3405             582     64.7373E-03     73.3569E-03
            4062             582     64.7373E-03     73.3569E-03
            4061             582     64.7373E-03     73.3569E-03
            3406             582     64.7373E-03     73.3569E-03
            3407             583     69.1668E-03     76.7702E-03
            4063             583     69.1668E-03     76.7702E-03
            4062             583     69.1668E-03     76.7702E-03
            3406             583     69.1668E-03     76.7702E-03
            3408             584     74.0720E-03     80.3261E-03
            4063             584     74.0720E-03     80.3261E-03
            3407             584     74.0720E-03     80.3261E-03
            4064             584     74.0720E-03     80.3261E-03
            3409             585     79.0117E-03     84.3598E-03
            4065             585     79.0117E-03     84.3598E-03
            4064             585     79.0117E-03     84.3598E-03
            3408             585     79.0117E-03     84.3598E-03
            3409             586     88.1795E-03     94.7278E-03
            4066             586     88.1795E-03     94.7278E-03
            3410             586     88.1795E-03     94.7278E-03
            4065             586     88.1795E-03     94.7278E-03
            3500             587     74.8367E-03     74.7567E-03
            5864             587     74.8367E-03     74.7567E-03
            5863             587     74.8367E-03     74.7567E-03
            3499             587     74.8367E-03     74.7567E-03
            5863             588     73.0480E-03     72.6847E-03
            5862             588     73.0480E-03     72.6847E-03
            3499             588     73.0480E-03     72.6847E-03
            3498             588     73.0480E-03     72.6847E-03
            3498             589     70.5032E-03     70.2021E-03
            3497             589     70.5032E-03     70.2021E-03
            5861             589     70.5032E-03     70.2021E-03
            5862             589     70.5032E-03     70.2021E-03
            5861             590     67.4995E-03     67.2914E-03
            3496             590     67.4995E-03     67.2914E-03
            5860             590     67.4995E-03     67.2914E-03
            3497             590     67.4995E-03     67.2914E-03
            3495             591     64.3462E-03     64.1338E-03
            3496             591     64.3462E-03     64.1338E-03
            5860             591     64.3462E-03     64.1338E-03
            5859             591     64.3462E-03     64.1338E-03
            3495             592     61.0444E-03     60.8161E-03
            5859             592     61.0444E-03     60.8161E-03
            5858             592     61.0444E-03     60.8161E-03
            3494             592     61.0444E-03     60.8161E-03
            5857             593     57.6992E-03     57.4134E-03
            3493             593     57.6992E-03     57.4134E-03
            5858             593     57.6992E-03     57.4134E-03
            3494             593     57.6992E-03     57.4134E-03
            3493             594     54.3080E-03     53.9713E-03
            5857             594     54.3080E-03     53.9713E-03
            5856             594     54.3080E-03     53.9713E-03
            3492             594     54.3080E-03     53.9713E-03
            5856             595     50.8909E-03     50.4806E-03
            5855             595     50.8909E-03     50.4806E-03
            3492             595     50.8909E-03     50.4806E-03
            3491             595     50.8909E-03     50.4806E-03
            5855             596     47.4494E-03     46.9832E-03
            3490             596     47.4494E-03     46.9832E-03
            3491             596     47.4494E-03     46.9832E-03
            5854             596     47.4494E-03     46.9832E-03
            5854             597     43.9946E-03     43.4645E-03
            3489             597     43.9946E-03     43.4645E-03
            5853             597     43.9946E-03     43.4645E-03
            3490             597     43.9946E-03     43.4645E-03
            3489             598     40.5274E-03     39.9477E-03
            5852             598     40.5274E-03     39.9477E-03
            5853             598     40.5274E-03     39.9477E-03
            3488             598     40.5274E-03     39.9477E-03
            5851             599     37.0657E-03     36.4423E-03
            5852             599     37.0657E-03     36.4423E-03
            3488             599     37.0657E-03     36.4423E-03
            3487             599     37.0657E-03     36.4423E-03
            3487             600     33.5729E-03     32.9169E-03
            3486             600     33.5729E-03     32.9169E-03
            5850             600     33.5729E-03     32.9169E-03
            5851             600     33.5729E-03     32.9169E-03
            5850             601     30.0978E-03     29.3903E-03
            5849             601     30.0978E-03     29.3903E-03
            3485             601     30.0978E-03     29.3903E-03
            3486             601     30.0978E-03     29.3903E-03
            5848             602     26.6155E-03     25.8803E-03
            3485             602     26.6155E-03     25.8803E-03
            5849             602     26.6155E-03     25.8803E-03
            3484             602     26.6155E-03     25.8803E-03
            3484             603     23.1087E-03     22.6434E-03
            5847             603     23.1087E-03     22.6434E-03
            5848             603     23.1087E-03     22.6434E-03
            3483             603     23.1087E-03     22.6434E-03
            3465             604     22.6835E-03     24.4691E-03
            3483             604     22.6835E-03     24.4691E-03
            3465             605     21.8592E-03     24.1311E-03
            3447             605     21.8592E-03     24.1311E-03
            3429             606     22.9913E-03     24.3473E-03
            3447             606     22.9913E-03     24.3473E-03
            3411             607     25.1643E-03     27.5108E-03
            3429             607     25.1643E-03     27.5108E-03
            3393             608     29.9198E-03     33.2910E-03
            3411             608     29.9198E-03     33.2910E-03
            5865             692     21.3269E-03     22.3399E-03
            5847             692     21.3269E-03     22.3399E-03
            5883             693     22.2769E-03     23.9768E-03
            5865             693     22.2769E-03     23.9768E-03
            5901             694     18.7565E-03     20.8981E-03
            5883             694     18.7565E-03     20.8981E-03
            5919             695     17.4715E-03     19.2085E-03
            5901             695     17.4715E-03     19.2085E-03
            5919             696     16.8205E-03     18.5107E-03
            5937             696     16.8205E-03     18.5107E-03
            5937             697     16.5167E-03     18.1258E-03
            5955             697     16.5167E-03     18.1258E-03
            5973             698     16.6545E-03     17.9402E-03
            5955             698     16.6545E-03     17.9402E-03
            5973             699     16.7426E-03     18.3594E-03
            5991             699     16.7426E-03     18.3594E-03
            6009             700     17.4976E-03     18.4461E-03
            5991             700     17.4976E-03     18.4461E-03
            6027             701     18.2094E-03     20.2072E-03
            6009             701     18.2094E-03     20.2072E-03
            6027             702     20.4437E-03     22.3849E-03
            6045             702     20.4437E-03     22.3849E-03
            6045             703     20.2547E-03     20.6817E-03
            6063             703     20.2547E-03     20.6817E-03
            6081             704     16.1292E-03     17.3790E-03
            6063             704     16.1292E-03     17.3790E-03
            6099             705     13.7682E-03     14.9482E-03
            6081             705     13.7682E-03     14.9482E-03
            6117             706     12.7229E-03     13.7906E-03
            6099             706     12.7229E-03     13.7906E-03
            6117             707     12.2016E-03     13.1560E-03
            6135             707     12.2016E-03     13.1560E-03
            6153             708     11.9380E-03     12.7499E-03
            6135             708     11.9380E-03     12.7499E-03
            6153             709     11.7847E-03     12.5732E-03
            6171             709     11.7847E-03     12.5732E-03
            6189             710     11.8555E-03     12.4101E-03
            6171             710     11.8555E-03     12.4101E-03
            6207             711     11.8722E-03     12.6657E-03
            6189             711     11.8722E-03     12.6657E-03
            6225             712     12.2348E-03     12.6107E-03
            6207             712     12.2348E-03     12.6107E-03
            6243             713     12.6508E-03     13.6852E-03
            6225             713     12.6508E-03     13.6852E-03
            6243             714     13.5358E-03     15.1139E-03
            6261             714     13.5358E-03     15.1139E-03
            6261             715     12.3203E-03     13.5829E-03
            6279             715     12.3203E-03     13.5829E-03
            6279             716     9.69185E-03     10.6876E-03
            6297             716     9.69185E-03     10.6876E-03
            6297             717     8.58113E-03     8.87046E-03
            6315             717     8.58113E-03     8.87046E-03
            6333             718     7.73401E-03     8.14149E-03
            6315             718     7.73401E-03     8.14149E-03
            6333             719     7.46410E-03     7.60152E-03
            6351             719     7.46410E-03     7.60152E-03
            6351             720     7.16612E-03     7.30728E-03
            6369             720     7.16612E-03     7.30728E-03
            6369             721     7.12070E-03     7.05298E-03
            6387             721     7.12070E-03     7.05298E-03
            6405             722     7.02989E-03     7.09265E-03
            6387             722     7.02989E-03     7.09265E-03
            6423             723     7.09573E-03     6.96781E-03
            6405             723     7.09573E-03     6.96781E-03
            6423             724     7.33987E-03     7.43214E-03
            6441             724     7.33987E-03     7.43214E-03
            6459             725     7.04631E-03     8.39976E-03
            6441             725     7.04631E-03     8.39976E-03
            6477             726     5.14214E-03     7.26711E-03
            6459             726     5.14214E-03     7.26711E-03
            6495             727     3.89596E-03     4.90476E-03
            6477             727     3.89596E-03     4.90476E-03
            6495             728     3.88448E-03     3.14964E-03
            6513             728     3.88448E-03     3.14964E-03
            6531             729     3.58599E-03     2.96061E-03
            6513             729     3.58599E-03     2.96061E-03
            6531             730     2.98311E-03     3.92050E-03
            6549             730     2.98311E-03     3.92050E-03
            5067             748     1.22697E-03     1.68751E-03
            6550             748     1.22697E-03     1.68751E-03
            6549             748     1.22697E-03     1.68751E-03
            5068             748     1.22697E-03     1.68751E-03
            5068             749     1.25566E-03     881.843E-06
            6551             749     1.25566E-03     881.843E-06
            6550             749     1.25566E-03     881.843E-06
            5069             749     1.25566E-03     881.843E-06
            6551             750     1.41780E-03     741.025E-06
            6552             750     1.41780E-03     741.025E-06
            5070             750     1.41780E-03     741.025E-06
            5069             750     1.41780E-03     741.025E-06
            6553             751     1.54905E-03     782.859E-06
            5071             751     1.54905E-03     782.859E-06
            5070             751     1.54905E-03     782.859E-06
            6552             751     1.54905E-03     782.859E-06
            5072             752     1.64835E-03     848.678E-06
            6553             752     1.64835E-03     848.678E-06
            5071             752     1.64835E-03     848.678E-06
            6554             752     1.64835E-03     848.678E-06
            5072             753     1.74825E-03     939.278E-06
            6554             753     1.74825E-03     939.278E-06
            5073             753     1.74825E-03     939.278E-06
            6555             753     1.74825E-03     939.278E-06
            5073             754     1.84864E-03     1.03732E-03
            6556             754     1.84864E-03     1.03732E-03
            6555             754     1.84864E-03     1.03732E-03
            5074             754     1.84864E-03     1.03732E-03
            6556             755     1.95228E-03     1.13718E-03
            6557             755     1.95228E-03     1.13718E-03
            5074             755     1.95228E-03     1.13718E-03
            5075             755     1.95228E-03     1.13718E-03
            6558             756     2.05465E-03     1.24240E-03
            5075             756     2.05465E-03     1.24240E-03
            6557             756     2.05465E-03     1.24240E-03
            5076             756     2.05465E-03     1.24240E-03
            5076             757     2.16036E-03     1.34457E-03
            6558             757     2.16036E-03     1.34457E-03
            6559             757     2.16036E-03     1.34457E-03
            5077             757     2.16036E-03     1.34457E-03
            5077             758     2.26372E-03     1.45268E-03
            5078             758     2.26372E-03     1.45268E-03
            6559             758     2.26372E-03     1.45268E-03
            6560             758     2.26372E-03     1.45268E-03
            5078             759     2.37066E-03     1.55562E-03
            5079             759     2.37066E-03     1.55562E-03
            6560             759     2.37066E-03     1.55562E-03
            6561             759     2.37066E-03     1.55562E-03
            6561             760     2.46981E-03     1.65629E-03
            5079             760     2.46981E-03     1.65629E-03
            6562             760     2.46981E-03     1.65629E-03
            5080             760     2.46981E-03     1.65629E-03
            5080             761     2.55539E-03     1.75173E-03
            5081             761     2.55539E-03     1.75173E-03
            6563             761     2.55539E-03     1.75173E-03
            6562             761     2.55539E-03     1.75173E-03
            5082             762     2.53011E-03     1.75449E-03
            6563             762     2.53011E-03     1.75449E-03
            5081             762     2.53011E-03     1.75449E-03
            6564             762     2.53011E-03     1.75449E-03
            6565             763     2.36193E-03     1.73857E-03
            5083             763     2.36193E-03     1.73857E-03
            5082             763     2.36193E-03     1.73857E-03
            6564             763     2.36193E-03     1.73857E-03
            6566             764     2.63523E-03     2.76518E-03
            6565             764     2.63523E-03     2.76518E-03
            5084             764     2.63523E-03     2.76518E-03
            5083             764     2.63523E-03     2.76518E-03
            5084             765     572.569E-06     602.467E-06
            5102             765     572.569E-06     602.467E-06
            5120             766     426.628E-06     421.158E-06
            5102             766     426.628E-06     421.158E-06
            5120             767     277.204E-06     279.645E-06
            5138             767     277.204E-06     279.645E-06
            5156             768     154.056E-06     137.597E-06
            5138             768     154.056E-06     137.597E-06
            5174             769     96.2626E-06     150.545E-06
            5156             769     96.2626E-06     150.545E-06
            5173             770     161.242E-06     181.783E-06
            5174             770     161.242E-06     181.783E-06
            5172             771     235.216E-06     185.307E-06
            5173             771     235.216E-06     185.307E-06
            5172             772     294.836E-06     251.946E-06
            5171             772     294.836E-06     251.946E-06
            5170             773     332.530E-06     291.313E-06
            5171             773     332.530E-06     291.313E-06
            5169             774     345.131E-06     308.487E-06
            5170             774     345.131E-06     308.487E-06
            5168             775     351.126E-06     315.333E-06
            5169             775     351.126E-06     315.333E-06
            5168             776     348.597E-06     315.617E-06
            5167             776     348.597E-06     315.617E-06
            5167             777     345.677E-06     314.653E-06
            5166             777     345.677E-06     314.653E-06
            5166             778     340.329E-06     311.607E-06
            5165             778     340.329E-06     311.607E-06
            5164             779     335.491E-06     309.228E-06
            5165             779     335.491E-06     309.228E-06
            5163             780     330.098E-06     306.332E-06
            5164             780     330.098E-06     306.332E-06
            5162             781     325.100E-06     304.446E-06
            5163             781     325.100E-06     304.446E-06
            5162             782     320.426E-06     302.338E-06
            5161             782     320.426E-06     302.338E-06
            5161             783     315.566E-06     301.527E-06
            5160             783     315.566E-06     301.527E-06
            5159             784     310.642E-06     300.804E-06
            5160             784     310.642E-06     300.804E-06
            5159             785     304.738E-06     303.698E-06
            5158             785     304.738E-06     303.698E-06
            5157             786     284.429E-06     317.194E-06
            5158             786     284.429E-06     317.194E-06
            5157             787     290.143E-06     312.655E-06
            5139             787     290.143E-06     312.655E-06
            5121             788     305.308E-06     279.228E-06
            5139             788     305.308E-06     279.228E-06
            5103             789     293.707E-06     258.452E-06
            5121             789     293.707E-06     258.452E-06
            5085             790     286.352E-06     258.619E-06
            5103             790     286.352E-06     258.619E-06
            5085             791     254.996E-06     269.744E-06
            5067             791     254.996E-06     269.744E-06
             876            1518     7.05142E-03     7.18047E-03
             858            1518     7.05142E-03     7.18047E-03
             875            1518     7.05142E-03     7.18047E-03
             857            1518     7.05142E-03     7.18047E-03
             876            1519     8.06769E-03     8.19760E-03
             877            1519     8.06769E-03     8.19760E-03
             859            1519     8.06769E-03     8.19760E-03
             858            1519     8.06769E-03     8.19760E-03
             878            1520     8.63064E-03     8.68734E-03
             877            1520     8.63064E-03     8.68734E-03
             859            1520     8.63064E-03     8.68734E-03
             860            1520     8.63064E-03     8.68734E-03
             879            1521     9.06311E-03     9.08108E-03
             860            1521     9.06311E-03     9.08108E-03
             878            1521     9.06311E-03     9.08108E-03
             861            1521     9.06311E-03     9.08108E-03
             879            1522     9.32507E-03     9.31596E-03
             862            1522     9.32507E-03     9.31596E-03
             861            1522     9.32507E-03     9.31596E-03
             880            1522     9.32507E-03     9.31596E-03
             880            1523     9.51174E-03     9.47362E-03
             863            1523     9.51174E-03     9.47362E-03
             881            1523     9.51174E-03     9.47362E-03
             862            1523     9.51174E-03     9.47362E-03
             882            1524     9.63885E-03     9.57180E-03
             881            1524     9.63885E-03     9.57180E-03
             864            1524     9.63885E-03     9.57180E-03
             863            1524     9.63885E-03     9.57180E-03
             864            1525     9.74083E-03     9.64572E-03
             865            1525     9.74083E-03     9.64572E-03
             883            1525     9.74083E-03     9.64572E-03
             882            1525     9.74083E-03     9.64572E-03
             866            1526     9.82551E-03     9.70036E-03
             865            1526     9.82551E-03     9.70036E-03
             884            1526     9.82551E-03     9.70036E-03
             883            1526     9.82551E-03     9.70036E-03
             866            1527     9.89337E-03     9.73960E-03
             867            1527     9.89337E-03     9.73960E-03
             884            1527     9.89337E-03     9.73960E-03
             885            1527     9.89337E-03     9.73960E-03
             867            1528     9.93419E-03     9.75093E-03
             886            1528     9.93419E-03     9.75093E-03
             885            1528     9.93419E-03     9.75093E-03
             868            1528     9.93419E-03     9.75093E-03
             868            1529     9.92876E-03     9.71269E-03
             887            1529     9.92876E-03     9.71269E-03
             869            1529     9.92876E-03     9.71269E-03
             886            1529     9.92876E-03     9.71269E-03
             887            1530     9.81643E-03     9.57299E-03
             888            1530     9.81643E-03     9.57299E-03
             869            1530     9.81643E-03     9.57299E-03
             870            1530     9.81643E-03     9.57299E-03
             889            1531     9.53791E-03     9.25159E-03
             870            1531     9.53791E-03     9.25159E-03
             871            1531     9.53791E-03     9.25159E-03
             888            1531     9.53791E-03     9.25159E-03
             890            1532     8.92886E-03     8.59597E-03
             871            1532     8.92886E-03     8.59597E-03
             889            1532     8.92886E-03     8.59597E-03
             872            1532     8.92886E-03     8.59597E-03
             873            1533     7.86990E-03     7.47992E-03
             891            1533     7.86990E-03     7.47992E-03
             872            1533     7.86990E-03     7.47992E-03
             890            1533     7.86990E-03     7.47992E-03
             892            1534     5.38131E-03     5.45525E-03
             874            1534     5.38131E-03     5.45525E-03
             891            1534     5.38131E-03     5.45525E-03
             873            1534     5.38131E-03     5.45525E-03
             875            1535     6.44635E-03     6.38644E-03
             876            1535     6.44635E-03     6.38644E-03
             894            1535     6.44635E-03     6.38644E-03
             893            1535     6.44635E-03     6.38644E-03
             876            1536     8.06442E-03     8.13442E-03
             894            1536     8.06442E-03     8.13442E-03
             895            1536     8.06442E-03     8.13442E-03
             877            1536     8.06442E-03     8.13442E-03
             896            1537     8.80587E-03     8.86712E-03
             877            1537     8.80587E-03     8.86712E-03
             895            1537     8.80587E-03     8.86712E-03
             878            1537     8.80587E-03     8.86712E-03
             897            1538     9.15099E-03     9.17531E-03
             878            1538     9.15099E-03     9.17531E-03
             896            1538     9.15099E-03     9.17531E-03
             879            1538     9.15099E-03     9.17531E-03
             898            1539     9.33390E-03     9.34082E-03
             897            1539     9.33390E-03     9.34082E-03
             879            1539     9.33390E-03     9.34082E-03
             880            1539     9.33390E-03     9.34082E-03
             881            1540     9.42024E-03     9.40423E-03
             899            1540     9.42024E-03     9.40423E-03
             898            1540     9.42024E-03     9.40423E-03
             880            1540     9.42024E-03     9.40423E-03
             899            1541     9.49229E-03     9.45876E-03
             881            1541     9.49229E-03     9.45876E-03
             882            1541     9.49229E-03     9.45876E-03
             900            1541     9.49229E-03     9.45876E-03
             900            1542     9.56426E-03     9.51225E-03
             883            1542     9.56426E-03     9.51225E-03
             882            1542     9.56426E-03     9.51225E-03
             901            1542     9.56426E-03     9.51225E-03
             884            1543     9.64851E-03     9.58009E-03
             902            1543     9.64851E-03     9.58009E-03
             883            1543     9.64851E-03     9.58009E-03
             901            1543     9.64851E-03     9.58009E-03
             903            1544     9.74663E-03     9.65986E-03
             902            1544     9.74663E-03     9.65986E-03
             885            1544     9.74663E-03     9.65986E-03
             884            1544     9.74663E-03     9.65986E-03
             904            1545     9.85486E-03     9.75101E-03
             885            1545     9.85486E-03     9.75101E-03
             886            1545     9.85486E-03     9.75101E-03
             903            1545     9.85486E-03     9.75101E-03
             905            1546     9.95229E-03     9.82967E-03
             886            1546     9.95229E-03     9.82967E-03
             887            1546     9.95229E-03     9.82967E-03
             904            1546     9.95229E-03     9.82967E-03
             887            1547     10.0152E-03     9.87281E-03
             905            1547     10.0152E-03     9.87281E-03
             906            1547     10.0152E-03     9.87281E-03
             888            1547     10.0152E-03     9.87281E-03
             889            1548     9.89788E-03     9.76028E-03
             906            1548     9.89788E-03     9.76028E-03
             907            1548     9.89788E-03     9.76028E-03
             888            1548     9.89788E-03     9.76028E-03
             890            1549     9.47943E-03     9.33272E-03
             908            1549     9.47943E-03     9.33272E-03
             889            1549     9.47943E-03     9.33272E-03
             907            1549     9.47943E-03     9.33272E-03
             909            1550     8.19991E-03     8.19709E-03
             890            1550     8.19991E-03     8.19709E-03
             891            1550     8.19991E-03     8.19709E-03
             908            1550     8.19991E-03     8.19709E-03
             910            1551     5.46610E-03     5.68985E-03
             891            1551     5.46610E-03     5.68985E-03
             909            1551     5.46610E-03     5.68985E-03
             892            1551     5.46610E-03     5.68985E-03
             893            1552     6.27565E-03     5.95432E-03
             894            1552     6.27565E-03     5.95432E-03
             912            1552     6.27565E-03     5.95432E-03
             911            1552     6.27565E-03     5.95432E-03
             894            1553     7.96516E-03     7.81126E-03
             912            1553     7.96516E-03     7.81126E-03
             913            1553     7.96516E-03     7.81126E-03
             895            1553     7.96516E-03     7.81126E-03
             914            1554     8.86900E-03     8.85626E-03
             896            1554     8.86900E-03     8.85626E-03
             895            1554     8.86900E-03     8.85626E-03
             913            1554     8.86900E-03     8.85626E-03
             915            1555     9.21918E-03     9.23448E-03
             914            1555     9.21918E-03     9.23448E-03
             896            1555     9.21918E-03     9.23448E-03
             897            1555     9.21918E-03     9.23448E-03
             898            1556     9.30760E-03     9.31555E-03
             897            1556     9.30760E-03     9.31555E-03
             915            1556     9.30760E-03     9.31555E-03
             916            1556     9.30760E-03     9.31555E-03
             898            1557     9.33221E-03     9.33591E-03
             899            1557     9.33221E-03     9.33591E-03
             916            1557     9.33221E-03     9.33591E-03
             917            1557     9.33221E-03     9.33591E-03
             899            1558     9.35426E-03     9.35182E-03
             900            1558     9.35426E-03     9.35182E-03
             918            1558     9.35426E-03     9.35182E-03
             917            1558     9.35426E-03     9.35182E-03
             901            1559     9.40148E-03     9.39567E-03
             900            1559     9.40148E-03     9.39567E-03
             918            1559     9.40148E-03     9.39567E-03
             919            1559     9.40148E-03     9.39567E-03
             902            1560     9.48479E-03     9.47474E-03
             901            1560     9.48479E-03     9.47474E-03
             919            1560     9.48479E-03     9.47474E-03
             920            1560     9.48479E-03     9.47474E-03
             903            1561     9.60375E-03     9.59088E-03
             921            1561     9.60375E-03     9.59088E-03
             902            1561     9.60375E-03     9.59088E-03
             920            1561     9.60375E-03     9.59088E-03
             903            1562     9.75859E-03     9.74060E-03
             921            1562     9.75859E-03     9.74060E-03
             922            1562     9.75859E-03     9.74060E-03
             904            1562     9.75859E-03     9.74060E-03
             922            1563     9.93811E-03     9.91815E-03
             923            1563     9.93811E-03     9.91815E-03
             905            1563     9.93811E-03     9.91815E-03
             904            1563     9.93811E-03     9.91815E-03
             906            1564     10.0955E-03     10.0771E-03
             924            1564     10.0955E-03     10.0771E-03
             923            1564     10.0955E-03     10.0771E-03
             905            1564     10.0955E-03     10.0771E-03
             907            1565     10.1599E-03     10.1523E-03
             925            1565     10.1599E-03     10.1523E-03
             906            1565     10.1599E-03     10.1523E-03
             924            1565     10.1599E-03     10.1523E-03
             926            1566     9.77139E-03     9.88544E-03
             908            1566     9.77139E-03     9.88544E-03
             925            1566     9.77139E-03     9.88544E-03
             907            1566     9.77139E-03     9.88544E-03
             908            1567     8.52387E-03     8.78771E-03
             926            1567     8.52387E-03     8.78771E-03
             909            1567     8.52387E-03     8.78771E-03
             927            1567     8.52387E-03     8.78771E-03
             909            1568     6.58812E-03     6.72877E-03
             927            1568     6.58812E-03     6.72877E-03
             928            1568     6.58812E-03     6.72877E-03
             910            1568     6.58812E-03     6.72877E-03
             912            1569     6.54799E-03     6.20536E-03
             911            1569     6.54799E-03     6.20536E-03
             930            1569     6.54799E-03     6.20536E-03
             929            1569     6.54799E-03     6.20536E-03
             912            1570     8.05802E-03     7.86215E-03
             930            1570     8.05802E-03     7.86215E-03
             913            1570     8.05802E-03     7.86215E-03
             931            1570     8.05802E-03     7.86215E-03
             932            1571     8.87976E-03     8.80756E-03
             931            1571     8.87976E-03     8.80756E-03
             914            1571     8.87976E-03     8.80756E-03
             913            1571     8.87976E-03     8.80756E-03
             932            1572     9.13147E-03     9.12035E-03
             915            1572     9.13147E-03     9.12035E-03
             933            1572     9.13147E-03     9.12035E-03
             914            1572     9.13147E-03     9.12035E-03
             933            1573     9.17209E-03     9.17988E-03
             916            1573     9.17209E-03     9.17988E-03
             934            1573     9.17209E-03     9.17988E-03
             915            1573     9.17209E-03     9.17988E-03
             917            1574     9.17034E-03     9.18988E-03
             934            1574     9.17034E-03     9.18988E-03
             916            1574     9.17034E-03     9.18988E-03
             935            1574     9.17034E-03     9.18988E-03
             935            1575     9.17102E-03     9.20167E-03
             918            1575     9.17102E-03     9.20167E-03
             917            1575     9.17102E-03     9.20167E-03
             936            1575     9.17102E-03     9.20167E-03
             936            1576     9.21140E-03     9.25199E-03
             919            1576     9.21140E-03     9.25199E-03
             918            1576     9.21140E-03     9.25199E-03
             937            1576     9.21140E-03     9.25199E-03
             919            1577     9.29108E-03     9.34236E-03
             938            1577     9.29108E-03     9.34236E-03
             920            1577     9.29108E-03     9.34236E-03
             937            1577     9.29108E-03     9.34236E-03
             920            1578     9.41869E-03     9.47942E-03
             921            1578     9.41869E-03     9.47942E-03
             939            1578     9.41869E-03     9.47942E-03
             938            1578     9.41869E-03     9.47942E-03
             939            1579     9.58574E-03     9.65827E-03
             922            1579     9.58574E-03     9.65827E-03
             940            1579     9.58574E-03     9.65827E-03
             921            1579     9.58574E-03     9.65827E-03
             922            1580     9.79246E-03     9.87271E-03
             941            1580     9.79246E-03     9.87271E-03
             940            1580     9.79246E-03     9.87271E-03
             923            1580     9.79246E-03     9.87271E-03
             923            1581     9.99660E-03     10.0979E-03
             924            1581     9.99660E-03     10.0979E-03
             942            1581     9.99660E-03     10.0979E-03
             941            1581     9.99660E-03     10.0979E-03
             943            1582     10.1420E-03     10.2602E-03
             924            1582     10.1420E-03     10.2602E-03
             925            1582     10.1420E-03     10.2602E-03
             942            1582     10.1420E-03     10.2602E-03
             926            1583     10.0441E-03     10.2286E-03
             925            1583     10.0441E-03     10.2286E-03
             944            1583     10.0441E-03     10.2286E-03
             943            1583     10.0441E-03     10.2286E-03
             944            1584     9.37992E-03     9.62921E-03
             945            1584     9.37992E-03     9.62921E-03
             926            1584     9.37992E-03     9.62921E-03
             927            1584     9.37992E-03     9.62921E-03
             928            1585     8.21612E-03     8.48434E-03
             945            1585     8.21612E-03     8.48434E-03
             946            1585     8.21612E-03     8.48434E-03
             927            1585     8.21612E-03     8.48434E-03
             948            1586     7.36019E-03     7.14303E-03
             947            1586     7.36019E-03     7.14303E-03
             929            1586     7.36019E-03     7.14303E-03
             930            1586     7.36019E-03     7.14303E-03
             949            1587     8.41380E-03     8.27148E-03
             931            1587     8.41380E-03     8.27148E-03
             930            1587     8.41380E-03     8.27148E-03
             948            1587     8.41380E-03     8.27148E-03
             949            1588     8.74465E-03     8.65875E-03
             932            1588     8.74465E-03     8.65875E-03
             950            1588     8.74465E-03     8.65875E-03
             931            1588     8.74465E-03     8.65875E-03
             950            1589     8.85517E-03     8.81691E-03
             933            1589     8.85517E-03     8.81691E-03
             932            1589     8.85517E-03     8.81691E-03
             951            1589     8.85517E-03     8.81691E-03
             934            1590     8.90536E-03     8.91326E-03
             952            1590     8.90536E-03     8.91326E-03
             933            1590     8.90536E-03     8.91326E-03
             951            1590     8.90536E-03     8.91326E-03
             935            1591     8.90416E-03     8.94164E-03
             952            1591     8.90416E-03     8.94164E-03
             934            1591     8.90416E-03     8.94164E-03
             953            1591     8.90416E-03     8.94164E-03
             936            1592     8.92560E-03     8.99018E-03
             954            1592     8.92560E-03     8.99018E-03
             935            1592     8.92560E-03     8.99018E-03
             953            1592     8.92560E-03     8.99018E-03
             937            1593     8.96925E-03     9.05778E-03
             954            1593     8.96925E-03     9.05778E-03
             955            1593     8.96925E-03     9.05778E-03
             936            1593     8.96925E-03     9.05778E-03
             956            1594     9.05247E-03     9.16525E-03
             955            1594     9.05247E-03     9.16525E-03
             938            1594     9.05247E-03     9.16525E-03
             937            1594     9.05247E-03     9.16525E-03
             938            1595     9.17048E-03     9.30563E-03
             957            1595     9.17048E-03     9.30563E-03
             939            1595     9.17048E-03     9.30563E-03
             956            1595     9.17048E-03     9.30563E-03
             939            1596     9.32734E-03     9.48580E-03
             957            1596     9.32734E-03     9.48580E-03
             958            1596     9.32734E-03     9.48580E-03
             940            1596     9.32734E-03     9.48580E-03
             941            1597     9.50392E-03     9.68739E-03
             940            1597     9.50392E-03     9.68739E-03
             959            1597     9.50392E-03     9.68739E-03
             958            1597     9.50392E-03     9.68739E-03
             941            1598     9.70944E-03     9.91284E-03
             959            1598     9.70944E-03     9.91284E-03
             960            1598     9.70944E-03     9.91284E-03
             942            1598     9.70944E-03     9.91284E-03
             942            1599     9.86545E-03     10.1094E-03
             960            1599     9.86545E-03     10.1094E-03
             943            1599     9.86545E-03     10.1094E-03
             961            1599     9.86545E-03     10.1094E-03
             943            1600     10.0693E-03     10.2712E-03
             944            1600     10.0693E-03     10.2712E-03
             962            1600     10.0693E-03     10.2712E-03
             961            1600     10.0693E-03     10.2712E-03
             945            1601     10.3320E-03     10.4901E-03
             963            1601     10.3320E-03     10.4901E-03
             962            1601     10.3320E-03     10.4901E-03
             944            1601     10.3320E-03     10.4901E-03
             946            1602     10.3232E-03     10.3816E-03
             963            1602     10.3232E-03     10.3816E-03
             964            1602     10.3232E-03     10.3816E-03
             945            1602     10.3232E-03     10.3816E-03
             948            1603     8.67187E-03     8.40258E-03
             966            1603     8.67187E-03     8.40258E-03
             965            1603     8.67187E-03     8.40258E-03
             947            1603     8.67187E-03     8.40258E-03
             948            1604     8.46477E-03     8.26023E-03
             949            1604     8.46477E-03     8.26023E-03
             967            1604     8.46477E-03     8.26023E-03
             966            1604     8.46477E-03     8.26023E-03
             950            1605     8.35583E-03     8.23245E-03
             968            1605     8.35583E-03     8.23245E-03
             967            1605     8.35583E-03     8.23245E-03
             949            1605     8.35583E-03     8.23245E-03
             950            1606     8.46616E-03     8.41236E-03
             968            1606     8.46616E-03     8.41236E-03
             951            1606     8.46616E-03     8.41236E-03
             969            1606     8.46616E-03     8.41236E-03
             970            1607     8.52008E-03     8.52730E-03
             952            1607     8.52008E-03     8.52730E-03
             969            1607     8.52008E-03     8.52730E-03
             951            1607     8.52008E-03     8.52730E-03
             953            1608     8.57686E-03     8.63415E-03
             971            1608     8.57686E-03     8.63415E-03
             970            1608     8.57686E-03     8.63415E-03
             952            1608     8.57686E-03     8.63415E-03
             954            1609     8.62298E-03     8.72122E-03
             972            1609     8.62298E-03     8.72122E-03
             971            1609     8.62298E-03     8.72122E-03
             953            1609     8.62298E-03     8.72122E-03
             955            1610     8.68601E-03     8.82458E-03
             972            1610     8.68601E-03     8.82458E-03
             954            1610     8.68601E-03     8.82458E-03
             973            1610     8.68601E-03     8.82458E-03
             973            1611     8.76990E-03     8.94299E-03
             956            1611     8.76990E-03     8.94299E-03
             974            1611     8.76990E-03     8.94299E-03
             955            1611     8.76990E-03     8.94299E-03
             975            1612     8.87759E-03     9.08828E-03
             974            1612     8.87759E-03     9.08828E-03
             956            1612     8.87759E-03     9.08828E-03
             957            1612     8.87759E-03     9.08828E-03
             957            1613     9.00382E-03     9.24678E-03
             975            1613     9.00382E-03     9.24678E-03
             976            1613     9.00382E-03     9.24678E-03
             958            1613     9.00382E-03     9.24678E-03
             976            1614     9.14629E-03     9.42648E-03
             959            1614     9.14629E-03     9.42648E-03
             958            1614     9.14629E-03     9.42648E-03
             977            1614     9.14629E-03     9.42648E-03
             959            1615     9.27970E-03     9.59541E-03
             960            1615     9.27970E-03     9.59541E-03
             977            1615     9.27970E-03     9.59541E-03
             978            1615     9.27970E-03     9.59541E-03
             960            1616     9.45685E-03     9.80304E-03
             979            1616     9.45685E-03     9.80304E-03
             978            1616     9.45685E-03     9.80304E-03
             961            1616     9.45685E-03     9.80304E-03
             979            1617     9.66529E-03     10.0476E-03
             980            1617     9.66529E-03     10.0476E-03
             962            1617     9.66529E-03     10.0476E-03
             961            1617     9.66529E-03     10.0476E-03
             963            1618     10.3994E-03     10.7466E-03
             981            1618     10.3994E-03     10.7466E-03
             962            1618     10.3994E-03     10.7466E-03
             980            1618     10.3994E-03     10.7466E-03
             964            1619     11.9228E-03     12.2743E-03
             963            1619     11.9228E-03     12.2743E-03
             981            1619     11.9228E-03     12.2743E-03
             982            1619     11.9228E-03     12.2743E-03
             966            1620     8.79839E-03     9.22341E-03
             984            1620     8.79839E-03     9.22341E-03
             965            1620     8.79839E-03     9.22341E-03
             983            1620     8.79839E-03     9.22341E-03
             966            1621     9.02643E-03     9.14452E-03
             985            1621     9.02643E-03     9.14452E-03
             967            1621     9.02643E-03     9.14452E-03
             984            1621     9.02643E-03     9.14452E-03
             967            1622     9.36290E-03     9.38502E-03
             985            1622     9.36290E-03     9.38502E-03
             968            1622     9.36290E-03     9.38502E-03
             986            1622     9.36290E-03     9.38502E-03
             969            1623     9.77053E-03     9.77519E-03
             968            1623     9.77053E-03     9.77519E-03
             987            1623     9.77053E-03     9.77519E-03
             986            1623     9.77053E-03     9.77519E-03
             988            1624     10.0893E-03     10.0783E-03
             970            1624     10.0893E-03     10.0783E-03
             969            1624     10.0893E-03     10.0783E-03
             987            1624     10.0893E-03     10.0783E-03
             989            1625     10.4002E-03     10.3869E-03
             988            1625     10.4002E-03     10.3869E-03
             970            1625     10.4002E-03     10.3869E-03
             971            1625     10.4002E-03     10.3869E-03
             972            1626     10.6830E-03     10.6649E-03
             989            1626     10.6830E-03     10.6649E-03
             990            1626     10.6830E-03     10.6649E-03
             971            1626     10.6830E-03     10.6649E-03
             972            1627     10.9634E-03     10.9408E-03
             973            1627     10.9634E-03     10.9408E-03
             990            1627     10.9634E-03     10.9408E-03
             991            1627     10.9634E-03     10.9408E-03
             974            1628     11.2385E-03     11.2093E-03
             991            1628     11.2385E-03     11.2093E-03
             992            1628     11.2385E-03     11.2093E-03
             973            1628     11.2385E-03     11.2093E-03
             975            1629     11.5022E-03     11.4632E-03
             974            1629     11.5022E-03     11.4632E-03
             992            1629     11.5022E-03     11.4632E-03
             993            1629     11.5022E-03     11.4632E-03
             994            1630     11.7352E-03     11.6827E-03
             975            1630     11.7352E-03     11.6827E-03
             976            1630     11.7352E-03     11.6827E-03
             993            1630     11.7352E-03     11.6827E-03
             995            1631     11.9248E-03     11.8497E-03
             977            1631     11.9248E-03     11.8497E-03
             994            1631     11.9248E-03     11.8497E-03
             976            1631     11.9248E-03     11.8497E-03
             995            1632     12.0153E-03     11.9145E-03
             978            1632     12.0153E-03     11.9145E-03
             996            1632     12.0153E-03     11.9145E-03
             977            1632     12.0153E-03     11.9145E-03
             997            1633     12.0332E-03     11.8789E-03
             979            1633     12.0332E-03     11.8789E-03
             996            1633     12.0332E-03     11.8789E-03
             978            1633     12.0332E-03     11.8789E-03
             997            1634     11.8708E-03     11.6772E-03
             998            1634     11.8708E-03     11.6772E-03
             980            1634     11.8708E-03     11.6772E-03
             979            1634     11.8708E-03     11.6772E-03
             980            1635     11.7140E-03     11.4369E-03
             981            1635     11.7140E-03     11.4369E-03
             999            1635     11.7140E-03     11.4369E-03
             998            1635     11.7140E-03     11.4369E-03
             982            1636     11.4349E-03     11.3339E-03
            1000            1636     11.4349E-03     11.3339E-03
             999            1636     11.4349E-03     11.3339E-03
             981            1636     11.4349E-03     11.3339E-03
             983            1637     8.50915E-03     9.42802E-03
             984            1637     8.50915E-03     9.42802E-03
            1002            1637     8.50915E-03     9.42802E-03
            1001            1637     8.50915E-03     9.42802E-03
            1002            1638     9.70177E-03     10.3411E-03
             985            1638     9.70177E-03     10.3411E-03
            1003            1638     9.70177E-03     10.3411E-03
             984            1638     9.70177E-03     10.3411E-03
            1003            1639     10.4933E-03     10.7817E-03
             986            1639     10.4933E-03     10.7817E-03
            1004            1639     10.4933E-03     10.7817E-03
             985            1639     10.4933E-03     10.7817E-03
             987            1640     11.1011E-03     11.2224E-03
             986            1640     11.1011E-03     11.2224E-03
            1005            1640     11.1011E-03     11.2224E-03
            1004            1640     11.1011E-03     11.2224E-03
             988            1641     11.6238E-03     11.6381E-03
             987            1641     11.6238E-03     11.6381E-03
            1005            1641     11.6238E-03     11.6381E-03
            1006            1641     11.6238E-03     11.6381E-03
            1007            1642     12.1333E-03     12.0666E-03
             989            1642     12.1333E-03     12.0666E-03
            1006            1642     12.1333E-03     12.0666E-03
             988            1642     12.1333E-03     12.0666E-03
             990            1643     12.6408E-03     12.5145E-03
            1007            1643     12.6408E-03     12.5145E-03
            1008            1643     12.6408E-03     12.5145E-03
             989            1643     12.6408E-03     12.5145E-03
             991            1644     13.1658E-03     12.9816E-03
            1009            1644     13.1658E-03     12.9816E-03
            1008            1644     13.1658E-03     12.9816E-03
             990            1644     13.1658E-03     12.9816E-03
             991            1645     13.6912E-03     13.4564E-03
             992            1645     13.6912E-03     13.4564E-03
            1010            1645     13.6912E-03     13.4564E-03
            1009            1645     13.6912E-03     13.4564E-03
             992            1646     14.2073E-03     13.9159E-03
            1011            1646     14.2073E-03     13.9159E-03
             993            1646     14.2073E-03     13.9159E-03
            1010            1646     14.2073E-03     13.9159E-03
            1011            1647     14.6779E-03     14.3310E-03
             994            1647     14.6779E-03     14.3310E-03
            1012            1647     14.6779E-03     14.3310E-03
             993            1647     14.6779E-03     14.3310E-03
             994            1648     15.0644E-03     14.6511E-03
            1012            1648     15.0644E-03     14.6511E-03
             995            1648     15.0644E-03     14.6511E-03
            1013            1648     15.0644E-03     14.6511E-03
            1013            1649     15.3076E-03     14.8213E-03
             996            1649     15.3076E-03     14.8213E-03
            1014            1649     15.3076E-03     14.8213E-03
             995            1649     15.3076E-03     14.8213E-03
             996            1650     15.3150E-03     14.7490E-03
            1015            1650     15.3150E-03     14.7490E-03
            1014            1650     15.3150E-03     14.7490E-03
             997            1650     15.3150E-03     14.7490E-03
            1015            1651     14.9589E-03     14.3034E-03
             997            1651     14.9589E-03     14.3034E-03
            1016            1651     14.9589E-03     14.3034E-03
             998            1651     14.9589E-03     14.3034E-03
             998            1652     13.9366E-03     13.2455E-03
            1017            1652     13.9366E-03     13.2455E-03
            1016            1652     13.9366E-03     13.2455E-03
             999            1652     13.9366E-03     13.2455E-03
             999            1653     11.5011E-03     10.9131E-03
            1018            1653     11.5011E-03     10.9131E-03
            1017            1653     11.5011E-03     10.9131E-03
            1000            1653     11.5011E-03     10.9131E-03
            1002            1654     8.77181E-03     8.84732E-03
            1019            1654     8.77181E-03     8.84732E-03
            1001            1654     8.77181E-03     8.84732E-03
            1020            1654     8.77181E-03     8.84732E-03
            1020            1655     9.71180E-03     10.1294E-03
            1003            1655     9.71180E-03     10.1294E-03
            1021            1655     9.71180E-03     10.1294E-03
            1002            1655     9.71180E-03     10.1294E-03
            1021            1656     10.3128E-03     10.6513E-03
            1022            1656     10.3128E-03     10.6513E-03
            1003            1656     10.3128E-03     10.6513E-03
            1004            1656     10.3128E-03     10.6513E-03
            1022            1657     10.7994E-03     10.9708E-03
            1005            1657     10.7994E-03     10.9708E-03
            1023            1657     10.7994E-03     10.9708E-03
            1004            1657     10.7994E-03     10.9708E-03
            1006            1658     11.2380E-03     11.3083E-03
            1023            1658     11.2380E-03     11.3083E-03
            1024            1658     11.2380E-03     11.3083E-03
            1005            1658     11.2380E-03     11.3083E-03
            1006            1659     11.7012E-03     11.6880E-03
            1025            1659     11.7012E-03     11.6880E-03
            1007            1659     11.7012E-03     11.6880E-03
            1024            1659     11.7012E-03     11.6880E-03
            1007            1660     12.2244E-03     12.1496E-03
            1025            1660     12.2244E-03     12.1496E-03
            1026            1660     12.2244E-03     12.1496E-03
            1008            1660     12.2244E-03     12.1496E-03
            1026            1661     12.8091E-03     12.6853E-03
            1009            1661     12.8091E-03     12.6853E-03
            1027            1661     12.8091E-03     12.6853E-03
            1008            1661     12.8091E-03     12.6853E-03
            1009            1662     13.4570E-03     13.2901E-03
            1028            1662     13.4570E-03     13.2901E-03
            1027            1662     13.4570E-03     13.2901E-03
            1010            1662     13.4570E-03     13.2901E-03
            1028            1663     14.1368E-03     13.9345E-03
            1029            1663     14.1368E-03     13.9345E-03
            1011            1663     14.1368E-03     13.9345E-03
            1010            1663     14.1368E-03     13.9345E-03
            1030            1664     14.8204E-03     14.5836E-03
            1011            1664     14.8204E-03     14.5836E-03
            1012            1664     14.8204E-03     14.5836E-03
            1029            1664     14.8204E-03     14.5836E-03
            1013            1665     15.4476E-03     15.1861E-03
            1031            1665     15.4476E-03     15.1861E-03
            1012            1665     15.4476E-03     15.1861E-03
            1030            1665     15.4476E-03     15.1861E-03
            1014            1666     15.9480E-03     15.6720E-03
            1032            1666     15.9480E-03     15.6720E-03
            1013            1666     15.9480E-03     15.6720E-03
            1031            1666     15.9480E-03     15.6720E-03
            1014            1667     16.2036E-03     15.9375E-03
            1032            1667     16.2036E-03     15.9375E-03
            1033            1667     16.2036E-03     15.9375E-03
            1015            1667     16.2036E-03     15.9375E-03
            1033            1668     16.0484E-03     15.8520E-03
            1016            1668     16.0484E-03     15.8520E-03
            1034            1668     16.0484E-03     15.8520E-03
            1015            1668     16.0484E-03     15.8520E-03
            1034            1669     15.1089E-03     15.0959E-03
            1035            1669     15.1089E-03     15.0959E-03
            1017            1669     15.1089E-03     15.0959E-03
            1016            1669     15.1089E-03     15.0959E-03
            1035            1670     13.5332E-03     13.6699E-03
            1018            1670     13.5332E-03     13.6699E-03
            1036            1670     13.5332E-03     13.6699E-03
            1017            1670     13.5332E-03     13.6699E-03
            1038            1671     8.69385E-03     8.38377E-03
            1020            1671     8.69385E-03     8.38377E-03
            1019            1671     8.69385E-03     8.38377E-03
            1037            1671     8.69385E-03     8.38377E-03
            1039            1672     9.65650E-03     9.58211E-03
            1038            1672     9.65650E-03     9.58211E-03
            1020            1672     9.65650E-03     9.58211E-03
            1021            1672     9.65650E-03     9.58211E-03
            1040            1673     10.2028E-03     10.3352E-03
            1021            1673     10.2028E-03     10.3352E-03
            1022            1673     10.2028E-03     10.3352E-03
            1039            1673     10.2028E-03     10.3352E-03
            1022            1674     10.6025E-03     10.7321E-03
            1040            1674     10.6025E-03     10.7321E-03
            1041            1674     10.6025E-03     10.7321E-03
            1023            1674     10.6025E-03     10.7321E-03
            1023            1675     10.9909E-03     11.0634E-03
            1024            1675     10.9909E-03     11.0634E-03
            1041            1675     10.9909E-03     11.0634E-03
            1042            1675     10.9909E-03     11.0634E-03
            1043            1676     11.4294E-03     11.4544E-03
            1025            1676     11.4294E-03     11.4544E-03
            1042            1676     11.4294E-03     11.4544E-03
            1024            1676     11.4294E-03     11.4544E-03
            1025            1677     11.9615E-03     11.9421E-03
            1026            1677     11.9615E-03     11.9421E-03
            1044            1677     11.9615E-03     11.9421E-03
            1043            1677     11.9615E-03     11.9421E-03
            1045            1678     12.6067E-03     12.5556E-03
            1026            1678     12.6067E-03     12.5556E-03
            1044            1678     12.6067E-03     12.5556E-03
            1027            1678     12.6067E-03     12.5556E-03
            1028            1679     13.3494E-03     13.2753E-03
            1046            1679     13.3494E-03     13.2753E-03
            1027            1679     13.3494E-03     13.2753E-03
            1045            1679     13.3494E-03     13.2753E-03
            1029            1680     14.1712E-03     14.0813E-03
            1047            1680     14.1712E-03     14.0813E-03
            1028            1680     14.1712E-03     14.0813E-03
            1046            1680     14.1712E-03     14.0813E-03
            1030            1681     15.0180E-03     14.9266E-03
            1029            1681     15.0180E-03     14.9266E-03
            1048            1681     15.0180E-03     14.9266E-03
            1047            1681     15.0180E-03     14.9266E-03
            1031            1682     15.8370E-03     15.7533E-03
            1030            1682     15.8370E-03     15.7533E-03
            1049            1682     15.8370E-03     15.7533E-03
            1048            1682     15.8370E-03     15.7533E-03
            1049            1683     16.5240E-03     16.4784E-03
            1032            1683     16.5240E-03     16.4784E-03
            1050            1683     16.5240E-03     16.4784E-03
            1031            1683     16.5240E-03     16.4784E-03
            1032            1684     16.9658E-03     16.9897E-03
            1051            1684     16.9658E-03     16.9897E-03
            1033            1684     16.9658E-03     16.9897E-03
            1050            1684     16.9658E-03     16.9897E-03
            1051            1685     16.9684E-03     17.1177E-03
            1052            1685     16.9684E-03     17.1177E-03
            1034            1685     16.9684E-03     17.1177E-03
            1033            1685     16.9684E-03     17.1177E-03
            1034            1686     16.4286E-03     16.7031E-03
            1053            1686     16.4286E-03     16.7031E-03
            1052            1686     16.4286E-03     16.7031E-03
            1035            1686     16.4286E-03     16.7031E-03
            1053            1687     15.8302E-03     16.0058E-03
            1035            1687     15.8302E-03     16.0058E-03
            1036            1687     15.8302E-03     16.0058E-03
            1054            1687     15.8302E-03     16.0058E-03
            1038            1688     8.74897E-03     8.33731E-03
            1056            1688     8.74897E-03     8.33731E-03
            1055            1688     8.74897E-03     8.33731E-03
            1037            1688     8.74897E-03     8.33731E-03
            1057            1689     9.48535E-03     9.22267E-03
            1056            1689     9.48535E-03     9.22267E-03
            1039            1689     9.48535E-03     9.22267E-03
            1038            1689     9.48535E-03     9.22267E-03
            1057            1690     10.0434E-03     9.93568E-03
            1058            1690     10.0434E-03     9.93568E-03
            1039            1690     10.0434E-03     9.93568E-03
            1040            1690     10.0434E-03     9.93568E-03
            1041            1691     10.4279E-03     10.4430E-03
            1040            1691     10.4279E-03     10.4430E-03
            1058            1691     10.4279E-03     10.4430E-03
            1059            1691     10.4279E-03     10.4430E-03
            1042            1692     10.7907E-03     10.8337E-03
            1059            1692     10.7907E-03     10.8337E-03
            1060            1692     10.7907E-03     10.8337E-03
            1041            1692     10.7907E-03     10.8337E-03
            1043            1693     11.2176E-03     11.2577E-03
            1060            1693     11.2176E-03     11.2577E-03
            1042            1693     11.2176E-03     11.2577E-03
            1061            1693     11.2176E-03     11.2577E-03
            1044            1694     11.7666E-03     11.8003E-03
            1043            1694     11.7666E-03     11.8003E-03
            1062            1694     11.7666E-03     11.8003E-03
            1061            1694     11.7666E-03     11.8003E-03
            1063            1695     12.4526E-03     12.4786E-03
            1044            1695     12.4526E-03     12.4786E-03
            1045            1695     12.4526E-03     12.4786E-03
            1062            1695     12.4526E-03     12.4786E-03
            1063            1696     13.2730E-03     13.2998E-03
            1045            1696     13.2730E-03     13.2998E-03
            1046            1696     13.2730E-03     13.2998E-03
            1064            1696     13.2730E-03     13.2998E-03
            1046            1697     14.1936E-03     14.2289E-03
            1047            1697     14.1936E-03     14.2289E-03
            1064            1697     14.1936E-03     14.2289E-03
            1065            1697     14.1936E-03     14.2289E-03
            1047            1698     15.1738E-03     15.2269E-03
            1048            1698     15.1738E-03     15.2269E-03
            1065            1698     15.1738E-03     15.2269E-03
            1066            1698     15.1738E-03     15.2269E-03
            1049            1699     16.1321E-03     16.2255E-03
            1048            1699     16.1321E-03     16.2255E-03
            1067            1699     16.1321E-03     16.2255E-03
            1066            1699     16.1321E-03     16.2255E-03
            1049            1700     16.9906E-03     17.1372E-03
            1067            1700     16.9906E-03     17.1372E-03
            1050            1700     16.9906E-03     17.1372E-03
            1068            1700     16.9906E-03     17.1372E-03
            1051            1701     17.6147E-03     17.8478E-03
            1050            1701     17.6147E-03     17.8478E-03
            1068            1701     17.6147E-03     17.8478E-03
            1069            1701     17.6147E-03     17.8478E-03
            1051            1702     17.8952E-03     18.2177E-03
            1052            1702     17.8952E-03     18.2177E-03
            1070            1702     17.8952E-03     18.2177E-03
            1069            1702     17.8952E-03     18.2177E-03
            1052            1703     17.9290E-03     18.2371E-03
            1053            1703     17.9290E-03     18.2371E-03
            1070            1703     17.9290E-03     18.2371E-03
            1071            1703     17.9290E-03     18.2371E-03
            1053            1704     17.9627E-03     18.1748E-03
            1054            1704     17.9627E-03     18.1748E-03
            1072            1704     17.9627E-03     18.1748E-03
            1071            1704     17.9627E-03     18.1748E-03
            1056            1705     8.97411E-03     8.45835E-03
            1073            1705     8.97411E-03     8.45835E-03
            1074            1705     8.97411E-03     8.45835E-03
            1055            1705     8.97411E-03     8.45835E-03
            1056            1706     9.44167E-03     9.06494E-03
            1075            1706     9.44167E-03     9.06494E-03
            1074            1706     9.44167E-03     9.06494E-03
            1057            1706     9.44167E-03     9.06494E-03
            1057            1707     9.87894E-03     9.65538E-03
            1076            1707     9.87894E-03     9.65538E-03
            1058            1707     9.87894E-03     9.65538E-03
            1075            1707     9.87894E-03     9.65538E-03
            1059            1708     10.2428E-03     10.1435E-03
            1076            1708     10.2428E-03     10.1435E-03
            1077            1708     10.2428E-03     10.1435E-03
            1058            1708     10.2428E-03     10.1435E-03
            1078            1709     10.5773E-03     10.5750E-03
            1077            1709     10.5773E-03     10.5750E-03
            1060            1709     10.5773E-03     10.5750E-03
            1059            1709     10.5773E-03     10.5750E-03
            1061            1710     10.9991E-03     11.0469E-03
            1060            1710     10.9991E-03     11.0469E-03
            1078            1710     10.9991E-03     11.0469E-03
            1079            1710     10.9991E-03     11.0469E-03
            1080            1711     11.5518E-03     11.6299E-03
            1079            1711     11.5518E-03     11.6299E-03
            1061            1711     11.5518E-03     11.6299E-03
            1062            1711     11.5518E-03     11.6299E-03
            1063            1712     12.2675E-03     12.3716E-03
            1062            1712     12.2675E-03     12.3716E-03
            1080            1712     12.2675E-03     12.3716E-03
            1081            1712     12.2675E-03     12.3716E-03
            1082            1713     13.1384E-03     13.2652E-03
            1064            1713     13.1384E-03     13.2652E-03
            1081            1713     13.1384E-03     13.2652E-03
            1063            1713     13.1384E-03     13.2652E-03
            1065            1714     14.1347E-03     14.2903E-03
            1064            1714     14.1347E-03     14.2903E-03
            1083            1714     14.1347E-03     14.2903E-03
            1082            1714     14.1347E-03     14.2903E-03
            1065            1715     15.2075E-03     15.3993E-03
            1083            1715     15.2075E-03     15.3993E-03
            1084            1715     15.2075E-03     15.3993E-03
            1066            1715     15.2075E-03     15.3993E-03
            1084            1716     16.3066E-03     16.5396E-03
            1066            1716     16.3066E-03     16.5396E-03
            1067            1716     16.3066E-03     16.5396E-03
            1085            1716     16.3066E-03     16.5396E-03
            1085            1717     17.3299E-03     17.6287E-03
            1067            1717     17.3299E-03     17.6287E-03
            1086            1717     17.3299E-03     17.6287E-03
            1068            1717     17.3299E-03     17.6287E-03
            1069            1718     18.2052E-03     18.5568E-03
            1068            1718     18.2052E-03     18.5568E-03
            1086            1718     18.2052E-03     18.5568E-03
            1087            1718     18.2052E-03     18.5568E-03
            1070            1719     18.8821E-03     19.2572E-03
            1087            1719     18.8821E-03     19.2572E-03
            1088            1719     18.8821E-03     19.2572E-03
            1069            1719     18.8821E-03     19.2572E-03
            1088            1720     19.3914E-03     19.7465E-03
            1071            1720     19.3914E-03     19.7465E-03
            1070            1720     19.3914E-03     19.7465E-03
            1089            1720     19.3914E-03     19.7465E-03
            1072            1721     20.0098E-03     20.2185E-03
            1071            1721     20.0098E-03     20.2185E-03
            1089            1721     20.0098E-03     20.2185E-03
            1090            1721     20.0098E-03     20.2185E-03
            1074            1722     9.35364E-03     8.81493E-03
            1091            1722     9.35364E-03     8.81493E-03
            1073            1722     9.35364E-03     8.81493E-03
            1092            1722     9.35364E-03     8.81493E-03
            1075            1723     9.55791E-03     9.11074E-03
            1074            1723     9.55791E-03     9.11074E-03
            1093            1723     9.55791E-03     9.11074E-03
            1092            1723     9.55791E-03     9.11074E-03
            1075            1724     9.80539E-03     9.49765E-03
            1076            1724     9.80539E-03     9.49765E-03
            1093            1724     9.80539E-03     9.49765E-03
            1094            1724     9.80539E-03     9.49765E-03
            1095            1725     10.0436E-03     9.88334E-03
            1077            1725     10.0436E-03     9.88334E-03
            1094            1725     10.0436E-03     9.88334E-03
            1076            1725     10.0436E-03     9.88334E-03
            1077            1726     10.3333E-03     10.2927E-03
            1078            1726     10.3333E-03     10.2927E-03
            1095            1726     10.3333E-03     10.2927E-03
            1096            1726     10.3333E-03     10.2927E-03
            1079            1727     10.7088E-03     10.7625E-03
            1097            1727     10.7088E-03     10.7625E-03
            1096            1727     10.7088E-03     10.7625E-03
            1078            1727     10.7088E-03     10.7625E-03
            1097            1728     11.2545E-03     11.3784E-03
            1080            1728     11.2545E-03     11.3784E-03
            1098            1728     11.2545E-03     11.3784E-03
            1079            1728     11.2545E-03     11.3784E-03
            1099            1729     11.9863E-03     12.1625E-03
            1081            1729     11.9863E-03     12.1625E-03
            1098            1729     11.9863E-03     12.1625E-03
            1080            1729     11.9863E-03     12.1625E-03
            1099            1730     12.8862E-03     13.1112E-03
            1082            1730     12.8862E-03     13.1112E-03
            1100            1730     12.8862E-03     13.1112E-03
            1081            1730     12.8862E-03     13.1112E-03
            1083            1731     13.9349E-03     14.2006E-03
            1101            1731     13.9349E-03     14.2006E-03
            1100            1731     13.9349E-03     14.2006E-03
            1082            1731     13.9349E-03     14.2006E-03
            1102            1732     15.0892E-03     15.3997E-03
            1084            1732     15.0892E-03     15.3997E-03
            1083            1732     15.0892E-03     15.3997E-03
            1101            1732     15.0892E-03     15.3997E-03
            1084            1733     16.3028E-03     16.6571E-03
            1103            1733     16.3028E-03     16.6571E-03
            1085            1733     16.3028E-03     16.6571E-03
            1102            1733     16.3028E-03     16.6571E-03
            1085            1734     17.5448E-03     17.9314E-03
            1103            1734     17.5448E-03     17.9314E-03
            1086            1734     17.5448E-03     17.9314E-03
            1104            1734     17.5448E-03     17.9314E-03
            1104            1735     18.7239E-03     19.1502E-03
            1105            1735     18.7239E-03     19.1502E-03
            1087            1735     18.7239E-03     19.1502E-03
            1086            1735     18.7239E-03     19.1502E-03
            1087            1736     19.8215E-03     20.2395E-03
            1088            1736     19.8215E-03     20.2395E-03
            1105            1736     19.8215E-03     20.2395E-03
            1106            1736     19.8215E-03     20.2395E-03
            1088            1737     20.8768E-03     21.2095E-03
            1106            1737     20.8768E-03     21.2095E-03
            1089            1737     20.8768E-03     21.2095E-03
            1107            1737     20.8768E-03     21.2095E-03
            1090            1738     21.9587E-03     22.2418E-03
            1107            1738     21.9587E-03     22.2418E-03
            1089            1738     21.9587E-03     22.2418E-03
            1108            1738     21.9587E-03     22.2418E-03
            1092            1739     9.96187E-03     9.40003E-03
            1109            1739     9.96187E-03     9.40003E-03
            1110            1739     9.96187E-03     9.40003E-03
            1091            1739     9.96187E-03     9.40003E-03
            1111            1740     9.83880E-03     9.35517E-03
            1093            1740     9.83880E-03     9.35517E-03
            1092            1740     9.83880E-03     9.35517E-03
            1110            1740     9.83880E-03     9.35517E-03
            1093            1741     9.81987E-03     9.47070E-03
            1094            1741     9.81987E-03     9.47070E-03
            1111            1741     9.81987E-03     9.47070E-03
            1112            1741     9.81987E-03     9.47070E-03
            1113            1742     9.87395E-03     9.67314E-03
            1094            1742     9.87395E-03     9.67314E-03
            1095            1742     9.87395E-03     9.67314E-03
            1112            1742     9.87395E-03     9.67314E-03
            1114            1743     9.99036E-03     9.93479E-03
            1095            1743     9.99036E-03     9.93479E-03
            1113            1743     9.99036E-03     9.93479E-03
            1096            1743     9.99036E-03     9.93479E-03
            1096            1744     10.3034E-03     10.3730E-03
            1097            1744     10.3034E-03     10.3730E-03
            1114            1744     10.3034E-03     10.3730E-03
            1115            1744     10.3034E-03     10.3730E-03
            1116            1745     10.8301E-03     10.9999E-03
            1097            1745     10.8301E-03     10.9999E-03
            1115            1745     10.8301E-03     10.9999E-03
            1098            1745     10.8301E-03     10.9999E-03
            1117            1746     11.5581E-03     11.8098E-03
            1099            1746     11.5581E-03     11.8098E-03
            1098            1746     11.5581E-03     11.8098E-03
            1116            1746     11.5581E-03     11.8098E-03
            1099            1747     12.4834E-03     12.7975E-03
            1100            1747     12.4834E-03     12.7975E-03
            1117            1747     12.4834E-03     12.7975E-03
            1118            1747     12.4834E-03     12.7975E-03
            1101            1748     13.5619E-03     13.9334E-03
            1118            1748     13.5619E-03     13.9334E-03
            1100            1748     13.5619E-03     13.9334E-03
            1119            1748     13.5619E-03     13.9334E-03
            1102            1749     14.7805E-03     15.1933E-03
            1120            1749     14.7805E-03     15.1933E-03
            1101            1749     14.7805E-03     15.1933E-03
            1119            1749     14.7805E-03     15.1933E-03
            1120            1750     16.1083E-03     16.5607E-03
            1103            1750     16.1083E-03     16.5607E-03
            1102            1750     16.1083E-03     16.5607E-03
            1121            1750     16.1083E-03     16.5607E-03
            1103            1751     17.5331E-03     18.0033E-03
            1104            1751     17.5331E-03     18.0033E-03
            1121            1751     17.5331E-03     18.0033E-03
            1122            1751     17.5331E-03     18.0033E-03
            1105            1752     19.0976E-03     19.5423E-03
            1123            1752     19.0976E-03     19.5423E-03
            1122            1752     19.0976E-03     19.5423E-03
            1104            1752     19.0976E-03     19.5423E-03
            1124            1753     20.6904E-03     21.1267E-03
            1105            1753     20.6904E-03     21.1267E-03
            1106            1753     20.6904E-03     21.1267E-03
            1123            1753     20.6904E-03     21.1267E-03
            1125            1754     22.2848E-03     22.6825E-03
            1106            1754     22.2848E-03     22.6825E-03
            1107            1754     22.2848E-03     22.6825E-03
            1124            1754     22.2848E-03     22.6825E-03
            1108            1755     23.9815E-03     24.2033E-03
            1126            1755     23.9815E-03     24.2033E-03
            1107            1755     23.9815E-03     24.2033E-03
            1125            1755     23.9815E-03     24.2033E-03
            1109            1756     10.7718E-03     10.2155E-03
            1110            1756     10.7718E-03     10.2155E-03
            1127            1756     10.7718E-03     10.2155E-03
            1128            1756     10.7718E-03     10.2155E-03
            1129            1757     10.3611E-03     9.87126E-03
            1110            1757     10.3611E-03     9.87126E-03
            1111            1757     10.3611E-03     9.87126E-03
            1128            1757     10.3611E-03     9.87126E-03
            1112            1758     9.94788E-03     9.57259E-03
            1130            1758     9.94788E-03     9.57259E-03
            1129            1758     9.94788E-03     9.57259E-03
            1111            1758     9.94788E-03     9.57259E-03
            1131            1759     9.57062E-03     9.34956E-03
            1112            1759     9.57062E-03     9.34956E-03
            1130            1759     9.57062E-03     9.34956E-03
            1113            1759     9.57062E-03     9.34956E-03
            1132            1760     9.50658E-03     9.45315E-03
            1113            1760     9.50658E-03     9.45315E-03
            1114            1760     9.50658E-03     9.45315E-03
            1131            1760     9.50658E-03     9.45315E-03
            1133            1761     9.74442E-03     9.84188E-03
            1114            1761     9.74442E-03     9.84188E-03
            1132            1761     9.74442E-03     9.84188E-03
            1115            1761     9.74442E-03     9.84188E-03
            1134            1762     10.2354E-03     10.4616E-03
            1115            1762     10.2354E-03     10.4616E-03
            1133            1762     10.2354E-03     10.4616E-03
            1116            1762     10.2354E-03     10.4616E-03
            1116            1763     10.9749E-03     11.3015E-03
            1134            1763     10.9749E-03     11.3015E-03
            1117            1763     10.9749E-03     11.3015E-03
            1135            1763     10.9749E-03     11.3015E-03
            1135            1764     11.9055E-03     12.3128E-03
            1117            1764     11.9055E-03     12.3128E-03
            1118            1764     11.9055E-03     12.3128E-03
            1136            1764     11.9055E-03     12.3128E-03
            1118            1765     13.0174E-03     13.4822E-03
            1137            1765     13.0174E-03     13.4822E-03
            1136            1765     13.0174E-03     13.4822E-03
            1119            1765     13.0174E-03     13.4822E-03
            1138            1766     14.2713E-03     14.7867E-03
            1120            1766     14.2713E-03     14.7867E-03
            1119            1766     14.2713E-03     14.7867E-03
            1137            1766     14.2713E-03     14.7867E-03
            1138            1767     15.6881E-03     16.2242E-03
            1139            1767     15.6881E-03     16.2242E-03
            1120            1767     15.6881E-03     16.2242E-03
            1121            1767     15.6881E-03     16.2242E-03
            1122            1768     17.2706E-03     17.8237E-03
            1139            1768     17.2706E-03     17.8237E-03
            1121            1768     17.2706E-03     17.8237E-03
            1140            1768     17.2706E-03     17.8237E-03
            1141            1769     19.0879E-03     19.6018E-03
            1140            1769     19.0879E-03     19.6018E-03
            1122            1769     19.0879E-03     19.6018E-03
            1123            1769     19.0879E-03     19.6018E-03
            1141            1770     21.3192E-03     21.7152E-03
            1123            1770     21.3192E-03     21.7152E-03
            1142            1770     21.3192E-03     21.7152E-03
            1124            1770     21.3192E-03     21.7152E-03
            1143            1771     23.7027E-03     24.0393E-03
            1142            1771     23.7027E-03     24.0393E-03
            1124            1771     23.7027E-03     24.0393E-03
            1125            1771     23.7027E-03     24.0393E-03
            1143            1772     25.9385E-03     26.3662E-03
            1144            1772     25.9385E-03     26.3662E-03
            1125            1772     25.9385E-03     26.3662E-03
            1126            1772     25.9385E-03     26.3662E-03
            1146            1773     12.1399E-03     11.6069E-03
            1145            1773     12.1399E-03     11.6069E-03
            1128            1773     12.1399E-03     11.6069E-03
            1127            1773     12.1399E-03     11.6069E-03
            1146            1774     11.0688E-03     10.5557E-03
            1147            1774     11.0688E-03     10.5557E-03
            1128            1774     11.0688E-03     10.5557E-03
            1129            1774     11.0688E-03     10.5557E-03
            1129            1775     9.76510E-03     9.36187E-03
            1148            1775     9.76510E-03     9.36187E-03
            1147            1775     9.76510E-03     9.36187E-03
            1130            1775     9.76510E-03     9.36187E-03
            1148            1776     9.03396E-03     8.80492E-03
            1130            1776     9.03396E-03     8.80492E-03
            1131            1776     9.03396E-03     8.80492E-03
            1149            1776     9.03396E-03     8.80492E-03
            1131            1777     8.83017E-03     8.79005E-03
            1150            1777     8.83017E-03     8.79005E-03
            1132            1777     8.83017E-03     8.79005E-03
            1149            1777     8.83017E-03     8.79005E-03
            1150            1778     8.98519E-03     9.12635E-03
            1132            1778     8.98519E-03     9.12635E-03
            1133            1778     8.98519E-03     9.12635E-03
            1151            1778     8.98519E-03     9.12635E-03
            1152            1779     9.48211E-03     9.77579E-03
            1133            1779     9.48211E-03     9.77579E-03
            1151            1779     9.48211E-03     9.77579E-03
            1134            1779     9.48211E-03     9.77579E-03
            1153            1780     10.2248E-03     10.6369E-03
            1134            1780     10.2248E-03     10.6369E-03
            1135            1780     10.2248E-03     10.6369E-03
            1152            1780     10.2248E-03     10.6369E-03
            1154            1781     11.1843E-03     11.6846E-03
            1135            1781     11.1843E-03     11.6846E-03
            1153            1781     11.1843E-03     11.6846E-03
            1136            1781     11.1843E-03     11.6846E-03
            1154            1782     12.3095E-03     12.8734E-03
            1137            1782     12.3095E-03     12.8734E-03
            1155            1782     12.3095E-03     12.8734E-03
            1136            1782     12.3095E-03     12.8734E-03
            1155            1783     13.6027E-03     14.2069E-03
            1138            1783     13.6027E-03     14.2069E-03
            1137            1783     13.6027E-03     14.2069E-03
            1156            1783     13.6027E-03     14.2069E-03
            1138            1784     15.0507E-03     15.6849E-03
            1156            1784     15.0507E-03     15.6849E-03
            1139            1784     15.0507E-03     15.6849E-03
            1157            1784     15.0507E-03     15.6849E-03
            1158            1785     16.7339E-03     17.3619E-03
            1139            1785     16.7339E-03     17.3619E-03
            1140            1785     16.7339E-03     17.3619E-03
            1157            1785     16.7339E-03     17.3619E-03
            1140            1786     18.6954E-03     19.3215E-03
            1159            1786     18.6954E-03     19.3215E-03
            1158            1786     18.6954E-03     19.3215E-03
            1141            1786     18.6954E-03     19.3215E-03
            1141            1787     21.1832E-03     21.7106E-03
            1159            1787     21.1832E-03     21.7106E-03
            1160            1787     21.1832E-03     21.7106E-03
            1142            1787     21.1832E-03     21.7106E-03
            1161            1788     24.6329E-03     24.9131E-03
            1142            1788     24.6329E-03     24.9131E-03
            1160            1788     24.6329E-03     24.9131E-03
            1143            1788     24.6329E-03     24.9131E-03
            1143            1789     28.2060E-03     28.2223E-03
            1161            1789     28.2060E-03     28.2223E-03
            1162            1789     28.2060E-03     28.2223E-03
            1144            1789     28.2060E-03     28.2223E-03
            1164            1790     13.7713E-03     13.1511E-03
            1145            1790     13.7713E-03     13.1511E-03
            1163            1790     13.7713E-03     13.1511E-03
            1146            1790     13.7713E-03     13.1511E-03
            1164            1791     10.9511E-03     10.3705E-03
            1147            1791     10.9511E-03     10.3705E-03
            1146            1791     10.9511E-03     10.3705E-03
            1165            1791     10.9511E-03     10.3705E-03
            1147            1792     9.08122E-03     8.64313E-03
            1148            1792     9.08122E-03     8.64313E-03
            1166            1792     9.08122E-03     8.64313E-03
            1165            1792     9.08122E-03     8.64313E-03
            1167            1793     8.23394E-03     7.98895E-03
            1166            1793     8.23394E-03     7.98895E-03
            1149            1793     8.23394E-03     7.98895E-03
            1148            1793     8.23394E-03     7.98895E-03
            1149            1794     7.89753E-03     7.87995E-03
            1168            1794     7.89753E-03     7.87995E-03
            1167            1794     7.89753E-03     7.87995E-03
            1150            1794     7.89753E-03     7.87995E-03
            1150            1795     8.06111E-03     8.26101E-03
            1168            1795     8.06111E-03     8.26101E-03
            1151            1795     8.06111E-03     8.26101E-03
            1169            1795     8.06111E-03     8.26101E-03
            1151            1796     8.56851E-03     8.94576E-03
            1152            1796     8.56851E-03     8.94576E-03
            1169            1796     8.56851E-03     8.94576E-03
            1170            1796     8.56851E-03     8.94576E-03
            1153            1797     9.35590E-03     9.86871E-03
            1171            1797     9.35590E-03     9.86871E-03
            1170            1797     9.35590E-03     9.86871E-03
            1152            1797     9.35590E-03     9.86871E-03
            1153            1798     10.3471E-03     10.9497E-03
            1171            1798     10.3471E-03     10.9497E-03
            1172            1798     10.3471E-03     10.9497E-03
            1154            1798     10.3471E-03     10.9497E-03
            1173            1799     11.5085E-03     12.1738E-03
            1155            1799     11.5085E-03     12.1738E-03
            1154            1799     11.5085E-03     12.1738E-03
            1172            1799     11.5085E-03     12.1738E-03
            1155            1800     12.8183E-03     13.5153E-03
            1174            1800     12.8183E-03     13.5153E-03
            1156            1800     12.8183E-03     13.5153E-03
            1173            1800     12.8183E-03     13.5153E-03
            1156            1801     14.3018E-03     15.0178E-03
            1157            1801     14.3018E-03     15.0178E-03
            1174            1801     14.3018E-03     15.0178E-03
            1175            1801     14.3018E-03     15.0178E-03
            1176            1802     15.9805E-03     16.7003E-03
            1158            1802     15.9805E-03     16.7003E-03
            1175            1802     15.9805E-03     16.7003E-03
            1157            1802     15.9805E-03     16.7003E-03
            1159            1803     18.0082E-03     18.7272E-03
            1176            1803     18.0082E-03     18.7272E-03
            1177            1803     18.0082E-03     18.7272E-03
            1158            1803     18.0082E-03     18.7272E-03
            1178            1804     20.4531E-03     21.1989E-03
            1177            1804     20.4531E-03     21.1989E-03
            1159            1804     20.4531E-03     21.1989E-03
            1160            1804     20.4531E-03     21.1989E-03
            1160            1805     24.0069E-03     24.7500E-03
            1161            1805     24.0069E-03     24.7500E-03
            1178            1805     24.0069E-03     24.7500E-03
            1179            1805     24.0069E-03     24.7500E-03
            1161            1806     29.2839E-03     29.8487E-03
            1179            1806     29.2839E-03     29.8487E-03
            1162            1806     29.2839E-03     29.8487E-03
            1180            1806     29.2839E-03     29.8487E-03
            1164            1807     12.5626E-03     13.8292E-03
            1163            1807     12.5626E-03     13.8292E-03
            1181            1807     12.5626E-03     13.8292E-03
            1182            1807     12.5626E-03     13.8292E-03
            1165            1808     11.3518E-03     11.5888E-03
            1164            1808     11.3518E-03     11.5888E-03
            1182            1808     11.3518E-03     11.5888E-03
            1183            1808     11.3518E-03     11.5888E-03
            1165            1809     10.9066E-03     10.8767E-03
            1183            1809     10.9066E-03     10.8767E-03
            1166            1809     10.9066E-03     10.8767E-03
            1184            1809     10.9066E-03     10.8767E-03
            1185            1810     10.8246E-03     10.7735E-03
            1166            1810     10.8246E-03     10.7735E-03
            1167            1810     10.8246E-03     10.7735E-03
            1184            1810     10.8246E-03     10.7735E-03
            1186            1811     11.1020E-03     11.0899E-03
            1185            1811     11.1020E-03     11.0899E-03
            1167            1811     11.1020E-03     11.0899E-03
            1168            1811     11.1020E-03     11.0899E-03
            1168            1812     11.7168E-03     11.7845E-03
            1186            1812     11.7168E-03     11.7845E-03
            1169            1812     11.7168E-03     11.7845E-03
            1187            1812     11.7168E-03     11.7845E-03
            1188            1813     12.5974E-03     12.7264E-03
            1170            1813     12.5974E-03     12.7264E-03
            1169            1813     12.5974E-03     12.7264E-03
            1187            1813     12.5974E-03     12.7264E-03
            1171            1814     13.6946E-03     13.8659E-03
            1188            1814     13.6946E-03     13.8659E-03
            1189            1814     13.6946E-03     13.8659E-03
            1170            1814     13.6946E-03     13.8659E-03
            1171            1815     14.9467E-03     15.1324E-03
            1172            1815     14.9467E-03     15.1324E-03
            1189            1815     14.9467E-03     15.1324E-03
            1190            1815     14.9467E-03     15.1324E-03
            1172            1816     16.3083E-03     16.4892E-03
            1173            1816     16.3083E-03     16.4892E-03
            1191            1816     16.3083E-03     16.4892E-03
            1190            1816     16.3083E-03     16.4892E-03
            1173            1817     17.7471E-03     17.8951E-03
            1174            1817     17.7471E-03     17.8951E-03
            1192            1817     17.7471E-03     17.8951E-03
            1191            1817     17.7471E-03     17.8951E-03
            1192            1818     19.2387E-03     19.3428E-03
            1193            1818     19.2387E-03     19.3428E-03
            1175            1818     19.2387E-03     19.3428E-03
            1174            1818     19.2387E-03     19.3428E-03
            1193            1819     20.7757E-03     20.8055E-03
            1175            1819     20.7757E-03     20.8055E-03
            1194            1819     20.7757E-03     20.8055E-03
            1176            1819     20.7757E-03     20.8055E-03
            1176            1820     22.3606E-03     22.3225E-03
            1177            1820     22.3606E-03     22.3225E-03
            1195            1820     22.3606E-03     22.3225E-03
            1194            1820     22.3606E-03     22.3225E-03
            1177            1821     24.0435E-03     23.9307E-03
            1178            1821     24.0435E-03     23.9307E-03
            1195            1821     24.0435E-03     23.9307E-03
            1196            1821     24.0435E-03     23.9307E-03
            1197            1822     25.8505E-03     25.7502E-03
            1178            1822     25.8505E-03     25.7502E-03
            1196            1822     25.8505E-03     25.7502E-03
            1179            1822     25.8505E-03     25.7502E-03
            1197            1823     28.2944E-03     28.7233E-03
            1180            1823     28.2944E-03     28.7233E-03
            1179            1823     28.2944E-03     28.7233E-03
            1198            1823     28.2944E-03     28.7233E-03
            1200            1824     12.0527E-03     13.6653E-03
            1181            1824     12.0527E-03     13.6653E-03
            1182            1824     12.0527E-03     13.6653E-03
            1199            1824     12.0527E-03     13.6653E-03
            1182            1825     12.2849E-03     13.4077E-03
            1183            1825     12.2849E-03     13.4077E-03
            1201            1825     12.2849E-03     13.4077E-03
            1200            1825     12.2849E-03     13.4077E-03
            1183            1826     12.8239E-03     13.3384E-03
            1201            1826     12.8239E-03     13.3384E-03
            1184            1826     12.8239E-03     13.3384E-03
            1202            1826     12.8239E-03     13.3384E-03
            1184            1827     13.4166E-03     13.6402E-03
            1202            1827     13.4166E-03     13.6402E-03
            1203            1827     13.4166E-03     13.6402E-03
            1185            1827     13.4166E-03     13.6402E-03
            1204            1828     14.2178E-03     14.2720E-03
            1185            1828     14.2178E-03     14.2720E-03
            1203            1828     14.2178E-03     14.2720E-03
            1186            1828     14.2178E-03     14.2720E-03
            1187            1829     15.2733E-03     15.2158E-03
            1204            1829     15.2733E-03     15.2158E-03
            1186            1829     15.2733E-03     15.2158E-03
            1205            1829     15.2733E-03     15.2158E-03
            1187            1830     16.5590E-03     16.4357E-03
            1188            1830     16.5590E-03     16.4357E-03
            1206            1830     16.5590E-03     16.4357E-03
            1205            1830     16.5590E-03     16.4357E-03
            1207            1831     18.0528E-03     17.8673E-03
            1188            1831     18.0528E-03     17.8673E-03
            1189            1831     18.0528E-03     17.8673E-03
            1206            1831     18.0528E-03     17.8673E-03
            1189            1832     19.6862E-03     19.4523E-03
            1190            1832     19.6862E-03     19.4523E-03
            1208            1832     19.6862E-03     19.4523E-03
            1207            1832     19.6862E-03     19.4523E-03
            1209            1833     21.4139E-03     21.1181E-03
            1190            1833     21.4139E-03     21.1181E-03
            1208            1833     21.4139E-03     21.1181E-03
            1191            1833     21.4139E-03     21.1181E-03
            1192            1834     23.1660E-03     22.8098E-03
            1191            1834     23.1660E-03     22.8098E-03
            1209            1834     23.1660E-03     22.8098E-03
            1210            1834     23.1660E-03     22.8098E-03
            1210            1835     24.8853E-03     24.4505E-03
            1193            1835     24.8853E-03     24.4505E-03
            1192            1835     24.8853E-03     24.4505E-03
            1211            1835     24.8853E-03     24.4505E-03
            1193            1836     26.4967E-03     25.9792E-03
            1211            1836     26.4967E-03     25.9792E-03
            1212            1836     26.4967E-03     25.9792E-03
            1194            1836     26.4967E-03     25.9792E-03
            1213            1837     27.9109E-03     27.3086E-03
            1195            1837     27.9109E-03     27.3086E-03
            1194            1837     27.9109E-03     27.3086E-03
            1212            1837     27.9109E-03     27.3086E-03
            1196            1838     29.0058E-03     28.3297E-03
            1213            1838     29.0058E-03     28.3297E-03
            1214            1838     29.0058E-03     28.3297E-03
            1195            1838     29.0058E-03     28.3297E-03
            1197            1839     29.5474E-03     28.9045E-03
            1196            1839     29.5474E-03     28.9045E-03
            1215            1839     29.5474E-03     28.9045E-03
            1214            1839     29.5474E-03     28.9045E-03
            1198            1840     29.1547E-03     28.5200E-03
            1216            1840     29.1547E-03     28.5200E-03
            1197            1840     29.1547E-03     28.5200E-03
            1215            1840     29.1547E-03     28.5200E-03
            1218            1841     13.3891E-03     13.0937E-03
            1199            1841     13.3891E-03     13.0937E-03
            1217            1841     13.3891E-03     13.0937E-03
            1200            1841     13.3891E-03     13.0937E-03
            1200            1842     12.7312E-03     13.2160E-03
            1201            1842     12.7312E-03     13.2160E-03
            1218            1842     12.7312E-03     13.2160E-03
            1219            1842     12.7312E-03     13.2160E-03
            1219            1843     12.4175E-03     12.9289E-03
            1202            1843     12.4175E-03     12.9289E-03
            1220            1843     12.4175E-03     12.9289E-03
            1201            1843     12.4175E-03     12.9289E-03
            1221            1844     12.6314E-03     12.9178E-03
            1202            1844     12.6314E-03     12.9178E-03
            1203            1844     12.6314E-03     12.9178E-03
            1220            1844     12.6314E-03     12.9178E-03
            1204            1845     13.2200E-03     13.3640E-03
            1221            1845     13.2200E-03     13.3640E-03
            1203            1845     13.2200E-03     13.3640E-03
            1222            1845     13.2200E-03     13.3640E-03
            1205            1846     14.2346E-03     14.2697E-03
            1223            1846     14.2346E-03     14.2697E-03
            1204            1846     14.2346E-03     14.2697E-03
            1222            1846     14.2346E-03     14.2697E-03
            1224            1847     15.6260E-03     15.5913E-03
            1205            1847     15.6260E-03     15.5913E-03
            1206            1847     15.6260E-03     15.5913E-03
            1223            1847     15.6260E-03     15.5913E-03
            1206            1848     17.3164E-03     17.2378E-03
            1224            1848     17.3164E-03     17.2378E-03
            1207            1848     17.3164E-03     17.2378E-03
            1225            1848     17.3164E-03     17.2378E-03
            1207            1849     19.2340E-03     19.1199E-03
            1208            1849     19.2340E-03     19.1199E-03
            1226            1849     19.2340E-03     19.1199E-03
            1225            1849     19.2340E-03     19.1199E-03
            1208            1850     21.2910E-03     21.1543E-03
            1209            1850     21.2910E-03     21.1543E-03
            1226            1850     21.2910E-03     21.1543E-03
            1227            1850     21.2910E-03     21.1543E-03
            1210            1851     23.4195E-03     23.2594E-03
            1228            1851     23.4195E-03     23.2594E-03
            1209            1851     23.4195E-03     23.2594E-03
            1227            1851     23.4195E-03     23.2594E-03
            1229            1852     25.5362E-03     25.3688E-03
            1228            1852     25.5362E-03     25.3688E-03
            1211            1852     25.5362E-03     25.3688E-03
            1210            1852     25.5362E-03     25.3688E-03
            1229            1853     27.5554E-03     27.3961E-03
            1211            1853     27.5554E-03     27.3961E-03
            1230            1853     27.5554E-03     27.3961E-03
            1212            1853     27.5554E-03     27.3961E-03
            1212            1854     29.3715E-03     29.2538E-03
            1230            1854     29.3715E-03     29.2538E-03
            1231            1854     29.3715E-03     29.2538E-03
            1213            1854     29.3715E-03     29.2538E-03
            1232            1855     30.8194E-03     30.8253E-03
            1213            1855     30.8194E-03     30.8253E-03
            1231            1855     30.8194E-03     30.8253E-03
            1214            1855     30.8194E-03     30.8253E-03
            1215            1856     31.7223E-03     31.8735E-03
            1232            1856     31.7223E-03     31.8735E-03
            1233            1856     31.7223E-03     31.8735E-03
            1214            1856     31.7223E-03     31.8735E-03
            1234            1857     32.0958E-03     32.2474E-03
            1216            1857     32.0958E-03     32.2474E-03
            1233            1857     32.0958E-03     32.2474E-03
            1215            1857     32.0958E-03     32.2474E-03
            1235            1858     13.3803E-03     12.7404E-03
            1217            1858     13.3803E-03     12.7404E-03
            1236            1858     13.3803E-03     12.7404E-03
            1218            1858     13.3803E-03     12.7404E-03
            1236            1859     12.9457E-03     12.6360E-03
            1219            1859     12.9457E-03     12.6360E-03
            1218            1859     12.9457E-03     12.6360E-03
            1237            1859     12.9457E-03     12.6360E-03
            1238            1860     12.3241E-03     12.4343E-03
            1219            1860     12.3241E-03     12.4343E-03
            1237            1860     12.3241E-03     12.4343E-03
            1220            1860     12.3241E-03     12.4343E-03
            1238            1861     12.1380E-03     12.3367E-03
            1239            1861     12.1380E-03     12.3367E-03
            1221            1861     12.1380E-03     12.3367E-03
            1220            1861     12.1380E-03     12.3367E-03
            1221            1862     12.5419E-03     12.6953E-03
            1240            1862     12.5419E-03     12.6953E-03
            1222            1862     12.5419E-03     12.6953E-03
            1239            1862     12.5419E-03     12.6953E-03
            1222            1863     13.5014E-03     13.6121E-03
            1240            1863     13.5014E-03     13.6121E-03
            1223            1863     13.5014E-03     13.6121E-03
            1241            1863     13.5014E-03     13.6121E-03
            1223            1864     14.9650E-03     15.0380E-03
            1224            1864     14.9650E-03     15.0380E-03
            1242            1864     14.9650E-03     15.0380E-03
            1241            1864     14.9650E-03     15.0380E-03
            1224            1865     16.8283E-03     16.8821E-03
            1242            1865     16.8283E-03     16.8821E-03
            1225            1865     16.8283E-03     16.8821E-03
            1243            1865     16.8283E-03     16.8821E-03
            1244            1866     18.9739E-03     19.0229E-03
            1225            1866     18.9739E-03     19.0229E-03
            1226            1866     18.9739E-03     19.0229E-03
            1243            1866     18.9739E-03     19.0229E-03
            1226            1867     21.3080E-03     21.3614E-03
            1244            1867     21.3080E-03     21.3614E-03
            1227            1867     21.3080E-03     21.3614E-03
            1245            1867     21.3080E-03     21.3614E-03
            1228            1868     23.7344E-03     23.8115E-03
            1227            1868     23.7344E-03     23.8115E-03
            1245            1868     23.7344E-03     23.8115E-03
            1246            1868     23.7344E-03     23.8115E-03
            1246            1869     26.1718E-03     26.2855E-03
            1247            1869     26.1718E-03     26.2855E-03
            1229            1869     26.1718E-03     26.2855E-03
            1228            1869     26.1718E-03     26.2855E-03
            1248            1870     28.5183E-03     28.6999E-03
            1247            1870     28.5183E-03     28.6999E-03
            1229            1870     28.5183E-03     28.6999E-03
            1230            1870     28.5183E-03     28.6999E-03
            1231            1871     30.6467E-03     30.9405E-03
            1230            1871     30.6467E-03     30.9405E-03
            1249            1871     30.6467E-03     30.9405E-03
            1248            1871     30.6467E-03     30.9405E-03
            1249            1872     32.4441E-03     32.8544E-03
            1231            1872     32.4441E-03     32.8544E-03
            1250            1872     32.4441E-03     32.8544E-03
            1232            1872     32.4441E-03     32.8544E-03
            1251            1873     33.7740E-03     34.2787E-03
            1232            1873     33.7740E-03     34.2787E-03
            1233            1873     33.7740E-03     34.2787E-03
            1250            1873     33.7740E-03     34.2787E-03
            1233            1874     34.9081E-03     35.3089E-03
            1252            1874     34.9081E-03     35.3089E-03
            1234            1874     34.9081E-03     35.3089E-03
            1251            1874     34.9081E-03     35.3089E-03
            1236            1875     13.4850E-03     12.6814E-03
            1254            1875     13.4850E-03     12.6814E-03
            1235            1875     13.4850E-03     12.6814E-03
            1253            1875     13.4850E-03     12.6814E-03
            1237            1876     12.7487E-03     12.1990E-03
            1254            1876     12.7487E-03     12.1990E-03
            1255            1876     12.7487E-03     12.1990E-03
            1236            1876     12.7487E-03     12.1990E-03
            1237            1877     12.1260E-03     11.8537E-03
            1255            1877     12.1260E-03     11.8537E-03
            1238            1877     12.1260E-03     11.8537E-03
            1256            1877     12.1260E-03     11.8537E-03
            1238            1878     11.7719E-03     11.7671E-03
            1239            1878     11.7719E-03     11.7671E-03
            1257            1878     11.7719E-03     11.7671E-03
            1256            1878     11.7719E-03     11.7671E-03
            1239            1879     12.0206E-03     12.1322E-03
            1258            1879     12.0206E-03     12.1322E-03
            1257            1879     12.0206E-03     12.1322E-03
            1240            1879     12.0206E-03     12.1322E-03
            1258            1880     12.9368E-03     13.0929E-03
            1241            1880     12.9368E-03     13.0929E-03
            1259            1880     12.9368E-03     13.0929E-03
            1240            1880     12.9368E-03     13.0929E-03
            1242            1881     14.4601E-03     14.6408E-03
            1259            1881     14.4601E-03     14.6408E-03
            1241            1881     14.4601E-03     14.6408E-03
            1260            1881     14.4601E-03     14.6408E-03
            1261            1882     16.4507E-03     16.6483E-03
            1260            1882     16.4507E-03     16.6483E-03
            1243            1882     16.4507E-03     16.6483E-03
            1242            1882     16.4507E-03     16.6483E-03
            1262            1883     18.7737E-03     18.9959E-03
            1261            1883     18.7737E-03     18.9959E-03
            1244            1883     18.7737E-03     18.9959E-03
            1243            1883     18.7737E-03     18.9959E-03
            1263            1884     21.3113E-03     21.5679E-03
            1244            1884     21.3113E-03     21.5679E-03
            1245            1884     21.3113E-03     21.5679E-03
            1262            1884     21.3113E-03     21.5679E-03
            1264            1885     23.9727E-03     24.2739E-03
            1245            1885     23.9727E-03     24.2739E-03
            1263            1885     23.9727E-03     24.2739E-03
            1246            1885     23.9727E-03     24.2739E-03
            1265            1886     26.6593E-03     27.0289E-03
            1246            1886     26.6593E-03     27.0289E-03
            1264            1886     26.6593E-03     27.0289E-03
            1247            1886     26.6593E-03     27.0289E-03
            1266            1887     29.2797E-03     29.7328E-03
            1265            1887     29.2797E-03     29.7328E-03
            1247            1887     29.2797E-03     29.7328E-03
            1248            1887     29.2797E-03     29.7328E-03
            1248            1888     31.7244E-03     32.2693E-03
            1266            1888     31.7244E-03     32.2693E-03
            1249            1888     31.7244E-03     32.2693E-03
            1267            1888     31.7244E-03     32.2693E-03
            1250            1889     33.8617E-03     34.4923E-03
            1249            1889     33.8617E-03     34.4923E-03
            1267            1889     33.8617E-03     34.4923E-03
            1268            1889     33.8617E-03     34.4923E-03
            1250            1890     35.7304E-03     36.3175E-03
            1268            1890     35.7304E-03     36.3175E-03
            1251            1890     35.7304E-03     36.3175E-03
            1269            1890     35.7304E-03     36.3175E-03
            1270            1891     37.4429E-03     37.8328E-03
            1251            1891     37.4429E-03     37.8328E-03
            1252            1891     37.4429E-03     37.8328E-03
            1269            1891     37.4429E-03     37.8328E-03
            1271            1892     13.7145E-03     12.7958E-03
            1272            1892     13.7145E-03     12.7958E-03
            1254            1892     13.7145E-03     12.7958E-03
            1253            1892     13.7145E-03     12.7958E-03
            1273            1893     12.6650E-03     11.9366E-03
            1254            1893     12.6650E-03     11.9366E-03
            1272            1893     12.6650E-03     11.9366E-03
            1255            1893     12.6650E-03     11.9366E-03
            1274            1894     11.8414E-03     11.3796E-03
            1255            1894     11.8414E-03     11.3796E-03
            1273            1894     11.8414E-03     11.3796E-03
            1256            1894     11.8414E-03     11.3796E-03
            1274            1895     11.3999E-03     11.2045E-03
            1257            1895     11.3999E-03     11.2045E-03
            1256            1895     11.3999E-03     11.2045E-03
            1275            1895     11.3999E-03     11.2045E-03
            1275            1896     11.5376E-03     11.5787E-03
            1276            1896     11.5376E-03     11.5787E-03
            1258            1896     11.5376E-03     11.5787E-03
            1257            1896     11.5376E-03     11.5787E-03
            1258            1897     12.4318E-03     12.6187E-03
            1276            1897     12.4318E-03     12.6187E-03
            1277            1897     12.4318E-03     12.6187E-03
            1259            1897     12.4318E-03     12.6187E-03
            1259            1898     13.9917E-03     14.2683E-03
            1260            1898     13.9917E-03     14.2683E-03
            1277            1898     13.9917E-03     14.2683E-03
            1278            1898     13.9917E-03     14.2683E-03
            1278            1899     16.0739E-03     16.4149E-03
            1279            1899     16.0739E-03     16.4149E-03
            1260            1899     16.0739E-03     16.4149E-03
            1261            1899     16.0739E-03     16.4149E-03
            1280            1900     18.5215E-03     18.9124E-03
            1279            1900     18.5215E-03     18.9124E-03
            1261            1900     18.5215E-03     18.9124E-03
            1262            1900     18.5215E-03     18.9124E-03
            1262            1901     21.2061E-03     21.6506E-03
            1280            1901     21.2061E-03     21.6506E-03
            1281            1901     21.2061E-03     21.6506E-03
            1263            1901     21.2061E-03     21.6506E-03
            1282            1902     24.0333E-03     24.5381E-03
            1281            1902     24.0333E-03     24.5381E-03
            1264            1902     24.0333E-03     24.5381E-03
            1263            1902     24.0333E-03     24.5381E-03
            1283            1903     26.9355E-03     27.5027E-03
            1264            1903     26.9355E-03     27.5027E-03
            1282            1903     26.9355E-03     27.5027E-03
            1265            1903     26.9355E-03     27.5027E-03
            1283            1904     29.8104E-03     30.4564E-03
            1284            1904     29.8104E-03     30.4564E-03
            1266            1904     29.8104E-03     30.4564E-03
            1265            1904     29.8104E-03     30.4564E-03
            1285            1905     32.5778E-03     33.2774E-03
            1284            1905     32.5778E-03     33.2774E-03
            1267            1905     32.5778E-03     33.2774E-03
            1266            1905     32.5778E-03     33.2774E-03
            1268            1906     35.1599E-03     35.8581E-03
            1285            1906     35.1599E-03     35.8581E-03
            1286            1906     35.1599E-03     35.8581E-03
            1267            1906     35.1599E-03     35.8581E-03
            1269            1907     37.5031E-03     38.1310E-03
            1287            1907     37.5031E-03     38.1310E-03
            1268            1907     37.5031E-03     38.1310E-03
            1286            1907     37.5031E-03     38.1310E-03
            1287            1908     39.7684E-03     40.1841E-03
            1269            1908     39.7684E-03     40.1841E-03
            1288            1908     39.7684E-03     40.1841E-03
            1270            1908     39.7684E-03     40.1841E-03
            1272            1909     14.1073E-03     13.1525E-03
            1271            1909     14.1073E-03     13.1525E-03
            1289            1909     14.1073E-03     13.1525E-03
            1290            1909     14.1073E-03     13.1525E-03
            1272            1910     12.7486E-03     11.9069E-03
            1273            1910     12.7486E-03     11.9069E-03
            1290            1910     12.7486E-03     11.9069E-03
            1291            1910     12.7486E-03     11.9069E-03
            1274            1911     11.6439E-03     11.0321E-03
            1292            1911     11.6439E-03     11.0321E-03
            1291            1911     11.6439E-03     11.0321E-03
            1273            1911     11.6439E-03     11.0321E-03
            1274            1912     10.9848E-03     10.6733E-03
            1292            1912     10.9848E-03     10.6733E-03
            1275            1912     10.9848E-03     10.6733E-03
            1293            1912     10.9848E-03     10.6733E-03
            1294            1913     11.0418E-03     11.0181E-03
            1275            1913     11.0418E-03     11.0181E-03
            1293            1913     11.0418E-03     11.0181E-03
            1276            1913     11.0418E-03     11.0181E-03
            1277            1914     11.8751E-03     12.0880E-03
            1295            1914     11.8751E-03     12.0880E-03
            1276            1914     11.8751E-03     12.0880E-03
            1294            1914     11.8751E-03     12.0880E-03
            1295            1915     13.4623E-03     13.8345E-03
            1277            1915     13.4623E-03     13.8345E-03
            1296            1915     13.4623E-03     13.8345E-03
            1278            1915     13.4623E-03     13.8345E-03
            1296            1916     15.6133E-03     16.0851E-03
            1278            1916     15.6133E-03     16.0851E-03
            1297            1916     15.6133E-03     16.0851E-03
            1279            1916     15.6133E-03     16.0851E-03
            1279            1917     18.1370E-03     18.6869E-03
            1280            1917     18.1370E-03     18.6869E-03
            1297            1917     18.1370E-03     18.6869E-03
            1298            1917     18.1370E-03     18.6869E-03
            1298            1918     20.9190E-03     21.5293E-03
            1280            1918     20.9190E-03     21.5293E-03
            1281            1918     20.9190E-03     21.5293E-03
            1299            1918     20.9190E-03     21.5293E-03
            1282            1919     23.8699E-03     24.5419E-03
            1299            1919     23.8699E-03     24.5419E-03
            1300            1919     23.8699E-03     24.5419E-03
            1281            1919     23.8699E-03     24.5419E-03
            1300            1920     26.9276E-03     27.6571E-03
            1282            1920     26.9276E-03     27.6571E-03
            1283            1920     26.9276E-03     27.6571E-03
            1301            1920     26.9276E-03     27.6571E-03
            1284            1921     30.0755E-03     30.8350E-03
            1283            1921     30.0755E-03     30.8350E-03
            1302            1921     30.0755E-03     30.8350E-03
            1301            1921     30.0755E-03     30.8350E-03
            1284            1922     33.2032E-03     33.9953E-03
            1303            1922     33.2032E-03     33.9953E-03
            1285            1922     33.2032E-03     33.9953E-03
            1302            1922     33.2032E-03     33.9953E-03
            1304            1923     36.2568E-03     37.0084E-03
            1285            1923     36.2568E-03     37.0084E-03
            1303            1923     36.2568E-03     37.0084E-03
            1286            1923     36.2568E-03     37.0084E-03
            1286            1924     39.1895E-03     39.7952E-03
            1304            1924     39.1895E-03     39.7952E-03
            1287            1924     39.1895E-03     39.7952E-03
            1305            1924     39.1895E-03     39.7952E-03
            1288            1925     41.9339E-03     42.4356E-03
            1287            1925     41.9339E-03     42.4356E-03
            1305            1925     41.9339E-03     42.4356E-03
            1306            1925     41.9339E-03     42.4356E-03
            1307            1926     14.7737E-03     13.7625E-03
            1308            1926     14.7737E-03     13.7625E-03
            1290            1926     14.7737E-03     13.7625E-03
            1289            1926     14.7737E-03     13.7625E-03
            1308            1927     13.0084E-03     12.1034E-03
            1309            1927     13.0084E-03     12.1034E-03
            1290            1927     13.0084E-03     12.1034E-03
            1291            1927     13.0084E-03     12.1034E-03
            1309            1928     11.5413E-03     10.8313E-03
            1291            1928     11.5413E-03     10.8313E-03
            1292            1928     11.5413E-03     10.8313E-03
            1310            1928     11.5413E-03     10.8313E-03
            1292            1929     10.6010E-03     10.1913E-03
            1310            1929     10.6010E-03     10.1913E-03
            1311            1929     10.6010E-03     10.1913E-03
            1293            1929     10.6010E-03     10.1913E-03
            1312            1930     10.4040E-03     10.3537E-03
            1294            1930     10.4040E-03     10.3537E-03
            1293            1930     10.4040E-03     10.3537E-03
            1311            1930     10.4040E-03     10.3537E-03
            1295            1931     11.1883E-03     11.4451E-03
            1313            1931     11.1883E-03     11.4451E-03
            1312            1931     11.1883E-03     11.4451E-03
            1294            1931     11.1883E-03     11.4451E-03
            1296            1932     12.8029E-03     13.2695E-03
            1314            1932     12.8029E-03     13.2695E-03
            1295            1932     12.8029E-03     13.2695E-03
            1313            1932     12.8029E-03     13.2695E-03
            1297            1933     14.9914E-03     15.5963E-03
            1314            1933     14.9914E-03     15.5963E-03
            1315            1933     14.9914E-03     15.5963E-03
            1296            1933     14.9914E-03     15.5963E-03
            1316            1934     17.5770E-03     18.2668E-03
            1315            1934     17.5770E-03     18.2668E-03
            1297            1934     17.5770E-03     18.2668E-03
            1298            1934     17.5770E-03     18.2668E-03
            1317            1935     20.4094E-03     21.1698E-03
            1316            1935     20.4094E-03     21.1698E-03
            1299            1935     20.4094E-03     21.1698E-03
            1298            1935     20.4094E-03     21.1698E-03
            1318            1936     23.4354E-03     24.2437E-03
            1317            1936     23.4354E-03     24.2437E-03
            1300            1936     23.4354E-03     24.2437E-03
            1299            1936     23.4354E-03     24.2437E-03
            1319            1937     26.6215E-03     27.4719E-03
            1300            1937     26.6215E-03     27.4719E-03
            1318            1937     26.6215E-03     27.4719E-03
            1301            1937     26.6215E-03     27.4719E-03
            1302            1938     29.9515E-03     30.8203E-03
            1301            1938     29.9515E-03     30.8203E-03
            1319            1938     29.9515E-03     30.8203E-03
            1320            1938     29.9515E-03     30.8203E-03
            1321            1939     33.5131E-03     34.3224E-03
            1320            1939     33.5131E-03     34.3224E-03
            1302            1939     33.5131E-03     34.3224E-03
            1303            1939     33.5131E-03     34.3224E-03
            1321            1940     37.1354E-03     37.9074E-03
            1303            1940     37.1354E-03     37.9074E-03
            1322            1940     37.1354E-03     37.9074E-03
            1304            1940     37.1354E-03     37.9074E-03
            1304            1941     40.6814E-03     41.3813E-03
            1323            1941     40.6814E-03     41.3813E-03
            1305            1941     40.6814E-03     41.3813E-03
            1322            1941     40.6814E-03     41.3813E-03
            1305            1942     44.1365E-03     44.5473E-03
            1324            1942     44.1365E-03     44.5473E-03
            1323            1942     44.1365E-03     44.5473E-03
            1306            1942     44.1365E-03     44.5473E-03
            1325            1943     15.6485E-03     14.6535E-03
            1308            1943     15.6485E-03     14.6535E-03
            1326            1943     15.6485E-03     14.6535E-03
            1307            1943     15.6485E-03     14.6535E-03
            1309            1944     13.5803E-03     12.6019E-03
            1308            1944     13.5803E-03     12.6019E-03
            1327            1944     13.5803E-03     12.6019E-03
            1326            1944     13.5803E-03     12.6019E-03
            1328            1945     11.5444E-03     10.7452E-03
            1309            1945     11.5444E-03     10.7452E-03
            1310            1945     11.5444E-03     10.7452E-03
            1327            1945     11.5444E-03     10.7452E-03
            1329            1946     9.98010E-03     9.52532E-03
            1311            1946     9.98010E-03     9.52532E-03
            1310            1946     9.98010E-03     9.52532E-03
            1328            1946     9.98010E-03     9.52532E-03
            1330            1947     9.56239E-03     9.52420E-03
            1311            1947     9.56239E-03     9.52420E-03
            1312            1947     9.56239E-03     9.52420E-03
            1329            1947     9.56239E-03     9.52420E-03
            1330            1948     10.3033E-03     10.6310E-03
            1313            1948     10.3033E-03     10.6310E-03
            1331            1948     10.3033E-03     10.6310E-03
            1312            1948     10.3033E-03     10.6310E-03
            1331            1949     11.9361E-03     12.5220E-03
            1332            1949     11.9361E-03     12.5220E-03
            1313            1949     11.9361E-03     12.5220E-03
            1314            1949     11.9361E-03     12.5220E-03
            1332            1950     14.1929E-03     14.9285E-03
            1314            1950     14.1929E-03     14.9285E-03
            1333            1950     14.1929E-03     14.9285E-03
            1315            1950     14.1929E-03     14.9285E-03
            1316            1951     16.8077E-03     17.6384E-03
            1333            1951     16.8077E-03     17.6384E-03
            1315            1951     16.8077E-03     17.6384E-03
            1334            1951     16.8077E-03     17.6384E-03
            1317            1952     19.6792E-03     20.5637E-03
            1335            1952     19.6792E-03     20.5637E-03
            1316            1952     19.6792E-03     20.5637E-03
            1334            1952     19.6792E-03     20.5637E-03
            1317            1953     22.7303E-03     23.6610E-03
            1318            1953     22.7303E-03     23.6610E-03
            1335            1953     22.7303E-03     23.6610E-03
            1336            1953     22.7303E-03     23.6610E-03
            1337            1954     25.9778E-03     26.9214E-03
            1318            1954     25.9778E-03     26.9214E-03
            1319            1954     25.9778E-03     26.9214E-03
            1336            1954     25.9778E-03     26.9214E-03
            1319            1955     29.4479E-03     30.3980E-03
            1338            1955     29.4479E-03     30.3980E-03
            1337            1955     29.4479E-03     30.3980E-03
            1320            1955     29.4479E-03     30.3980E-03
            1338            1956     33.2153E-03     34.1161E-03
            1339            1956     33.2153E-03     34.1161E-03
            1321            1956     33.2153E-03     34.1161E-03
            1320            1956     33.2153E-03     34.1161E-03
            1339            1957     37.5617E-03     38.2732E-03
            1321            1957     37.5617E-03     38.2732E-03
            1340            1957     37.5617E-03     38.2732E-03
            1322            1957     37.5617E-03     38.2732E-03
            1323            1958     42.0788E-03     42.6719E-03
            1322            1958     42.0788E-03     42.6719E-03
            1340            1958     42.0788E-03     42.6719E-03
            1341            1958     42.0788E-03     42.6719E-03
            1323            1959     46.1640E-03     46.8666E-03
            1324            1959     46.1640E-03     46.8666E-03
            1341            1959     46.1640E-03     46.8666E-03
            1342            1959     46.1640E-03     46.8666E-03
            1326            1960     17.2825E-03     16.1694E-03
            1343            1960     17.2825E-03     16.1694E-03
            1344            1960     17.2825E-03     16.1694E-03
            1325            1960     17.2825E-03     16.1694E-03
            1344            1961     14.2417E-03     13.2124E-03
            1326            1961     14.2417E-03     13.2124E-03
            1327            1961     14.2417E-03     13.2124E-03
            1345            1961     14.2417E-03     13.2124E-03
            1345            1962     11.0017E-03     10.1840E-03
            1346            1962     11.0017E-03     10.1840E-03
            1328            1962     11.0017E-03     10.1840E-03
            1327            1962     11.0017E-03     10.1840E-03
            1328            1963     9.00582E-03     8.54941E-03
            1347            1963     9.00582E-03     8.54941E-03
            1346            1963     9.00582E-03     8.54941E-03
            1329            1963     9.00582E-03     8.54941E-03
            1329            1964     8.42142E-03     8.43793E-03
            1330            1964     8.42142E-03     8.43793E-03
            1347            1964     8.42142E-03     8.43793E-03
            1348            1964     8.42142E-03     8.43793E-03
            1349            1965     9.12820E-03     9.58292E-03
            1331            1965     9.12820E-03     9.58292E-03
            1330            1965     9.12820E-03     9.58292E-03
            1348            1965     9.12820E-03     9.58292E-03
            1331            1966     10.8738E-03     11.6083E-03
            1350            1966     10.8738E-03     11.6083E-03
            1349            1966     10.8738E-03     11.6083E-03
            1332            1966     10.8738E-03     11.6083E-03
            1351            1967     13.1964E-03     14.0855E-03
            1333            1967     13.1964E-03     14.0855E-03
            1332            1967     13.1964E-03     14.0855E-03
            1350            1967     13.1964E-03     14.0855E-03
            1352            1968     15.8683E-03     16.8361E-03
            1333            1968     15.8683E-03     16.8361E-03
            1334            1968     15.8683E-03     16.8361E-03
            1351            1968     15.8683E-03     16.8361E-03
            1353            1969     18.7475E-03     19.7570E-03
            1352            1969     18.7475E-03     19.7570E-03
            1334            1969     18.7475E-03     19.7570E-03
            1335            1969     18.7475E-03     19.7570E-03
            1335            1970     21.8112E-03     22.8330E-03
            1353            1970     21.8112E-03     22.8330E-03
            1336            1970     21.8112E-03     22.8330E-03
            1354            1970     21.8112E-03     22.8330E-03
            1355            1971     25.0440E-03     26.0745E-03
            1354            1971     25.0440E-03     26.0745E-03
            1336            1971     25.0440E-03     26.0745E-03
            1337            1971     25.0440E-03     26.0745E-03
            1355            1972     28.5484E-03     29.5499E-03
            1338            1972     28.5484E-03     29.5499E-03
            1356            1972     28.5484E-03     29.5499E-03
            1337            1972     28.5484E-03     29.5499E-03
            1338            1973     32.3981E-03     33.3839E-03
            1339            1973     32.3981E-03     33.3839E-03
            1356            1973     32.3981E-03     33.3839E-03
            1357            1973     32.3981E-03     33.3839E-03
            1357            1974     36.8871E-03     37.7564E-03
            1339            1974     36.8871E-03     37.7564E-03
            1358            1974     36.8871E-03     37.7564E-03
            1340            1974     36.8871E-03     37.7564E-03
            1359            1975     42.6708E-03     43.1699E-03
            1358            1975     42.6708E-03     43.1699E-03
            1340            1975     42.6708E-03     43.1699E-03
            1341            1975     42.6708E-03     43.1699E-03
            1359            1976     48.4974E-03     48.5490E-03
            1341            1976     48.4974E-03     48.5490E-03
            1342            1976     48.4974E-03     48.5490E-03
            1360            1976     48.4974E-03     48.5490E-03
            1362            1977     18.8378E-03     17.9132E-03
            1361            1977     18.8378E-03     17.9132E-03
            1344            1977     18.8378E-03     17.9132E-03
            1343            1977     18.8378E-03     17.9132E-03
            1362            1978     13.5772E-03     12.6467E-03
            1363            1978     13.5772E-03     12.6467E-03
            1344            1978     13.5772E-03     12.6467E-03
            1345            1978     13.5772E-03     12.6467E-03
            1364            1979     9.78309E-03     8.97901E-03
            1345            1979     9.78309E-03     8.97901E-03
            1346            1979     9.78309E-03     8.97901E-03
            1363            1979     9.78309E-03     8.97901E-03
            1364            1980     7.61091E-03     7.16480E-03
            1346            1980     7.61091E-03     7.16480E-03
            1347            1980     7.61091E-03     7.16480E-03
            1365            1980     7.61091E-03     7.16480E-03
            1366            1981     6.85766E-03     6.98923E-03
            1365            1981     6.85766E-03     6.98923E-03
            1348            1981     6.85766E-03     6.98923E-03
            1347            1981     6.85766E-03     6.98923E-03
            1348            1982     7.71150E-03     8.36129E-03
            1367            1982     7.71150E-03     8.36129E-03
            1349            1982     7.71150E-03     8.36129E-03
            1366            1982     7.71150E-03     8.36129E-03
            1368            1983     9.61174E-03     10.5520E-03
            1349            1983     9.61174E-03     10.5520E-03
            1367            1983     9.61174E-03     10.5520E-03
            1350            1983     9.61174E-03     10.5520E-03
            1368            1984     12.0716E-03     13.1464E-03
            1350            1984     12.0716E-03     13.1464E-03
            1369            1984     12.0716E-03     13.1464E-03
            1351            1984     12.0716E-03     13.1464E-03
            1352            1985     14.8057E-03     15.9290E-03
            1369            1985     14.8057E-03     15.9290E-03
            1370            1985     14.8057E-03     15.9290E-03
            1351            1985     14.8057E-03     15.9290E-03
            1371            1986     17.7105E-03     18.8431E-03
            1352            1986     17.7105E-03     18.8431E-03
            1370            1986     17.7105E-03     18.8431E-03
            1353            1986     17.7105E-03     18.8431E-03
            1353            1987     20.7521E-03     21.8629E-03
            1371            1987     20.7521E-03     21.8629E-03
            1354            1987     20.7521E-03     21.8629E-03
            1372            1987     20.7521E-03     21.8629E-03
            1354            1988     23.9664E-03     25.0425E-03
            1372            1988     23.9664E-03     25.0425E-03
            1373            1988     23.9664E-03     25.0425E-03
            1355            1988     23.9664E-03     25.0425E-03
            1355            1989     27.3816E-03     28.4155E-03
            1356            1989     27.3816E-03     28.4155E-03
            1373            1989     27.3816E-03     28.4155E-03
            1374            1989     27.3816E-03     28.4155E-03
            1375            1990     31.1990E-03     32.1924E-03
            1356            1990     31.1990E-03     32.1924E-03
            1374            1990     31.1990E-03     32.1924E-03
            1357            1990     31.1990E-03     32.1924E-03
            1376            1991     35.4982E-03     36.5022E-03
            1358            1991     35.4982E-03     36.5022E-03
            1357            1991     35.4982E-03     36.5022E-03
            1375            1991     35.4982E-03     36.5022E-03
            1358            1992     41.1627E-03     42.1770E-03
            1377            1992     41.1627E-03     42.1770E-03
            1376            1992     41.1627E-03     42.1770E-03
            1359            1992     41.1627E-03     42.1770E-03
            1359            1993     49.0845E-03     49.7801E-03
            1360            1993     49.0845E-03     49.7801E-03
            1377            1993     49.0845E-03     49.7801E-03
            1378            1993     49.0845E-03     49.7801E-03
            1380            1994     17.0443E-03     19.0830E-03
            1362            1994     17.0443E-03     19.0830E-03
            1361            1994     17.0443E-03     19.0830E-03
            1379            1994     17.0443E-03     19.0830E-03
            1363            1995     14.0255E-03     14.3928E-03
            1362            1995     14.0255E-03     14.3928E-03
            1380            1995     14.0255E-03     14.3928E-03
            1381            1995     14.0255E-03     14.3928E-03
            1364            1996     12.5750E-03     12.4552E-03
            1381            1996     12.5750E-03     12.4552E-03
            1363            1996     12.5750E-03     12.4552E-03
            1382            1996     12.5750E-03     12.4552E-03
            1365            1997     11.7785E-03     11.6699E-03
            1383            1997     11.7785E-03     11.6699E-03
            1364            1997     11.7785E-03     11.6699E-03
            1382            1997     11.7785E-03     11.6699E-03
            1366            1998     12.0809E-03     12.1844E-03
            1384            1998     12.0809E-03     12.1844E-03
            1383            1998     12.0809E-03     12.1844E-03
            1365            1998     12.0809E-03     12.1844E-03
            1366            1999     13.4404E-03     13.7957E-03
            1385            1999     13.4404E-03     13.7957E-03
            1384            1999     13.4404E-03     13.7957E-03
            1367            1999     13.4404E-03     13.7957E-03
            1367            2000     15.5558E-03     16.0305E-03
            1386            2000     15.5558E-03     16.0305E-03
            1385            2000     15.5558E-03     16.0305E-03
            1368            2000     15.5558E-03     16.0305E-03
            1387            2001     18.0892E-03     18.6009E-03
            1369            2001     18.0892E-03     18.6009E-03
            1386            2001     18.0892E-03     18.6009E-03
            1368            2001     18.0892E-03     18.6009E-03
            1388            2002     20.8548E-03     21.3492E-03
            1370            2002     20.8548E-03     21.3492E-03
            1369            2002     20.8548E-03     21.3492E-03
            1387            2002     20.8548E-03     21.3492E-03
            1389            2003     23.7438E-03     24.1983E-03
            1388            2003     23.7438E-03     24.1983E-03
            1370            2003     23.7438E-03     24.1983E-03
            1371            2003     23.7438E-03     24.1983E-03
            1372            2004     26.7288E-03     27.0983E-03
            1390            2004     26.7288E-03     27.0983E-03
            1371            2004     26.7288E-03     27.0983E-03
            1389            2004     26.7288E-03     27.0983E-03
            1391            2005     29.7568E-03     30.0392E-03
            1373            2005     29.7568E-03     30.0392E-03
            1372            2005     29.7568E-03     30.0392E-03
            1390            2005     29.7568E-03     30.0392E-03
            1391            2006     32.8580E-03     32.9997E-03
            1392            2006     32.8580E-03     32.9997E-03
            1373            2006     32.8580E-03     32.9997E-03
            1374            2006     32.8580E-03     32.9997E-03
            1392            2007     35.9997E-03     36.0364E-03
            1393            2007     35.9997E-03     36.0364E-03
            1374            2007     35.9997E-03     36.0364E-03
            1375            2007     35.9997E-03     36.0364E-03
            1375            2008     39.3294E-03     39.2429E-03
            1393            2008     39.3294E-03     39.2429E-03
            1376            2008     39.3294E-03     39.2429E-03
            1394            2008     39.3294E-03     39.2429E-03
            1376            2009     42.8135E-03     42.7835E-03
            1377            2009     42.8135E-03     42.7835E-03
            1395            2009     42.8135E-03     42.7835E-03
            1394            2009     42.8135E-03     42.7835E-03
            1395            2010     47.4715E-03     48.3430E-03
            1396            2010     47.4715E-03     48.3430E-03
            1377            2010     47.4715E-03     48.3430E-03
            1378            2010     47.4715E-03     48.3430E-03
            1398            2011     17.0054E-03     19.0546E-03
            1380            2011     17.0054E-03     19.0546E-03
            1379            2011     17.0054E-03     19.0546E-03
            1397            2011     17.0054E-03     19.0546E-03
            1380            2012     15.5919E-03     17.0969E-03
            1399            2012     15.5919E-03     17.0969E-03
            1398            2012     15.5919E-03     17.0969E-03
            1381            2012     15.5919E-03     17.0969E-03
            1382            2013     15.4991E-03     16.1957E-03
            1381            2013     15.4991E-03     16.1957E-03
            1399            2013     15.4991E-03     16.1957E-03
            1400            2013     15.4991E-03     16.1957E-03
            1400            2014     15.9870E-03     16.2994E-03
            1382            2014     15.9870E-03     16.2994E-03
            1401            2014     15.9870E-03     16.2994E-03
            1383            2014     15.9870E-03     16.2994E-03
            1384            2015     17.1699E-03     17.2812E-03
            1383            2015     17.1699E-03     17.2812E-03
            1401            2015     17.1699E-03     17.2812E-03
            1402            2015     17.1699E-03     17.2812E-03
            1402            2016     19.0054E-03     19.0037E-03
            1385            2016     19.0054E-03     19.0037E-03
            1403            2016     19.0054E-03     19.0037E-03
            1384            2016     19.0054E-03     19.0037E-03
            1403            2017     21.3533E-03     21.3030E-03
            1385            2017     21.3533E-03     21.3030E-03
            1386            2017     21.3533E-03     21.3030E-03
            1404            2017     21.3533E-03     21.3030E-03
            1386            2018     24.0939E-03     23.9929E-03
            1404            2018     24.0939E-03     23.9929E-03
            1387            2018     24.0939E-03     23.9929E-03
            1405            2018     24.0939E-03     23.9929E-03
            1405            2019     27.0826E-03     26.9412E-03
            1406            2019     27.0826E-03     26.9412E-03
            1387            2019     27.0826E-03     26.9412E-03
            1388            2019     27.0826E-03     26.9412E-03
            1406            2020     30.2286E-03     30.0214E-03
            1407            2020     30.2286E-03     30.0214E-03
            1389            2020     30.2286E-03     30.0214E-03
            1388            2020     30.2286E-03     30.0214E-03
            1407            2021     33.4320E-03     33.1550E-03
            1389            2021     33.4320E-03     33.1550E-03
            1390            2021     33.4320E-03     33.1550E-03
            1408            2021     33.4320E-03     33.1550E-03
            1390            2022     36.6231E-03     36.2490E-03
            1408            2022     36.6231E-03     36.2490E-03
            1391            2022     36.6231E-03     36.2490E-03
            1409            2022     36.6231E-03     36.2490E-03
            1392            2023     39.7149E-03     39.2380E-03
            1409            2023     39.7149E-03     39.2380E-03
            1410            2023     39.7149E-03     39.2380E-03
            1391            2023     39.7149E-03     39.2380E-03
            1411            2024     42.6329E-03     42.0534E-03
            1410            2024     42.6329E-03     42.0534E-03
            1393            2024     42.6329E-03     42.0534E-03
            1392            2024     42.6329E-03     42.0534E-03
            1394            2025     45.2499E-03     44.5950E-03
            1412            2025     45.2499E-03     44.5950E-03
            1393            2025     45.2499E-03     44.5950E-03
            1411            2025     45.2499E-03     44.5950E-03
            1394            2026     47.4381E-03     46.8530E-03
            1395            2026     47.4381E-03     46.8530E-03
            1412            2026     47.4381E-03     46.8530E-03
            1413            2026     47.4381E-03     46.8530E-03
            1395            2027     48.9957E-03     48.3209E-03
            1413            2027     48.9957E-03     48.3209E-03
            1396            2027     48.9957E-03     48.3209E-03
            1414            2027     48.9957E-03     48.3209E-03
            1397            2028     18.9192E-03     18.1909E-03
            1416            2028     18.9192E-03     18.1909E-03
            1398            2028     18.9192E-03     18.1909E-03
            1415            2028     18.9192E-03     18.1909E-03
            1417            2029     16.4302E-03     16.8811E-03
            1416            2029     16.4302E-03     16.8811E-03
            1398            2029     16.4302E-03     16.8811E-03
            1399            2029     16.4302E-03     16.8811E-03
            1400            2030     14.8520E-03     15.4826E-03
            1417            2030     14.8520E-03     15.4826E-03
            1399            2030     14.8520E-03     15.4826E-03
            1418            2030     14.8520E-03     15.4826E-03
            1418            2031     14.6571E-03     15.0494E-03
            1419            2031     14.6571E-03     15.0494E-03
            1400            2031     14.6571E-03     15.0494E-03
            1401            2031     14.6571E-03     15.0494E-03
            1419            2032     15.5144E-03     15.7562E-03
            1401            2032     15.5144E-03     15.7562E-03
            1402            2032     15.5144E-03     15.7562E-03
            1420            2032     15.5144E-03     15.7562E-03
            1420            2033     17.3690E-03     17.5055E-03
            1402            2033     17.3690E-03     17.5055E-03
            1421            2033     17.3690E-03     17.5055E-03
            1403            2033     17.3690E-03     17.5055E-03
            1404            2034     19.9732E-03     20.0521E-03
            1422            2034     19.9732E-03     20.0521E-03
            1403            2034     19.9732E-03     20.0521E-03
            1421            2034     19.9732E-03     20.0521E-03
            1404            2035     23.0873E-03     23.1388E-03
            1422            2035     23.0873E-03     23.1388E-03
            1405            2035     23.0873E-03     23.1388E-03
            1423            2035     23.0873E-03     23.1388E-03
            1423            2036     26.5348E-03     26.5623E-03
            1406            2036     26.5348E-03     26.5623E-03
            1424            2036     26.5348E-03     26.5623E-03
            1405            2036     26.5348E-03     26.5623E-03
            1425            2037     30.1733E-03     30.1889E-03
            1424            2037     30.1733E-03     30.1889E-03
            1406            2037     30.1733E-03     30.1889E-03
            1407            2037     30.1733E-03     30.1889E-03
            1426            2038     33.9077E-03     33.9053E-03
            1425            2038     33.9077E-03     33.9053E-03
            1407            2038     33.9077E-03     33.9053E-03
            1408            2038     33.9077E-03     33.9053E-03
            1408            2039     37.6411E-03     37.6412E-03
            1409            2039     37.6411E-03     37.6412E-03
            1427            2039     37.6411E-03     37.6412E-03
            1426            2039     37.6411E-03     37.6412E-03
            1409            2040     41.2870E-03     41.3056E-03
            1428            2040     41.2870E-03     41.3056E-03
            1410            2040     41.2870E-03     41.3056E-03
            1427            2040     41.2870E-03     41.3056E-03
            1428            2041     44.7490E-03     44.8292E-03
            1429            2041     44.7490E-03     44.8292E-03
            1410            2041     44.7490E-03     44.8292E-03
            1411            2041     44.7490E-03     44.8292E-03
            1429            2042     47.8741E-03     48.1081E-03
            1411            2042     47.8741E-03     48.1081E-03
            1412            2042     47.8741E-03     48.1081E-03
            1430            2042     47.8741E-03     48.1081E-03
            1412            2043     50.6367E-03     50.9661E-03
            1430            2043     50.6367E-03     50.9661E-03
            1413            2043     50.6367E-03     50.9661E-03
            1431            2043     50.6367E-03     50.9661E-03
            1413            2044     52.7872E-03     52.9828E-03
            1414            2044     52.7872E-03     52.9828E-03
            1431            2044     52.7872E-03     52.9828E-03
            1432            2044     52.7872E-03     52.9828E-03
            1416            2045     18.7231E-03     17.6827E-03
            1415            2045     18.7231E-03     17.6827E-03
            1433            2045     18.7231E-03     17.6827E-03
            1434            2045     18.7231E-03     17.6827E-03
            1416            2046     16.7730E-03     16.1466E-03
            1434            2046     16.7730E-03     16.1466E-03
            1417            2046     16.7730E-03     16.1466E-03
            1435            2046     16.7730E-03     16.1466E-03
            1435            2047     14.7461E-03     14.7703E-03
            1417            2047     14.7461E-03     14.7703E-03
            1418            2047     14.7461E-03     14.7703E-03
            1436            2047     14.7461E-03     14.7703E-03
            1419            2048     13.8236E-03     14.0815E-03
            1436            2048     13.8236E-03     14.0815E-03
            1437            2048     13.8236E-03     14.0815E-03
            1418            2048     13.8236E-03     14.0815E-03
            1438            2049     14.3622E-03     14.6322E-03
            1437            2049     14.3622E-03     14.6322E-03
            1420            2049     14.3622E-03     14.6322E-03
            1419            2049     14.3622E-03     14.6322E-03
            1420            2050     16.1828E-03     16.4425E-03
            1439            2050     16.1828E-03     16.4425E-03
            1421            2050     16.1828E-03     16.4425E-03
            1438            2050     16.1828E-03     16.4425E-03
            1421            2051     18.9802E-03     19.2237E-03
            1439            2051     18.9802E-03     19.2237E-03
            1422            2051     18.9802E-03     19.2237E-03
            1440            2051     18.9802E-03     19.2237E-03
            1422            2052     22.4130E-03     22.6544E-03
            1440            2052     22.4130E-03     22.6544E-03
            1441            2052     22.4130E-03     22.6544E-03
            1423            2052     22.4130E-03     22.6544E-03
            1423            2053     26.2316E-03     26.4851E-03
            1424            2053     26.2316E-03     26.4851E-03
            1441            2053     26.2316E-03     26.4851E-03
            1442            2053     26.2316E-03     26.4851E-03
            1424            2054     30.2778E-03     30.5510E-03
            1443            2054     30.2778E-03     30.5510E-03
            1425            2054     30.2778E-03     30.5510E-03
            1442            2054     30.2778E-03     30.5510E-03
            1426            2055     34.4328E-03     34.7491E-03
            1443            2055     34.4328E-03     34.7491E-03
            1425            2055     34.4328E-03     34.7491E-03
            1444            2055     34.4328E-03     34.7491E-03
            1445            2056     38.6055E-03     38.9788E-03
            1444            2056     38.6055E-03     38.9788E-03
            1426            2056     38.6055E-03     38.9788E-03
            1427            2056     38.6055E-03     38.9788E-03
            1446            2057     42.7013E-03     43.1651E-03
            1427            2057     42.7013E-03     43.1651E-03
            1428            2057     42.7013E-03     43.1651E-03
            1445            2057     42.7013E-03     43.1651E-03
            1447            2058     46.5820E-03     47.1885E-03
            1428            2058     46.5820E-03     47.1885E-03
            1429            2058     46.5820E-03     47.1885E-03
            1446            2058     46.5820E-03     47.1885E-03
            1429            2059     50.1999E-03     50.9065E-03
            1447            2059     50.1999E-03     50.9065E-03
            1448            2059     50.1999E-03     50.9065E-03
            1430            2059     50.1999E-03     50.9065E-03
            1430            2060     53.3181E-03     54.0973E-03
            1449            2060     53.3181E-03     54.0973E-03
            1448            2060     53.3181E-03     54.0973E-03
            1431            2060     53.3181E-03     54.0973E-03
            1432            2061     56.0306E-03     56.6989E-03
            1449            2061     56.0306E-03     56.6989E-03
            1450            2061     56.0306E-03     56.6989E-03
            1431            2061     56.0306E-03     56.6989E-03
            1451            2062     18.7149E-03     17.4553E-03
            1434            2062     18.7149E-03     17.4553E-03
            1452            2062     18.7149E-03     17.4553E-03
            1433            2062     18.7149E-03     17.4553E-03
            1452            2063     16.4424E-03     15.5291E-03
            1434            2063     16.4424E-03     15.5291E-03
            1435            2063     16.4424E-03     15.5291E-03
            1453            2063     16.4424E-03     15.5291E-03
            1453            2064     14.4503E-03     13.9499E-03
            1454            2064     14.4503E-03     13.9499E-03
            1435            2064     14.4503E-03     13.9499E-03
            1436            2064     14.4503E-03     13.9499E-03
            1437            2065     13.2266E-03     13.1887E-03
            1454            2065     13.2266E-03     13.1887E-03
            1436            2065     13.2266E-03     13.1887E-03
            1455            2065     13.2266E-03     13.1887E-03
            1437            2066     13.4846E-03     13.7116E-03
            1455            2066     13.4846E-03     13.7116E-03
            1456            2066     13.4846E-03     13.7116E-03
            1438            2066     13.4846E-03     13.7116E-03
            1438            2067     15.2714E-03     15.6218E-03
            1439            2067     15.2714E-03     15.6218E-03
            1456            2067     15.2714E-03     15.6218E-03
            1457            2067     15.2714E-03     15.6218E-03
            1439            2068     18.2214E-03     18.6320E-03
            1440            2068     18.2214E-03     18.6320E-03
            1458            2068     18.2214E-03     18.6320E-03
            1457            2068     18.2214E-03     18.6320E-03
            1459            2069     21.8966E-03     22.3438E-03
            1441            2069     21.8966E-03     22.3438E-03
            1458            2069     21.8966E-03     22.3438E-03
            1440            2069     21.8966E-03     22.3438E-03
            1460            2070     25.9973E-03     26.4852E-03
            1441            2070     25.9973E-03     26.4852E-03
            1459            2070     25.9973E-03     26.4852E-03
            1442            2070     25.9973E-03     26.4852E-03
            1442            2071     30.3442E-03     30.8853E-03
            1443            2071     30.3442E-03     30.8853E-03
            1461            2071     30.3442E-03     30.8853E-03
            1460            2071     30.3442E-03     30.8853E-03
            1461            2072     34.8243E-03     35.4306E-03
            1444            2072     34.8243E-03     35.4306E-03
            1462            2072     34.8243E-03     35.4306E-03
            1443            2072     34.8243E-03     35.4306E-03
            1444            2073     39.3390E-03     40.0373E-03
            1445            2073     39.3390E-03     40.0373E-03
            1463            2073     39.3390E-03     40.0373E-03
            1462            2073     39.3390E-03     40.0373E-03
            1464            2074     43.7900E-03     44.5974E-03
            1445            2074     43.7900E-03     44.5974E-03
            1446            2074     43.7900E-03     44.5974E-03
            1463            2074     43.7900E-03     44.5974E-03
            1447            2075     48.0879E-03     48.9897E-03
            1446            2075     48.0879E-03     48.9897E-03
            1464            2075     48.0879E-03     48.9897E-03
            1465            2075     48.0879E-03     48.9897E-03
            1448            2076     52.0502E-03     53.0381E-03
            1465            2076     52.0502E-03     53.0381E-03
            1447            2076     52.0502E-03     53.0381E-03
            1466            2076     52.0502E-03     53.0381E-03
            1467            2077     55.6547E-03     56.5671E-03
            1448            2077     55.6547E-03     56.5671E-03
            1449            2077     55.6547E-03     56.5671E-03
            1466            2077     55.6547E-03     56.5671E-03
            1468            2078     58.9381E-03     59.5354E-03
            1450            2078     58.9381E-03     59.5354E-03
            1449            2078     58.9381E-03     59.5354E-03
            1467            2078     58.9381E-03     59.5354E-03
            1451            2079     18.8400E-03     17.4503E-03
            1470            2079     18.8400E-03     17.4503E-03
            1452            2079     18.8400E-03     17.4503E-03
            1469            2079     18.8400E-03     17.4503E-03
            1470            2080     16.2411E-03     15.0877E-03
            1471            2080     16.2411E-03     15.0877E-03
            1452            2080     16.2411E-03     15.0877E-03
            1453            2080     16.2411E-03     15.0877E-03
            1454            2081     13.9978E-03     13.2318E-03
            1453            2081     13.9978E-03     13.2318E-03
            1472            2081     13.9978E-03     13.2318E-03
            1471            2081     13.9978E-03     13.2318E-03
            1472            2082     12.6225E-03     12.3193E-03
            1455            2082     12.6225E-03     12.3193E-03
            1454            2082     12.6225E-03     12.3193E-03
            1473            2082     12.6225E-03     12.3193E-03
            1455            2083     12.6994E-03     12.8430E-03
            1456            2083     12.6994E-03     12.8430E-03
            1474            2083     12.6994E-03     12.8430E-03
            1473            2083     12.6994E-03     12.8430E-03
            1474            2084     14.4870E-03     14.9056E-03
            1456            2084     14.4870E-03     14.9056E-03
            1457            2084     14.4870E-03     14.9056E-03
            1475            2084     14.4870E-03     14.9056E-03
            1458            2085     17.5503E-03     18.1124E-03
            1457            2085     17.5503E-03     18.1124E-03
            1476            2085     17.5503E-03     18.1124E-03
            1475            2085     17.5503E-03     18.1124E-03
            1459            2086     21.3983E-03     22.0453E-03
            1477            2086     21.3983E-03     22.0453E-03
            1476            2086     21.3983E-03     22.0453E-03
            1458            2086     21.3983E-03     22.0453E-03
            1460            2087     25.6971E-03     26.4073E-03
            1477            2087     25.6971E-03     26.4073E-03
            1459            2087     25.6971E-03     26.4073E-03
            1478            2087     25.6971E-03     26.4073E-03
            1479            2088     30.2519E-03     31.0315E-03
            1478            2088     30.2519E-03     31.0315E-03
            1460            2088     30.2519E-03     31.0315E-03
            1461            2088     30.2519E-03     31.0315E-03
            1479            2089     34.9557E-03     35.8153E-03
            1480            2089     34.9557E-03     35.8153E-03
            1461            2089     34.9557E-03     35.8153E-03
            1462            2089     34.9557E-03     35.8153E-03
            1481            2090     39.7426E-03     40.6845E-03
            1462            2090     39.7426E-03     40.6845E-03
            1480            2090     39.7426E-03     40.6845E-03
            1463            2090     39.7426E-03     40.6845E-03
            1481            2091     44.5150E-03     45.5500E-03
            1463            2091     44.5150E-03     45.5500E-03
            1482            2091     44.5150E-03     45.5500E-03
            1464            2091     44.5150E-03     45.5500E-03
            1482            2092     49.1743E-03     50.2689E-03
            1464            2092     49.1743E-03     50.2689E-03
            1483            2092     49.1743E-03     50.2689E-03
            1465            2092     49.1743E-03     50.2689E-03
            1465            2093     53.6085E-03     54.6791E-03
            1483            2093     53.6085E-03     54.6791E-03
            1466            2093     53.6085E-03     54.6791E-03
            1484            2093     53.6085E-03     54.6791E-03
            1467            2094     57.6917E-03     58.6367E-03
            1484            2094     57.6917E-03     58.6367E-03
            1485            2094     57.6917E-03     58.6367E-03
            1466            2094     57.6917E-03     58.6367E-03
            1485            2095     61.5212E-03     62.1750E-03
            1467            2095     61.5212E-03     62.1750E-03
            1468            2095     61.5212E-03     62.1750E-03
            1486            2095     61.5212E-03     62.1750E-03
            1487            2096     19.1773E-03     17.7401E-03
            1488            2096     19.1773E-03     17.7401E-03
            1469            2096     19.1773E-03     17.7401E-03
            1470            2096     19.1773E-03     17.7401E-03
            1488            2097     16.2390E-03     14.9334E-03
            1470            2097     16.2390E-03     14.9334E-03
            1489            2097     16.2390E-03     14.9334E-03
            1471            2097     16.2390E-03     14.9334E-03
            1489            2098     13.6364E-03     12.6561E-03
            1471            2098     13.6364E-03     12.6561E-03
            1490            2098     13.6364E-03     12.6561E-03
            1472            2098     13.6364E-03     12.6561E-03
            1490            2099     11.9509E-03     11.4752E-03
            1473            2099     11.9509E-03     11.4752E-03
            1472            2099     11.9509E-03     11.4752E-03
            1491            2099     11.9509E-03     11.4752E-03
            1473            2100     11.9232E-03     11.9867E-03
            1474            2100     11.9232E-03     11.9867E-03
            1491            2100     11.9232E-03     11.9867E-03
            1492            2100     11.9232E-03     11.9867E-03
            1475            2101     13.6799E-03     14.1588E-03
            1492            2101     13.6799E-03     14.1588E-03
            1493            2101     13.6799E-03     14.1588E-03
            1474            2101     13.6799E-03     14.1588E-03
            1476            2102     16.8412E-03     17.5489E-03
            1494            2102     16.8412E-03     17.5489E-03
            1493            2102     16.8412E-03     17.5489E-03
            1475            2102     16.8412E-03     17.5489E-03
            1494            2103     20.8212E-03     21.6455E-03
            1476            2103     20.8212E-03     21.6455E-03
            1495            2103     20.8212E-03     21.6455E-03
            1477            2103     20.8212E-03     21.6455E-03
            1496            2104     25.2348E-03     26.1459E-03
            1478            2104     25.2348E-03     26.1459E-03
            1495            2104     25.2348E-03     26.1459E-03
            1477            2104     25.2348E-03     26.1459E-03
            1497            2105     29.9155E-03     30.8970E-03
            1496            2105     29.9155E-03     30.8970E-03
            1479            2105     29.9155E-03     30.8970E-03
            1478            2105     29.9155E-03     30.8970E-03
            1498            2106     34.7671E-03     35.8244E-03
            1479            2106     34.7671E-03     35.8244E-03
            1480            2106     34.7671E-03     35.8244E-03
            1497            2106     34.7671E-03     35.8244E-03
            1499            2107     39.7321E-03     40.8628E-03
            1480            2107     39.7321E-03     40.8628E-03
            1498            2107     39.7321E-03     40.8628E-03
            1481            2107     39.7321E-03     40.8628E-03
            1499            2108     44.8107E-03     45.9769E-03
            1481            2108     44.8107E-03     45.9769E-03
            1482            2108     44.8107E-03     45.9769E-03
            1500            2108     44.8107E-03     45.9769E-03
            1483            2109     49.8703E-03     51.0700E-03
            1482            2109     49.8703E-03     51.0700E-03
            1501            2109     49.8703E-03     51.0700E-03
            1500            2109     49.8703E-03     51.0700E-03
            1502            2110     54.8207E-03     55.9533E-03
            1501            2110     54.8207E-03     55.9533E-03
            1483            2110     54.8207E-03     55.9533E-03
            1484            2110     54.8207E-03     55.9533E-03
            1485            2111     59.5456E-03     60.4682E-03
            1503            2111     59.5456E-03     60.4682E-03
            1502            2111     59.5456E-03     60.4682E-03
            1484            2111     59.5456E-03     60.4682E-03
            1485            2112     63.8911E-03     64.6411E-03
            1503            2112     63.8911E-03     64.6411E-03
            1486            2112     63.8911E-03     64.6411E-03
            1504            2112     63.8911E-03     64.6411E-03
            1506            2113     19.8598E-03     18.3415E-03
            1487            2113     19.8598E-03     18.3415E-03
            1505            2113     19.8598E-03     18.3415E-03
            1488            2113     19.8598E-03     18.3415E-03
            1489            2114     16.4465E-03     15.0609E-03
            1506            2114     16.4465E-03     15.0609E-03
            1507            2114     16.4465E-03     15.0609E-03
            1488            2114     16.4465E-03     15.0609E-03
            1507            2115     13.3914E-03     12.2570E-03
            1490            2115     13.3914E-03     12.2570E-03
            1508            2115     13.3914E-03     12.2570E-03
            1489            2115     13.3914E-03     12.2570E-03
            1490            2116     11.3116E-03     10.6827E-03
            1508            2116     11.3116E-03     10.6827E-03
            1509            2116     11.3116E-03     10.6827E-03
            1491            2116     11.3116E-03     10.6827E-03
            1491            2117     10.9664E-03     11.0069E-03
            1509            2117     10.9664E-03     11.0069E-03
            1510            2117     10.9664E-03     11.0069E-03
            1492            2117     10.9664E-03     11.0069E-03
            1492            2118     12.7424E-03     13.3070E-03
            1493            2118     12.7424E-03     13.3070E-03
            1511            2118     12.7424E-03     13.3070E-03
            1510            2118     12.7424E-03     13.3070E-03
            1512            2119     16.0178E-03     16.8634E-03
            1494            2119     16.0178E-03     16.8634E-03
            1511            2119     16.0178E-03     16.8634E-03
            1493            2119     16.0178E-03     16.8634E-03
            1513            2120     20.0754E-03     21.0717E-03
            1495            2120     20.0754E-03     21.0717E-03
            1512            2120     20.0754E-03     21.0717E-03
            1494            2120     20.0754E-03     21.0717E-03
            1513            2121     24.5658E-03     25.6447E-03
            1514            2121     24.5658E-03     25.6447E-03
            1496            2121     24.5658E-03     25.6447E-03
            1495            2121     24.5658E-03     25.6447E-03
            1497            2122     29.2936E-03     30.4462E-03
            1514            2122     29.2936E-03     30.4462E-03
            1515            2122     29.2936E-03     30.4462E-03
            1496            2122     29.2936E-03     30.4462E-03
            1497            2123     34.2082E-03     35.4147E-03
            1516            2123     34.2082E-03     35.4147E-03
            1515            2123     34.2082E-03     35.4147E-03
            1498            2123     34.2082E-03     35.4147E-03
            1499            2124     39.2945E-03     40.5520E-03
            1517            2124     39.2945E-03     40.5520E-03
            1498            2124     39.2945E-03     40.5520E-03
            1516            2124     39.2945E-03     40.5520E-03
            1499            2125     44.5411E-03     45.8265E-03
            1500            2125     44.5411E-03     45.8265E-03
            1517            2125     44.5411E-03     45.8265E-03
            1518            2125     44.5411E-03     45.8265E-03
            1501            2126     50.0775E-03     51.2823E-03
            1500            2126     50.0775E-03     51.2823E-03
            1519            2126     50.0775E-03     51.2823E-03
            1518            2126     50.0775E-03     51.2823E-03
            1519            2127     55.6709E-03     56.8214E-03
            1501            2127     55.6709E-03     56.8214E-03
            1502            2127     55.6709E-03     56.8214E-03
            1520            2127     55.6709E-03     56.8214E-03
            1520            2128     61.0969E-03     62.1408E-03
            1502            2128     61.0969E-03     62.1408E-03
            1503            2128     61.0969E-03     62.1408E-03
            1521            2128     61.0969E-03     62.1408E-03
            1504            2129     66.2640E-03     66.8911E-03
            1521            2129     66.2640E-03     66.8911E-03
            1503            2129     66.2640E-03     66.8911E-03
            1522            2129     66.2640E-03     66.8911E-03
            1505            2130     20.7811E-03     19.2979E-03
            1524            2130     20.7811E-03     19.2979E-03
            1506            2130     20.7811E-03     19.2979E-03
            1523            2130     20.7811E-03     19.2979E-03
            1507            2131     17.0491E-03     15.5336E-03
            1524            2131     17.0491E-03     15.5336E-03
            1506            2131     17.0491E-03     15.5336E-03
            1525            2131     17.0491E-03     15.5336E-03
            1507            2132     13.2300E-03     11.9608E-03
            1508            2132     13.2300E-03     11.9608E-03
            1525            2132     13.2300E-03     11.9608E-03
            1526            2132     13.2300E-03     11.9608E-03
            1509            2133     10.3194E-03     9.63404E-03
            1508            2133     10.3194E-03     9.63404E-03
            1527            2133     10.3194E-03     9.63404E-03
            1526            2133     10.3194E-03     9.63404E-03
            1528            2134     9.75303E-03     9.83752E-03
            1527            2134     9.75303E-03     9.83752E-03
            1509            2134     9.75303E-03     9.83752E-03
            1510            2134     9.75303E-03     9.83752E-03
            1529            2135     11.6052E-03     12.2966E-03
            1528            2135     11.6052E-03     12.2966E-03
            1510            2135     11.6052E-03     12.2966E-03
            1511            2135     11.6052E-03     12.2966E-03
            1511            2136     14.9907E-03     16.0067E-03
            1530            2136     14.9907E-03     16.0067E-03
            1529            2136     14.9907E-03     16.0067E-03
            1512            2136     14.9907E-03     16.0067E-03
            1513            2137     19.1540E-03     20.3115E-03
            1531            2137     19.1540E-03     20.3115E-03
            1530            2137     19.1540E-03     20.3115E-03
            1512            2137     19.1540E-03     20.3115E-03
            1513            2138     23.6621E-03     24.9011E-03
            1532            2138     23.6621E-03     24.9011E-03
            1531            2138     23.6621E-03     24.9011E-03
            1514            2138     23.6621E-03     24.9011E-03
            1515            2139     28.3971E-03     29.6789E-03
            1533            2139     28.3971E-03     29.6789E-03
            1532            2139     28.3971E-03     29.6789E-03
            1514            2139     28.3971E-03     29.6789E-03
            1534            2140     33.2953E-03     34.6214E-03
            1515            2140     33.2953E-03     34.6214E-03
            1533            2140     33.2953E-03     34.6214E-03
            1516            2140     33.2953E-03     34.6214E-03
            1534            2141     38.3931E-03     39.7316E-03
            1535            2141     38.3931E-03     39.7316E-03
            1517            2141     38.3931E-03     39.7316E-03
            1516            2141     38.3931E-03     39.7316E-03
            1536            2142     43.7466E-03     45.0930E-03
            1518            2142     43.7466E-03     45.0930E-03
            1535            2142     43.7466E-03     45.0930E-03
            1517            2142     43.7466E-03     45.0930E-03
            1536            2143     49.4415E-03     50.7401E-03
            1518            2143     49.4415E-03     50.7401E-03
            1519            2143     49.4415E-03     50.7401E-03
            1537            2143     49.4415E-03     50.7401E-03
            1519            2144     55.8613E-03     56.9134E-03
            1520            2144     55.8613E-03     56.9134E-03
            1537            2144     55.8613E-03     56.9134E-03
            1538            2144     55.8613E-03     56.9134E-03
            1538            2145     62.4522E-03     63.3385E-03
            1520            2145     62.4522E-03     63.3385E-03
            1521            2145     62.4522E-03     63.3385E-03
            1539            2145     62.4522E-03     63.3385E-03
            1540            2146     68.3483E-03     69.3600E-03
            1521            2146     68.3483E-03     69.3600E-03
            1539            2146     68.3483E-03     69.3600E-03
            1522            2146     68.3483E-03     69.3600E-03
            1542            2147     22.6609E-03     20.9405E-03
            1523            2147     22.6609E-03     20.9405E-03
            1524            2147     22.6609E-03     20.9405E-03
            1541            2147     22.6609E-03     20.9405E-03
            1542            2148     17.6047E-03     16.0700E-03
            1543            2148     17.6047E-03     16.0700E-03
            1524            2148     17.6047E-03     16.0700E-03
            1525            2148     17.6047E-03     16.0700E-03
            1526            2149     12.2763E-03     11.0337E-03
            1544            2149     12.2763E-03     11.0337E-03
            1525            2149     12.2763E-03     11.0337E-03
            1543            2149     12.2763E-03     11.0337E-03
            1544            2150     8.85526E-03     8.19388E-03
            1527            2150     8.85526E-03     8.19388E-03
            1526            2150     8.85526E-03     8.19388E-03
            1545            2150     8.85526E-03     8.19388E-03
            1545            2151     8.16530E-03     8.38577E-03
            1546            2151     8.16530E-03     8.38577E-03
            1528            2151     8.16530E-03     8.38577E-03
            1527            2151     8.16530E-03     8.38577E-03
            1528            2152     10.1624E-03     11.0855E-03
            1546            2152     10.1624E-03     11.0855E-03
            1547            2152     10.1624E-03     11.0855E-03
            1529            2152     10.1624E-03     11.0855E-03
            1530            2153     13.8069E-03     15.0288E-03
            1547            2153     13.8069E-03     15.0288E-03
            1548            2153     13.8069E-03     15.0288E-03
            1529            2153     13.8069E-03     15.0288E-03
            1549            2154     18.0554E-03     19.3978E-03
            1530            2154     18.0554E-03     19.3978E-03
            1531            2154     18.0554E-03     19.3978E-03
            1548            2154     18.0554E-03     19.3978E-03
            1550            2155     22.5847E-03     23.9718E-03
            1531            2155     22.5847E-03     23.9718E-03
            1532            2155     22.5847E-03     23.9718E-03
            1549            2155     22.5847E-03     23.9718E-03
            1550            2156     27.2693E-03     28.6739E-03
            1533            2156     27.2693E-03     28.6739E-03
            1532            2156     27.2693E-03     28.6739E-03
            1551            2156     27.2693E-03     28.6739E-03
            1533            2157     32.1115E-03     33.5070E-03
            1551            2157     32.1115E-03     33.5070E-03
            1534            2157     32.1115E-03     33.5070E-03
            1552            2157     32.1115E-03     33.5070E-03
            1534            2158     37.1166E-03     38.5095E-03
            1552            2158     37.1166E-03     38.5095E-03
            1535            2158     37.1166E-03     38.5095E-03
            1553            2158     37.1166E-03     38.5095E-03
            1553            2159     42.4199E-03     43.7715E-03
            1536            2159     42.4199E-03     43.7715E-03
            1535            2159     42.4199E-03     43.7715E-03
            1554            2159     42.4199E-03     43.7715E-03
            1537            2160     48.1274E-03     49.4610E-03
            1555            2160     48.1274E-03     49.4610E-03
            1536            2160     48.1274E-03     49.4610E-03
            1554            2160     48.1274E-03     49.4610E-03
            1538            2161     54.5885E-03     55.7985E-03
            1537            2161     54.5885E-03     55.7985E-03
            1555            2161     54.5885E-03     55.7985E-03
            1556            2161     54.5885E-03     55.7985E-03
            1538            2162     62.6822E-03     63.4109E-03
            1557            2162     62.6822E-03     63.4109E-03
            1556            2162     62.6822E-03     63.4109E-03
            1539            2162     62.6822E-03     63.4109E-03
            1540            2163     70.7408E-03     70.8419E-03
            1539            2163     70.7408E-03     70.8419E-03
            1558            2163     70.7408E-03     70.8419E-03
            1557            2163     70.7408E-03     70.8419E-03
            1542            2164     24.0381E-03     22.9021E-03
            1541            2164     24.0381E-03     22.9021E-03
            1559            2164     24.0381E-03     22.9021E-03
            1560            2164     24.0381E-03     22.9021E-03
            1560            2165     16.3506E-03     15.1520E-03
            1542            2165     16.3506E-03     15.1520E-03
            1561            2165     16.3506E-03     15.1520E-03
            1543            2165     16.3506E-03     15.1520E-03
            1562            2166     10.5237E-03     9.35385E-03
            1561            2166     10.5237E-03     9.35385E-03
            1543            2166     10.5237E-03     9.35385E-03
            1544            2166     10.5237E-03     9.35385E-03
            1545            2167     6.81259E-03     6.22916E-03
            1563            2167     6.81259E-03     6.22916E-03
            1544            2167     6.81259E-03     6.22916E-03
            1562            2167     6.81259E-03     6.22916E-03
            1564            2168     6.05065E-03     6.56673E-03
            1546            2168     6.05065E-03     6.56673E-03
            1545            2168     6.05065E-03     6.56673E-03
            1563            2168     6.05065E-03     6.56673E-03
            1565            2169     8.57586E-03     9.84497E-03
            1546            2169     8.57586E-03     9.84497E-03
            1547            2169     8.57586E-03     9.84497E-03
            1564            2169     8.57586E-03     9.84497E-03
            1547            2170     12.5332E-03     14.0296E-03
            1566            2170     12.5332E-03     14.0296E-03
            1548            2170     12.5332E-03     14.0296E-03
            1565            2170     12.5332E-03     14.0296E-03
            1567            2171     16.8988E-03     18.4589E-03
            1566            2171     16.8988E-03     18.4589E-03
            1549            2171     16.8988E-03     18.4589E-03
            1548            2171     16.8988E-03     18.4589E-03
            1550            2172     21.4234E-03     22.9792E-03
            1568            2172     21.4234E-03     22.9792E-03
            1567            2172     21.4234E-03     22.9792E-03
            1549            2172     21.4234E-03     22.9792E-03
            1569            2173     26.0475E-03     27.5683E-03
            1550            2173     26.0475E-03     27.5683E-03
            1568            2173     26.0475E-03     27.5683E-03
            1551            2173     26.0475E-03     27.5683E-03
            1552            2174     30.7729E-03     32.2322E-03
            1569            2174     30.7729E-03     32.2322E-03
            1551            2174     30.7729E-03     32.2322E-03
            1570            2174     30.7729E-03     32.2322E-03
            1570            2175     35.6640E-03     37.0482E-03
            1552            2175     35.6640E-03     37.0482E-03
            1571            2175     35.6640E-03     37.0482E-03
            1553            2175     35.6640E-03     37.0482E-03
            1553            2176     40.7628E-03     42.0688E-03
            1572            2176     40.7628E-03     42.0688E-03
            1571            2176     40.7628E-03     42.0688E-03
            1554            2176     40.7628E-03     42.0688E-03
            1573            2177     46.3236E-03     47.5578E-03
            1555            2177     46.3236E-03     47.5578E-03
            1554            2177     46.3236E-03     47.5578E-03
            1572            2177     46.3236E-03     47.5578E-03
            1555            2178     52.4399E-03     53.6753E-03
            1573            2178     52.4399E-03     53.6753E-03
            1574            2178     52.4399E-03     53.6753E-03
            1556            2178     52.4399E-03     53.6753E-03
            1556            2179     60.2081E-03     61.4752E-03
            1575            2179     60.2081E-03     61.4752E-03
            1557            2179     60.2081E-03     61.4752E-03
            1574            2179     60.2081E-03     61.4752E-03
            1575            2180     70.7981E-03     71.6155E-03
            1558            2180     70.7981E-03     71.6155E-03
            1576            2180     70.7981E-03     71.6155E-03
            1557            2180     70.7981E-03     71.6155E-03
            1560            2181     21.6431E-03     24.3387E-03
            1577            2181     21.6431E-03     24.3387E-03
            1559            2181     21.6431E-03     24.3387E-03
            1578            2181     21.6431E-03     24.3387E-03
            1579            2182     16.6671E-03     17.1420E-03
            1560            2182     16.6671E-03     17.1420E-03
            1561            2182     16.6671E-03     17.1420E-03
            1578            2182     16.6671E-03     17.1420E-03
            1561            2183     14.1050E-03     13.8602E-03
            1562            2183     14.1050E-03     13.8602E-03
            1579            2183     14.1050E-03     13.8602E-03
            1580            2183     14.1050E-03     13.8602E-03
            1562            2184     12.4707E-03     12.3422E-03
            1563            2184     12.4707E-03     12.3422E-03
            1580            2184     12.4707E-03     12.3422E-03
            1581            2184     12.4707E-03     12.3422E-03
            1581            2185     13.1441E-03     13.5142E-03
            1563            2185     13.1441E-03     13.5142E-03
            1582            2185     13.1441E-03     13.5142E-03
            1564            2185     13.1441E-03     13.5142E-03
            1582            2186     15.9696E-03     16.7107E-03
            1564            2186     15.9696E-03     16.7107E-03
            1583            2186     15.9696E-03     16.7107E-03
            1565            2186     15.9696E-03     16.7107E-03
            1583            2187     19.7706E-03     20.5875E-03
            1565            2187     19.7706E-03     20.5875E-03
            1584            2187     19.7706E-03     20.5875E-03
            1566            2187     19.7706E-03     20.5875E-03
            1584            2188     23.9700E-03     24.7864E-03
            1585            2188     23.9700E-03     24.7864E-03
            1567            2188     23.9700E-03     24.7864E-03
            1566            2188     23.9700E-03     24.7864E-03
            1586            2189     28.3500E-03     29.1212E-03
            1585            2189     28.3500E-03     29.1212E-03
            1567            2189     28.3500E-03     29.1212E-03
            1568            2189     28.3500E-03     29.1212E-03
            1587            2190     32.8486E-03     33.5522E-03
            1586            2190     32.8486E-03     33.5522E-03
            1568            2190     32.8486E-03     33.5522E-03
            1569            2190     32.8486E-03     33.5522E-03
            1587            2191     37.4301E-03     38.0127E-03
            1570            2191     37.4301E-03     38.0127E-03
            1588            2191     37.4301E-03     38.0127E-03
            1569            2191     37.4301E-03     38.0127E-03
            1588            2192     42.0389E-03     42.4970E-03
            1570            2192     42.0389E-03     42.4970E-03
            1589            2192     42.0389E-03     42.4970E-03
            1571            2192     42.0389E-03     42.4970E-03
            1571            2193     46.7455E-03     47.0016E-03
            1572            2193     46.7455E-03     47.0016E-03
            1590            2193     46.7455E-03     47.0016E-03
            1589            2193     46.7455E-03     47.0016E-03
            1590            2194     51.4641E-03     51.5784E-03
            1573            2194     51.4641E-03     51.5784E-03
            1591            2194     51.4641E-03     51.5784E-03
            1572            2194     51.4641E-03     51.5784E-03
            1573            2195     56.4692E-03     56.3986E-03
            1574            2195     56.4692E-03     56.3986E-03
            1591            2195     56.4692E-03     56.3986E-03
            1592            2195     56.4692E-03     56.3986E-03
            1592            2196     61.6389E-03     61.6698E-03
            1574            2196     61.6389E-03     61.6698E-03
            1593            2196     61.6389E-03     61.6698E-03
            1575            2196     61.6389E-03     61.6698E-03
            1593            2197     68.5297E-03     69.8664E-03
            1576            2197     68.5297E-03     69.8664E-03
            1594            2197     68.5297E-03     69.8664E-03
            1575            2197     68.5297E-03     69.8664E-03
            1595            2198     21.9827E-03     24.1902E-03
            1596            2198     21.9827E-03     24.1902E-03
            1577            2198     21.9827E-03     24.1902E-03
            1578            2198     21.9827E-03     24.1902E-03
            1596            2199     18.7543E-03     20.4501E-03
            1578            2199     18.7543E-03     20.4501E-03
            1597            2199     18.7543E-03     20.4501E-03
            1579            2199     18.7543E-03     20.4501E-03
            1580            2200     17.8353E-03     18.6256E-03
            1579            2200     17.8353E-03     18.6256E-03
            1598            2200     17.8353E-03     18.6256E-03
            1597            2200     17.8353E-03     18.6256E-03
            1599            2201     18.2392E-03     18.5999E-03
            1598            2201     18.2392E-03     18.5999E-03
            1580            2201     18.2392E-03     18.5999E-03
            1581            2201     18.2392E-03     18.5999E-03
            1599            2202     19.9847E-03     20.1535E-03
            1581            2202     19.9847E-03     20.1535E-03
            1600            2202     19.9847E-03     20.1535E-03
            1582            2202     19.9847E-03     20.1535E-03
            1582            2203     22.8677E-03     22.9542E-03
            1583            2203     22.8677E-03     22.9542E-03
            1600            2203     22.8677E-03     22.9542E-03
            1601            2203     22.8677E-03     22.9542E-03
            1602            2204     26.5789E-03     26.6402E-03
            1601            2204     26.5789E-03     26.6402E-03
            1583            2204     26.5789E-03     26.6402E-03
            1584            2204     26.5789E-03     26.6402E-03
            1584            2205     30.8196E-03     30.8566E-03
            1585            2205     30.8196E-03     30.8566E-03
            1602            2205     30.8196E-03     30.8566E-03
            1603            2205     30.8196E-03     30.8566E-03
            1585            2206     35.3990E-03     35.3982E-03
            1586            2206     35.3990E-03     35.3982E-03
            1603            2206     35.3990E-03     35.3982E-03
            1604            2206     35.3990E-03     35.3982E-03
            1586            2207     40.1632E-03     40.1062E-03
            1605            2207     40.1632E-03     40.1062E-03
            1604            2207     40.1632E-03     40.1062E-03
            1587            2207     40.1632E-03     40.1062E-03
            1588            2208     45.0031E-03     44.8610E-03
            1587            2208     45.0031E-03     44.8610E-03
            1606            2208     45.0031E-03     44.8610E-03
            1605            2208     45.0031E-03     44.8610E-03
            1588            2209     49.8402E-03     49.5877E-03
            1589            2209     49.8402E-03     49.5877E-03
            1607            2209     49.8402E-03     49.5877E-03
            1606            2209     49.8402E-03     49.5877E-03
            1608            2210     54.5577E-03     54.1838E-03
            1589            2210     54.5577E-03     54.1838E-03
            1607            2210     54.5577E-03     54.1838E-03
            1590            2210     54.5577E-03     54.1838E-03
            1590            2211     59.1288E-03     58.6113E-03
            1591            2211     59.1288E-03     58.6113E-03
            1609            2211     59.1288E-03     58.6113E-03
            1608            2211     59.1288E-03     58.6113E-03
            1609            2212     63.3549E-03     62.7735E-03
            1610            2212     63.3549E-03     62.7735E-03
            1592            2212     63.3549E-03     62.7735E-03
            1591            2212     63.3549E-03     62.7735E-03
            1592            2213     67.2726E-03     66.7576E-03
            1593            2213     67.2726E-03     66.7576E-03
            1610            2213     67.2726E-03     66.7576E-03
            1611            2213     67.2726E-03     66.7576E-03
            1611            2214     70.8043E-03     70.1055E-03
            1594            2214     70.8043E-03     70.1055E-03
            1612            2214     70.8043E-03     70.1055E-03
            1593            2214     70.8043E-03     70.1055E-03
            1613            2215     24.2872E-03     22.9923E-03
            1595            2215     24.2872E-03     22.9923E-03
            1596            2215     24.2872E-03     22.9923E-03
            1614            2215     24.2872E-03     22.9923E-03
            1614            2216     19.9806E-03     20.2084E-03
            1596            2216     19.9806E-03     20.2084E-03
            1597            2216     19.9806E-03     20.2084E-03
            1615            2216     19.9806E-03     20.2084E-03
            1615            2217     17.0052E-03     17.6047E-03
            1616            2217     17.0052E-03     17.6047E-03
            1598            2217     17.0052E-03     17.6047E-03
            1597            2217     17.0052E-03     17.6047E-03
            1598            2218     16.3340E-03     16.7664E-03
            1617            2218     16.3340E-03     16.7664E-03
            1599            2218     16.3340E-03     16.7664E-03
            1616            2218     16.3340E-03     16.7664E-03
            1600            2219     17.6147E-03     17.9487E-03
            1599            2219     17.6147E-03     17.9487E-03
            1617            2219     17.6147E-03     17.9487E-03
            1618            2219     17.6147E-03     17.9487E-03
            1600            2220     20.6134E-03     20.8811E-03
            1619            2220     20.6134E-03     20.8811E-03
            1601            2220     20.6134E-03     20.8811E-03
            1618            2220     20.6134E-03     20.8811E-03
            1619            2221     24.7091E-03     24.9601E-03
            1601            2221     24.7091E-03     24.9601E-03
            1620            2221     24.7091E-03     24.9601E-03
            1602            2221     24.7091E-03     24.9601E-03
            1603            2222     29.5012E-03     29.7434E-03
            1602            2222     29.5012E-03     29.7434E-03
            1620            2222     29.5012E-03     29.7434E-03
            1621            2222     29.5012E-03     29.7434E-03
            1604            2223     34.6745E-03     34.9154E-03
            1622            2223     34.6745E-03     34.9154E-03
            1603            2223     34.6745E-03     34.9154E-03
            1621            2223     34.6745E-03     34.9154E-03
            1622            2224     40.0789E-03     40.3107E-03
            1604            2224     40.0789E-03     40.3107E-03
            1605            2224     40.0789E-03     40.3107E-03
            1623            2224     40.0789E-03     40.3107E-03
            1624            2225     45.5877E-03     45.8168E-03
            1606            2225     45.5877E-03     45.8168E-03
            1605            2225     45.5877E-03     45.8168E-03
            1623            2225     45.5877E-03     45.8168E-03
            1607            2226     51.1116E-03     51.3462E-03
            1606            2226     51.1116E-03     51.3462E-03
            1625            2226     51.1116E-03     51.3462E-03
            1624            2226     51.1116E-03     51.3462E-03
            1607            2227     56.5651E-03     56.8258E-03
            1608            2227     56.5651E-03     56.8258E-03
            1626            2227     56.5651E-03     56.8258E-03
            1625            2227     56.5651E-03     56.8258E-03
            1626            2228     61.8262E-03     62.1829E-03
            1608            2228     61.8262E-03     62.1829E-03
            1609            2228     61.8262E-03     62.1829E-03
            1627            2228     61.8262E-03     62.1829E-03
            1627            2229     66.7992E-03     67.3046E-03
            1610            2229     66.7992E-03     67.3046E-03
            1628            2229     66.7992E-03     67.3046E-03
            1609            2229     66.7992E-03     67.3046E-03
            1628            2230     71.5090E-03     72.0927E-03
            1610            2230     71.5090E-03     72.0927E-03
            1629            2230     71.5090E-03     72.0927E-03
            1611            2230     71.5090E-03     72.0927E-03
            1611            2231     75.4790E-03     75.7424E-03
            1630            2231     75.4790E-03     75.7424E-03
            1629            2231     75.4790E-03     75.7424E-03
            1612            2231     75.4790E-03     75.7424E-03
            1613            2232     23.8432E-03     22.2818E-03
            1632            2232     23.8432E-03     22.2818E-03
            1614            2232     23.8432E-03     22.2818E-03
            1631            2232     23.8432E-03     22.2818E-03
            1614            2233     20.4258E-03     19.3187E-03
            1633            2233     20.4258E-03     19.3187E-03
            1632            2233     20.4258E-03     19.3187E-03
            1615            2233     20.4258E-03     19.3187E-03
            1615            2234     16.8804E-03     16.6621E-03
            1616            2234     16.8804E-03     16.6621E-03
            1634            2234     16.8804E-03     16.6621E-03
            1633            2234     16.8804E-03     16.6621E-03
            1635            2235     15.1352E-03     15.3612E-03
            1616            2235     15.1352E-03     15.3612E-03
            1617            2235     15.1352E-03     15.3612E-03
            1634            2235     15.1352E-03     15.3612E-03
            1636            2236     15.9457E-03     16.3217E-03
            1618            2236     15.9457E-03     16.3217E-03
            1617            2236     15.9457E-03     16.3217E-03
            1635            2236     15.9457E-03     16.3217E-03
            1637            2237     18.9055E-03     19.3608E-03
            1636            2237     18.9055E-03     19.3608E-03
            1618            2237     18.9055E-03     19.3608E-03
            1619            2237     18.9055E-03     19.3608E-03
            1637            2238     23.3475E-03     23.8234E-03
            1638            2238     23.3475E-03     23.8234E-03
            1619            2238     23.3475E-03     23.8234E-03
            1620            2238     23.3475E-03     23.8234E-03
            1639            2239     28.5631E-03     29.0672E-03
            1620            2239     28.5631E-03     29.0672E-03
            1638            2239     28.5631E-03     29.0672E-03
            1621            2239     28.5631E-03     29.0672E-03
            1640            2240     34.2264E-03     34.7573E-03
            1622            2240     34.2264E-03     34.7573E-03
            1621            2240     34.2264E-03     34.7573E-03
            1639            2240     34.2264E-03     34.7573E-03
            1641            2241     40.1248E-03     40.7001E-03
            1622            2241     40.1248E-03     40.7001E-03
            1640            2241     40.1248E-03     40.7001E-03
            1623            2241     40.1248E-03     40.7001E-03
            1624            2242     46.1665E-03     46.7931E-03
            1642            2242     46.1665E-03     46.7931E-03
            1623            2242     46.1665E-03     46.7931E-03
            1641            2242     46.1665E-03     46.7931E-03
            1625            2243     52.2350E-03     52.9535E-03
            1624            2243     52.2350E-03     52.9535E-03
            1642            2243     52.2350E-03     52.9535E-03
            1643            2243     52.2350E-03     52.9535E-03
            1644            2244     58.2697E-03     59.0989E-03
            1643            2244     58.2697E-03     59.0989E-03
            1625            2244     58.2697E-03     59.0989E-03
            1626            2244     58.2697E-03     59.0989E-03
            1627            2245     64.1136E-03     65.1093E-03
            1645            2245     64.1136E-03     65.1093E-03
            1644            2245     64.1136E-03     65.1093E-03
            1626            2245     64.1136E-03     65.1093E-03
            1627            2246     69.7116E-03     70.8319E-03
            1628            2246     69.7116E-03     70.8319E-03
            1645            2246     69.7116E-03     70.8319E-03
            1646            2246     69.7116E-03     70.8319E-03
            1629            2247     74.7993E-03     75.9055E-03
            1647            2247     74.7993E-03     75.9055E-03
            1628            2247     74.7993E-03     75.9055E-03
            1646            2247     74.7993E-03     75.9055E-03
            1648            2248     79.1196E-03     80.1622E-03
            1647            2248     79.1196E-03     80.1622E-03
            1630            2248     79.1196E-03     80.1622E-03
            1629            2248     79.1196E-03     80.1622E-03
            1649            2249     23.7793E-03     21.9211E-03
            1631            2249     23.7793E-03     21.9211E-03
            1650            2249     23.7793E-03     21.9211E-03
            1632            2249     23.7793E-03     21.9211E-03
            1633            2250     19.9519E-03     18.5348E-03
            1632            2250     19.9519E-03     18.5348E-03
            1650            2250     19.9519E-03     18.5348E-03
            1651            2250     19.9519E-03     18.5348E-03
            1634            2251     16.5046E-03     15.6093E-03
            1652            2251     16.5046E-03     15.6093E-03
            1651            2251     16.5046E-03     15.6093E-03
            1633            2251     16.5046E-03     15.6093E-03
            1652            2252     14.2688E-03     14.1022E-03
            1634            2252     14.2688E-03     14.1022E-03
            1635            2252     14.2688E-03     14.1022E-03
            1653            2252     14.2688E-03     14.1022E-03
            1653            2253     14.5994E-03     14.9523E-03
            1635            2253     14.5994E-03     14.9523E-03
            1636            2253     14.5994E-03     14.9523E-03
            1654            2253     14.5994E-03     14.9523E-03
            1636            2254     17.5980E-03     18.1992E-03
            1637            2254     17.5980E-03     18.1992E-03
            1655            2254     17.5980E-03     18.1992E-03
            1654            2254     17.5980E-03     18.1992E-03
            1638            2255     22.2571E-03     22.9743E-03
            1655            2255     22.2571E-03     22.9743E-03
            1656            2255     22.2571E-03     22.9743E-03
            1637            2255     22.2571E-03     22.9743E-03
            1657            2256     27.8101E-03     28.5869E-03
            1638            2256     27.8101E-03     28.5869E-03
            1656            2256     27.8101E-03     28.5869E-03
            1639            2256     27.8101E-03     28.5869E-03
            1640            2257     33.8108E-03     34.6479E-03
            1658            2257     33.8108E-03     34.6479E-03
            1657            2257     33.8108E-03     34.6479E-03
            1639            2257     33.8108E-03     34.6479E-03
            1641            2258     40.0734E-03     40.9777E-03
            1659            2258     40.0734E-03     40.9777E-03
            1640            2258     40.0734E-03     40.9777E-03
            1658            2258     40.0734E-03     40.9777E-03
            1641            2259     46.4694E-03     47.4745E-03
            1659            2259     46.4694E-03     47.4745E-03
            1660            2259     46.4694E-03     47.4745E-03
            1642            2259     46.4694E-03     47.4745E-03
            1660            2260     52.9744E-03     54.0780E-03
            1661            2260     52.9744E-03     54.0780E-03
            1643            2260     52.9744E-03     54.0780E-03
            1642            2260     52.9744E-03     54.0780E-03
            1662            2261     59.4346E-03     60.7016E-03
            1643            2261     59.4346E-03     60.7016E-03
            1661            2261     59.4346E-03     60.7016E-03
            1644            2261     59.4346E-03     60.7016E-03
            1645            2262     65.8170E-03     67.1887E-03
            1644            2262     65.8170E-03     67.1887E-03
            1663            2262     65.8170E-03     67.1887E-03
            1662            2262     65.8170E-03     67.1887E-03
            1645            2263     71.8750E-03     73.3029E-03
            1664            2263     71.8750E-03     73.3029E-03
            1646            2263     71.8750E-03     73.3029E-03
            1663            2263     71.8750E-03     73.3029E-03
            1665            2264     77.3478E-03     78.7623E-03
            1646            2264     77.3478E-03     78.7623E-03
            1664            2264     77.3478E-03     78.7623E-03
            1647            2264     77.3478E-03     78.7623E-03
            1665            2265     82.4296E-03     83.2490E-03
            1666            2265     82.4296E-03     83.2490E-03
            1647            2265     82.4296E-03     83.2490E-03
            1648            2265     82.4296E-03     83.2490E-03
            1667            2266     23.8698E-03     21.9026E-03
            1668            2266     23.8698E-03     21.9026E-03
            1649            2266     23.8698E-03     21.9026E-03
            1650            2266     23.8698E-03     21.9026E-03
            1668            2267     19.7808E-03     18.0261E-03
            1650            2267     19.7808E-03     18.0261E-03
            1669            2267     19.7808E-03     18.0261E-03
            1651            2267     19.7808E-03     18.0261E-03
            1651            2268     15.8752E-03     14.6559E-03
            1669            2268     15.8752E-03     14.6559E-03
            1652            2268     15.8752E-03     14.6559E-03
            1670            2268     15.8752E-03     14.6559E-03
            1671            2269     13.3295E-03     12.8342E-03
            1670            2269     13.3295E-03     12.8342E-03
            1652            2269     13.3295E-03     12.8342E-03
            1653            2269     13.3295E-03     12.8342E-03
            1654            2270     13.4461E-03     13.7148E-03
            1671            2270     13.4461E-03     13.7148E-03
            1672            2270     13.4461E-03     13.7148E-03
            1653            2270     13.4461E-03     13.7148E-03
            1672            2271     16.4159E-03     17.1616E-03
            1655            2271     16.4159E-03     17.1616E-03
            1654            2271     16.4159E-03     17.1616E-03
            1673            2271     16.4159E-03     17.1616E-03
            1674            2272     21.2847E-03     22.2315E-03
            1655            2272     21.2847E-03     22.2315E-03
            1673            2272     21.2847E-03     22.2315E-03
            1656            2272     21.2847E-03     22.2315E-03
            1656            2273     27.0663E-03     28.1090E-03
            1674            2273     27.0663E-03     28.1090E-03
            1675            2273     27.0663E-03     28.1090E-03
            1657            2273     27.0663E-03     28.1090E-03
            1657            2274     33.2842E-03     34.4035E-03
            1675            2274     33.2842E-03     34.4035E-03
            1658            2274     33.2842E-03     34.4035E-03
            1676            2274     33.2842E-03     34.4035E-03
            1676            2275     39.7476E-03     40.9526E-03
            1658            2275     39.7476E-03     40.9526E-03
            1659            2275     39.7476E-03     40.9526E-03
            1677            2275     39.7476E-03     40.9526E-03
            1659            2276     46.3895E-03     47.6873E-03
            1660            2276     46.3895E-03     47.6873E-03
            1677            2276     46.3895E-03     47.6873E-03
            1678            2276     46.3895E-03     47.6873E-03
            1679            2277     53.1208E-03     54.5482E-03
            1661            2277     53.1208E-03     54.5482E-03
            1660            2277     53.1208E-03     54.5482E-03
            1678            2277     53.1208E-03     54.5482E-03
            1680            2278     59.9955E-03     61.4965E-03
            1679            2278     59.9955E-03     61.4965E-03
            1661            2278     59.9955E-03     61.4965E-03
            1662            2278     59.9955E-03     61.4965E-03
            1662            2279     66.7984E-03     68.4093E-03
            1680            2279     66.7984E-03     68.4093E-03
            1663            2279     66.7984E-03     68.4093E-03
            1681            2279     66.7984E-03     68.4093E-03
            1664            2280     73.3896E-03     74.9985E-03
            1682            2280     73.3896E-03     74.9985E-03
            1663            2280     73.3896E-03     74.9985E-03
            1681            2280     73.3896E-03     74.9985E-03
            1683            2281     79.6106E-03     80.9018E-03
            1664            2281     79.6106E-03     80.9018E-03
            1665            2281     79.6106E-03     80.9018E-03
            1682            2281     79.6106E-03     80.9018E-03
            1683            2282     85.0862E-03     86.1832E-03
            1666            2282     85.0862E-03     86.1832E-03
            1684            2282     85.0862E-03     86.1832E-03
            1665            2282     85.0862E-03     86.1832E-03
            1686            2283     24.4431E-03     22.3632E-03
            1668            2283     24.4431E-03     22.3632E-03
            1667            2283     24.4431E-03     22.3632E-03
            1685            2283     24.4431E-03     22.3632E-03
            1668            2284     19.7519E-03     17.8785E-03
            1687            2284     19.7519E-03     17.8785E-03
            1686            2284     19.7519E-03     17.8785E-03
            1669            2284     19.7519E-03     17.8785E-03
            1688            2285     15.3876E-03     13.8693E-03
            1669            2285     15.3876E-03     13.8693E-03
            1670            2285     15.3876E-03     13.8693E-03
            1687            2285     15.3876E-03     13.8693E-03
            1689            2286     12.3347E-03     11.6117E-03
            1688            2286     12.3347E-03     11.6117E-03
            1671            2286     12.3347E-03     11.6117E-03
            1670            2286     12.3347E-03     11.6117E-03
            1671            2287     12.1310E-03     12.3847E-03
            1689            2287     12.1310E-03     12.3847E-03
            1690            2287     12.1310E-03     12.3847E-03
            1672            2287     12.1310E-03     12.3847E-03
            1672            2288     15.2171E-03     16.1222E-03
            1691            2288     15.2171E-03     16.1222E-03
            1673            2288     15.2171E-03     16.1222E-03
            1690            2288     15.2171E-03     16.1222E-03
            1674            2289     20.2979E-03     21.4684E-03
            1691            2289     20.2979E-03     21.4684E-03
            1692            2289     20.2979E-03     21.4684E-03
            1673            2289     20.2979E-03     21.4684E-03
            1674            2290     26.2180E-03     27.5111E-03
            1692            2290     26.2180E-03     27.5111E-03
            1675            2290     26.2180E-03     27.5111E-03
            1693            2290     26.2180E-03     27.5111E-03
            1694            2291     32.5478E-03     33.9178E-03
            1675            2291     32.5478E-03     33.9178E-03
            1693            2291     32.5478E-03     33.9178E-03
            1676            2291     32.5478E-03     33.9178E-03
            1695            2292     39.0967E-03     40.5449E-03
            1676            2292     39.0967E-03     40.5449E-03
            1677            2292     39.0967E-03     40.5449E-03
            1694            2292     39.0967E-03     40.5449E-03
            1696            2293     45.8063E-03     47.3407E-03
            1677            2293     45.8063E-03     47.3407E-03
            1678            2293     45.8063E-03     47.3407E-03
            1695            2293     45.8063E-03     47.3407E-03
            1697            2294     52.6944E-03     54.3112E-03
            1696            2294     52.6944E-03     54.3112E-03
            1679            2294     52.6944E-03     54.3112E-03
            1678            2294     52.6944E-03     54.3112E-03
            1680            2295     59.7168E-03     61.4210E-03
            1679            2295     59.7168E-03     61.4210E-03
            1697            2295     59.7168E-03     61.4210E-03
            1698            2295     59.7168E-03     61.4210E-03
            1680            2296     67.0360E-03     68.6947E-03
            1681            2296     67.0360E-03     68.6947E-03
            1698            2296     67.0360E-03     68.6947E-03
            1699            2296     67.0360E-03     68.6947E-03
            1681            2297     74.3534E-03     75.9525E-03
            1682            2297     74.3534E-03     75.9525E-03
            1700            2297     74.3534E-03     75.9525E-03
            1699            2297     74.3534E-03     75.9525E-03
            1701            2298     81.2914E-03     82.7934E-03
            1683            2298     81.2914E-03     82.7934E-03
            1682            2298     81.2914E-03     82.7934E-03
            1700            2298     81.2914E-03     82.7934E-03
            1684            2299     87.8269E-03     88.6701E-03
            1701            2299     87.8269E-03     88.6701E-03
            1702            2299     87.8269E-03     88.6701E-03
            1683            2299     87.8269E-03     88.6701E-03
            1686            2300     25.3301E-03     23.2863E-03
            1685            2300     25.3301E-03     23.2863E-03
            1703            2300     25.3301E-03     23.2863E-03
            1704            2300     25.3301E-03     23.2863E-03
            1704            2301     20.2571E-03     18.1774E-03
            1687            2301     20.2571E-03     18.1774E-03
            1686            2301     20.2571E-03     18.1774E-03
            1705            2301     20.2571E-03     18.1774E-03
            1705            2302     14.9088E-03     13.1966E-03
            1688            2302     14.9088E-03     13.1966E-03
            1706            2302     14.9088E-03     13.1966E-03
            1687            2302     14.9088E-03     13.1966E-03
            1706            2303     10.8782E-03     10.0684E-03
            1689            2303     10.8782E-03     10.0684E-03
            1688            2303     10.8782E-03     10.0684E-03
            1707            2303     10.8782E-03     10.0684E-03
            1708            2304     10.5428E-03     10.8991E-03
            1690            2304     10.5428E-03     10.8991E-03
            1689            2304     10.5428E-03     10.8991E-03
            1707            2304     10.5428E-03     10.8991E-03
            1708            2305     13.9075E-03     15.0255E-03
            1691            2305     13.9075E-03     15.0255E-03
            1709            2305     13.9075E-03     15.0255E-03
            1690            2305     13.9075E-03     15.0255E-03
            1692            2306     19.1866E-03     20.6061E-03
            1709            2306     19.1866E-03     20.6061E-03
            1710            2306     19.1866E-03     20.6061E-03
            1691            2306     19.1866E-03     20.6061E-03
            1693            2307     25.2334E-03     26.7632E-03
            1711            2307     25.2334E-03     26.7632E-03
            1710            2307     25.2334E-03     26.7632E-03
            1692            2307     25.2334E-03     26.7632E-03
            1711            2308     31.5735E-03     33.1681E-03
            1693            2308     31.5735E-03     33.1681E-03
            1694            2308     31.5735E-03     33.1681E-03
            1712            2308     31.5735E-03     33.1681E-03
            1712            2309     38.1012E-03     39.7426E-03
            1713            2309     38.1012E-03     39.7426E-03
            1694            2309     38.1012E-03     39.7426E-03
            1695            2309     38.1012E-03     39.7426E-03
            1713            2310     44.7712E-03     46.4690E-03
            1714            2310     44.7712E-03     46.4690E-03
            1696            2310     44.7712E-03     46.4690E-03
            1695            2310     44.7712E-03     46.4690E-03
            1696            2311     51.6185E-03     53.3576E-03
            1697            2311     51.6185E-03     53.3576E-03
            1715            2311     51.6185E-03     53.3576E-03
            1714            2311     51.6185E-03     53.3576E-03
            1715            2312     58.7170E-03     60.4970E-03
            1697            2312     58.7170E-03     60.4970E-03
            1698            2312     58.7170E-03     60.4970E-03
            1716            2312     58.7170E-03     60.4970E-03
            1717            2313     66.1515E-03     67.9056E-03
            1698            2313     66.1515E-03     67.9056E-03
            1699            2313     66.1515E-03     67.9056E-03
            1716            2313     66.1515E-03     67.9056E-03
            1718            2314     74.3630E-03     75.8510E-03
            1717            2314     74.3630E-03     75.8510E-03
            1700            2314     74.3630E-03     75.8510E-03
            1699            2314     74.3630E-03     75.8510E-03
            1718            2315     82.7081E-03     83.9391E-03
            1719            2315     82.7081E-03     83.9391E-03
            1701            2315     82.7081E-03     83.9391E-03
            1700            2315     82.7081E-03     83.9391E-03
            1701            2316     90.0110E-03     91.3668E-03
            1720            2316     90.0110E-03     91.3668E-03
            1702            2316     90.0110E-03     91.3668E-03
            1719            2316     90.0110E-03     91.3668E-03
            1722            2317     27.3883E-03     25.0274E-03
            1703            2317     27.3883E-03     25.0274E-03
            1721            2317     27.3883E-03     25.0274E-03
            1704            2317     27.3883E-03     25.0274E-03
            1723            2318     20.6145E-03     18.5515E-03
            1704            2318     20.6145E-03     18.5515E-03
            1705            2318     20.6145E-03     18.5515E-03
            1722            2318     20.6145E-03     18.5515E-03
            1723            2319     13.4458E-03     11.7813E-03
            1724            2319     13.4458E-03     11.7813E-03
            1706            2319     13.4458E-03     11.7813E-03
            1705            2319     13.4458E-03     11.7813E-03
            1724            2320     8.83512E-03     8.10697E-03
            1707            2320     8.83512E-03     8.10697E-03
            1706            2320     8.83512E-03     8.10697E-03
            1725            2320     8.83512E-03     8.10697E-03
            1708            2321     8.59317E-03     9.21548E-03
            1725            2321     8.59317E-03     9.21548E-03
            1726            2321     8.59317E-03     9.21548E-03
            1707            2321     8.59317E-03     9.21548E-03
            1726            2322     12.3934E-03     13.8564E-03
            1709            2322     12.3934E-03     13.8564E-03
            1727            2322     12.3934E-03     13.8564E-03
            1708            2322     12.3934E-03     13.8564E-03
            1727            2323     18.0169E-03     19.7204E-03
            1728            2323     18.0169E-03     19.7204E-03
            1709            2323     18.0169E-03     19.7204E-03
            1710            2323     18.0169E-03     19.7204E-03
            1728            2324     24.1181E-03     25.8984E-03
            1711            2324     24.1181E-03     25.8984E-03
            1729            2324     24.1181E-03     25.8984E-03
            1710            2324     24.1181E-03     25.8984E-03
            1711            2325     30.4205E-03     32.2240E-03
            1729            2325     30.4205E-03     32.2240E-03
            1730            2325     30.4205E-03     32.2240E-03
            1712            2325     30.4205E-03     32.2240E-03
            1730            2326     36.8317E-03     38.6405E-03
            1712            2326     36.8317E-03     38.6405E-03
            1731            2326     36.8317E-03     38.6405E-03
            1713            2326     36.8317E-03     38.6405E-03
            1732            2327     43.3702E-03     45.1659E-03
            1713            2327     43.3702E-03     45.1659E-03
            1731            2327     43.3702E-03     45.1659E-03
            1714            2327     43.3702E-03     45.1659E-03
            1715            2328     50.0429E-03     51.8401E-03
            1732            2328     50.0429E-03     51.8401E-03
            1714            2328     50.0429E-03     51.8401E-03
            1733            2328     50.0429E-03     51.8401E-03
            1716            2329     57.0082E-03     58.7624E-03
            1715            2329     57.0082E-03     58.7624E-03
            1733            2329     57.0082E-03     58.7624E-03
            1734            2329     57.0082E-03     58.7624E-03
            1735            2330     64.3719E-03     66.1246E-03
            1717            2330     64.3719E-03     66.1246E-03
            1716            2330     64.3719E-03     66.1246E-03
            1734            2330     64.3719E-03     66.1246E-03
            1735            2331     72.5560E-03     74.1608E-03
            1736            2331     72.5560E-03     74.1608E-03
            1717            2331     72.5560E-03     74.1608E-03
            1718            2331     72.5560E-03     74.1608E-03
            1719            2332     82.6126E-03     83.6277E-03
            1718            2332     82.6126E-03     83.6277E-03
            1736            2332     82.6126E-03     83.6277E-03
            1737            2332     82.6126E-03     83.6277E-03
            1737            2333     92.5177E-03     92.6801E-03
            1720            2333     92.5177E-03     92.6801E-03
            1738            2333     92.5177E-03     92.6801E-03
            1719            2333     92.5177E-03     92.6801E-03
            1721            2334     28.5918E-03     27.1920E-03
            1740            2334     28.5918E-03     27.1920E-03
            1739            2334     28.5918E-03     27.1920E-03
            1722            2334     28.5918E-03     27.1920E-03
            1740            2335     18.7716E-03     17.2651E-03
            1722            2335     18.7716E-03     17.2651E-03
            1741            2335     18.7716E-03     17.2651E-03
            1723            2335     18.7716E-03     17.2651E-03
            1741            2336     11.1166E-03     9.54589E-03
            1742            2336     11.1166E-03     9.54589E-03
            1724            2336     11.1166E-03     9.54589E-03
            1723            2336     11.1166E-03     9.54589E-03
            1724            2337     6.13192E-03     5.70224E-03
            1725            2337     6.13192E-03     5.70224E-03
            1743            2337     6.13192E-03     5.70224E-03
            1742            2337     6.13192E-03     5.70224E-03
            1726            2338     6.18092E-03     7.42752E-03
            1744            2338     6.18092E-03     7.42752E-03
            1725            2338     6.18092E-03     7.42752E-03
            1743            2338     6.18092E-03     7.42752E-03
            1726            2339     10.9987E-03     12.9182E-03
            1727            2339     10.9987E-03     12.9182E-03
            1745            2339     10.9987E-03     12.9182E-03
            1744            2339     10.9987E-03     12.9182E-03
            1746            2340     16.9148E-03     18.9566E-03
            1745            2340     16.9148E-03     18.9566E-03
            1728            2340     16.9148E-03     18.9566E-03
            1727            2340     16.9148E-03     18.9566E-03
            1728            2341     23.0237E-03     25.0862E-03
            1747            2341     23.0237E-03     25.0862E-03
            1746            2341     23.0237E-03     25.0862E-03
            1729            2341     23.0237E-03     25.0862E-03
            1730            2342     29.2111E-03     31.2409E-03
            1748            2342     29.2111E-03     31.2409E-03
            1729            2342     29.2111E-03     31.2409E-03
            1747            2342     29.2111E-03     31.2409E-03
            1730            2343     35.4553E-03     37.4261E-03
            1749            2343     35.4553E-03     37.4261E-03
            1731            2343     35.4553E-03     37.4261E-03
            1748            2343     35.4553E-03     37.4261E-03
            1732            2344     41.7631E-03     43.6466E-03
            1750            2344     41.7631E-03     43.6466E-03
            1749            2344     41.7631E-03     43.6466E-03
            1731            2344     41.7631E-03     43.6466E-03
            1733            2345     48.2211E-03     49.9937E-03
            1751            2345     48.2211E-03     49.9937E-03
            1732            2345     48.2211E-03     49.9937E-03
            1750            2345     48.2211E-03     49.9937E-03
            1752            2346     54.8531E-03     56.5137E-03
            1751            2346     54.8531E-03     56.5137E-03
            1734            2346     54.8531E-03     56.5137E-03
            1733            2346     54.8531E-03     56.5137E-03
            1752            2347     61.9769E-03     63.5115E-03
            1734            2347     61.9769E-03     63.5115E-03
            1753            2347     61.9769E-03     63.5115E-03
            1735            2347     61.9769E-03     63.5115E-03
            1753            2348     69.6625E-03     71.1743E-03
            1736            2348     69.6625E-03     71.1743E-03
            1754            2348     69.6625E-03     71.1743E-03
            1735            2348     69.6625E-03     71.1743E-03
            1737            2349     79.2346E-03     80.7575E-03
            1754            2349     79.2346E-03     80.7575E-03
            1755            2349     79.2346E-03     80.7575E-03
            1736            2349     79.2346E-03     80.7575E-03
            1756            2350     92.1157E-03     93.0418E-03
            1737            2350     92.1157E-03     93.0418E-03
            1738            2350     92.1157E-03     93.0418E-03
            1755            2350     92.1157E-03     93.0418E-03
            2271            2785     301.024E-06     337.510E-06
            2290            2785     301.024E-06     337.510E-06
            2289            2785     301.024E-06     337.510E-06
            2272            2785     301.024E-06     337.510E-06
            2291            2786     279.324E-06     315.912E-06
            2290            2786     279.324E-06     315.912E-06
            2272            2786     279.324E-06     315.912E-06
            2273            2786     279.324E-06     315.912E-06
            2273            2787     280.035E-06     311.667E-06
            2291            2787     280.035E-06     311.667E-06
            2292            2787     280.035E-06     311.667E-06
            2274            2787     280.035E-06     311.667E-06
            2275            2788     277.396E-06     307.628E-06
            2292            2788     277.396E-06     307.628E-06
            2274            2788     277.396E-06     307.628E-06
            2293            2788     277.396E-06     307.628E-06
            2275            2789     270.926E-06     301.531E-06
            2294            2789     270.926E-06     301.531E-06
            2293            2789     270.926E-06     301.531E-06
            2276            2789     270.926E-06     301.531E-06
            2294            2790     268.363E-06     297.443E-06
            2295            2790     268.363E-06     297.443E-06
            2276            2790     268.363E-06     297.443E-06
            2277            2790     268.363E-06     297.443E-06
            2295            2791     265.160E-06     293.078E-06
            2278            2791     265.160E-06     293.078E-06
            2296            2791     265.160E-06     293.078E-06
            2277            2791     265.160E-06     293.078E-06
            2297            2792     263.362E-06     289.653E-06
            2296            2792     263.362E-06     289.653E-06
            2278            2792     263.362E-06     289.653E-06
            2279            2792     263.362E-06     289.653E-06
            2279            2793     261.517E-06     286.101E-06
            2298            2793     261.517E-06     286.101E-06
            2280            2793     261.517E-06     286.101E-06
            2297            2793     261.517E-06     286.101E-06
            2280            2794     260.358E-06     283.046E-06
            2281            2794     260.358E-06     283.046E-06
            2298            2794     260.358E-06     283.046E-06
            2299            2794     260.358E-06     283.046E-06
            2299            2795     259.408E-06     280.038E-06
            2282            2795     259.408E-06     280.038E-06
            2281            2795     259.408E-06     280.038E-06
            2300            2795     259.408E-06     280.038E-06
            2282            2796     258.916E-06     277.335E-06
            2283            2796     258.916E-06     277.335E-06
            2300            2796     258.916E-06     277.335E-06
            2301            2796     258.916E-06     277.335E-06
            2283            2797     258.718E-06     274.834E-06
            2301            2797     258.718E-06     274.834E-06
            2302            2797     258.718E-06     274.834E-06
            2284            2797     258.718E-06     274.834E-06
            2284            2798     258.975E-06     272.583E-06
            2285            2798     258.975E-06     272.583E-06
            2303            2798     258.975E-06     272.583E-06
            2302            2798     258.975E-06     272.583E-06
            2285            2799     259.799E-06     270.860E-06
            2303            2799     259.799E-06     270.860E-06
            2304            2799     259.799E-06     270.860E-06
            2286            2799     259.799E-06     270.860E-06
            2287            2800     261.364E-06     269.868E-06
            2305            2800     261.364E-06     269.868E-06
            2286            2800     261.364E-06     269.868E-06
            2304            2800     261.364E-06     269.868E-06
            2288            2801     264.008E-06     266.891E-06
            2305            2801     264.008E-06     266.891E-06
            2287            2801     264.008E-06     266.891E-06
            2306            2801     264.008E-06     266.891E-06
            2290            2802     219.076E-06     231.065E-06
            2308            2802     219.076E-06     231.065E-06
            2289            2802     219.076E-06     231.065E-06
            2307            2802     219.076E-06     231.065E-06
            2309            2803     303.588E-06     309.056E-06
            2291            2803     303.588E-06     309.056E-06
            2308            2803     303.588E-06     309.056E-06
            2290            2803     303.588E-06     309.056E-06
            2309            2804     305.289E-06     305.071E-06
            2292            2804     305.289E-06     305.071E-06
            2291            2804     305.289E-06     305.071E-06
            2310            2804     305.289E-06     305.071E-06
            2310            2805     290.372E-06     295.773E-06
            2293            2805     290.372E-06     295.773E-06
            2311            2805     290.372E-06     295.773E-06
            2292            2805     290.372E-06     295.773E-06
            2311            2806     286.734E-06     290.197E-06
            2312            2806     286.734E-06     290.197E-06
            2294            2806     286.734E-06     290.197E-06
            2293            2806     286.734E-06     290.197E-06
            2313            2807     282.080E-06     286.121E-06
            2294            2807     282.080E-06     286.121E-06
            2312            2807     282.080E-06     286.121E-06
            2295            2807     282.080E-06     286.121E-06
            2296            2808     279.528E-06     283.485E-06
            2313            2808     279.528E-06     283.485E-06
            2295            2808     279.528E-06     283.485E-06
            2314            2808     279.528E-06     283.485E-06
            2296            2809     276.502E-06     280.446E-06
            2315            2809     276.502E-06     280.446E-06
            2314            2809     276.502E-06     280.446E-06
            2297            2809     276.502E-06     280.446E-06
            2298            2810     274.187E-06     278.059E-06
            2315            2810     274.187E-06     278.059E-06
            2297            2810     274.187E-06     278.059E-06
            2316            2810     274.187E-06     278.059E-06
            2298            2811     271.796E-06     275.685E-06
            2299            2811     271.796E-06     275.685E-06
            2317            2811     271.796E-06     275.685E-06
            2316            2811     271.796E-06     275.685E-06
            2318            2812     269.900E-06     273.670E-06
            2317            2812     269.900E-06     273.670E-06
            2300            2812     269.900E-06     273.670E-06
            2299            2812     269.900E-06     273.670E-06
            2319            2813     268.130E-06     271.831E-06
            2301            2813     268.130E-06     271.831E-06
            2318            2813     268.130E-06     271.831E-06
            2300            2813     268.130E-06     271.831E-06
            2319            2814     266.477E-06     270.568E-06
            2320            2814     266.477E-06     270.568E-06
            2301            2814     266.477E-06     270.568E-06
            2302            2814     266.477E-06     270.568E-06
            2302            2815     266.050E-06     268.526E-06
            2321            2815     266.050E-06     268.526E-06
            2320            2815     266.050E-06     268.526E-06
            2303            2815     266.050E-06     268.526E-06
            2303            2816     264.298E-06     269.208E-06
            2322            2816     264.298E-06     269.208E-06
            2321            2816     264.298E-06     269.208E-06
            2304            2816     264.298E-06     269.208E-06
            2322            2817     265.174E-06     272.345E-06
            2305            2817     265.174E-06     272.345E-06
            2323            2817     265.174E-06     272.345E-06
            2304            2817     265.174E-06     272.345E-06
            2323            2818     282.360E-06     261.689E-06
            2305            2818     282.360E-06     261.689E-06
            2324            2818     282.360E-06     261.689E-06
            2306            2818     282.360E-06     261.689E-06
            2326            2819     167.460E-06     194.862E-06
            2307            2819     167.460E-06     194.862E-06
            2325            2819     167.460E-06     194.862E-06
            2308            2819     167.460E-06     194.862E-06
            2327            2820     293.417E-06     266.337E-06
            2309            2820     293.417E-06     266.337E-06
            2326            2820     293.417E-06     266.337E-06
            2308            2820     293.417E-06     266.337E-06
            2328            2821     311.925E-06     284.519E-06
            2309            2821     311.925E-06     284.519E-06
            2327            2821     311.925E-06     284.519E-06
            2310            2821     311.925E-06     284.519E-06
            2328            2822     308.478E-06     283.565E-06
            2311            2822     308.478E-06     283.565E-06
            2310            2822     308.478E-06     283.565E-06
            2329            2822     308.478E-06     283.565E-06
            2311            2823     304.189E-06     280.342E-06
            2330            2823     304.189E-06     280.342E-06
            2312            2823     304.189E-06     280.342E-06
            2329            2823     304.189E-06     280.342E-06
            2330            2824     301.098E-06     278.672E-06
            2312            2824     301.098E-06     278.672E-06
            2331            2824     301.098E-06     278.672E-06
            2313            2824     301.098E-06     278.672E-06
            2313            2825     297.781E-06     276.739E-06
            2314            2825     297.781E-06     276.739E-06
            2332            2825     297.781E-06     276.739E-06
            2331            2825     297.781E-06     276.739E-06
            2314            2826     294.878E-06     275.269E-06
            2315            2826     294.878E-06     275.269E-06
            2332            2826     294.878E-06     275.269E-06
            2333            2826     294.878E-06     275.269E-06
            2334            2827     291.778E-06     273.830E-06
            2316            2827     291.778E-06     273.830E-06
            2315            2827     291.778E-06     273.830E-06
            2333            2827     291.778E-06     273.830E-06
            2316            2828     288.970E-06     272.739E-06
            2335            2828     288.970E-06     272.739E-06
            2317            2828     288.970E-06     272.739E-06
            2334            2828     288.970E-06     272.739E-06
            2335            2829     286.197E-06     271.875E-06
            2317            2829     286.197E-06     271.875E-06
            2318            2829     286.197E-06     271.875E-06
            2336            2829     286.197E-06     271.875E-06
            2319            2830     283.650E-06     271.346E-06
            2336            2830     283.650E-06     271.346E-06
            2318            2830     283.650E-06     271.346E-06
            2337            2830     283.650E-06     271.346E-06
            2338            2831     281.283E-06     271.086E-06
            2320            2831     281.283E-06     271.086E-06
            2319            2831     281.283E-06     271.086E-06
            2337            2831     281.283E-06     271.086E-06
            2339            2832     279.162E-06     271.247E-06
            2320            2832     279.162E-06     271.247E-06
            2321            2832     279.162E-06     271.247E-06
            2338            2832     279.162E-06     271.247E-06
            2322            2833     277.297E-06     271.937E-06
            2339            2833     277.297E-06     271.937E-06
            2321            2833     277.297E-06     271.937E-06
            2340            2833     277.297E-06     271.937E-06
            2340            2834     275.959E-06     273.601E-06
            2323            2834     275.959E-06     273.601E-06
            2322            2834     275.959E-06     273.601E-06
            2341            2834     275.959E-06     273.601E-06
            2341            2835     275.173E-06     275.245E-06
            2342            2835     275.173E-06     275.245E-06
            2323            2835     275.173E-06     275.245E-06
            2324            2835     275.173E-06     275.245E-06
            3393            3784     28.7953E-03     32.6920E-03
            3394            3784     28.7953E-03     32.6920E-03
            3411            3784     28.7953E-03     32.6920E-03
            3412            3784     28.7953E-03     32.6920E-03
            3412            3785     28.1562E-03     32.6458E-03
            3395            3785     28.1562E-03     32.6458E-03
            3394            3785     28.1562E-03     32.6458E-03
            3413            3785     28.1562E-03     32.6458E-03
            3395            3786     30.3895E-03     34.9824E-03
            3396            3786     30.3895E-03     34.9824E-03
            3413            3786     30.3895E-03     34.9824E-03
            3414            3786     30.3895E-03     34.9824E-03
            3397            3787     33.8455E-03     38.4441E-03
            3396            3787     33.8455E-03     38.4441E-03
            3415            3787     33.8455E-03     38.4441E-03
            3414            3787     33.8455E-03     38.4441E-03
            3397            3788     37.5000E-03     42.0059E-03
            3398            3788     37.5000E-03     42.0059E-03
            3416            3788     37.5000E-03     42.0059E-03
            3415            3788     37.5000E-03     42.0059E-03
            3417            3789     41.3077E-03     45.7151E-03
            3416            3789     41.3077E-03     45.7151E-03
            3398            3789     41.3077E-03     45.7151E-03
            3399            3789     41.3077E-03     45.7151E-03
            3399            3790     45.0869E-03     49.3938E-03
            3417            3790     45.0869E-03     49.3938E-03
            3418            3790     45.0869E-03     49.3938E-03
            3400            3790     45.0869E-03     49.3938E-03
            3401            3791     48.8719E-03     53.0730E-03
            3400            3791     48.8719E-03     53.0730E-03
            3419            3791     48.8719E-03     53.0730E-03
            3418            3791     48.8719E-03     53.0730E-03
            3401            3792     52.6124E-03     56.7081E-03
            3419            3792     52.6124E-03     56.7081E-03
            3420            3792     52.6124E-03     56.7081E-03
            3402            3792     52.6124E-03     56.7081E-03
            3421            3793     56.3289E-03     60.3203E-03
            3403            3793     56.3289E-03     60.3203E-03
            3420            3793     56.3289E-03     60.3203E-03
            3402            3793     56.3289E-03     60.3203E-03
            3403            3794     59.9918E-03     63.8696E-03
            3404            3794     59.9918E-03     63.8696E-03
            3422            3794     59.9918E-03     63.8696E-03
            3421            3794     59.9918E-03     63.8696E-03
            3404            3795     63.6336E-03     67.3875E-03
            3422            3795     63.6336E-03     67.3875E-03
            3405            3795     63.6336E-03     67.3875E-03
            3423            3795     63.6336E-03     67.3875E-03
            3424            3796     67.2192E-03     70.8316E-03
            3423            3796     67.2192E-03     70.8316E-03
            3406            3796     67.2192E-03     70.8316E-03
            3405            3796     67.2192E-03     70.8316E-03
            3425            3797     70.9456E-03     74.3641E-03
            3407            3797     70.9456E-03     74.3641E-03
            3424            3797     70.9456E-03     74.3641E-03
            3406            3797     70.9456E-03     74.3641E-03
            3408            3798     74.8150E-03     78.0871E-03
            3426            3798     74.8150E-03     78.0871E-03
            3407            3798     74.8150E-03     78.0871E-03
            3425            3798     74.8150E-03     78.0871E-03
            3408            3799     79.9997E-03     83.1231E-03
            3426            3799     79.9997E-03     83.1231E-03
            3409            3799     79.9997E-03     83.1231E-03
            3427            3799     79.9997E-03     83.1231E-03
            3409            3800     88.7206E-03     90.9617E-03
            3427            3800     88.7206E-03     90.9617E-03
            3410            3800     88.7206E-03     90.9617E-03
            3428            3800     88.7206E-03     90.9617E-03
            3411            3801     26.7299E-03     29.1894E-03
            3430            3801     26.7299E-03     29.1894E-03
            3429            3801     26.7299E-03     29.1894E-03
            3412            3801     26.7299E-03     29.1894E-03
            3430            3802     28.9545E-03     31.8520E-03
            3412            3802     28.9545E-03     31.8520E-03
            3413            3802     28.9545E-03     31.8520E-03
            3431            3802     28.9545E-03     31.8520E-03
            3413            3803     31.3062E-03     34.4346E-03
            3431            3803     31.3062E-03     34.4346E-03
            3414            3803     31.3062E-03     34.4346E-03
            3432            3803     31.3062E-03     34.4346E-03
            3414            3804     34.8265E-03     37.7955E-03
            3415            3804     34.8265E-03     37.7955E-03
            3432            3804     34.8265E-03     37.7955E-03
            3433            3804     34.8265E-03     37.7955E-03
            3434            3805     38.4957E-03     41.4033E-03
            3415            3805     38.4957E-03     41.4033E-03
            3433            3805     38.4957E-03     41.4033E-03
            3416            3805     38.4957E-03     41.4033E-03
            3417            3806     42.2367E-03     45.1144E-03
            3435            3806     42.2367E-03     45.1144E-03
            3416            3806     42.2367E-03     45.1144E-03
            3434            3806     42.2367E-03     45.1144E-03
            3418            3807     46.0104E-03     48.8448E-03
            3435            3807     46.0104E-03     48.8448E-03
            3436            3807     46.0104E-03     48.8448E-03
            3417            3807     46.0104E-03     48.8448E-03
            3418            3808     49.7851E-03     52.5744E-03
            3436            3808     49.7851E-03     52.5744E-03
            3437            3808     49.7851E-03     52.5744E-03
            3419            3808     49.7851E-03     52.5744E-03
            3420            3809     53.5715E-03     56.3096E-03
            3419            3809     53.5715E-03     56.3096E-03
            3437            3809     53.5715E-03     56.3096E-03
            3438            3809     53.5715E-03     56.3096E-03
            3421            3810     57.3556E-03     60.0397E-03
            3438            3810     57.3556E-03     60.0397E-03
            3439            3810     57.3556E-03     60.0397E-03
            3420            3810     57.3556E-03     60.0397E-03
            3439            3811     61.1491E-03     63.7831E-03
            3421            3811     61.1491E-03     63.7831E-03
            3440            3811     61.1491E-03     63.7831E-03
            3422            3811     61.1491E-03     63.7831E-03
            3422            3812     64.9462E-03     67.5436E-03
            3441            3812     64.9462E-03     67.5436E-03
            3440            3812     64.9462E-03     67.5436E-03
            3423            3812     64.9462E-03     67.5436E-03
            3424            3813     68.7702E-03     71.3581E-03
            3423            3813     68.7702E-03     71.3581E-03
            3442            3813     68.7702E-03     71.3581E-03
            3441            3813     68.7702E-03     71.3581E-03
            3442            3814     72.7184E-03     75.3473E-03
            3443            3814     72.7184E-03     75.3473E-03
            3424            3814     72.7184E-03     75.3473E-03
            3425            3814     72.7184E-03     75.3473E-03
            3426            3815     76.9025E-03     79.6369E-03
            3444            3815     76.9025E-03     79.6369E-03
            3443            3815     76.9025E-03     79.6369E-03
            3425            3815     76.9025E-03     79.6369E-03
            3445            3816     82.7011E-03     85.0261E-03
            3426            3816     82.7011E-03     85.0261E-03
            3444            3816     82.7011E-03     85.0261E-03
            3427            3816     82.7011E-03     85.0261E-03
            3446            3817     88.9864E-03     89.9055E-03
            3428            3817     88.9864E-03     89.9055E-03
            3445            3817     88.9864E-03     89.9055E-03
            3427            3817     88.9864E-03     89.9055E-03
            3448            3818     24.7998E-03     26.5968E-03
            3429            3818     24.7998E-03     26.5968E-03
            3430            3818     24.7998E-03     26.5968E-03
            3447            3818     24.7998E-03     26.5968E-03
            3431            3819     28.7040E-03     30.6523E-03
            3430            3819     28.7040E-03     30.6523E-03
            3448            3819     28.7040E-03     30.6523E-03
            3449            3819     28.7040E-03     30.6523E-03
            3431            3820     32.3736E-03     33.8731E-03
            3449            3820     32.3736E-03     33.8731E-03
            3450            3820     32.3736E-03     33.8731E-03
            3432            3820     32.3736E-03     33.8731E-03
            3451            3821     35.8151E-03     37.1521E-03
            3450            3821     35.8151E-03     37.1521E-03
            3433            3821     35.8151E-03     37.1521E-03
            3432            3821     35.8151E-03     37.1521E-03
            3434            3822     39.4825E-03     40.8221E-03
            3452            3822     39.4825E-03     40.8221E-03
            3451            3822     39.4825E-03     40.8221E-03
            3433            3822     39.4825E-03     40.8221E-03
            3434            3823     43.1439E-03     44.5023E-03
            3435            3823     43.1439E-03     44.5023E-03
            3452            3823     43.1439E-03     44.5023E-03
            3453            3823     43.1439E-03     44.5023E-03
            3436            3824     46.8710E-03     48.2428E-03
            3435            3824     46.8710E-03     48.2428E-03
            3453            3824     46.8710E-03     48.2428E-03
            3454            3824     46.8710E-03     48.2428E-03
            3455            3825     50.6133E-03     51.9957E-03
            3437            3825     50.6133E-03     51.9957E-03
            3454            3825     50.6133E-03     51.9957E-03
            3436            3825     50.6133E-03     51.9957E-03
            3437            3826     54.3866E-03     55.7679E-03
            3456            3826     54.3866E-03     55.7679E-03
            3438            3826     54.3866E-03     55.7679E-03
            3455            3826     54.3866E-03     55.7679E-03
            3456            3827     58.1803E-03     59.5660E-03
            3438            3827     58.1803E-03     59.5660E-03
            3457            3827     58.1803E-03     59.5660E-03
            3439            3827     58.1803E-03     59.5660E-03
            3458            3828     62.0107E-03     63.4007E-03
            3439            3828     62.0107E-03     63.4007E-03
            3457            3828     62.0107E-03     63.4007E-03
            3440            3828     62.0107E-03     63.4007E-03
            3458            3829     65.8634E-03     67.2876E-03
            3459            3829     65.8634E-03     67.2876E-03
            3441            3829     65.8634E-03     67.2876E-03
            3440            3829     65.8634E-03     67.2876E-03
            3441            3830     69.8115E-03     71.3001E-03
            3459            3830     69.8115E-03     71.3001E-03
            3442            3830     69.8115E-03     71.3001E-03
            3460            3830     69.8115E-03     71.3001E-03
            3443            3831     73.7579E-03     75.4407E-03
            3442            3831     73.7579E-03     75.4407E-03
            3461            3831     73.7579E-03     75.4407E-03
            3460            3831     73.7579E-03     75.4407E-03
            3444            3832     78.2341E-03     79.9467E-03
            3443            3832     78.2341E-03     79.9467E-03
            3461            3832     78.2341E-03     79.9467E-03
            3462            3832     78.2341E-03     79.9467E-03
            3462            3833     82.7102E-03     84.4363E-03
            3445            3833     82.7102E-03     84.4363E-03
            3444            3833     82.7102E-03     84.4363E-03
            3463            3833     82.7102E-03     84.4363E-03
            3464            3834     86.1066E-03     88.2240E-03
            3463            3834     86.1066E-03     88.2240E-03
            3446            3834     86.1066E-03     88.2240E-03
            3445            3834     86.1066E-03     88.2240E-03
            3465            3835     24.2067E-03     26.0041E-03
            3466            3835     24.2067E-03     26.0041E-03
            3448            3835     24.2067E-03     26.0041E-03
            3447            3835     24.2067E-03     26.0041E-03
            3467            3836     28.9002E-03     29.4700E-03
            3466            3836     28.9002E-03     29.4700E-03
            3448            3836     28.9002E-03     29.4700E-03
            3449            3836     28.9002E-03     29.4700E-03
            3450            3837     33.1737E-03     32.9270E-03
            3467            3837     33.1737E-03     32.9270E-03
            3468            3837     33.1737E-03     32.9270E-03
            3449            3837     33.1737E-03     32.9270E-03
            3468            3838     36.7981E-03     36.5363E-03
            3469            3838     36.7981E-03     36.5363E-03
            3450            3838     36.7981E-03     36.5363E-03
            3451            3838     36.7981E-03     36.5363E-03
            3452            3839     40.3419E-03     40.1432E-03
            3469            3839     40.3419E-03     40.1432E-03
            3451            3839     40.3419E-03     40.1432E-03
            3470            3839     40.3419E-03     40.1432E-03
            3470            3840     43.9829E-03     43.8408E-03
            3453            3840     43.9829E-03     43.8408E-03
            3471            3840     43.9829E-03     43.8408E-03
            3452            3840     43.9829E-03     43.8408E-03
            3471            3841     47.6253E-03     47.5524E-03
            3453            3841     47.6253E-03     47.5524E-03
            3472            3841     47.6253E-03     47.5524E-03
            3454            3841     47.6253E-03     47.5524E-03
            3455            3842     51.3192E-03     51.2952E-03
            3472            3842     51.3192E-03     51.2952E-03
            3454            3842     51.3192E-03     51.2952E-03
            3473            3842     51.3192E-03     51.2952E-03
            3473            3843     55.0198E-03     55.0547E-03
            3455            3843     55.0198E-03     55.0547E-03
            3456            3843     55.0198E-03     55.0547E-03
            3474            3843     55.0198E-03     55.0547E-03
            3474            3844     58.7541E-03     58.8339E-03
            3456            3844     58.7541E-03     58.8339E-03
            3457            3844     58.7541E-03     58.8339E-03
            3475            3844     58.7541E-03     58.8339E-03
            3475            3845     62.4949E-03     62.6381E-03
            3476            3845     62.4949E-03     62.6381E-03
            3458            3845     62.4949E-03     62.6381E-03
            3457            3845     62.4949E-03     62.6381E-03
            3458            3846     66.2905E-03     66.4876E-03
            3476            3846     66.2905E-03     66.4876E-03
            3477            3846     66.2905E-03     66.4876E-03
            3459            3846     66.2905E-03     66.4876E-03
            3477            3847     70.0784E-03     70.3839E-03
            3459            3847     70.0784E-03     70.3839E-03
            3460            3847     70.0784E-03     70.3839E-03
            3478            3847     70.0784E-03     70.3839E-03
            3460            3848     73.9752E-03     74.3796E-03
            3478            3848     73.9752E-03     74.3796E-03
            3461            3848     73.9752E-03     74.3796E-03
            3479            3848     73.9752E-03     74.3796E-03
            3461            3849     77.7387E-03     78.3642E-03
            3480            3849     77.7387E-03     78.3642E-03
            3479            3849     77.7387E-03     78.3642E-03
            3462            3849     77.7387E-03     78.3642E-03
            3480            3850     80.9129E-03     81.9323E-03
            3462            3850     80.9129E-03     81.9323E-03
            3463            3850     80.9129E-03     81.9323E-03
            3481            3850     80.9129E-03     81.9323E-03
            3463            3851     83.2555E-03     83.8497E-03
            3481            3851     83.2555E-03     83.8497E-03
            3464            3851     83.2555E-03     83.8497E-03
            3482            3851     83.2555E-03     83.8497E-03
            3465            3852     25.3905E-03     25.5296E-03
            3466            3852     25.3905E-03     25.5296E-03
            3483            3852     25.3905E-03     25.5296E-03
            3484            3852     25.3905E-03     25.5296E-03
            3485            3853     30.0028E-03     28.3381E-03
            3466            3853     30.0028E-03     28.3381E-03
            3484            3853     30.0028E-03     28.3381E-03
            3467            3853     30.0028E-03     28.3381E-03
            3486            3854     33.8107E-03     31.9984E-03
            3468            3854     33.8107E-03     31.9984E-03
            3467            3854     33.8107E-03     31.9984E-03
            3485            3854     33.8107E-03     31.9984E-03
            3486            3855     37.5204E-03     35.7421E-03
            3469            3855     37.5204E-03     35.7421E-03
            3468            3855     37.5204E-03     35.7421E-03
            3487            3855     37.5204E-03     35.7421E-03
            3488            3856     41.0955E-03     39.3972E-03
            3469            3856     41.0955E-03     39.3972E-03
            3470            3856     41.0955E-03     39.3972E-03
            3487            3856     41.0955E-03     39.3972E-03
            3488            3857     44.6892E-03     43.0816E-03
            3471            3857     44.6892E-03     43.0816E-03
            3470            3857     44.6892E-03     43.0816E-03
            3489            3857     44.6892E-03     43.0816E-03
            3489            3858     48.3051E-03     46.7830E-03
            3472            3858     48.3051E-03     46.7830E-03
            3490            3858     48.3051E-03     46.7830E-03
            3471            3858     48.3051E-03     46.7830E-03
            3490            3859     51.9066E-03     50.4891E-03
            3491            3859     51.9066E-03     50.4891E-03
            3473            3859     51.9066E-03     50.4891E-03
            3472            3859     51.9066E-03     50.4891E-03
            3473            3860     55.5177E-03     54.1950E-03
            3491            3860     55.5177E-03     54.1950E-03
            3474            3860     55.5177E-03     54.1950E-03
            3492            3860     55.5177E-03     54.1950E-03
            3474            3861     59.0920E-03     57.8808E-03
            3492            3861     59.0920E-03     57.8808E-03
            3475            3861     59.0920E-03     57.8808E-03
            3493            3861     59.0920E-03     57.8808E-03
            3476            3862     62.6623E-03     61.5369E-03
            3494            3862     62.6623E-03     61.5369E-03
            3475            3862     62.6623E-03     61.5369E-03
            3493            3862     62.6623E-03     61.5369E-03
            3477            3863     66.1773E-03     65.1553E-03
            3476            3863     66.1773E-03     65.1553E-03
            3494            3863     66.1773E-03     65.1553E-03
            3495            3863     66.1773E-03     65.1553E-03
            3496            3864     69.6564E-03     68.6830E-03
            3478            3864     69.6564E-03     68.6830E-03
            3477            3864     69.6564E-03     68.6830E-03
            3495            3864     69.6564E-03     68.6830E-03
            3497            3865     73.0230E-03     72.0815E-03
            3496            3865     73.0230E-03     72.0815E-03
            3479            3865     73.0230E-03     72.0815E-03
            3478            3865     73.0230E-03     72.0815E-03
            3479            3866     75.9507E-03     75.1061E-03
            3498            3866     75.9507E-03     75.1061E-03
            3497            3866     75.9507E-03     75.1061E-03
            3480            3866     75.9507E-03     75.1061E-03
            3499            3867     78.2737E-03     77.4581E-03
            3480            3867     78.2737E-03     77.4581E-03
            3498            3867     78.2737E-03     77.4581E-03
            3481            3867     78.2737E-03     77.4581E-03
            3482            3868     79.2634E-03     78.3597E-03
            3499            3868     79.2634E-03     78.3597E-03
            3481            3868     79.2634E-03     78.3597E-03
            3500            3868     79.2634E-03     78.3597E-03
            3977            4243     38.8117E-03     54.4080E-03
            3959            4243     38.8117E-03     54.4080E-03
            3960            4243     38.8117E-03     54.4080E-03
            3978            4243     38.8117E-03     54.4080E-03
            3979            4244     31.2322E-03     30.0175E-03
            3978            4244     31.2322E-03     30.0175E-03
            3960            4244     31.2322E-03     30.0175E-03
            3961            4244     31.2322E-03     30.0175E-03
            3961            4245     34.4498E-03     23.4163E-03
            3980            4245     34.4498E-03     23.4163E-03
            3962            4245     34.4498E-03     23.4163E-03
            3979            4245     34.4498E-03     23.4163E-03
            3981            4246     37.3575E-03     23.8000E-03
            3980            4246     37.3575E-03     23.8000E-03
            3963            4246     37.3575E-03     23.8000E-03
            3962            4246     37.3575E-03     23.8000E-03
            3982            4247     39.8963E-03     26.7857E-03
            3963            4247     39.8963E-03     26.7857E-03
            3964            4247     39.8963E-03     26.7857E-03
            3981            4247     39.8963E-03     26.7857E-03
            3982            4248     42.8960E-03     30.7906E-03
            3983            4248     42.8960E-03     30.7906E-03
            3965            4248     42.8960E-03     30.7906E-03
            3964            4248     42.8960E-03     30.7906E-03
            3984            4249     46.3522E-03     35.3082E-03
            3966            4249     46.3522E-03     35.3082E-03
            3965            4249     46.3522E-03     35.3082E-03
            3983            4249     46.3522E-03     35.3082E-03
            3985            4250     50.2128E-03     40.1798E-03
            3966            4250     50.2128E-03     40.1798E-03
            3967            4250     50.2128E-03     40.1798E-03
            3984            4250     50.2128E-03     40.1798E-03
            3967            4251     54.3742E-03     45.3876E-03
            3985            4251     54.3742E-03     45.3876E-03
            3986            4251     54.3742E-03     45.3876E-03
            3968            4251     54.3742E-03     45.3876E-03
            3968            4252     58.7671E-03     50.7805E-03
            3986            4252     58.7671E-03     50.7805E-03
            3969            4252     58.7671E-03     50.7805E-03
            3987            4252     58.7671E-03     50.7805E-03
            3970            4253     63.3282E-03     56.3568E-03
            3987            4253     63.3282E-03     56.3568E-03
            3969            4253     63.3282E-03     56.3568E-03
            3988            4253     63.3282E-03     56.3568E-03
            3971            4254     67.9934E-03     62.0129E-03
            3970            4254     67.9934E-03     62.0129E-03
            3989            4254     67.9934E-03     62.0129E-03
            3988            4254     67.9934E-03     62.0129E-03
            3990            4255     72.7650E-03     67.7400E-03
            3971            4255     72.7650E-03     67.7400E-03
            3989            4255     72.7650E-03     67.7400E-03
            3972            4255     72.7650E-03     67.7400E-03
            3972            4256     77.5399E-03     73.4832E-03
            3990            4256     77.5399E-03     73.4832E-03
            3973            4256     77.5399E-03     73.4832E-03
            3991            4256     77.5399E-03     73.4832E-03
            3991            4257     82.2327E-03     79.0855E-03
            3973            4257     82.2327E-03     79.0855E-03
            3992            4257     82.2327E-03     79.0855E-03
            3974            4257     82.2327E-03     79.0855E-03
            3974            4258     86.6432E-03     84.3508E-03
            3993            4258     86.6432E-03     84.3508E-03
            3975            4258     86.6432E-03     84.3508E-03
            3992            4258     86.6432E-03     84.3508E-03
            3994            4259     90.4474E-03     89.5012E-03
            3976            4259     90.4474E-03     89.5012E-03
            3975            4259     90.4474E-03     89.5012E-03
            3993            4259     90.4474E-03     89.5012E-03
            3995            4260     37.4305E-03     66.1175E-03
            3996            4260     37.4305E-03     15.7704E-03
            3978            4260     37.4305E-03     31.7744E-03
            3977            4260     37.4305E-03     103.391E-03
            3996            4261     19.1513E-03     17.1122E-03
            3997            4261     19.1513E-03     17.1122E-03
            3978            4261     19.1513E-03     17.1122E-03
            3979            4261     19.1513E-03     17.1122E-03
            3998            4262     28.5368E-03     10.6680E-03
            3979            4262     28.5368E-03     10.6680E-03
            3980            4262     28.5368E-03     10.6680E-03
            3997            4262     28.5368E-03     10.6680E-03
            3980            4263     33.5223E-03     13.3086E-03
            3998            4263     33.5223E-03     13.3086E-03
            3999            4263     33.5223E-03     13.3086E-03
            3981            4263     33.5223E-03     13.3086E-03
            4000            4264     37.9553E-03     18.5700E-03
            3982            4264     37.9553E-03     18.5700E-03
            3981            4264     37.9553E-03     18.5700E-03
            3999            4264     37.9553E-03     18.5700E-03
            3982            4265     42.3095E-03     24.3271E-03
            4000            4265     42.3095E-03     24.3271E-03
            3983            4265     42.3095E-03     24.3271E-03
            4001            4265     42.3095E-03     24.3271E-03
            4002            4266     46.7264E-03     30.1959E-03
            4001            4266     46.7264E-03     30.1959E-03
            3983            4266     46.7264E-03     30.1959E-03
            3984            4266     46.7264E-03     30.1959E-03
            4003            4267     51.2260E-03     36.1440E-03
            4002            4267     51.2260E-03     36.1440E-03
            3985            4267     51.2260E-03     36.1440E-03
            3984            4267     51.2260E-03     36.1440E-03
            4004            4268     55.7299E-03     42.1124E-03
            3985            4268     55.7299E-03     42.1124E-03
            3986            4268     55.7299E-03     42.1124E-03
            4003            4268     55.7299E-03     42.1124E-03
            3986            4269     60.2623E-03     48.0868E-03
            4005            4269     60.2623E-03     48.0868E-03
            4004            4269     60.2623E-03     48.0868E-03
            3987            4269     60.2623E-03     48.0868E-03
            4006            4270     64.7533E-03     54.0445E-03
            3988            4270     64.7533E-03     54.0445E-03
            3987            4270     64.7533E-03     54.0445E-03
            4005            4270     64.7533E-03     54.0445E-03
            4006            4271     69.2864E-03     59.9917E-03
            3988            4271     69.2864E-03     59.9917E-03
            3989            4271     69.2864E-03     59.9917E-03
            4007            4271     69.2864E-03     59.9917E-03
            3990            4272     73.7360E-03     65.9179E-03
            4008            4272     73.7360E-03     65.9179E-03
            3989            4272     73.7360E-03     65.9179E-03
            4007            4272     73.7360E-03     65.9179E-03
            4009            4273     78.2802E-03     71.8138E-03
            3991            4273     78.2802E-03     71.8138E-03
            4008            4273     78.2802E-03     71.8138E-03
            3990            4273     78.2802E-03     71.8138E-03
            4010            4274     82.6404E-03     77.5526E-03
            3991            4274     82.6404E-03     77.5526E-03
            3992            4274     82.6404E-03     77.5526E-03
            4009            4274     82.6404E-03     77.5526E-03
            4011            4275     86.3803E-03     82.9562E-03
            3992            4275     86.3803E-03     82.9562E-03
            4010            4275     86.3803E-03     82.9562E-03
            3993            4275     86.3803E-03     82.9562E-03
            4012            4276     89.3404E-03     86.6766E-03
            3993            4276     89.3404E-03     86.6766E-03
            3994            4276     89.3404E-03     86.6766E-03
            4011            4276     89.3404E-03     86.6766E-03
            4013            4277     40.1392E-03     34.9997E-03
            3996            4277     40.1392E-03     34.9997E-03
            3995            4277     40.1392E-03     34.9997E-03
            4014            4277     40.1392E-03     34.9997E-03
            4015            4278     18.0449E-03     15.3717E-03
            3997            4278     18.0449E-03     15.3717E-03
            4014            4278     18.0449E-03     15.3717E-03
            3996            4278     18.0449E-03     15.3717E-03
            4015            4279     23.4962E-03     15.6973E-03
            3997            4279     23.4962E-03     15.6973E-03
            3998            4279     23.4962E-03     15.6973E-03
            4016            4279     23.4962E-03     15.6973E-03
            4017            4280     26.9247E-03     20.1919E-03
            3998            4280     26.9247E-03     20.1919E-03
            3999            4280     26.9247E-03     20.1919E-03
            4016            4280     26.9247E-03     20.1919E-03
            4017            4281     31.6091E-03     25.5170E-03
            3999            4281     31.6091E-03     25.5170E-03
            4000            4281     31.6091E-03     25.5170E-03
            4018            4281     31.6091E-03     25.5170E-03
            4000            4282     36.3017E-03     30.8107E-03
            4019            4282     36.3017E-03     30.8107E-03
            4001            4282     36.3017E-03     30.8107E-03
            4018            4282     36.3017E-03     30.8107E-03
            4020            4283     41.1765E-03     36.2407E-03
            4002            4283     41.1765E-03     36.2407E-03
            4001            4283     41.1765E-03     36.2407E-03
            4019            4283     41.1765E-03     36.2407E-03
            4003            4284     46.1512E-03     41.7559E-03
            4020            4284     46.1512E-03     41.7559E-03
            4002            4284     46.1512E-03     41.7559E-03
            4021            4284     46.1512E-03     41.7559E-03
            4022            4285     51.1656E-03     47.2784E-03
            4021            4285     51.1656E-03     47.2784E-03
            4003            4285     51.1656E-03     47.2784E-03
            4004            4285     51.1656E-03     47.2784E-03
            4023            4286     56.2032E-03     52.8294E-03
            4005            4286     56.2032E-03     52.8294E-03
            4004            4286     56.2032E-03     52.8294E-03
            4022            4286     56.2032E-03     52.8294E-03
            4024            4287     61.2809E-03     58.3963E-03
            4023            4287     61.2809E-03     58.3963E-03
            4006            4287     61.2809E-03     58.3963E-03
            4005            4287     61.2809E-03     58.3963E-03
            4025            4288     66.3669E-03     64.0033E-03
            4006            4288     66.3669E-03     64.0033E-03
            4007            4288     66.3669E-03     64.0033E-03
            4024            4288     66.3669E-03     64.0033E-03
            4026            4289     71.5580E-03     69.6790E-03
            4025            4289     71.5580E-03     69.6790E-03
            4008            4289     71.5580E-03     69.6790E-03
            4007            4289     71.5580E-03     69.6790E-03
            4008            4290     76.7222E-03     75.4534E-03
            4009            4290     76.7222E-03     75.4534E-03
            4026            4290     76.7222E-03     75.4534E-03
            4027            4290     76.7222E-03     75.4534E-03
            4028            4291     82.2891E-03     81.4939E-03
            4027            4291     82.2891E-03     81.4939E-03
            4010            4291     82.2891E-03     81.4939E-03
            4009            4291     82.2891E-03     81.4939E-03
            4029            4292     88.0584E-03     87.5649E-03
            4011            4292     88.0584E-03     87.5649E-03
            4028            4292     88.0584E-03     87.5649E-03
            4010            4292     88.0584E-03     87.5649E-03
            4011            4293     92.2298E-03     92.2814E-03
            4030            4293     92.2298E-03     92.2814E-03
            4012            4293     92.2298E-03     92.2814E-03
            4029            4293     92.2298E-03     92.2814E-03
            4032            4294     41.9757E-03     38.6205E-03
            4013            4294     41.9757E-03     38.6205E-03
            4014            4294     41.9757E-03     38.6205E-03
            4031            4294     41.9757E-03     38.6205E-03
            4033            4295     17.1664E-03     23.1759E-03
            4032            4295     17.1664E-03     23.1759E-03
            4015            4295     17.1664E-03     23.1759E-03
            4014            4295     17.1664E-03     23.1759E-03
            4033            4296     17.0112E-03     23.0686E-03
            4034            4296     17.0112E-03     23.0686E-03
            4016            4296     17.0112E-03     23.0686E-03
            4015            4296     17.0112E-03     23.0686E-03
            4017            4297     20.9271E-03     27.4779E-03
            4034            4297     20.9271E-03     27.4779E-03
            4035            4297     20.9271E-03     27.4779E-03
            4016            4297     20.9271E-03     27.4779E-03
            4035            4298     25.4876E-03     32.3697E-03
            4018            4298     25.4876E-03     32.3697E-03
            4036            4298     25.4876E-03     32.3697E-03
            4017            4298     25.4876E-03     32.3697E-03
            4019            4299     30.6018E-03     37.3730E-03
            4037            4299     30.6018E-03     37.3730E-03
            4036            4299     30.6018E-03     37.3730E-03
            4018            4299     30.6018E-03     37.3730E-03
            4038            4300     35.8849E-03     42.4222E-03
            4019            4300     35.8849E-03     42.4222E-03
            4020            4300     35.8849E-03     42.4222E-03
            4037            4300     35.8849E-03     42.4222E-03
            4021            4301     41.2483E-03     47.4295E-03
            4039            4301     41.2483E-03     47.4295E-03
            4020            4301     41.2483E-03     47.4295E-03
            4038            4301     41.2483E-03     47.4295E-03
            4022            4302     46.6599E-03     52.4645E-03
            4021            4302     46.6599E-03     52.4645E-03
            4039            4302     46.6599E-03     52.4645E-03
            4040            4302     46.6599E-03     52.4645E-03
            4022            4303     52.0981E-03     57.4876E-03
            4040            4303     52.0981E-03     57.4876E-03
            4041            4303     52.0981E-03     57.4876E-03
            4023            4303     52.0981E-03     57.4876E-03
            4042            4304     57.5647E-03     62.5344E-03
            4024            4304     57.5647E-03     62.5344E-03
            4023            4304     57.5647E-03     62.5344E-03
            4041            4304     57.5647E-03     62.5344E-03
            4042            4305     63.0445E-03     67.5931E-03
            4025            4305     63.0445E-03     67.5931E-03
            4043            4305     63.0445E-03     67.5931E-03
            4024            4305     63.0445E-03     67.5931E-03
            4025            4306     68.5615E-03     72.6886E-03
            4026            4306     68.5615E-03     72.6886E-03
            4043            4306     68.5615E-03     72.6886E-03
            4044            4306     68.5615E-03     72.6886E-03
            4026            4307     74.1178E-03     77.9039E-03
            4044            4307     74.1178E-03     77.9039E-03
            4027            4307     74.1178E-03     77.9039E-03
            4045            4307     74.1178E-03     77.9039E-03
            4028            4308     79.8401E-03     83.3342E-03
            4027            4308     79.8401E-03     83.3342E-03
            4046            4308     79.8401E-03     83.3342E-03
            4045            4308     79.8401E-03     83.3342E-03
            4046            4309     86.9320E-03     89.6194E-03
            4029            4309     86.9320E-03     89.6194E-03
            4028            4309     86.9320E-03     89.6194E-03
            4047            4309     86.9320E-03     89.6194E-03
            4029            4310     94.0425E-03     95.1823E-03
            4030            4310     94.0425E-03     95.1823E-03
            4048            4310     94.0425E-03     95.1823E-03
            4047            4310     94.0425E-03     95.1823E-03
            4031            4311     36.9271E-03     61.0408E-03
            4049            4311     36.9271E-03     61.0408E-03
            4032            4311     36.9271E-03     61.0408E-03
            4050            4311     36.9271E-03     61.0408E-03
            4032            4312     9.92834E-03     34.1935E-03
            4051            4312     9.92834E-03     34.1935E-03
            4050            4312     9.92834E-03     34.1935E-03
            4033            4312     9.92834E-03     34.1935E-03
            4033            4313     10.6473E-03     31.6370E-03
            4051            4313     10.6473E-03     31.6370E-03
            4052            4313     10.6473E-03     31.6370E-03
            4034            4313     10.6473E-03     31.6370E-03
            4035            4314     15.5570E-03     35.1453E-03
            4052            4314     15.5570E-03     35.1453E-03
            4053            4314     15.5570E-03     35.1453E-03
            4034            4314     15.5570E-03     35.1453E-03
            4053            4315     20.1821E-03     39.5938E-03
            4035            4315     20.1821E-03     39.5938E-03
            4054            4315     20.1821E-03     39.5938E-03
            4036            4315     20.1821E-03     39.5938E-03
            4037            4316     25.4068E-03     44.2332E-03
            4055            4316     25.4068E-03     44.2332E-03
            4036            4316     25.4068E-03     44.2332E-03
            4054            4316     25.4068E-03     44.2332E-03
            4056            4317     30.9035E-03     48.7702E-03
            4055            4317     30.9035E-03     48.7702E-03
            4038            4317     30.9035E-03     48.7702E-03
            4037            4317     30.9035E-03     48.7702E-03
            4038            4318     36.5003E-03     53.2623E-03
            4056            4318     36.5003E-03     53.2623E-03
            4057            4318     36.5003E-03     53.2623E-03
            4039            4318     36.5003E-03     53.2623E-03
            4058            4319     42.1873E-03     57.7081E-03
            4040            4319     42.1873E-03     57.7081E-03
            4057            4319     42.1873E-03     57.7081E-03
            4039            4319     42.1873E-03     57.7081E-03
            4041            4320     47.9027E-03     62.1429E-03
            4059            4320     47.9027E-03     62.1429E-03
            4040            4320     47.9027E-03     62.1429E-03
            4058            4320     47.9027E-03     62.1429E-03
            4042            4321     53.6098E-03     66.5231E-03
            4059            4321     53.6098E-03     66.5231E-03
            4041            4321     53.6098E-03     66.5231E-03
            4060            4321     53.6098E-03     66.5231E-03
            4060            4322     59.3212E-03     70.8661E-03
            4061            4322     59.3212E-03     70.8661E-03
            4043            4322     59.3212E-03     70.8661E-03
            4042            4322     59.3212E-03     70.8661E-03
            4044            4323     64.9176E-03     75.1188E-03
            4061            4323     64.9176E-03     75.1188E-03
            4062            4323     64.9176E-03     75.1188E-03
            4043            4323     64.9176E-03     75.1188E-03
            4062            4324     70.5954E-03     79.3454E-03
            4045            4324     70.5954E-03     79.3454E-03
            4044            4324     70.5954E-03     79.3454E-03
            4063            4324     70.5954E-03     79.3454E-03
            4045            4325     76.1981E-03     83.5728E-03
            4046            4325     76.1981E-03     83.5728E-03
            4064            4325     76.1981E-03     83.5728E-03
            4063            4325     76.1981E-03     83.5728E-03
            4064            4326     82.5754E-03     88.7874E-03
            4047            4326     82.5754E-03     88.7874E-03
            4046            4326     82.5754E-03     88.7874E-03
            4065            4326     82.5754E-03     88.7874E-03
            4048            4327     92.4445E-03     96.2217E-03
            4047            4327     92.4445E-03     96.2217E-03
            4066            4327     92.4445E-03     96.2217E-03
            4065            4327     92.4445E-03     96.2217E-03
            5085            5225     253.848E-06     270.947E-06
            5086            5225     253.848E-06     270.947E-06
            5067            5225     253.848E-06     270.947E-06
            5068            5225     253.848E-06     270.947E-06
            5069            5226     254.745E-06     270.690E-06
            5086            5226     254.745E-06     270.690E-06
            5087            5226     254.745E-06     270.690E-06
            5068            5226     254.745E-06     270.690E-06
            5069            5227     257.890E-06     271.378E-06
            5070            5227     257.890E-06     271.378E-06
            5087            5227     257.890E-06     271.378E-06
            5088            5227     257.890E-06     271.378E-06
            5070            5228     259.490E-06     276.635E-06
            5089            5228     259.490E-06     276.635E-06
            5071            5228     259.490E-06     276.635E-06
            5088            5228     259.490E-06     276.635E-06
            5090            5229     261.404E-06     282.389E-06
            5089            5229     261.404E-06     282.389E-06
            5071            5229     261.404E-06     282.389E-06
            5072            5229     261.404E-06     282.389E-06
            5072            5230     264.660E-06     288.554E-06
            5090            5230     264.660E-06     288.554E-06
            5091            5230     264.660E-06     288.554E-06
            5073            5230     264.660E-06     288.554E-06
            5091            5231     268.805E-06     295.484E-06
            5092            5231     268.805E-06     295.484E-06
            5073            5231     268.805E-06     295.484E-06
            5074            5231     268.805E-06     295.484E-06
            5075            5232     274.163E-06     303.082E-06
            5093            5232     274.163E-06     303.082E-06
            5074            5232     274.163E-06     303.082E-06
            5092            5232     274.163E-06     303.082E-06
            5093            5233     280.330E-06     311.222E-06
            5076            5233     280.330E-06     311.222E-06
            5075            5233     280.330E-06     311.222E-06
            5094            5233     280.330E-06     311.222E-06
            5077            5234     287.561E-06     320.089E-06
            5095            5234     287.561E-06     320.089E-06
            5094            5234     287.561E-06     320.089E-06
            5076            5234     287.561E-06     320.089E-06
            5077            5235     295.112E-06     329.009E-06
            5096            5235     295.112E-06     329.009E-06
            5095            5235     295.112E-06     329.009E-06
            5078            5235     295.112E-06     329.009E-06
            5097            5236     303.261E-06     338.404E-06
            5079            5236     303.261E-06     338.404E-06
            5078            5236     303.261E-06     338.404E-06
            5096            5236     303.261E-06     338.404E-06
            5080            5237     310.601E-06     347.027E-06
            5079            5237     310.601E-06     347.027E-06
            5097            5237     310.601E-06     347.027E-06
            5098            5237     310.601E-06     347.027E-06
            5080            5238     318.422E-06     356.975E-06
            5099            5238     318.422E-06     356.975E-06
            5081            5238     318.422E-06     356.975E-06
            5098            5238     318.422E-06     356.975E-06
            5081            5239     328.745E-06     369.229E-06
            5100            5239     328.745E-06     369.229E-06
            5082            5239     328.745E-06     369.229E-06
            5099            5239     328.745E-06     369.229E-06
            5101            5240     369.175E-06     410.445E-06
            5083            5240     369.175E-06     410.445E-06
            5100            5240     369.175E-06     410.445E-06
            5082            5240     369.175E-06     410.445E-06
            5101            5241     488.524E-06     524.295E-06
            5102            5241     488.524E-06     524.295E-06
            5083            5241     488.524E-06     524.295E-06
            5084            5241     488.524E-06     524.295E-06
            5086            5242     279.555E-06     264.570E-06
            5103            5242     279.555E-06     264.570E-06
            5085            5242     279.555E-06     264.570E-06
            5104            5242     279.555E-06     264.570E-06
            5104            5243     270.864E-06     273.371E-06
            5105            5243     270.864E-06     273.371E-06
            5086            5243     270.864E-06     273.371E-06
            5087            5243     270.864E-06     273.371E-06
            5106            5244     269.579E-06     277.877E-06
            5087            5244     269.579E-06     277.877E-06
            5088            5244     269.579E-06     277.877E-06
            5105            5244     269.579E-06     277.877E-06
            5088            5245     270.652E-06     281.678E-06
            5089            5245     270.652E-06     281.678E-06
            5106            5245     270.652E-06     281.678E-06
            5107            5245     270.652E-06     281.678E-06
            5107            5246     273.038E-06     286.124E-06
            5089            5246     273.038E-06     286.124E-06
            5108            5246     273.038E-06     286.124E-06
            5090            5246     273.038E-06     286.124E-06
            5091            5247     276.812E-06     291.164E-06
            5108            5247     276.812E-06     291.164E-06
            5090            5247     276.812E-06     291.164E-06
            5109            5247     276.812E-06     291.164E-06
            5091            5248     281.444E-06     297.284E-06
            5092            5248     281.444E-06     297.284E-06
            5110            5248     281.444E-06     297.284E-06
            5109            5248     281.444E-06     297.284E-06
            5111            5249     287.055E-06     304.055E-06
            5110            5249     287.055E-06     304.055E-06
            5093            5249     287.055E-06     304.055E-06
            5092            5249     287.055E-06     304.055E-06
            5094            5250     293.809E-06     311.836E-06
            5093            5250     293.809E-06     311.836E-06
            5112            5250     293.809E-06     311.836E-06
            5111            5250     293.809E-06     311.836E-06
            5112            5251     301.391E-06     320.336E-06
            5113            5251     301.391E-06     320.336E-06
            5095            5251     301.391E-06     320.336E-06
            5094            5251     301.391E-06     320.336E-06
            5113            5252     310.533E-06     330.047E-06
            5096            5252     310.533E-06     330.047E-06
            5114            5252     310.533E-06     330.047E-06
            5095            5252     310.533E-06     330.047E-06
            5114            5253     320.048E-06     340.542E-06
            5096            5253     320.048E-06     340.542E-06
            5115            5253     320.048E-06     340.542E-06
            5097            5253     320.048E-06     340.542E-06
            5115            5254     331.506E-06     351.992E-06
            5116            5254     331.506E-06     351.992E-06
            5098            5254     331.506E-06     351.992E-06
            5097            5254     331.506E-06     351.992E-06
            5117            5255     340.413E-06     362.998E-06
            5116            5255     340.413E-06     362.998E-06
            5099            5255     340.413E-06     362.998E-06
            5098            5255     340.413E-06     362.998E-06
            5099            5256     347.912E-06     370.832E-06
            5100            5256     347.912E-06     370.832E-06
            5118            5256     347.912E-06     370.832E-06
            5117            5256     347.912E-06     370.832E-06
            5100            5257     365.301E-06     382.338E-06
            5118            5257     365.301E-06     382.338E-06
            5101            5257     365.301E-06     382.338E-06
            5119            5257     365.301E-06     382.338E-06
            5102            5258     401.650E-06     405.809E-06
            5119            5258     401.650E-06     405.809E-06
            5101            5258     401.650E-06     405.809E-06
            5120            5258     401.650E-06     405.809E-06
            5103            5259     293.241E-06     263.843E-06
            5121            5259     293.241E-06     263.843E-06
            5104            5259     293.241E-06     263.843E-06
            5122            5259     293.241E-06     263.843E-06
            5104            5260     287.586E-06     276.371E-06
            5123            5260     287.586E-06     276.371E-06
            5105            5260     287.586E-06     276.371E-06
            5122            5260     287.586E-06     276.371E-06
            5123            5261     281.224E-06     284.983E-06
            5105            5261     281.224E-06     284.983E-06
            5106            5261     281.224E-06     284.983E-06
            5124            5261     281.224E-06     284.983E-06
            5125            5262     282.183E-06     287.206E-06
            5107            5262     282.183E-06     287.206E-06
            5106            5262     282.183E-06     287.206E-06
            5124            5262     282.183E-06     287.206E-06
            5108            5263     285.638E-06     290.007E-06
            5126            5263     285.638E-06     290.007E-06
            5107            5263     285.638E-06     290.007E-06
            5125            5263     285.638E-06     290.007E-06
            5108            5264     289.538E-06     294.272E-06
            5109            5264     289.538E-06     294.272E-06
            5127            5264     289.538E-06     294.272E-06
            5126            5264     289.538E-06     294.272E-06
            5128            5265     294.518E-06     299.108E-06
            5127            5265     294.518E-06     299.108E-06
            5110            5265     294.518E-06     299.108E-06
            5109            5265     294.518E-06     299.108E-06
            5110            5266     300.276E-06     305.071E-06
            5129            5266     300.276E-06     305.071E-06
            5111            5266     300.276E-06     305.071E-06
            5128            5266     300.276E-06     305.071E-06
            5111            5267     306.899E-06     311.772E-06
            5112            5267     306.899E-06     311.772E-06
            5130            5267     306.899E-06     311.772E-06
            5129            5267     306.899E-06     311.772E-06
            5112            5268     314.854E-06     319.725E-06
            5113            5268     314.854E-06     319.725E-06
            5131            5268     314.854E-06     319.725E-06
            5130            5268     314.854E-06     319.725E-06
            5113            5269     323.761E-06     328.884E-06
            5131            5269     323.761E-06     328.884E-06
            5114            5269     323.761E-06     328.884E-06
            5132            5269     323.761E-06     328.884E-06
            5133            5270     334.889E-06     339.574E-06
            5115            5270     334.889E-06     339.574E-06
            5132            5270     334.889E-06     339.574E-06
            5114            5270     334.889E-06     339.574E-06
            5115            5271     345.668E-06     351.269E-06
            5134            5271     345.668E-06     351.269E-06
            5116            5271     345.668E-06     351.269E-06
            5133            5271     345.668E-06     351.269E-06
            5135            5272     356.128E-06     360.576E-06
            5117            5272     356.128E-06     360.576E-06
            5134            5272     356.128E-06     360.576E-06
            5116            5272     356.128E-06     360.576E-06
            5118            5273     353.299E-06     361.834E-06
            5136            5273     353.299E-06     361.834E-06
            5135            5273     353.299E-06     361.834E-06
            5117            5273     353.299E-06     361.834E-06
            5136            5274     311.944E-06     328.248E-06
            5118            5274     311.944E-06     328.248E-06
            5137            5274     311.944E-06     328.248E-06
            5119            5274     311.944E-06     328.248E-06
            5119            5275     278.605E-06     288.392E-06
            5120            5275     278.605E-06     288.392E-06
            5137            5275     278.605E-06     288.392E-06
            5138            5275     278.605E-06     288.392E-06
            5139            5276     298.382E-06     285.029E-06
            5121            5276     298.382E-06     285.029E-06
            5122            5276     298.382E-06     285.029E-06
            5140            5276     298.382E-06     285.029E-06
            5122            5277     290.889E-06     291.016E-06
            5123            5277     290.889E-06     291.016E-06
            5140            5277     290.889E-06     291.016E-06
            5141            5277     290.889E-06     291.016E-06
            5142            5278     292.177E-06     291.207E-06
            5141            5278     292.177E-06     291.207E-06
            5124            5278     292.177E-06     291.207E-06
            5123            5278     292.177E-06     291.207E-06
            5125            5279     295.212E-06     292.393E-06
            5124            5279     295.212E-06     292.393E-06
            5143            5279     295.212E-06     292.393E-06
            5142            5279     295.212E-06     292.393E-06
            5144            5280     298.776E-06     294.710E-06
            5143            5280     298.776E-06     294.710E-06
            5126            5280     298.776E-06     294.710E-06
            5125            5280     298.776E-06     294.710E-06
            5127            5281     303.270E-06     297.630E-06
            5126            5281     303.270E-06     297.630E-06
            5145            5281     303.270E-06     297.630E-06
            5144            5281     303.270E-06     297.630E-06
            5146            5282     308.218E-06     301.608E-06
            5128            5282     308.218E-06     301.608E-06
            5145            5282     308.218E-06     301.608E-06
            5127            5282     308.218E-06     301.608E-06
            5147            5283     313.817E-06     306.143E-06
            5128            5283     313.817E-06     306.143E-06
            5146            5283     313.817E-06     306.143E-06
            5129            5283     313.817E-06     306.143E-06
            5129            5284     320.109E-06     311.539E-06
            5130            5284     320.109E-06     311.539E-06
            5147            5284     320.109E-06     311.539E-06
            5148            5284     320.109E-06     311.539E-06
            5130            5285     327.028E-06     317.618E-06
            5149            5285     327.028E-06     317.618E-06
            5131            5285     327.028E-06     317.618E-06
            5148            5285     327.028E-06     317.618E-06
            5150            5286     334.924E-06     324.693E-06
            5149            5286     334.924E-06     324.693E-06
            5131            5286     334.924E-06     324.693E-06
            5132            5286     334.924E-06     324.693E-06
            5151            5287     343.270E-06     332.356E-06
            5132            5287     343.270E-06     332.356E-06
            5133            5287     343.270E-06     332.356E-06
            5150            5287     343.270E-06     332.356E-06
            5151            5288     351.468E-06     339.564E-06
            5152            5288     351.468E-06     339.564E-06
            5134            5288     351.468E-06     339.564E-06
            5133            5288     351.468E-06     339.564E-06
            5135            5289     354.888E-06     342.629E-06
            5152            5289     354.888E-06     342.629E-06
            5134            5289     354.888E-06     342.629E-06
            5153            5289     354.888E-06     342.629E-06
            5135            5290     341.078E-06     330.262E-06
            5136            5290     341.078E-06     330.262E-06
            5154            5290     341.078E-06     330.262E-06
            5153            5290     341.078E-06     330.262E-06
            5137            5291     272.832E-06     273.619E-06
            5155            5291     272.832E-06     273.619E-06
            5154            5291     272.832E-06     273.619E-06
            5136            5291     272.832E-06     273.619E-06
            5155            5292     185.757E-06     183.206E-06
            5156            5292     185.757E-06     183.206E-06
            5138            5292     185.757E-06     183.206E-06
            5137            5292     185.757E-06     183.206E-06
            5157            5293     291.565E-06     309.545E-06
            5140            5293     291.565E-06     309.545E-06
            5158            5293     291.565E-06     309.545E-06
            5139            5293     291.565E-06     309.545E-06
            5141            5294     297.064E-06     302.078E-06
            5159            5294     297.064E-06     302.078E-06
            5140            5294     297.064E-06     302.078E-06
            5158            5294     297.064E-06     302.078E-06
            5159            5295     304.102E-06     297.506E-06
            5142            5295     304.102E-06     297.506E-06
            5141            5295     304.102E-06     297.506E-06
            5160            5295     304.102E-06     297.506E-06
            5142            5296     308.847E-06     298.188E-06
            5161            5296     308.847E-06     298.188E-06
            5160            5296     308.847E-06     298.188E-06
            5143            5296     308.847E-06     298.188E-06
            5143            5297     312.969E-06     299.821E-06
            5162            5297     312.969E-06     299.821E-06
            5161            5297     312.969E-06     299.821E-06
            5144            5297     312.969E-06     299.821E-06
            5144            5298     317.731E-06     301.917E-06
            5145            5298     317.731E-06     301.917E-06
            5162            5298     317.731E-06     301.917E-06
            5163            5298     317.731E-06     301.917E-06
            5145            5299     322.694E-06     304.719E-06
            5164            5299     322.694E-06     304.719E-06
            5146            5299     322.694E-06     304.719E-06
            5163            5299     322.694E-06     304.719E-06
            5164            5300     328.064E-06     307.948E-06
            5146            5300     328.064E-06     307.948E-06
            5165            5300     328.064E-06     307.948E-06
            5147            5300     328.064E-06     307.948E-06
            5166            5301     333.599E-06     311.573E-06
            5147            5301     333.599E-06     311.573E-06
            5148            5301     333.599E-06     311.573E-06
            5165            5301     333.599E-06     311.573E-06
            5149            5302     339.164E-06     315.375E-06
            5148            5302     339.164E-06     315.375E-06
            5167            5302     339.164E-06     315.375E-06
            5166            5302     339.164E-06     315.375E-06
            5168            5303     344.441E-06     318.798E-06
            5149            5303     344.441E-06     318.798E-06
            5150            5303     344.441E-06     318.798E-06
            5167            5303     344.441E-06     318.798E-06
            5151            5304     348.164E-06     321.136E-06
            5168            5304     348.164E-06     321.136E-06
            5150            5304     348.164E-06     321.136E-06
            5169            5304     348.164E-06     321.136E-06
            5170            5305     349.052E-06     319.671E-06
            5152            5305     349.052E-06     319.671E-06
            5151            5305     349.052E-06     319.671E-06
            5169            5305     349.052E-06     319.671E-06
            5152            5306     340.411E-06     310.197E-06
            5171            5306     340.411E-06     310.197E-06
            5170            5306     340.411E-06     310.197E-06
            5153            5306     340.411E-06     310.197E-06
            5172            5307     313.461E-06     280.364E-06
            5171            5307     313.461E-06     280.364E-06
            5153            5307     313.461E-06     280.364E-06
            5154            5307     313.461E-06     280.364E-06
            5154            5308     251.428E-06     216.487E-06
            5173            5308     251.428E-06     216.487E-06
            5172            5308     251.428E-06     216.487E-06
            5155            5308     251.428E-06     216.487E-06
            5156            5309     152.193E-06     162.930E-06
            5174            5309     152.193E-06     162.930E-06
            5173            5309     152.193E-06     162.930E-06
            5155            5309     152.193E-06     162.930E-06
            5865            5862     21.4487E-03     22.6362E-03
            5866            5862     21.4487E-03     22.6362E-03
            5848            5862     21.4487E-03     22.6362E-03
            5847            5862     21.4487E-03     22.6362E-03
            5848            5863     22.6369E-03     24.0927E-03
            5867            5863     22.6369E-03     24.0927E-03
            5866            5863     22.6369E-03     24.0927E-03
            5849            5863     22.6369E-03     24.0927E-03
            5849            5864     24.9736E-03     26.5798E-03
            5868            5864     24.9736E-03     26.5798E-03
            5850            5864     24.9736E-03     26.5798E-03
            5867            5864     24.9736E-03     26.5798E-03
            5868            5865     27.6248E-03     29.3232E-03
            5851            5865     27.6248E-03     29.3232E-03
            5850            5865     27.6248E-03     29.3232E-03
            5869            5865     27.6248E-03     29.3232E-03
            5870            5866     30.4517E-03     32.2062E-03
            5852            5866     30.4517E-03     32.2062E-03
            5851            5866     30.4517E-03     32.2062E-03
            5869            5866     30.4517E-03     32.2062E-03
            5870            5867     33.3697E-03     35.1544E-03
            5852            5867     33.3697E-03     35.1544E-03
            5853            5867     33.3697E-03     35.1544E-03
            5871            5867     33.3697E-03     35.1544E-03
            5853            5868     36.3488E-03     38.1367E-03
            5872            5868     36.3488E-03     38.1367E-03
            5871            5868     36.3488E-03     38.1367E-03
            5854            5868     36.3488E-03     38.1367E-03
            5854            5869     39.3589E-03     41.1366E-03
            5872            5869     39.3589E-03     41.1366E-03
            5855            5869     39.3589E-03     41.1366E-03
            5873            5869     39.3589E-03     41.1366E-03
            5874            5870     42.4054E-03     44.1454E-03
            5855            5870     42.4054E-03     44.1454E-03
            5873            5870     42.4054E-03     44.1454E-03
            5856            5870     42.4054E-03     44.1454E-03
            5874            5871     45.4734E-03     47.1708E-03
            5875            5871     45.4734E-03     47.1708E-03
            5857            5871     45.4734E-03     47.1708E-03
            5856            5871     45.4734E-03     47.1708E-03
            5876            5872     48.6015E-03     50.2193E-03
            5875            5872     48.6015E-03     50.2193E-03
            5857            5872     48.6015E-03     50.2193E-03
            5858            5872     48.6015E-03     50.2193E-03
            5858            5873     51.7798E-03     53.3298E-03
            5877            5873     51.7798E-03     53.3298E-03
            5876            5873     51.7798E-03     53.3298E-03
            5859            5873     51.7798E-03     53.3298E-03
            5878            5874     55.1105E-03     56.5445E-03
            5860            5874     55.1105E-03     56.5445E-03
            5877            5874     55.1105E-03     56.5445E-03
            5859            5874     55.1105E-03     56.5445E-03
            5861            5875     58.5829E-03     59.9699E-03
            5878            5875     58.5829E-03     59.9699E-03
            5879            5875     58.5829E-03     59.9699E-03
            5860            5875     58.5829E-03     59.9699E-03
            5879            5876     62.4880E-03     63.8154E-03
            5880            5876     62.4880E-03     63.8154E-03
            5861            5876     62.4880E-03     63.8154E-03
            5862            5876     62.4880E-03     63.8154E-03
            5880            5877     66.8241E-03     68.3495E-03
            5862            5877     66.8241E-03     68.3495E-03
            5863            5877     66.8241E-03     68.3495E-03
            5881            5877     66.8241E-03     68.3495E-03
            5863            5878     73.3968E-03     75.9740E-03
            5881            5878     73.3968E-03     75.9740E-03
            5864            5878     73.3968E-03     75.9740E-03
            5882            5878     73.3968E-03     75.9740E-03
            5865            5879     22.4144E-03     24.0607E-03
            5883            5879     22.4144E-03     24.0607E-03
            5866            5879     22.4144E-03     24.0607E-03
            5884            5879     22.4144E-03     24.0607E-03
            5884            5880     22.7521E-03     24.4931E-03
            5866            5880     22.7521E-03     24.4931E-03
            5867            5880     22.7521E-03     24.4931E-03
            5885            5880     22.7521E-03     24.4931E-03
            5868            5881     23.9981E-03     25.9561E-03
            5867            5881     23.9981E-03     25.9561E-03
            5885            5881     23.9981E-03     25.9561E-03
            5886            5881     23.9981E-03     25.9561E-03
            5868            5882     26.1052E-03     28.1995E-03
            5886            5882     26.1052E-03     28.1995E-03
            5869            5882     26.1052E-03     28.1995E-03
            5887            5882     26.1052E-03     28.1995E-03
            5888            5883     28.4469E-03     30.6376E-03
            5869            5883     28.4469E-03     30.6376E-03
            5887            5883     28.4469E-03     30.6376E-03
            5870            5883     28.4469E-03     30.6376E-03
            5888            5884     31.0234E-03     33.2587E-03
            5870            5884     31.0234E-03     33.2587E-03
            5871            5884     31.0234E-03     33.2587E-03
            5889            5884     31.0234E-03     33.2587E-03
            5872            5885     33.6825E-03     35.9326E-03
            5889            5885     33.6825E-03     35.9326E-03
            5890            5885     33.6825E-03     35.9326E-03
            5871            5885     33.6825E-03     35.9326E-03
            5891            5886     36.4310E-03     38.6597E-03
            5873            5886     36.4310E-03     38.6597E-03
            5872            5886     36.4310E-03     38.6597E-03
            5890            5886     36.4310E-03     38.6597E-03
            5873            5887     39.2211E-03     41.4053E-03
            5874            5887     39.2211E-03     41.4053E-03
            5891            5887     39.2211E-03     41.4053E-03
            5892            5887     39.2211E-03     41.4053E-03
            5893            5888     42.0886E-03     44.1975E-03
            5874            5888     42.0886E-03     44.1975E-03
            5875            5888     42.0886E-03     44.1975E-03
            5892            5888     42.0886E-03     44.1975E-03
            5876            5889     45.0302E-03     47.0454E-03
            5875            5889     45.0302E-03     47.0454E-03
            5894            5889     45.0302E-03     47.0454E-03
            5893            5889     45.0302E-03     47.0454E-03
            5895            5890     48.1476E-03     50.0432E-03
            5876            5890     48.1476E-03     50.0432E-03
            5894            5890     48.1476E-03     50.0432E-03
            5877            5890     48.1476E-03     50.0432E-03
            5878            5891     51.4784E-03     53.2593E-03
            5877            5891     51.4784E-03     53.2593E-03
            5896            5891     51.4784E-03     53.2593E-03
            5895            5891     51.4784E-03     53.2593E-03
            5879            5892     55.3114E-03     56.9849E-03
            5897            5892     55.3114E-03     56.9849E-03
            5878            5892     55.3114E-03     56.9849E-03
            5896            5892     55.3114E-03     56.9849E-03
            5879            5893     59.7752E-03     61.4358E-03
            5898            5893     59.7752E-03     61.4358E-03
            5897            5893     59.7752E-03     61.4358E-03
            5880            5893     59.7752E-03     61.4358E-03
            5881            5894     65.9873E-03     67.7773E-03
            5899            5894     65.9873E-03     67.7773E-03
            5880            5894     65.9873E-03     67.7773E-03
            5898            5894     65.9873E-03     67.7773E-03
            5900            5895     75.7242E-03     77.0720E-03
            5899            5895     75.7242E-03     77.0720E-03
            5882            5895     75.7242E-03     77.0720E-03
            5881            5895     75.7242E-03     77.0720E-03
            5902            5896     20.3469E-03     22.3542E-03
            5883            5896     20.3469E-03     22.3542E-03
            5901            5896     20.3469E-03     22.3542E-03
            5884            5896     20.3469E-03     22.3542E-03
            5903            5897     22.5938E-03     24.4213E-03
            5884            5897     22.5938E-03     24.4213E-03
            5902            5897     22.5938E-03     24.4213E-03
            5885            5897     22.5938E-03     24.4213E-03
            5903            5898     24.2536E-03     26.0843E-03
            5885            5898     24.2536E-03     26.0843E-03
            5904            5898     24.2536E-03     26.0843E-03
            5886            5898     24.2536E-03     26.0843E-03
            5886            5899     26.4806E-03     28.3750E-03
            5904            5899     26.4806E-03     28.3750E-03
            5905            5899     26.4806E-03     28.3750E-03
            5887            5899     26.4806E-03     28.3750E-03
            5905            5900     28.9914E-03     30.9256E-03
            5888            5900     28.9914E-03     30.9256E-03
            5887            5900     28.9914E-03     30.9256E-03
            5906            5900     28.9914E-03     30.9256E-03
            5888            5901     31.6562E-03     33.6225E-03
            5906            5901     31.6562E-03     33.6225E-03
            5889            5901     31.6562E-03     33.6225E-03
            5907            5901     31.6562E-03     33.6225E-03
            5907            5902     34.4379E-03     36.4113E-03
            5890            5902     34.4379E-03     36.4113E-03
            5908            5902     34.4379E-03     36.4113E-03
            5889            5902     34.4379E-03     36.4113E-03
            5908            5903     37.2750E-03     39.2495E-03
            5890            5903     37.2750E-03     39.2495E-03
            5891            5903     37.2750E-03     39.2495E-03
            5909            5903     37.2750E-03     39.2495E-03
            5909            5904     40.1795E-03     42.1369E-03
            5892            5904     40.1795E-03     42.1369E-03
            5910            5904     40.1795E-03     42.1369E-03
            5891            5904     40.1795E-03     42.1369E-03
            5893            5905     43.1356E-03     45.0776E-03
            5910            5905     43.1356E-03     45.0776E-03
            5911            5905     43.1356E-03     45.0776E-03
            5892            5905     43.1356E-03     45.0776E-03
            5911            5906     46.2042E-03     48.1135E-03
            5893            5906     46.2042E-03     48.1135E-03
            5912            5906     46.2042E-03     48.1135E-03
            5894            5906     46.2042E-03     48.1135E-03
            5912            5907     49.4158E-03     51.3078E-03
            5913            5907     49.4158E-03     51.3078E-03
            5894            5907     49.4158E-03     51.3078E-03
            5895            5907     49.4158E-03     51.3078E-03
            5913            5908     52.9310E-03     54.7822E-03
            5896            5908     52.9310E-03     54.7822E-03
            5895            5908     52.9310E-03     54.7822E-03
            5914            5908     52.9310E-03     54.7822E-03
            5914            5909     56.9134E-03     58.7456E-03
            5915            5909     56.9134E-03     58.7456E-03
            5897            5909     56.9134E-03     58.7456E-03
            5896            5909     56.9134E-03     58.7456E-03
            5898            5910     61.7212E-03     63.4881E-03
            5897            5910     61.7212E-03     63.4881E-03
            5915            5910     61.7212E-03     63.4881E-03
            5916            5910     61.7212E-03     63.4881E-03
            5917            5911     68.5292E-03     69.7792E-03
            5916            5911     68.5292E-03     69.7792E-03
            5898            5911     68.5292E-03     69.7792E-03
            5899            5911     68.5292E-03     69.7792E-03
            5918            5912     75.8812E-03     76.3314E-03
            5917            5912     75.8812E-03     76.3314E-03
            5900            5912     75.8812E-03     76.3314E-03
            5899            5912     75.8812E-03     76.3314E-03
            5901            5913     18.9974E-03     20.8056E-03
            5919            5913     18.9974E-03     20.8056E-03
            5920            5913     18.9974E-03     20.8056E-03
            5902            5913     18.9974E-03     20.8056E-03
            5902            5914     21.9051E-03     23.7402E-03
            5903            5914     21.9051E-03     23.7402E-03
            5920            5914     21.9051E-03     23.7402E-03
            5921            5914     21.9051E-03     23.7402E-03
            5904            5915     24.4094E-03     26.1647E-03
            5903            5915     24.4094E-03     26.1647E-03
            5921            5915     24.4094E-03     26.1647E-03
            5922            5915     24.4094E-03     26.1647E-03
            5923            5916     26.8486E-03     28.5769E-03
            5922            5916     26.8486E-03     28.5769E-03
            5904            5916     26.8486E-03     28.5769E-03
            5905            5916     26.8486E-03     28.5769E-03
            5906            5917     29.5291E-03     31.2599E-03
            5905            5917     29.5291E-03     31.2599E-03
            5923            5917     29.5291E-03     31.2599E-03
            5924            5917     29.5291E-03     31.2599E-03
            5907            5918     32.3142E-03     34.0415E-03
            5906            5918     32.3142E-03     34.0415E-03
            5924            5918     32.3142E-03     34.0415E-03
            5925            5918     32.3142E-03     34.0415E-03
            5926            5919     35.1865E-03     36.9222E-03
            5925            5919     35.1865E-03     36.9222E-03
            5907            5919     35.1865E-03     36.9222E-03
            5908            5919     35.1865E-03     36.9222E-03
            5927            5920     38.1212E-03     39.8622E-03
            5908            5920     38.1212E-03     39.8622E-03
            5926            5920     38.1212E-03     39.8622E-03
            5909            5920     38.1212E-03     39.8622E-03
            5909            5921     41.1050E-03     42.8641E-03
            5927            5921     41.1050E-03     42.8641E-03
            5928            5921     41.1050E-03     42.8641E-03
            5910            5921     41.1050E-03     42.8641E-03
            5911            5922     44.1606E-03     45.9357E-03
            5910            5922     44.1606E-03     45.9357E-03
            5928            5922     44.1606E-03     45.9357E-03
            5929            5922     44.1606E-03     45.9357E-03
            5912            5923     47.3076E-03     49.1160E-03
            5930            5923     47.3076E-03     49.1160E-03
            5929            5923     47.3076E-03     49.1160E-03
            5911            5923     47.3076E-03     49.1160E-03
            5912            5924     50.6193E-03     52.4504E-03
            5930            5924     50.6193E-03     52.4504E-03
            5931            5924     50.6193E-03     52.4504E-03
            5913            5924     50.6193E-03     52.4504E-03
            5914            5925     54.2136E-03     56.0599E-03
            5932            5925     54.2136E-03     56.0599E-03
            5913            5925     54.2136E-03     56.0599E-03
            5931            5925     54.2136E-03     56.0599E-03
            5914            5926     58.2047E-03     60.0402E-03
            5932            5926     58.2047E-03     60.0402E-03
            5933            5926     58.2047E-03     60.0402E-03
            5915            5926     58.2047E-03     60.0402E-03
            5934            5927     63.1204E-03     64.6956E-03
            5916            5927     63.1204E-03     64.6956E-03
            5933            5927     63.1204E-03     64.6956E-03
            5915            5927     63.1204E-03     64.6956E-03
            5917            5928     68.5717E-03     69.8941E-03
            5934            5928     68.5717E-03     69.8941E-03
            5935            5928     68.5717E-03     69.8941E-03
            5916            5928     68.5717E-03     69.8941E-03
            5936            5929     73.5943E-03     75.0155E-03
            5918            5929     73.5943E-03     75.0155E-03
            5917            5929     73.5943E-03     75.0155E-03
            5935            5929     73.5943E-03     75.0155E-03
            5938            5930     18.3844E-03     20.0845E-03
            5920            5930     18.3844E-03     20.0845E-03
            5937            5930     18.3844E-03     20.0845E-03
            5919            5930     18.3844E-03     20.0845E-03
            5939            5931     21.4223E-03     23.1176E-03
            5921            5931     21.4223E-03     23.1176E-03
            5938            5931     21.4223E-03     23.1176E-03
            5920            5931     21.4223E-03     23.1176E-03
            5921            5932     24.3503E-03     26.0045E-03
            5940            5932     24.3503E-03     26.0045E-03
            5922            5932     24.3503E-03     26.0045E-03
            5939            5932     24.3503E-03     26.0045E-03
            5940            5933     27.1719E-03     28.7609E-03
            5922            5933     27.1719E-03     28.7609E-03
            5923            5933     27.1719E-03     28.7609E-03
            5941            5933     27.1719E-03     28.7609E-03
            5923            5934     29.9957E-03     31.5307E-03
            5941            5934     29.9957E-03     31.5307E-03
            5924            5934     29.9957E-03     31.5307E-03
            5942            5934     29.9957E-03     31.5307E-03
            5942            5935     32.9086E-03     34.4205E-03
            5925            5935     32.9086E-03     34.4205E-03
            5943            5935     32.9086E-03     34.4205E-03
            5924            5935     32.9086E-03     34.4205E-03
            5944            5936     35.8616E-03     37.3639E-03
            5926            5936     35.8616E-03     37.3639E-03
            5943            5936     35.8616E-03     37.3639E-03
            5925            5936     35.8616E-03     37.3639E-03
            5927            5937     38.8671E-03     40.3838E-03
            5944            5937     38.8671E-03     40.3838E-03
            5945            5937     38.8671E-03     40.3838E-03
            5926            5937     38.8671E-03     40.3838E-03
            5927            5938     41.9185E-03     43.4648E-03
            5945            5938     41.9185E-03     43.4648E-03
            5928            5938     41.9185E-03     43.4648E-03
            5946            5938     41.9185E-03     43.4648E-03
            5947            5939     45.0305E-03     46.6282E-03
            5929            5939     45.0305E-03     46.6282E-03
            5946            5939     45.0305E-03     46.6282E-03
            5928            5939     45.0305E-03     46.6282E-03
            5947            5940     48.2246E-03     49.8831E-03
            5929            5940     48.2246E-03     49.8831E-03
            5930            5940     48.2246E-03     49.8831E-03
            5948            5940     48.2246E-03     49.8831E-03
            5948            5941     51.5632E-03     53.2836E-03
            5931            5941     51.5632E-03     53.2836E-03
            5949            5941     51.5632E-03     53.2836E-03
            5930            5941     51.5632E-03     53.2836E-03
            5950            5942     55.0739E-03     56.8520E-03
            5932            5942     55.0739E-03     56.8520E-03
            5949            5942     55.0739E-03     56.8520E-03
            5931            5942     55.0739E-03     56.8520E-03
            5951            5943     58.9725E-03     60.6801E-03
            5933            5943     58.9725E-03     60.6801E-03
            5950            5943     58.9725E-03     60.6801E-03
            5932            5943     58.9725E-03     60.6801E-03
            5951            5944     63.1384E-03     64.7585E-03
            5933            5944     63.1384E-03     64.7585E-03
            5952            5944     63.1384E-03     64.7585E-03
            5934            5944     63.1384E-03     64.7585E-03
            5935            5945     67.3512E-03     68.8410E-03
            5952            5945     67.3512E-03     68.8410E-03
            5934            5945     67.3512E-03     68.8410E-03
            5953            5945     67.3512E-03     68.8410E-03
            5936            5946     71.5372E-03     72.5136E-03
            5935            5946     71.5372E-03     72.5136E-03
            5953            5946     71.5372E-03     72.5136E-03
            5954            5946     71.5372E-03     72.5136E-03
            5956            5947     18.0895E-03     19.6768E-03
            5938            5947     18.0895E-03     19.6768E-03
            5937            5947     18.0895E-03     19.6768E-03
            5955            5947     18.0895E-03     19.6768E-03
            5939            5948     21.2275E-03     22.8042E-03
            5957            5948     21.2275E-03     22.8042E-03
            5938            5948     21.2275E-03     22.8042E-03
            5956            5948     21.2275E-03     22.8042E-03
            5957            5949     24.3224E-03     25.8516E-03
            5958            5949     24.3224E-03     25.8516E-03
            5939            5949     24.3224E-03     25.8516E-03
            5940            5949     24.3224E-03     25.8516E-03
            5958            5950     27.3766E-03     28.8000E-03
            5959            5950     27.3766E-03     28.8000E-03
            5940            5950     27.3766E-03     28.8000E-03
            5941            5950     27.3766E-03     28.8000E-03
            5960            5951     30.3779E-03     31.7191E-03
            5959            5951     30.3779E-03     31.7191E-03
            5941            5951     30.3779E-03     31.7191E-03
            5942            5951     30.3779E-03     31.7191E-03
            5960            5952     33.3678E-03     34.6499E-03
            5961            5952     33.3678E-03     34.6499E-03
            5943            5952     33.3678E-03     34.6499E-03
            5942            5952     33.3678E-03     34.6499E-03
            5962            5953     36.3900E-03     37.6493E-03
            5943            5953     36.3900E-03     37.6493E-03
            5961            5953     36.3900E-03     37.6493E-03
            5944            5953     36.3900E-03     37.6493E-03
            5962            5954     39.4326E-03     40.7040E-03
            5945            5954     39.4326E-03     40.7040E-03
            5963            5954     39.4326E-03     40.7040E-03
            5944            5954     39.4326E-03     40.7040E-03
            5963            5955     42.5181E-03     43.8287E-03
            5946            5955     42.5181E-03     43.8287E-03
            5964            5955     42.5181E-03     43.8287E-03
            5945            5955     42.5181E-03     43.8287E-03
            5964            5956     45.6429E-03     47.0186E-03
            5946            5956     45.6429E-03     47.0186E-03
            5947            5956     45.6429E-03     47.0186E-03
            5965            5956     45.6429E-03     47.0186E-03
            5947            5957     48.8364E-03     50.2932E-03
            5948            5957     48.8364E-03     50.2932E-03
            5966            5957     48.8364E-03     50.2932E-03
            5965            5957     48.8364E-03     50.2932E-03
            5949            5958     52.0889E-03     53.6454E-03
            5966            5958     52.0889E-03     53.6454E-03
            5967            5958     52.0889E-03     53.6454E-03
            5948            5958     52.0889E-03     53.6454E-03
            5968            5959     55.4702E-03     57.0853E-03
            5949            5959     55.4702E-03     57.0853E-03
            5950            5959     55.4702E-03     57.0853E-03
            5967            5959     55.4702E-03     57.0853E-03
            5969            5960     58.9211E-03     60.5757E-03
            5951            5960     58.9211E-03     60.5757E-03
            5968            5960     58.9211E-03     60.5757E-03
            5950            5960     58.9211E-03     60.5757E-03
            5969            5961     62.3961E-03     63.9839E-03
            5970            5961     62.3961E-03     63.9839E-03
            5952            5961     62.3961E-03     63.9839E-03
            5951            5961     62.3961E-03     63.9839E-03
            5971            5962     65.8536E-03     67.1604E-03
            5952            5962     65.8536E-03     67.1604E-03
            5953            5962     65.8536E-03     67.1604E-03
            5970            5962     65.8536E-03     67.1604E-03
            5953            5963     69.1076E-03     70.1467E-03
            5972            5963     69.1076E-03     70.1467E-03
            5971            5963     69.1076E-03     70.1467E-03
            5954            5963     69.1076E-03     70.1467E-03
            5973            5964     18.1010E-03     19.5431E-03
            5955            5964     18.1010E-03     19.5431E-03
            5974            5964     18.1010E-03     19.5431E-03
            5956            5964     18.1010E-03     19.5431E-03
            5974            5965     21.1770E-03     22.6852E-03
            5956            5965     21.1770E-03     22.6852E-03
            5975            5965     21.1770E-03     22.6852E-03
            5957            5965     21.1770E-03     22.6852E-03
            5957            5966     24.4006E-03     25.7665E-03
            5975            5966     24.4006E-03     25.7665E-03
            5958            5966     24.4006E-03     25.7665E-03
            5976            5966     24.4006E-03     25.7665E-03
            5977            5967     27.5446E-03     28.7898E-03
            5959            5967     27.5446E-03     28.7898E-03
            5958            5967     27.5446E-03     28.7898E-03
            5976            5967     27.5446E-03     28.7898E-03
            5959            5968     30.6296E-03     31.7381E-03
            5960            5968     30.6296E-03     31.7381E-03
            5977            5968     30.6296E-03     31.7381E-03
            5978            5968     30.6296E-03     31.7381E-03
            5979            5969     33.6737E-03     34.6920E-03
            5960            5969     33.6737E-03     34.6920E-03
            5978            5969     33.6737E-03     34.6920E-03
            5961            5969     33.6737E-03     34.6920E-03
            5961            5970     36.7041E-03     37.6941E-03
            5980            5970     36.7041E-03     37.6941E-03
            5979            5970     36.7041E-03     37.6941E-03
            5962            5970     36.7041E-03     37.6941E-03
            5962            5971     39.7547E-03     40.7494E-03
            5980            5971     39.7547E-03     40.7494E-03
            5981            5971     39.7547E-03     40.7494E-03
            5963            5971     39.7547E-03     40.7494E-03
            5981            5972     42.8212E-03     43.8578E-03
            5982            5972     42.8212E-03     43.8578E-03
            5964            5972     42.8212E-03     43.8578E-03
            5963            5972     42.8212E-03     43.8578E-03
            5964            5973     45.9232E-03     47.0237E-03
            5982            5973     45.9232E-03     47.0237E-03
            5983            5973     45.9232E-03     47.0237E-03
            5965            5973     45.9232E-03     47.0237E-03
            5965            5974     49.0380E-03     50.2357E-03
            5966            5974     49.0380E-03     50.2357E-03
            5984            5974     49.0380E-03     50.2357E-03
            5983            5974     49.0380E-03     50.2357E-03
            5967            5975     52.1795E-03     53.4807E-03
            5985            5975     52.1795E-03     53.4807E-03
            5966            5975     52.1795E-03     53.4807E-03
            5984            5975     52.1795E-03     53.4807E-03
            5967            5976     55.2902E-03     56.7113E-03
            5986            5976     55.2902E-03     56.7113E-03
            5985            5976     55.2902E-03     56.7113E-03
            5968            5976     55.2902E-03     56.7113E-03
            5986            5977     58.3175E-03     59.8277E-03
            5968            5977     58.3175E-03     59.8277E-03
            5969            5977     58.3175E-03     59.8277E-03
            5987            5977     58.3175E-03     59.8277E-03
            5987            5978     61.2315E-03     62.6976E-03
            5988            5978     61.2315E-03     62.6976E-03
            5969            5978     61.2315E-03     62.6976E-03
            5970            5978     61.2315E-03     62.6976E-03
            5989            5979     63.9560E-03     65.2499E-03
            5988            5979     63.9560E-03     65.2499E-03
            5971            5979     63.9560E-03     65.2499E-03
            5970            5979     63.9560E-03     65.2499E-03
            5972            5980     66.6730E-03     67.5534E-03
            5990            5980     66.6730E-03     67.5534E-03
            5989            5980     66.6730E-03     67.5534E-03
            5971            5980     66.6730E-03     67.5534E-03
            5974            5981     18.2704E-03     19.7391E-03
            5973            5981     18.2704E-03     19.7391E-03
            5992            5981     18.2704E-03     19.7391E-03
            5991            5981     18.2704E-03     19.7391E-03
            5993            5982     21.3755E-03     22.7160E-03
            5975            5982     21.3755E-03     22.7160E-03
            5974            5982     21.3755E-03     22.7160E-03
            5992            5982     21.3755E-03     22.7160E-03
            5993            5983     24.5613E-03     25.8108E-03
            5994            5983     24.5613E-03     25.8108E-03
            5976            5983     24.5613E-03     25.8108E-03
            5975            5983     24.5613E-03     25.8108E-03
            5977            5984     27.7189E-03     28.7163E-03
            5994            5984     27.7189E-03     28.7163E-03
            5995            5984     27.7189E-03     28.7163E-03
            5976            5984     27.7189E-03     28.7163E-03
            5977            5985     30.7810E-03     31.5854E-03
            5978            5985     30.7810E-03     31.5854E-03
            5995            5985     30.7810E-03     31.5854E-03
            5996            5985     30.7810E-03     31.5854E-03
            5978            5986     33.7923E-03     34.5140E-03
            5996            5986     33.7923E-03     34.5140E-03
            5997            5986     33.7923E-03     34.5140E-03
            5979            5986     33.7923E-03     34.5140E-03
            5979            5987     36.7865E-03     37.4700E-03
            5980            5987     36.7865E-03     37.4700E-03
            5998            5987     36.7865E-03     37.4700E-03
            5997            5987     36.7865E-03     37.4700E-03
            5998            5988     39.7807E-03     40.4713E-03
            5981            5988     39.7807E-03     40.4713E-03
            5999            5988     39.7807E-03     40.4713E-03
            5980            5988     39.7807E-03     40.4713E-03
            6000            5989     42.7928E-03     43.5115E-03
            5999            5989     42.7928E-03     43.5115E-03
            5981            5989     42.7928E-03     43.5115E-03
            5982            5989     42.7928E-03     43.5115E-03
            5983            5990     45.8040E-03     46.5836E-03
            5982            5990     45.8040E-03     46.5836E-03
            6001            5990     45.8040E-03     46.5836E-03
            6000            5990     45.8040E-03     46.5836E-03
            6001            5991     48.8166E-03     49.6725E-03
            5983            5991     48.8166E-03     49.6725E-03
            6002            5991     48.8166E-03     49.6725E-03
            5984            5991     48.8166E-03     49.6725E-03
            5985            5992     51.7760E-03     52.7470E-03
            5984            5992     51.7760E-03     52.7470E-03
            6002            5992     51.7760E-03     52.7470E-03
            6003            5992     51.7760E-03     52.7470E-03
            6003            5993     54.6295E-03     55.7374E-03
            5985            5993     54.6295E-03     55.7374E-03
            5986            5993     54.6295E-03     55.7374E-03
            6004            5993     54.6295E-03     55.7374E-03
            5987            5994     57.2997E-03     58.5320E-03
            6004            5994     57.2997E-03     58.5320E-03
            5986            5994     57.2997E-03     58.5320E-03
            6005            5994     57.2997E-03     58.5320E-03
            6005            5995     59.6609E-03     61.0006E-03
            5988            5995     59.6609E-03     61.0006E-03
            6006            5995     59.6609E-03     61.0006E-03
            5987            5995     59.6609E-03     61.0006E-03
            6006            5996     61.8471E-03     63.0439E-03
            5988            5996     61.8471E-03     63.0439E-03
            5989            5996     61.8471E-03     63.0439E-03
            6007            5996     61.8471E-03     63.0439E-03
            6008            5997     64.0160E-03     64.7797E-03
            6007            5997     64.0160E-03     64.7797E-03
            5989            5997     64.0160E-03     64.7797E-03
            5990            5997     64.0160E-03     64.7797E-03
            6010            5998     18.8373E-03     20.0940E-03
            5991            5998     18.8373E-03     20.0940E-03
            5992            5998     18.8373E-03     20.0940E-03
            6009            5998     18.8373E-03     20.0940E-03
            6011            5999     21.7824E-03     23.2018E-03
            6010            5999     21.7824E-03     23.2018E-03
            5992            5999     21.7824E-03     23.2018E-03
            5993            5999     21.7824E-03     23.2018E-03
            6012            6000     24.9080E-03     25.8993E-03
            6011            6000     24.9080E-03     25.8993E-03
            5993            6000     24.9080E-03     25.8993E-03
            5994            6000     24.9080E-03     25.8993E-03
            6013            6001     27.9131E-03     28.5219E-03
            6012            6001     27.9131E-03     28.5219E-03
            5994            6001     27.9131E-03     28.5219E-03
            5995            6001     27.9131E-03     28.5219E-03
            5995            6002     30.8460E-03     31.3044E-03
            6014            6002     30.8460E-03     31.3044E-03
            5996            6002     30.8460E-03     31.3044E-03
            6013            6002     30.8460E-03     31.3044E-03
            5996            6003     33.7390E-03     34.1248E-03
            6014            6003     33.7390E-03     34.1248E-03
            6015            6003     33.7390E-03     34.1248E-03
            5997            6003     33.7390E-03     34.1248E-03
            5998            6004     36.6259E-03     36.9908E-03
            6016            6004     36.6259E-03     36.9908E-03
            5997            6004     36.6259E-03     36.9908E-03
            6015            6004     36.6259E-03     36.9908E-03
            6017            6005     39.5184E-03     39.8812E-03
            6016            6005     39.5184E-03     39.8812E-03
            5998            6005     39.5184E-03     39.8812E-03
            5999            6005     39.5184E-03     39.8812E-03
            6017            6006     42.4084E-03     42.7897E-03
            5999            6006     42.4084E-03     42.7897E-03
            6000            6006     42.4084E-03     42.7897E-03
            6018            6006     42.4084E-03     42.7897E-03
            6019            6007     45.2974E-03     45.7029E-03
            6000            6007     45.2974E-03     45.7029E-03
            6018            6007     45.2974E-03     45.7029E-03
            6001            6007     45.2974E-03     45.7029E-03
            6020            6008     48.1431E-03     48.6016E-03
            6019            6008     48.1431E-03     48.6016E-03
            6002            6008     48.1431E-03     48.6016E-03
            6001            6008     48.1431E-03     48.6016E-03
            6020            6009     50.9142E-03     51.4423E-03
            6002            6009     50.9142E-03     51.4423E-03
            6021            6009     50.9142E-03     51.4423E-03
            6003            6009     50.9142E-03     51.4423E-03
            6021            6010     53.5284E-03     54.1685E-03
            6022            6010     53.5284E-03     54.1685E-03
            6003            6010     53.5284E-03     54.1685E-03
            6004            6010     53.5284E-03     54.1685E-03
            6004            6011     55.8711E-03     56.6772E-03
            6022            6011     55.8711E-03     56.6772E-03
            6023            6011     55.8711E-03     56.6772E-03
            6005            6011     55.8711E-03     56.6772E-03
            6024            6012     57.8616E-03     58.8057E-03
            6023            6012     57.8616E-03     58.8057E-03
            6006            6012     57.8616E-03     58.8057E-03
            6005            6012     57.8616E-03     58.8057E-03
            6024            6013     59.4266E-03     60.4537E-03
            6025            6013     59.4266E-03     60.4537E-03
            6006            6013     59.4266E-03     60.4537E-03
            6007            6013     59.4266E-03     60.4537E-03
            6025            6014     61.0808E-03     61.8123E-03
            6008            6014     61.0808E-03     61.8123E-03
            6026            6014     61.0808E-03     61.8123E-03
            6007            6014     61.0808E-03     61.8123E-03
            6009            6015     19.7237E-03     21.5833E-03
            6027            6015     19.7237E-03     21.5833E-03
            6028            6015     19.7237E-03     21.5833E-03
            6010            6015     19.7237E-03     21.5833E-03
            6010            6016     22.6723E-03     23.8221E-03
            6029            6016     22.6723E-03     23.8221E-03
            6028            6016     22.6723E-03     23.8221E-03
            6011            6016     22.6723E-03     23.8221E-03
            6029            6017     25.4551E-03     25.8459E-03
            6030            6017     25.4551E-03     25.8459E-03
            6012            6017     25.4551E-03     25.8459E-03
            6011            6017     25.4551E-03     25.8459E-03
            6012            6018     28.1478E-03     28.3024E-03
            6030            6018     28.1478E-03     28.3024E-03
            6031            6018     28.1478E-03     28.3024E-03
            6013            6018     28.1478E-03     28.3024E-03
            6032            6019     30.8381E-03     30.9203E-03
            6031            6019     30.8381E-03     30.9203E-03
            6014            6019     30.8381E-03     30.9203E-03
            6013            6019     30.8381E-03     30.9203E-03
            6014            6020     33.5440E-03     33.6041E-03
            6032            6020     33.5440E-03     33.6041E-03
            6033            6020     33.5440E-03     33.6041E-03
            6015            6020     33.5440E-03     33.6041E-03
            6015            6021     36.2684E-03     36.3217E-03
            6033            6021     36.2684E-03     36.3217E-03
            6034            6021     36.2684E-03     36.3217E-03
            6016            6021     36.2684E-03     36.3217E-03
            6017            6022     38.9961E-03     39.0449E-03
            6016            6022     38.9961E-03     39.0449E-03
            6035            6022     38.9961E-03     39.0449E-03
            6034            6022     38.9961E-03     39.0449E-03
            6035            6023     41.7254E-03     41.7599E-03
            6036            6023     41.7254E-03     41.7599E-03
            6017            6023     41.7254E-03     41.7599E-03
            6018            6023     41.7254E-03     41.7599E-03
            6019            6024     44.4234E-03     44.4473E-03
            6018            6024     44.4234E-03     44.4473E-03
            6037            6024     44.4234E-03     44.4473E-03
            6036            6024     44.4234E-03     44.4473E-03
            6020            6025     47.0741E-03     47.0788E-03
            6019            6025     47.0741E-03     47.0788E-03
            6037            6025     47.0741E-03     47.0788E-03
            6038            6025     47.0741E-03     47.0788E-03
            6021            6026     49.6166E-03     49.6209E-03
            6020            6026     49.6166E-03     49.6209E-03
            6039            6026     49.6166E-03     49.6209E-03
            6038            6026     49.6166E-03     49.6209E-03
            6040            6027     51.9919E-03     52.0125E-03
            6021            6027     51.9919E-03     52.0125E-03
            6022            6027     51.9919E-03     52.0125E-03
            6039            6027     51.9919E-03     52.0125E-03
            6041            6028     54.0914E-03     54.1814E-03
            6040            6028     54.0914E-03     54.1814E-03
            6023            6028     54.0914E-03     54.1814E-03
            6022            6028     54.0914E-03     54.1814E-03
            6041            6029     55.7715E-03     56.0112E-03
            6024            6029     55.7715E-03     56.0112E-03
            6023            6029     55.7715E-03     56.0112E-03
            6042            6029     55.7715E-03     56.0112E-03
            6043            6030     56.8928E-03     57.2769E-03
            6042            6030     56.8928E-03     57.2769E-03
            6024            6030     56.8928E-03     57.2769E-03
            6025            6030     56.8928E-03     57.2769E-03
            6026            6031     57.8436E-03     58.0781E-03
            6025            6031     57.8436E-03     58.0781E-03
            6044            6031     57.8436E-03     58.0781E-03
            6043            6031     57.8436E-03     58.0781E-03
            6046            6032     21.8380E-03     22.8695E-03
            6045            6032     21.8380E-03     22.8695E-03
            6028            6032     21.8380E-03     22.8695E-03
            6027            6032     21.8380E-03     22.8695E-03
            6047            6033     24.0989E-03     24.0050E-03
            6028            6033     24.0989E-03     24.0050E-03
            6029            6033     24.0989E-03     24.0050E-03
            6046            6033     24.0989E-03     24.0050E-03
            6047            6034     26.1198E-03     25.8045E-03
            6048            6034     26.1198E-03     25.8045E-03
            6030            6034     26.1198E-03     25.8045E-03
            6029            6034     26.1198E-03     25.8045E-03
            6048            6035     28.4106E-03     28.1218E-03
            6049            6035     28.4106E-03     28.1218E-03
            6031            6035     28.4106E-03     28.1218E-03
            6030            6035     28.4106E-03     28.1218E-03
            6050            6036     30.7895E-03     30.5497E-03
            6049            6036     30.7895E-03     30.5497E-03
            6032            6036     30.7895E-03     30.5497E-03
            6031            6036     30.7895E-03     30.5497E-03
            6033            6037     33.2749E-03     33.0621E-03
            6051            6037     33.2749E-03     33.0621E-03
            6050            6037     33.2749E-03     33.0621E-03
            6032            6037     33.2749E-03     33.0621E-03
            6051            6038     35.7881E-03     35.5823E-03
            6033            6038     35.7881E-03     35.5823E-03
            6034            6038     35.7881E-03     35.5823E-03
            6052            6038     35.7881E-03     35.5823E-03
            6053            6039     38.3209E-03     38.0913E-03
            6052            6039     38.3209E-03     38.0913E-03
            6034            6039     38.3209E-03     38.0913E-03
            6035            6039     38.3209E-03     38.0913E-03
            6053            6040     40.8294E-03     40.5581E-03
            6036            6040     40.8294E-03     40.5581E-03
            6054            6040     40.8294E-03     40.5581E-03
            6035            6040     40.8294E-03     40.5581E-03
            6054            6041     43.3003E-03     42.9565E-03
            6036            6041     43.3003E-03     42.9565E-03
            6055            6041     43.3003E-03     42.9565E-03
            6037            6041     43.3003E-03     42.9565E-03
            6055            6042     45.6904E-03     45.2536E-03
            6056            6042     45.6904E-03     45.2536E-03
            6037            6042     45.6904E-03     45.2536E-03
            6038            6042     45.6904E-03     45.2536E-03
            6039            6043     47.9679E-03     47.4097E-03
            6057            6043     47.9679E-03     47.4097E-03
            6056            6043     47.9679E-03     47.4097E-03
            6038            6043     47.9679E-03     47.4097E-03
            6057            6044     50.0719E-03     49.3698E-03
            6058            6044     50.0719E-03     49.3698E-03
            6039            6044     50.0719E-03     49.3698E-03
            6040            6044     50.0719E-03     49.3698E-03
            6059            6045     51.9308E-03     51.0830E-03
            6040            6045     51.9308E-03     51.0830E-03
            6058            6045     51.9308E-03     51.0830E-03
            6041            6045     51.9308E-03     51.0830E-03
            6059            6046     53.4198E-03     52.4412E-03
            6042            6046     53.4198E-03     52.4412E-03
            6060            6046     53.4198E-03     52.4412E-03
            6041            6046     53.4198E-03     52.4412E-03
            6060            6047     54.3420E-03     53.3420E-03
            6061            6047     54.3420E-03     53.3420E-03
            6043            6047     54.3420E-03     53.3420E-03
            6042            6047     54.3420E-03     53.3420E-03
            6061            6048     54.4759E-03     53.2978E-03
            6062            6048     54.4759E-03     53.2978E-03
            6044            6048     54.4759E-03     53.2978E-03
            6043            6048     54.4759E-03     53.2978E-03
            6063            6049     19.8724E-03     20.2377E-03
            6045            6049     19.8724E-03     20.2377E-03
            6046            6049     19.8724E-03     20.2377E-03
            6064            6049     19.8724E-03     20.2377E-03
            6065            6050     19.8876E-03     20.2416E-03
            6046            6050     19.8876E-03     20.2416E-03
            6064            6050     19.8876E-03     20.2416E-03
            6047            6050     19.8876E-03     20.2416E-03
            6065            6051     21.0101E-03     21.5038E-03
            6066            6051     21.0101E-03     21.5038E-03
            6047            6051     21.0101E-03     21.5038E-03
            6048            6051     21.0101E-03     21.5038E-03
            6049            6052     22.5641E-03     23.1971E-03
            6067            6052     22.5641E-03     23.1971E-03
            6066            6052     22.5641E-03     23.1971E-03
            6048            6052     22.5641E-03     23.1971E-03
            6068            6053     24.3523E-03     25.0629E-03
            6067            6053     24.3523E-03     25.0629E-03
            6049            6053     24.3523E-03     25.0629E-03
            6050            6053     24.3523E-03     25.0629E-03
            6068            6054     26.2797E-03     27.0312E-03
            6051            6054     26.2797E-03     27.0312E-03
            6050            6054     26.2797E-03     27.0312E-03
            6069            6054     26.2797E-03     27.0312E-03
            6051            6055     28.2849E-03     29.0379E-03
            6069            6055     28.2849E-03     29.0379E-03
            6070            6055     28.2849E-03     29.0379E-03
            6052            6055     28.2849E-03     29.0379E-03
            6070            6056     30.3324E-03     31.0626E-03
            6071            6056     30.3324E-03     31.0626E-03
            6052            6056     30.3324E-03     31.0626E-03
            6053            6056     30.3324E-03     31.0626E-03
            6071            6057     32.4070E-03     33.0778E-03
            6054            6057     32.4070E-03     33.0778E-03
            6072            6057     32.4070E-03     33.0778E-03
            6053            6057     32.4070E-03     33.0778E-03
            6055            6058     34.4872E-03     35.0838E-03
            6073            6058     34.4872E-03     35.0838E-03
            6054            6058     34.4872E-03     35.0838E-03
            6072            6058     34.4872E-03     35.0838E-03
            6056            6059     36.5894E-03     37.0626E-03
            6055            6059     36.5894E-03     37.0626E-03
            6073            6059     36.5894E-03     37.0626E-03
            6074            6059     36.5894E-03     37.0626E-03
            6074            6060     38.6912E-03     39.0402E-03
            6056            6060     38.6912E-03     39.0402E-03
            6075            6060     38.6912E-03     39.0402E-03
            6057            6060     38.6912E-03     39.0402E-03
            6075            6061     40.8576E-03     41.0180E-03
            6076            6061     40.8576E-03     41.0180E-03
            6057            6061     40.8576E-03     41.0180E-03
            6058            6061     40.8576E-03     41.0180E-03
            6058            6062     43.0526E-03     43.0713E-03
            6077            6062     43.0526E-03     43.0713E-03
            6059            6062     43.0526E-03     43.0713E-03
            6076            6062     43.0526E-03     43.0713E-03
            6060            6063     45.4777E-03     45.3243E-03
            6077            6063     45.4777E-03     45.3243E-03
            6059            6063     45.4777E-03     45.3243E-03
            6078            6063     45.4777E-03     45.3243E-03
            6079            6064     48.0490E-03     47.9488E-03
            6061            6064     48.0490E-03     47.9488E-03
            6078            6064     48.0490E-03     47.9488E-03
            6060            6064     48.0490E-03     47.9488E-03
            6061            6065     51.9061E-03     52.7093E-03
            6079            6065     51.9061E-03     52.7093E-03
            6080            6065     51.9061E-03     52.7093E-03
            6062            6065     51.9061E-03     52.7093E-03
            6081            6066     15.7107E-03     17.0066E-03
            6082            6066     15.7107E-03     17.0066E-03
            6064            6066     15.7107E-03     17.0066E-03
            6063            6066     15.7107E-03     17.0066E-03
            6082            6067     15.1882E-03     16.6253E-03
            6064            6067     15.1882E-03     16.6253E-03
            6083            6067     15.1882E-03     16.6253E-03
            6065            6067     15.1882E-03     16.6253E-03
            6083            6068     15.6342E-03     17.2012E-03
            6065            6068     15.6342E-03     17.2012E-03
            6084            6068     15.6342E-03     17.2012E-03
            6066            6068     15.6342E-03     17.2012E-03
            6084            6069     16.7674E-03     18.4042E-03
            6066            6069     16.7674E-03     18.4042E-03
            6067            6069     16.7674E-03     18.4042E-03
            6085            6069     16.7674E-03     18.4042E-03
            6086            6070     18.1057E-03     19.7947E-03
            6067            6070     18.1057E-03     19.7947E-03
            6068            6070     18.1057E-03     19.7947E-03
            6085            6070     18.1057E-03     19.7947E-03
            6086            6071     19.6386E-03     21.3514E-03
            6087            6071     19.6386E-03     21.3514E-03
            6068            6071     19.6386E-03     21.3514E-03
            6069            6071     19.6386E-03     21.3514E-03
            6088            6072     21.2575E-03     22.9751E-03
            6069            6072     21.2575E-03     22.9751E-03
            6070            6072     21.2575E-03     22.9751E-03
            6087            6072     21.2575E-03     22.9751E-03
            6089            6073     22.9663E-03     24.6680E-03
            6088            6073     22.9663E-03     24.6680E-03
            6071            6073     22.9663E-03     24.6680E-03
            6070            6073     22.9663E-03     24.6680E-03
            6071            6074     24.7343E-03     26.4040E-03
            6072            6074     24.7343E-03     26.4040E-03
            6089            6074     24.7343E-03     26.4040E-03
            6090            6074     24.7343E-03     26.4040E-03
            6091            6075     26.5931E-03     28.2132E-03
            6072            6075     26.5931E-03     28.2132E-03
            6073            6075     26.5931E-03     28.2132E-03
            6090            6075     26.5931E-03     28.2132E-03
            6092            6076     28.5480E-03     30.1093E-03
            6073            6076     28.5480E-03     30.1093E-03
            6074            6076     28.5480E-03     30.1093E-03
            6091            6076     28.5480E-03     30.1093E-03
            6093            6077     30.6868E-03     32.1774E-03
            6075            6077     30.6868E-03     32.1774E-03
            6092            6077     30.6868E-03     32.1774E-03
            6074            6077     30.6868E-03     32.1774E-03
            6076            6078     33.0522E-03     34.4867E-03
            6075            6078     33.0522E-03     34.4867E-03
            6093            6078     33.0522E-03     34.4867E-03
            6094            6078     33.0522E-03     34.4867E-03
            6095            6079     35.8832E-03     37.2756E-03
            6077            6079     35.8832E-03     37.2756E-03
            6076            6079     35.8832E-03     37.2756E-03
            6094            6079     35.8832E-03     37.2756E-03
            6077            6080     39.3112E-03     40.7440E-03
            6096            6080     39.3112E-03     40.7440E-03
            6078            6080     39.3112E-03     40.7440E-03
            6095            6080     39.3112E-03     40.7440E-03
            6096            6081     44.2358E-03     45.8220E-03
            6097            6081     44.2358E-03     45.8220E-03
            6078            6081     44.2358E-03     45.8220E-03
            6079            6081     44.2358E-03     45.8220E-03
            6079            6082     52.2932E-03     53.5741E-03
            6097            6082     52.2932E-03     53.5741E-03
            6080            6082     52.2932E-03     53.5741E-03
            6098            6082     52.2932E-03     53.5741E-03
            6081            6083     14.4796E-03     15.6764E-03
            6082            6083     14.4796E-03     15.6764E-03
            6100            6083     14.4796E-03     15.6764E-03
            6099            6083     14.4796E-03     15.6764E-03
            6083            6084     15.3072E-03     16.5776E-03
            6100            6084     15.3072E-03     16.5776E-03
            6101            6084     15.3072E-03     16.5776E-03
            6082            6084     15.3072E-03     16.5776E-03
            6102            6085     15.9110E-03     17.2821E-03
            6083            6085     15.9110E-03     17.2821E-03
            6084            6085     15.9110E-03     17.2821E-03
            6101            6085     15.9110E-03     17.2821E-03
            6085            6086     17.0732E-03     18.5099E-03
            6102            6086     17.0732E-03     18.5099E-03
            6103            6086     17.0732E-03     18.5099E-03
            6084            6086     17.0732E-03     18.5099E-03
            6104            6087     18.4922E-03     19.9670E-03
            6086            6087     18.4922E-03     19.9670E-03
            6103            6087     18.4922E-03     19.9670E-03
            6085            6087     18.4922E-03     19.9670E-03
            6105            6088     20.0633E-03     21.5610E-03
            6087            6088     20.0633E-03     21.5610E-03
            6086            6088     20.0633E-03     21.5610E-03
            6104            6088     20.0633E-03     21.5610E-03
            6105            6089     21.7467E-03     23.2518E-03
            6087            6089     21.7467E-03     23.2518E-03
            6088            6089     21.7467E-03     23.2518E-03
            6106            6089     21.7467E-03     23.2518E-03
            6088            6090     23.4973E-03     25.0014E-03
            6089            6090     23.4973E-03     25.0014E-03
            6107            6090     23.4973E-03     25.0014E-03
            6106            6090     23.4973E-03     25.0014E-03
            6089            6091     25.3233E-03     26.8151E-03
            6108            6091     25.3233E-03     26.8151E-03
            6090            6091     25.3233E-03     26.8151E-03
            6107            6091     25.3233E-03     26.8151E-03
            6091            6092     27.2193E-03     28.6976E-03
            6108            6092     27.2193E-03     28.6976E-03
            6109            6092     27.2193E-03     28.6976E-03
            6090            6092     27.2193E-03     28.6976E-03
            6092            6093     29.2379E-03     30.6911E-03
            6091            6093     29.2379E-03     30.6911E-03
            6110            6093     29.2379E-03     30.6911E-03
            6109            6093     29.2379E-03     30.6911E-03
            6110            6094     31.4170E-03     32.8547E-03
            6093            6094     31.4170E-03     32.8547E-03
            6111            6094     31.4170E-03     32.8547E-03
            6092            6094     31.4170E-03     32.8547E-03
            6111            6095     33.8943E-03     35.2990E-03
            6094            6095     33.8943E-03     35.2990E-03
            6093            6095     33.8943E-03     35.2990E-03
            6112            6095     33.8943E-03     35.2990E-03
            6094            6096     36.8214E-03     38.2079E-03
            6112            6096     36.8214E-03     38.2079E-03
            6113            6096     36.8214E-03     38.2079E-03
            6095            6096     36.8214E-03     38.2079E-03
            6113            6097     40.5039E-03     41.8343E-03
            6096            6097     40.5039E-03     41.8343E-03
            6095            6097     40.5039E-03     41.8343E-03
            6114            6097     40.5039E-03     41.8343E-03
            6096            6098     45.9407E-03     46.8578E-03
            6115            6098     45.9407E-03     46.8578E-03
            6097            6098     45.9407E-03     46.8578E-03
            6114            6098     45.9407E-03     46.8578E-03
            6115            6099     52.1021E-03     52.3869E-03
            6098            6099     52.1021E-03     52.3869E-03
            6116            6099     52.1021E-03     52.3869E-03
            6097            6099     52.1021E-03     52.3869E-03
            6099            6100     13.4635E-03     14.5802E-03
            6117            6100     13.4635E-03     14.5802E-03
            6118            6100     13.4635E-03     14.5802E-03
            6100            6100     13.4635E-03     14.5802E-03
            6119            6101     14.8887E-03     16.0616E-03
            6118            6101     14.8887E-03     16.0616E-03
            6100            6101     14.8887E-03     16.0616E-03
            6101            6101     14.8887E-03     16.0616E-03
            6102            6102     16.1022E-03     17.3183E-03
            6119            6102     16.1022E-03     17.3183E-03
            6120            6102     16.1022E-03     17.3183E-03
            6101            6102     16.1022E-03     17.3183E-03
            6102            6103     17.3659E-03     18.6306E-03
            6120            6103     17.3659E-03     18.6306E-03
            6121            6103     17.3659E-03     18.6306E-03
            6103            6103     17.3659E-03     18.6306E-03
            6103            6104     18.8897E-03     20.1779E-03
            6122            6104     18.8897E-03     20.1779E-03
            6121            6104     18.8897E-03     20.1779E-03
            6104            6104     18.8897E-03     20.1779E-03
            6123            6105     20.5289E-03     21.8336E-03
            6104            6105     20.5289E-03     21.8336E-03
            6105            6105     20.5289E-03     21.8336E-03
            6122            6105     20.5289E-03     21.8336E-03
            6106            6106     22.2661E-03     23.5807E-03
            6123            6106     22.2661E-03     23.5807E-03
            6105            6106     22.2661E-03     23.5807E-03
            6124            6106     22.2661E-03     23.5807E-03
            6106            6107     24.0732E-03     25.3943E-03
            6124            6107     24.0732E-03     25.3943E-03
            6107            6107     24.0732E-03     25.3943E-03
            6125            6107     24.0732E-03     25.3943E-03
            6108            6108     25.9416E-03     27.2716E-03
            6125            6108     25.9416E-03     27.2716E-03
            6107            6108     25.9416E-03     27.2716E-03
            6126            6108     25.9416E-03     27.2716E-03
            6108            6109     27.8896E-03     29.2245E-03
            6126            6109     27.8896E-03     29.2245E-03
            6109            6109     27.8896E-03     29.2245E-03
            6127            6109     27.8896E-03     29.2245E-03
            6109            6110     29.9434E-03     31.2886E-03
            6127            6110     29.9434E-03     31.2886E-03
            6110            6110     29.9434E-03     31.2886E-03
            6128            6110     29.9434E-03     31.2886E-03
            6110            6111     32.1688E-03     33.5122E-03
            6128            6111     32.1688E-03     33.5122E-03
            6111            6111     32.1688E-03     33.5122E-03
            6129            6111     32.1688E-03     33.5122E-03
            6111            6112     34.6788E-03     36.0072E-03
            6112            6112     34.6788E-03     36.0072E-03
            6129            6112     34.6788E-03     36.0072E-03
            6130            6112     34.6788E-03     36.0072E-03
            6130            6113     37.5855E-03     38.8742E-03
            6131            6113     37.5855E-03     38.8742E-03
            6112            6113     37.5855E-03     38.8742E-03
            6113            6113     37.5855E-03     38.8742E-03
            6113            6114     41.3381E-03     42.4015E-03
            6132            6114     41.3381E-03     42.4015E-03
            6131            6114     41.3381E-03     42.4015E-03
            6114            6114     41.3381E-03     42.4015E-03
            6114            6115     45.7042E-03     46.5543E-03
            6133            6115     45.7042E-03     46.5543E-03
            6115            6115     45.7042E-03     46.5543E-03
            6132            6115     45.7042E-03     46.5543E-03
            6134            6116     49.9537E-03     50.9361E-03
            6133            6116     49.9537E-03     50.9361E-03
            6115            6116     49.9537E-03     50.9361E-03
            6116            6116     49.9537E-03     50.9361E-03
            6118            6117     12.9855E-03     13.9750E-03
            6117            6117     12.9855E-03     13.9750E-03
            6136            6117     12.9855E-03     13.9750E-03
            6135            6117     12.9855E-03     13.9750E-03
            6136            6118     14.5178E-03     15.5846E-03
            6118            6118     14.5178E-03     15.5846E-03
            6119            6118     14.5178E-03     15.5846E-03
            6137            6118     14.5178E-03     15.5846E-03
            6120            6119     16.0663E-03     17.1691E-03
            6119            6119     16.0663E-03     17.1691E-03
            6138            6119     16.0663E-03     17.1691E-03
            6137            6119     16.0663E-03     17.1691E-03
            6139            6120     17.6242E-03     18.7355E-03
            6138            6120     17.6242E-03     18.7355E-03
            6120            6120     17.6242E-03     18.7355E-03
            6121            6120     17.6242E-03     18.7355E-03
            6140            6121     19.2426E-03     20.3669E-03
            6121            6121     19.2426E-03     20.3669E-03
            6122            6121     19.2426E-03     20.3669E-03
            6139            6121     19.2426E-03     20.3669E-03
            6122            6122     20.9795E-03     22.1049E-03
            6141            6122     20.9795E-03     22.1049E-03
            6140            6122     20.9795E-03     22.1049E-03
            6123            6122     20.9795E-03     22.1049E-03
            6141            6123     22.7742E-03     23.9065E-03
            6123            6123     22.7742E-03     23.9065E-03
            6142            6123     22.7742E-03     23.9065E-03
            6124            6123     22.7742E-03     23.9065E-03
            6125            6124     24.6312E-03     25.7755E-03
            6142            6124     24.6312E-03     25.7755E-03
            6124            6124     24.6312E-03     25.7755E-03
            6143            6124     24.6312E-03     25.7755E-03
            6144            6125     26.5403E-03     27.7017E-03
            6126            6125     26.5403E-03     27.7017E-03
            6143            6125     26.5403E-03     27.7017E-03
            6125            6125     26.5403E-03     27.7017E-03
            6145            6126     28.5172E-03     29.7036E-03
            6127            6126     28.5172E-03     29.7036E-03
            6126            6126     28.5172E-03     29.7036E-03
            6144            6126     28.5172E-03     29.7036E-03
            6127            6127     30.5816E-03     31.7936E-03
            6145            6127     30.5816E-03     31.7936E-03
            6128            6127     30.5816E-03     31.7936E-03
            6146            6127     30.5816E-03     31.7936E-03
            6128            6128     32.7997E-03     34.0252E-03
            6146            6128     32.7997E-03     34.0252E-03
            6129            6128     32.7997E-03     34.0252E-03
            6147            6128     32.7997E-03     34.0252E-03
            6148            6129     35.2067E-03     36.4364E-03
            6130            6129     35.2067E-03     36.4364E-03
            6129            6129     35.2067E-03     36.4364E-03
            6147            6129     35.2067E-03     36.4364E-03
            6148            6130     38.0038E-03     39.1370E-03
            6130            6130     38.0038E-03     39.1370E-03
            6131            6130     38.0038E-03     39.1370E-03
            6149            6130     38.0038E-03     39.1370E-03
            6149            6131     41.1396E-03     42.1699E-03
            6150            6131     41.1396E-03     42.1699E-03
            6131            6131     41.1396E-03     42.1699E-03
            6132            6131     41.1396E-03     42.1699E-03
            6133            6132     44.4721E-03     45.4259E-03
            6132            6132     44.4721E-03     45.4259E-03
            6150            6132     44.4721E-03     45.4259E-03
            6151            6132     44.4721E-03     45.4259E-03
            6151            6133     48.0135E-03     48.6404E-03
            6152            6133     48.0135E-03     48.6404E-03
            6134            6133     48.0135E-03     48.6404E-03
            6133            6133     48.0135E-03     48.6404E-03
            6136            6134     12.6955E-03     13.5855E-03
            6153            6134     12.6955E-03     13.5855E-03
            6135            6134     12.6955E-03     13.5855E-03
            6154            6134     12.6955E-03     13.5855E-03
            6136            6135     14.3090E-03     15.2757E-03
            6154            6135     14.3090E-03     15.2757E-03
            6137            6135     14.3090E-03     15.2757E-03
            6155            6135     14.3090E-03     15.2757E-03
            6138            6136     16.0149E-03     16.9999E-03
            6156            6136     16.0149E-03     16.9999E-03
            6155            6136     16.0149E-03     16.9999E-03
            6137            6136     16.0149E-03     16.9999E-03
            6139            6137     17.7645E-03     18.7504E-03
            6157            6137     17.7645E-03     18.7504E-03
            6138            6137     17.7645E-03     18.7504E-03
            6156            6137     17.7645E-03     18.7504E-03
            6140            6138     19.5463E-03     20.5081E-03
            6158            6138     19.5463E-03     20.5081E-03
            6157            6138     19.5463E-03     20.5081E-03
            6139            6138     19.5463E-03     20.5081E-03
            6140            6139     21.3575E-03     22.3091E-03
            6158            6139     21.3575E-03     22.3091E-03
            6159            6139     21.3575E-03     22.3091E-03
            6141            6139     21.3575E-03     22.3091E-03
            6159            6140     23.2200E-03     24.1672E-03
            6160            6140     23.2200E-03     24.1672E-03
            6141            6140     23.2200E-03     24.1672E-03
            6142            6140     23.2200E-03     24.1672E-03
            6160            6141     25.1123E-03     26.0696E-03
            6142            6141     25.1123E-03     26.0696E-03
            6161            6141     25.1123E-03     26.0696E-03
            6143            6141     25.1123E-03     26.0696E-03
            6143            6142     27.0490E-03     28.0299E-03
            6144            6142     27.0490E-03     28.0299E-03
            6162            6142     27.0490E-03     28.0299E-03
            6161            6142     27.0490E-03     28.0299E-03
            6145            6143     29.0245E-03     30.0412E-03
            6144            6143     29.0245E-03     30.0412E-03
            6162            6143     29.0245E-03     30.0412E-03
            6163            6143     29.0245E-03     30.0412E-03
            6145            6144     31.0711E-03     32.1242E-03
            6146            6144     31.0711E-03     32.1242E-03
            6163            6144     31.0711E-03     32.1242E-03
            6164            6144     31.0711E-03     32.1242E-03
            6165            6145     33.1849E-03     34.2812E-03
            6164            6145     33.1849E-03     34.2812E-03
            6147            6145     33.1849E-03     34.2812E-03
            6146            6145     33.1849E-03     34.2812E-03
            6147            6146     35.4509E-03     36.5408E-03
            6165            6146     35.4509E-03     36.5408E-03
            6148            6146     35.4509E-03     36.5408E-03
            6166            6146     35.4509E-03     36.5408E-03
            6148            6147     37.8446E-03     38.9141E-03
            6167            6147     37.8446E-03     38.9141E-03
            6149            6147     37.8446E-03     38.9141E-03
            6166            6147     37.8446E-03     38.9141E-03
            6149            6148     40.3787E-03     41.3679E-03
            6167            6148     40.3787E-03     41.3679E-03
            6150            6148     40.3787E-03     41.3679E-03
            6168            6148     40.3787E-03     41.3679E-03
            6151            6149     43.0789E-03     43.8554E-03
            6150            6149     43.0789E-03     43.8554E-03
            6168            6149     43.0789E-03     43.8554E-03
            6169            6149     43.0789E-03     43.8554E-03
            6169            6150     45.8172E-03     46.4824E-03
            6170            6150     45.8172E-03     46.4824E-03
            6151            6150     45.8172E-03     46.4824E-03
            6152            6150     45.8172E-03     46.4824E-03
            6171            6151     12.5448E-03     13.3467E-03
            6153            6151     12.5448E-03     13.3467E-03
            6154            6151     12.5448E-03     13.3467E-03
            6172            6151     12.5448E-03     13.3467E-03
            6154            6152     14.1733E-03     15.0431E-03
            6172            6152     14.1733E-03     15.0431E-03
            6155            6152     14.1733E-03     15.0431E-03
            6173            6152     14.1733E-03     15.0431E-03
            6174            6153     15.9844E-03     16.8776E-03
            6155            6153     15.9844E-03     16.8776E-03
            6156            6153     15.9844E-03     16.8776E-03
            6173            6153     15.9844E-03     16.8776E-03
            6175            6154     17.8626E-03     18.7074E-03
            6174            6154     17.8626E-03     18.7074E-03
            6157            6154     17.8626E-03     18.7074E-03
            6156            6154     17.8626E-03     18.7074E-03
            6158            6155     19.7527E-03     20.5564E-03
            6175            6155     19.7527E-03     20.5564E-03
            6157            6155     19.7527E-03     20.5564E-03
            6176            6155     19.7527E-03     20.5564E-03
            6159            6156     21.6477E-03     22.4113E-03
            6158            6156     21.6477E-03     22.4113E-03
            6177            6156     21.6477E-03     22.4113E-03
            6176            6156     21.6477E-03     22.4113E-03
            6159            6157     23.5469E-03     24.2938E-03
            6160            6157     23.5469E-03     24.2938E-03
            6177            6157     23.5469E-03     24.2938E-03
            6178            6157     23.5469E-03     24.2938E-03
            6178            6158     25.4668E-03     26.2191E-03
            6161            6158     25.4668E-03     26.2191E-03
            6179            6158     25.4668E-03     26.2191E-03
            6160            6158     25.4668E-03     26.2191E-03
            6161            6159     27.3978E-03     28.1760E-03
            6179            6159     27.3978E-03     28.1760E-03
            6180            6159     27.3978E-03     28.1760E-03
            6162            6159     27.3978E-03     28.1760E-03
            6162            6160     29.3575E-03     30.1739E-03
            6180            6160     29.3575E-03     30.1739E-03
            6181            6160     29.3575E-03     30.1739E-03
            6163            6160     29.3575E-03     30.1739E-03
            6163            6161     31.3252E-03     32.1992E-03
            6182            6161     31.3252E-03     32.1992E-03
            6181            6161     31.3252E-03     32.1992E-03
            6164            6161     31.3252E-03     32.1992E-03
            6164            6162     33.3258E-03     34.2460E-03
            6182            6162     33.3258E-03     34.2460E-03
            6183            6162     33.3258E-03     34.2460E-03
            6165            6162     33.3258E-03     34.2460E-03
            6166            6163     35.3202E-03     36.2930E-03
            6183            6163     35.3202E-03     36.2930E-03
            6184            6163     35.3202E-03     36.2930E-03
            6165            6163     35.3202E-03     36.2930E-03
            6185            6164     37.3233E-03     38.2984E-03
            6166            6164     37.3233E-03     38.2984E-03
            6184            6164     37.3233E-03     38.2984E-03
            6167            6164     37.3233E-03     38.2984E-03
            6185            6165     39.3478E-03     40.2357E-03
            6186            6165     39.3478E-03     40.2357E-03
            6167            6165     39.3478E-03     40.2357E-03
            6168            6165     39.3478E-03     40.2357E-03
            6169            6166     41.3994E-03     42.1669E-03
            6187            6166     41.3994E-03     42.1669E-03
            6168            6166     41.3994E-03     42.1669E-03
            6186            6166     41.3994E-03     42.1669E-03
            6169            6167     43.6876E-03     44.1894E-03
            6188            6167     43.6876E-03     44.1894E-03
            6187            6167     43.6876E-03     44.1894E-03
            6170            6167     43.6876E-03     44.1894E-03
            6189            6168     12.5236E-03     13.2334E-03
            6172            6168     12.5236E-03     13.2334E-03
            6171            6168     12.5236E-03     13.2334E-03
            6190            6168     12.5236E-03     13.2334E-03
            6173            6169     14.1025E-03     14.9300E-03
            6190            6169     14.1025E-03     14.9300E-03
            6191            6169     14.1025E-03     14.9300E-03
            6172            6169     14.1025E-03     14.9300E-03
            6174            6170     15.9809E-03     16.7548E-03
            6173            6170     15.9809E-03     16.7548E-03
            6191            6170     15.9809E-03     16.7548E-03
            6192            6170     15.9809E-03     16.7548E-03
            6193            6171     17.9338E-03     18.6442E-03
            6174            6171     17.9338E-03     18.6442E-03
            6192            6171     17.9338E-03     18.6442E-03
            6175            6171     17.9338E-03     18.6442E-03
            6194            6172     19.8851E-03     20.5011E-03
            6176            6172     19.8851E-03     20.5011E-03
            6193            6172     19.8851E-03     20.5011E-03
            6175            6172     19.8851E-03     20.5011E-03
            6194            6173     21.8159E-03     22.3661E-03
            6177            6173     21.8159E-03     22.3661E-03
            6195            6173     21.8159E-03     22.3661E-03
            6176            6173     21.8159E-03     22.3661E-03
            6178            6174     23.7320E-03     24.2553E-03
            6195            6174     23.7320E-03     24.2553E-03
            6196            6174     23.7320E-03     24.2553E-03
            6177            6174     23.7320E-03     24.2553E-03
            6196            6175     25.6385E-03     26.1624E-03
            6179            6175     25.6385E-03     26.1624E-03
            6178            6175     25.6385E-03     26.1624E-03
            6197            6175     25.6385E-03     26.1624E-03
            6179            6176     27.5507E-03     28.0955E-03
            6180            6176     27.5507E-03     28.0955E-03
            6198            6176     27.5507E-03     28.0955E-03
            6197            6176     27.5507E-03     28.0955E-03
            6180            6177     29.4493E-03     30.0389E-03
            6181            6177     29.4493E-03     30.0389E-03
            6198            6177     29.4493E-03     30.0389E-03
            6199            6177     29.4493E-03     30.0389E-03
            6181            6178     31.3376E-03     31.9812E-03
            6200            6178     31.3376E-03     31.9812E-03
            6199            6178     31.3376E-03     31.9812E-03
            6182            6178     31.3376E-03     31.9812E-03
            6183            6179     33.1695E-03     33.8914E-03
            6200            6179     33.1695E-03     33.8914E-03
            6201            6179     33.1695E-03     33.8914E-03
            6182            6179     33.1695E-03     33.8914E-03
            6202            6180     34.9188E-03     35.7142E-03
            6183            6180     34.9188E-03     35.7142E-03
            6201            6180     34.9188E-03     35.7142E-03
            6184            6180     34.9188E-03     35.7142E-03
            6185            6181     36.5446E-03     37.3932E-03
            6203            6181     36.5446E-03     37.3932E-03
            6202            6181     36.5446E-03     37.3932E-03
            6184            6181     36.5446E-03     37.3932E-03
            6203            6182     38.0622E-03     38.9003E-03
            6204            6182     38.0622E-03     38.9003E-03
            6186            6182     38.0622E-03     38.9003E-03
            6185            6182     38.0622E-03     38.9003E-03
            6186            6183     39.6224E-03     40.2888E-03
            6205            6183     39.6224E-03     40.2888E-03
            6204            6183     39.6224E-03     40.2888E-03
            6187            6183     39.6224E-03     40.2888E-03
            6187            6184     41.3832E-03     41.8344E-03
            6206            6184     41.3832E-03     41.8344E-03
            6205            6184     41.3832E-03     41.8344E-03
            6188            6184     41.3832E-03     41.8344E-03
            6190            6185     12.5602E-03     13.3020E-03
            6208            6185     12.5602E-03     13.3020E-03
            6189            6185     12.5602E-03     13.3020E-03
            6207            6185     12.5602E-03     13.3020E-03
            6209            6186     14.1434E-03     14.8718E-03
            6191            6186     14.1434E-03     14.8718E-03
            6190            6186     14.1434E-03     14.8718E-03
            6208            6186     14.1434E-03     14.8718E-03
            6192            6187     16.0249E-03     16.7234E-03
            6191            6187     16.0249E-03     16.7234E-03
            6209            6187     16.0249E-03     16.7234E-03
            6210            6187     16.0249E-03     16.7234E-03
            6193            6188     17.9989E-03     18.5259E-03
            6192            6188     17.9989E-03     18.5259E-03
            6210            6188     17.9989E-03     18.5259E-03
            6211            6188     17.9989E-03     18.5259E-03
            6212            6189     19.9541E-03     20.3327E-03
            6211            6189     19.9541E-03     20.3327E-03
            6193            6189     19.9541E-03     20.3327E-03
            6194            6189     19.9541E-03     20.3327E-03
            6194            6190     21.8636E-03     22.1711E-03
            6195            6190     21.8636E-03     22.1711E-03
            6212            6190     21.8636E-03     22.1711E-03
            6213            6190     21.8636E-03     22.1711E-03
            6196            6191     23.7441E-03     24.0190E-03
            6213            6191     23.7441E-03     24.0190E-03
            6214            6191     23.7441E-03     24.0190E-03
            6195            6191     23.7441E-03     24.0190E-03
            6197            6192     25.6124E-03     25.8826E-03
            6214            6192     25.6124E-03     25.8826E-03
            6196            6192     25.6124E-03     25.8826E-03
            6215            6192     25.6124E-03     25.8826E-03
            6215            6193     27.4604E-03     27.7495E-03
            6216            6193     27.4604E-03     27.7495E-03
            6197            6193     27.4604E-03     27.7495E-03
            6198            6193     27.4604E-03     27.7495E-03
            6217            6194     29.2900E-03     29.6108E-03
            6199            6194     29.2900E-03     29.6108E-03
            6198            6194     29.2900E-03     29.6108E-03
            6216            6194     29.2900E-03     29.6108E-03
            6200            6195     31.0639E-03     31.4414E-03
            6217            6195     31.0639E-03     31.4414E-03
            6218            6195     31.0639E-03     31.4414E-03
            6199            6195     31.0639E-03     31.4414E-03
            6201            6196     32.7487E-03     33.1991E-03
            6218            6196     32.7487E-03     33.1991E-03
            6200            6196     32.7487E-03     33.1991E-03
            6219            6196     32.7487E-03     33.1991E-03
            6202            6197     34.2783E-03     34.8263E-03
            6220            6197     34.2783E-03     34.8263E-03
            6201            6197     34.2783E-03     34.8263E-03
            6219            6197     34.2783E-03     34.8263E-03
            6221            6198     35.5701E-03     36.2303E-03
            6220            6198     35.5701E-03     36.2303E-03
            6203            6198     35.5701E-03     36.2303E-03
            6202            6198     35.5701E-03     36.2303E-03
            6222            6199     36.6352E-03     37.3510E-03
            6221            6199     36.6352E-03     37.3510E-03
            6203            6199     36.6352E-03     37.3510E-03
            6204            6199     36.6352E-03     37.3510E-03
            6222            6200     37.6510E-03     38.2885E-03
            6204            6200     37.6510E-03     38.2885E-03
            6205            6200     37.6510E-03     38.2885E-03
            6223            6200     37.6510E-03     38.2885E-03
            6224            6201     39.0003E-03     39.3311E-03
            6206            6201     39.0003E-03     39.3311E-03
            6223            6201     39.0003E-03     39.3311E-03
            6205            6201     39.0003E-03     39.3311E-03
            6207            6202     12.8152E-03     13.4374E-03
            6208            6202     12.8152E-03     13.4374E-03
            6226            6202     12.8152E-03     13.4374E-03
            6225            6202     12.8152E-03     13.4374E-03
            6226            6203     14.2963E-03     15.1074E-03
            6208            6203     14.2963E-03     15.1074E-03
            6227            6203     14.2963E-03     15.1074E-03
            6209            6203     14.2963E-03     15.1074E-03
            6209            6204     16.1752E-03     16.7146E-03
            6227            6204     16.1752E-03     16.7146E-03
            6228            6204     16.1752E-03     16.7146E-03
            6210            6204     16.1752E-03     16.7146E-03
            6228            6205     18.1024E-03     18.3373E-03
            6210            6205     18.1024E-03     18.3373E-03
            6211            6205     18.1024E-03     18.3373E-03
            6229            6205     18.1024E-03     18.3373E-03
            6211            6206     19.9670E-03     20.0696E-03
            6212            6206     19.9670E-03     20.0696E-03
            6230            6206     19.9670E-03     20.0696E-03
            6229            6206     19.9670E-03     20.0696E-03
            6212            6207     21.7896E-03     21.8281E-03
            6231            6207     21.7896E-03     21.8281E-03
            6213            6207     21.7896E-03     21.8281E-03
            6230            6207     21.7896E-03     21.8281E-03
            6213            6208     23.5907E-03     23.6018E-03
            6231            6208     23.5907E-03     23.6018E-03
            6214            6208     23.5907E-03     23.6018E-03
            6232            6208     23.5907E-03     23.6018E-03
            6215            6209     25.3703E-03     25.3774E-03
            6232            6209     25.3703E-03     25.3774E-03
            6233            6209     25.3703E-03     25.3774E-03
            6214            6209     25.3703E-03     25.3774E-03
            6234            6210     27.1325E-03     27.1432E-03
            6233            6210     27.1325E-03     27.1432E-03
            6215            6210     27.1325E-03     27.1432E-03
            6216            6210     27.1325E-03     27.1432E-03
            6216            6211     28.8542E-03     28.8837E-03
            6235            6211     28.8542E-03     28.8837E-03
            6217            6211     28.8542E-03     28.8837E-03
            6234            6211     28.8542E-03     28.8837E-03
            6218            6212     30.5122E-03     30.5710E-03
            6217            6212     30.5122E-03     30.5710E-03
            6235            6212     30.5122E-03     30.5710E-03
            6236            6212     30.5122E-03     30.5710E-03
            6219            6213     32.0539E-03     32.1647E-03
            6236            6213     32.0539E-03     32.1647E-03
            6218            6213     32.0539E-03     32.1647E-03
            6237            6213     32.0539E-03     32.1647E-03
            6219            6214     33.4018E-03     33.5983E-03
            6237            6214     33.4018E-03     33.5983E-03
            6220            6214     33.4018E-03     33.5983E-03
            6238            6214     33.4018E-03     33.5983E-03
            6238            6215     34.4730E-03     34.7871E-03
            6220            6215     34.4730E-03     34.7871E-03
            6221            6215     34.4730E-03     34.7871E-03
            6239            6215     34.4730E-03     34.7871E-03
            6221            6216     35.1274E-03     35.5997E-03
            6239            6216     35.1274E-03     35.5997E-03
            6240            6216     35.1274E-03     35.5997E-03
            6222            6216     35.1274E-03     35.5997E-03
            6241            6217     35.5450E-03     36.0680E-03
            6222            6217     35.5450E-03     36.0680E-03
            6240            6217     35.5450E-03     36.0680E-03
            6223            6217     35.5450E-03     36.0680E-03
            6242            6218     36.4394E-03     36.7050E-03
            6223            6218     36.4394E-03     36.7050E-03
            6224            6218     36.4394E-03     36.7050E-03
            6241            6218     36.4394E-03     36.7050E-03
            6244            6219     13.2344E-03     14.3272E-03
            6226            6219     13.2344E-03     14.3272E-03
            6243            6219     13.2344E-03     14.3272E-03
            6225            6219     13.2344E-03     14.3272E-03
            6227            6220     14.7364E-03     15.4544E-03
            6226            6220     14.7364E-03     15.4544E-03
            6244            6220     14.7364E-03     15.4544E-03
            6245            6220     14.7364E-03     15.4544E-03
            6245            6221     16.5271E-03     16.6346E-03
            6228            6221     16.5271E-03     16.6346E-03
            6227            6221     16.5271E-03     16.6346E-03
            6246            6221     16.5271E-03     16.6346E-03
            6229            6222     18.2484E-03     18.1298E-03
            6247            6222     18.2484E-03     18.1298E-03
            6228            6222     18.2484E-03     18.1298E-03
            6246            6222     18.2484E-03     18.1298E-03
            6248            6223     19.9374E-03     19.7411E-03
            6229            6223     19.9374E-03     19.7411E-03
            6247            6223     19.9374E-03     19.7411E-03
            6230            6223     19.9374E-03     19.7411E-03
            6249            6224     21.6166E-03     21.3864E-03
            6230            6224     21.6166E-03     21.3864E-03
            6231            6224     21.6166E-03     21.3864E-03
            6248            6224     21.6166E-03     21.3864E-03
            6231            6225     23.2871E-03     23.0462E-03
            6232            6225     23.2871E-03     23.0462E-03
            6250            6225     23.2871E-03     23.0462E-03
            6249            6225     23.2871E-03     23.0462E-03
            6250            6226     24.9457E-03     24.6924E-03
            6251            6226     24.9457E-03     24.6924E-03
            6232            6226     24.9457E-03     24.6924E-03
            6233            6226     24.9457E-03     24.6924E-03
            6251            6227     26.5792E-03     26.3162E-03
            6252            6227     26.5792E-03     26.3162E-03
            6233            6227     26.5792E-03     26.3162E-03
            6234            6227     26.5792E-03     26.3162E-03
            6234            6228     28.1702E-03     27.8929E-03
            6235            6228     28.1702E-03     27.8929E-03
            6253            6228     28.1702E-03     27.8929E-03
            6252            6228     28.1702E-03     27.8929E-03
            6253            6229     29.6867E-03     29.3985E-03
            6236            6229     29.6867E-03     29.3985E-03
            6235            6229     29.6867E-03     29.3985E-03
            6254            6229     29.6867E-03     29.3985E-03
            6237            6230     31.0809E-03     30.7911E-03
            6254            6230     31.0809E-03     30.7911E-03
            6255            6230     31.0809E-03     30.7911E-03
            6236            6230     31.0809E-03     30.7911E-03
            6255            6231     32.2886E-03     32.0128E-03
            6237            6231     32.2886E-03     32.0128E-03
            6238            6231     32.2886E-03     32.0128E-03
            6256            6231     32.2886E-03     32.0128E-03
            6238            6232     33.1955E-03     32.9853E-03
            6256            6232     33.1955E-03     32.9853E-03
            6239            6232     33.1955E-03     32.9853E-03
            6257            6232     33.1955E-03     32.9853E-03
            6257            6233     33.6788E-03     33.5846E-03
            6258            6233     33.6788E-03     33.5846E-03
            6240            6233     33.6788E-03     33.5846E-03
            6239            6233     33.6788E-03     33.5846E-03
            6258            6234     33.5120E-03     33.6152E-03
            6241            6234     33.5120E-03     33.6152E-03
            6259            6234     33.5120E-03     33.6152E-03
            6240            6234     33.5120E-03     33.6152E-03
            6242            6235     33.6179E-03     33.6459E-03
            6260            6235     33.6179E-03     33.6459E-03
            6241            6235     33.6179E-03     33.6459E-03
            6259            6235     33.6179E-03     33.6459E-03
            6261            6236     14.3199E-03     15.1625E-03
            6262            6236     14.3199E-03     15.1625E-03
            6244            6236     14.3199E-03     15.1625E-03
            6243            6236     14.3199E-03     15.1625E-03
            6244            6237     15.7064E-03     15.5596E-03
            6245            6237     15.7064E-03     15.5596E-03
            6262            6237     15.7064E-03     15.5596E-03
            6263            6237     15.7064E-03     15.5596E-03
            6245            6238     17.0248E-03     16.5861E-03
            6246            6238     17.0248E-03     16.5861E-03
            6263            6238     17.0248E-03     16.5861E-03
            6264            6238     17.0248E-03     16.5861E-03
            6247            6239     18.4347E-03     17.9642E-03
            6246            6239     18.4347E-03     17.9642E-03
            6264            6239     18.4347E-03     17.9642E-03
            6265            6239     18.4347E-03     17.9642E-03
            6265            6240     19.8839E-03     19.4229E-03
            6266            6240     19.8839E-03     19.4229E-03
            6247            6240     19.8839E-03     19.4229E-03
            6248            6240     19.8839E-03     19.4229E-03
            6266            6241     21.3853E-03     20.9315E-03
            6249            6241     21.3853E-03     20.9315E-03
            6267            6241     21.3853E-03     20.9315E-03
            6248            6241     21.3853E-03     20.9315E-03
            6250            6242     22.8931E-03     22.4347E-03
            6267            6242     22.8931E-03     22.4347E-03
            6249            6242     22.8931E-03     22.4347E-03
            6268            6242     22.8931E-03     22.4347E-03
            6251            6243     24.3987E-03     23.9204E-03
            6268            6243     24.3987E-03     23.9204E-03
            6250            6243     24.3987E-03     23.9204E-03
            6269            6243     24.3987E-03     23.9204E-03
            6252            6244     25.8730E-03     25.3584E-03
            6251            6244     25.8730E-03     25.3584E-03
            6270            6244     25.8730E-03     25.3584E-03
            6269            6244     25.8730E-03     25.3584E-03
            6271            6245     27.2974E-03     26.7320E-03
            6253            6245     27.2974E-03     26.7320E-03
            6270            6245     27.2974E-03     26.7320E-03
            6252            6245     27.2974E-03     26.7320E-03
            6272            6246     28.6392E-03     28.0060E-03
            6254            6246     28.6392E-03     28.0060E-03
            6271            6246     28.6392E-03     28.0060E-03
            6253            6246     28.6392E-03     28.0060E-03
            6273            6247     29.8636E-03     29.1467E-03
            6255            6247     29.8636E-03     29.1467E-03
            6254            6247     29.8636E-03     29.1467E-03
            6272            6247     29.8636E-03     29.1467E-03
            6256            6248     30.9143E-03     30.1030E-03
            6274            6248     30.9143E-03     30.1030E-03
            6273            6248     30.9143E-03     30.1030E-03
            6255            6248     30.9143E-03     30.1030E-03
            6256            6249     31.7140E-03     30.8009E-03
            6275            6249     31.7140E-03     30.8009E-03
            6257            6249     31.7140E-03     30.8009E-03
            6274            6249     31.7140E-03     30.8009E-03
            6276            6250     32.1518E-03     31.1582E-03
            6275            6250     32.1518E-03     31.1582E-03
            6258            6250     32.1518E-03     31.1582E-03
            6257            6250     32.1518E-03     31.1582E-03
            6277            6251     31.9316E-03     30.9284E-03
            6258            6251     31.9316E-03     30.9284E-03
            6259            6251     31.9316E-03     30.9284E-03
            6276            6251     31.9316E-03     30.9284E-03
            6259            6252     31.0296E-03     29.9831E-03
            6260            6252     31.0296E-03     29.9831E-03
            6278            6252     31.0296E-03     29.9831E-03
            6277            6252     31.0296E-03     29.9831E-03
            6279            6253     11.9488E-03     12.8219E-03
            6261            6253     11.9488E-03     12.8219E-03
            6262            6253     11.9488E-03     12.8219E-03
            6280            6253     11.9488E-03     12.8219E-03
            6281            6254     11.7844E-03     12.1926E-03
            6262            6254     11.7844E-03     12.1926E-03
            6280            6254     11.7844E-03     12.1926E-03
            6263            6254     11.7844E-03     12.1926E-03
            6264            6255     12.3099E-03     12.6812E-03
            6282            6255     12.3099E-03     12.6812E-03
            6263            6255     12.3099E-03     12.6812E-03
            6281            6255     12.3099E-03     12.6812E-03
            6264            6256     13.0836E-03     13.5021E-03
            6283            6256     13.0836E-03     13.5021E-03
            6265            6256     13.0836E-03     13.5021E-03
            6282            6256     13.0836E-03     13.5021E-03
            6283            6257     14.0213E-03     14.4634E-03
            6284            6257     14.0213E-03     14.4634E-03
            6265            6257     14.0213E-03     14.4634E-03
            6266            6257     14.0213E-03     14.4634E-03
            6285            6258     15.0409E-03     15.5006E-03
            6284            6258     15.0409E-03     15.5006E-03
            6266            6258     15.0409E-03     15.5006E-03
            6267            6258     15.0409E-03     15.5006E-03
            6286            6259     16.1161E-03     16.5701E-03
            6285            6259     16.1161E-03     16.5701E-03
            6267            6259     16.1161E-03     16.5701E-03
            6268            6259     16.1161E-03     16.5701E-03
            6286            6260     17.2088E-03     17.6460E-03
            6268            6260     17.2088E-03     17.6460E-03
            6269            6260     17.2088E-03     17.6460E-03
            6287            6260     17.2088E-03     17.6460E-03
            6269            6261     18.3183E-03     18.7172E-03
            6287            6261     18.3183E-03     18.7172E-03
            6270            6261     18.3183E-03     18.7172E-03
            6288            6261     18.3183E-03     18.7172E-03
            6270            6262     19.4184E-03     19.7704E-03
            6289            6262     19.4184E-03     19.7704E-03
            6271            6262     19.4184E-03     19.7704E-03
            6288            6262     19.4184E-03     19.7704E-03
            6272            6263     20.5309E-03     20.8076E-03
            6271            6263     20.5309E-03     20.8076E-03
            6290            6263     20.5309E-03     20.8076E-03
            6289            6263     20.5309E-03     20.8076E-03
            6272            6264     21.6287E-03     21.8310E-03
            6290            6264     21.6287E-03     21.8310E-03
            6273            6264     21.6287E-03     21.8310E-03
            6291            6264     21.6287E-03     21.8310E-03
            6273            6265     22.7739E-03     22.8614E-03
            6291            6265     22.7739E-03     22.8614E-03
            6292            6265     22.7739E-03     22.8614E-03
            6274            6265     22.7739E-03     22.8614E-03
            6274            6266     23.9247E-03     23.9363E-03
            6292            6266     23.9247E-03     23.9363E-03
            6275            6266     23.9247E-03     23.9363E-03
            6293            6266     23.9247E-03     23.9363E-03
            6276            6267     25.2453E-03     25.1557E-03
            6275            6267     25.2453E-03     25.1557E-03
            6293            6267     25.2453E-03     25.1557E-03
            6294            6267     25.2453E-03     25.1557E-03
            6295            6268     26.6353E-03     26.6197E-03
            6277            6268     26.6353E-03     26.6197E-03
            6276            6268     26.6353E-03     26.6197E-03
            6294            6268     26.6353E-03     26.6197E-03
            6277            6269     28.9827E-03     29.5569E-03
            6278            6269     28.9827E-03     29.5569E-03
            6296            6269     28.9827E-03     29.5569E-03
            6295            6269     28.9827E-03     29.5569E-03
            6298            6270     8.76481E-03     9.90796E-03
            6279            6270     8.76481E-03     9.90796E-03
            6297            6270     8.76481E-03     9.90796E-03
            6280            6270     8.76481E-03     9.90796E-03
            6280            6271     7.54220E-03     8.84938E-03
            6281            6271     7.54220E-03     8.84938E-03
            6298            6271     7.54220E-03     8.84938E-03
            6299            6271     7.54220E-03     8.84938E-03
            6281            6272     7.40067E-03     8.72297E-03
            6299            6272     7.40067E-03     8.72297E-03
            6300            6272     7.40067E-03     8.72297E-03
            6282            6272     7.40067E-03     8.72297E-03
            6300            6273     7.75508E-03     9.08635E-03
            6283            6273     7.75508E-03     9.08635E-03
            6282            6273     7.75508E-03     9.08635E-03
            6301            6273     7.75508E-03     9.08635E-03
            6301            6274     8.27600E-03     9.61857E-03
            6283            6274     8.27600E-03     9.61857E-03
            6284            6274     8.27600E-03     9.61857E-03
            6302            6274     8.27600E-03     9.61857E-03
            6284            6275     8.93638E-03     10.2824E-03
            6285            6275     8.93638E-03     10.2824E-03
            6303            6275     8.93638E-03     10.2824E-03
            6302            6275     8.93638E-03     10.2824E-03
            6303            6276     9.65812E-03     11.0039E-03
            6304            6276     9.65812E-03     11.0039E-03
            6286            6276     9.65812E-03     11.0039E-03
            6285            6276     9.65812E-03     11.0039E-03
            6305            6277     10.4404E-03     11.7770E-03
            6304            6277     10.4404E-03     11.7770E-03
            6287            6277     10.4404E-03     11.7770E-03
            6286            6277     10.4404E-03     11.7770E-03
            6287            6278     11.2619E-03     12.5836E-03
            6288            6278     11.2619E-03     12.5836E-03
            6305            6278     11.2619E-03     12.5836E-03
            6306            6278     11.2619E-03     12.5836E-03
            6307            6279     12.1447E-03     13.4432E-03
            6289            6279     12.1447E-03     13.4432E-03
            6288            6279     12.1447E-03     13.4432E-03
            6306            6279     12.1447E-03     13.4432E-03
            6290            6280     13.0983E-03     14.3704E-03
            6289            6280     13.0983E-03     14.3704E-03
            6308            6280     13.0983E-03     14.3704E-03
            6307            6280     13.0983E-03     14.3704E-03
            6290            6281     14.1910E-03     15.4307E-03
            6291            6281     14.1910E-03     15.4307E-03
            6308            6281     14.1910E-03     15.4307E-03
            6309            6281     14.1910E-03     15.4307E-03
            6309            6282     15.4687E-03     16.6884E-03
            6310            6282     15.4687E-03     16.6884E-03
            6291            6282     15.4687E-03     16.6884E-03
            6292            6282     15.4687E-03     16.6884E-03
            6311            6283     17.1174E-03     18.3297E-03
            6292            6283     17.1174E-03     18.3297E-03
            6293            6283     17.1174E-03     18.3297E-03
            6310            6283     17.1174E-03     18.3297E-03
            6294            6284     19.2767E-03     20.5386E-03
            6293            6284     19.2767E-03     20.5386E-03
            6312            6284     19.2767E-03     20.5386E-03
            6311            6284     19.2767E-03     20.5386E-03
            6313            6285     22.6185E-03     24.0232E-03
            6294            6285     22.6185E-03     24.0232E-03
            6295            6285     22.6185E-03     24.0232E-03
            6312            6285     22.6185E-03     24.0232E-03
            6314            6286     28.7040E-03     29.9038E-03
            6295            6286     28.7040E-03     29.9038E-03
            6313            6286     28.7040E-03     29.9038E-03
            6296            6286     28.7040E-03     29.9038E-03
            6297            6287     8.38627E-03     8.87466E-03
            6316            6287     8.38627E-03     8.87466E-03
            6315            6287     8.38627E-03     8.87466E-03
            6298            6287     8.38627E-03     8.87466E-03
            6298            6288     7.87203E-03     8.70708E-03
            6316            6288     7.87203E-03     8.70708E-03
            6299            6288     7.87203E-03     8.70708E-03
            6317            6288     7.87203E-03     8.70708E-03
            6317            6289     7.63757E-03     8.66000E-03
            6299            6289     7.63757E-03     8.66000E-03
            6318            6289     7.63757E-03     8.66000E-03
            6300            6289     7.63757E-03     8.66000E-03
            6318            6290     7.96252E-03     9.03703E-03
            6319            6290     7.96252E-03     9.03703E-03
            6301            6290     7.96252E-03     9.03703E-03
            6300            6290     7.96252E-03     9.03703E-03
            6301            6291     8.50522E-03     9.60371E-03
            6319            6291     8.50522E-03     9.60371E-03
            6320            6291     8.50522E-03     9.60371E-03
            6302            6291     8.50522E-03     9.60371E-03
            6303            6292     9.17068E-03     10.2815E-03
            6302            6292     9.17068E-03     10.2815E-03
            6320            6292     9.17068E-03     10.2815E-03
            6321            6292     9.17068E-03     10.2815E-03
            6322            6293     9.91785E-03     11.0300E-03
            6321            6293     9.91785E-03     11.0300E-03
            6303            6293     9.91785E-03     11.0300E-03
            6304            6293     9.91785E-03     11.0300E-03
            6322            6294     10.7092E-03     11.8207E-03
            6304            6294     10.7092E-03     11.8207E-03
            6323            6294     10.7092E-03     11.8207E-03
            6305            6294     10.7092E-03     11.8207E-03
            6323            6295     11.5462E-03     12.6515E-03
            6324            6295     11.5462E-03     12.6515E-03
            6306            6295     11.5462E-03     12.6515E-03
            6305            6295     11.5462E-03     12.6515E-03
            6325            6296     12.4261E-03     13.5254E-03
            6307            6296     12.4261E-03     13.5254E-03
            6306            6296     12.4261E-03     13.5254E-03
            6324            6296     12.4261E-03     13.5254E-03
            6308            6297     13.3861E-03     14.4736E-03
            6326            6297     13.3861E-03     14.4736E-03
            6325            6297     13.3861E-03     14.4736E-03
            6307            6297     13.3861E-03     14.4736E-03
            6327            6298     14.4615E-03     15.5408E-03
            6308            6298     14.4615E-03     15.5408E-03
            6326            6298     14.4615E-03     15.5408E-03
            6309            6298     14.4615E-03     15.5408E-03
            6327            6299     15.7597E-03     16.8185E-03
            6310            6299     15.7597E-03     16.8185E-03
            6328            6299     15.7597E-03     16.8185E-03
            6309            6299     15.7597E-03     16.8185E-03
            6310            6300     17.4176E-03     18.4538E-03
            6328            6300     17.4176E-03     18.4538E-03
            6311            6300     17.4176E-03     18.4538E-03
            6329            6300     17.4176E-03     18.4538E-03
            6312            6301     19.6886E-03     20.6702E-03
            6311            6301     19.6886E-03     20.6702E-03
            6330            6301     19.6886E-03     20.6702E-03
            6329            6301     19.6886E-03     20.6702E-03
            6331            6302     23.4243E-03     24.0619E-03
            6330            6302     23.4243E-03     24.0619E-03
            6312            6302     23.4243E-03     24.0619E-03
            6313            6302     23.4243E-03     24.0619E-03
            6331            6303     28.1554E-03     28.2702E-03
            6313            6303     28.1554E-03     28.2702E-03
            6314            6303     28.1554E-03     28.2702E-03
            6332            6303     28.1554E-03     28.2702E-03
            6316            6304     7.72134E-03     8.15594E-03
            6334            6304     7.72134E-03     8.15594E-03
            6315            6304     7.72134E-03     8.15594E-03
            6333            6304     7.72134E-03     8.15594E-03
            6316            6305     7.74243E-03     8.30602E-03
            6334            6305     7.74243E-03     8.30602E-03
            6317            6305     7.74243E-03     8.30602E-03
            6335            6305     7.74243E-03     8.30602E-03
            6317            6306     7.83883E-03     8.57560E-03
            6318            6306     7.83883E-03     8.57560E-03
            6335            6306     7.83883E-03     8.57560E-03
            6336            6306     7.83883E-03     8.57560E-03
            6337            6307     8.16623E-03     8.99822E-03
            6318            6307     8.16623E-03     8.99822E-03
            6319            6307     8.16623E-03     8.99822E-03
            6336            6307     8.16623E-03     8.99822E-03
            6319            6308     8.75173E-03     9.61731E-03
            6338            6308     8.75173E-03     9.61731E-03
            6320            6308     8.75173E-03     9.61731E-03
            6337            6308     8.75173E-03     9.61731E-03
            6321            6309     9.44451E-03     10.3247E-03
            6339            6309     9.44451E-03     10.3247E-03
            6338            6309     9.44451E-03     10.3247E-03
            6320            6309     9.44451E-03     10.3247E-03
            6322            6310     10.2131E-03     11.1003E-03
            6340            6310     10.2131E-03     11.1003E-03
            6339            6310     10.2131E-03     11.1003E-03
            6321            6310     10.2131E-03     11.1003E-03
            6341            6311     11.0272E-03     11.9172E-03
            6340            6311     11.0272E-03     11.9172E-03
            6323            6311     11.0272E-03     11.9172E-03
            6322            6311     11.0272E-03     11.9172E-03
            6342            6312     11.8769E-03     12.7714E-03
            6341            6312     11.8769E-03     12.7714E-03
            6323            6312     11.8769E-03     12.7714E-03
            6324            6312     11.8769E-03     12.7714E-03
            6324            6313     12.7704E-03     13.6680E-03
            6325            6313     12.7704E-03     13.6680E-03
            6343            6313     12.7704E-03     13.6680E-03
            6342            6313     12.7704E-03     13.6680E-03
            6325            6314     13.7274E-03     14.6302E-03
            6326            6314     13.7274E-03     14.6302E-03
            6343            6314     13.7274E-03     14.6302E-03
            6344            6314     13.7274E-03     14.6302E-03
            6345            6315     14.7968E-03     15.6962E-03
            6326            6315     14.7968E-03     15.6962E-03
            6327            6315     14.7968E-03     15.6962E-03
            6344            6315     14.7968E-03     15.6962E-03
            6345            6316     16.0703E-03     16.9509E-03
            6346            6316     16.0703E-03     16.9509E-03
            6328            6316     16.0703E-03     16.9509E-03
            6327            6316     16.0703E-03     16.9509E-03
            6329            6317     17.6563E-03     18.4919E-03
            6328            6317     17.6563E-03     18.4919E-03
            6347            6317     17.6563E-03     18.4919E-03
            6346            6317     17.6563E-03     18.4919E-03
            6348            6318     19.9413E-03     20.5821E-03
            6347            6318     19.9413E-03     20.5821E-03
            6329            6318     19.9413E-03     20.5821E-03
            6330            6318     19.9413E-03     20.5821E-03
            6331            6319     22.9122E-03     23.3418E-03
            6348            6319     22.9122E-03     23.3418E-03
            6349            6319     22.9122E-03     23.3418E-03
            6330            6319     22.9122E-03     23.3418E-03
            6350            6320     26.1810E-03     26.6935E-03
            6349            6320     26.1810E-03     26.6935E-03
            6332            6320     26.1810E-03     26.6935E-03
            6331            6320     26.1810E-03     26.6935E-03
            6351            6321     7.41713E-03     7.69208E-03
            6333            6321     7.41713E-03     7.69208E-03
            6334            6321     7.41713E-03     7.69208E-03
            6352            6321     7.41713E-03     7.69208E-03
            6352            6322     7.49371E-03     7.94416E-03
            6353            6322     7.49371E-03     7.94416E-03
            6334            6322     7.49371E-03     7.94416E-03
            6335            6322     7.49371E-03     7.94416E-03
            6335            6323     7.84869E-03     8.38770E-03
            6353            6323     7.84869E-03     8.38770E-03
            6336            6323     7.84869E-03     8.38770E-03
            6354            6323     7.84869E-03     8.38770E-03
            6336            6324     8.34616E-03     8.96226E-03
            6355            6324     8.34616E-03     8.96226E-03
            6354            6324     8.34616E-03     8.96226E-03
            6337            6324     8.34616E-03     8.96226E-03
            6356            6325     8.97853E-03     9.62680E-03
            6355            6325     8.97853E-03     9.62680E-03
            6338            6325     8.97853E-03     9.62680E-03
            6337            6325     8.97853E-03     9.62680E-03
            6356            6326     9.72662E-03     10.3855E-03
            6338            6326     9.72662E-03     10.3855E-03
            6339            6326     9.72662E-03     10.3855E-03
            6357            6326     9.72662E-03     10.3855E-03
            6339            6327     10.5232E-03     11.1879E-03
            6340            6327     10.5232E-03     11.1879E-03
            6358            6327     10.5232E-03     11.1879E-03
            6357            6327     10.5232E-03     11.1879E-03
            6358            6328     11.3626E-03     12.0329E-03
            6340            6328     11.3626E-03     12.0329E-03
            6359            6328     11.3626E-03     12.0329E-03
            6341            6328     11.3626E-03     12.0329E-03
            6341            6329     12.2279E-03     12.9077E-03
            6342            6329     12.2279E-03     12.9077E-03
            6360            6329     12.2279E-03     12.9077E-03
            6359            6329     12.2279E-03     12.9077E-03
            6361            6330     13.1285E-03     13.8212E-03
            6342            6330     13.1285E-03     13.8212E-03
            6343            6330     13.1285E-03     13.8212E-03
            6360            6330     13.1285E-03     13.8212E-03
            6362            6331     14.0723E-03     14.7799E-03
            6344            6331     14.0723E-03     14.7799E-03
            6361            6331     14.0723E-03     14.7799E-03
            6343            6331     14.0723E-03     14.7799E-03
            6345            6332     15.1052E-03     15.8189E-03
            6363            6332     15.1052E-03     15.8189E-03
            6362            6332     15.1052E-03     15.8189E-03
            6344            6332     15.1052E-03     15.8189E-03
            6363            6333     16.2612E-03     16.9725E-03
            6364            6333     16.2612E-03     16.9725E-03
            6346            6333     16.2612E-03     16.9725E-03
            6345            6333     16.2612E-03     16.9725E-03
            6346            6334     17.7103E-03     18.3440E-03
            6365            6334     17.7103E-03     18.3440E-03
            6364            6334     17.7103E-03     18.3440E-03
            6347            6334     17.7103E-03     18.3440E-03
            6347            6335     19.5047E-03     20.0381E-03
            6365            6335     19.5047E-03     20.0381E-03
            6348            6335     19.5047E-03     20.0381E-03
            6366            6335     19.5047E-03     20.0381E-03
            6348            6336     21.6699E-03     22.1293E-03
            6349            6336     21.6699E-03     22.1293E-03
            6367            6336     21.6699E-03     22.1293E-03
            6366            6336     21.6699E-03     22.1293E-03
            6367            6337     24.3841E-03     24.6386E-03
            6349            6337     24.3841E-03     24.6386E-03
            6350            6337     24.3841E-03     24.6386E-03
            6368            6337     24.3841E-03     24.6386E-03
            6370            6338     7.17608E-03     7.35390E-03
            6351            6338     7.17608E-03     7.35390E-03
            6369            6338     7.17608E-03     7.35390E-03
            6352            6338     7.17608E-03     7.35390E-03
            6353            6339     7.34518E-03     7.65246E-03
            6370            6339     7.34518E-03     7.65246E-03
            6352            6339     7.34518E-03     7.65246E-03
            6371            6339     7.34518E-03     7.65246E-03
            6371            6340     7.78878E-03     8.20281E-03
            6353            6340     7.78878E-03     8.20281E-03
            6354            6340     7.78878E-03     8.20281E-03
            6372            6340     7.78878E-03     8.20281E-03
            6355            6341     8.44086E-03     8.87603E-03
            6372            6341     8.44086E-03     8.87603E-03
            6373            6341     8.44086E-03     8.87603E-03
            6354            6341     8.44086E-03     8.87603E-03
            6355            6342     9.18291E-03     9.62931E-03
            6374            6342     9.18291E-03     9.62931E-03
            6373            6342     9.18291E-03     9.62931E-03
            6356            6342     9.18291E-03     9.62931E-03
            6374            6343     9.97798E-03     10.4223E-03
            6375            6343     9.97798E-03     10.4223E-03
            6356            6343     9.97798E-03     10.4223E-03
            6357            6343     9.97798E-03     10.4223E-03
            6375            6344     10.8186E-03     11.2597E-03
            6357            6344     10.8186E-03     11.2597E-03
            6376            6344     10.8186E-03     11.2597E-03
            6358            6344     10.8186E-03     11.2597E-03
            6377            6345     11.6743E-03     12.1219E-03
            6358            6345     11.6743E-03     12.1219E-03
            6359            6345     11.6743E-03     12.1219E-03
            6376            6345     11.6743E-03     12.1219E-03
            6377            6346     12.5543E-03     13.0127E-03
            6378            6346     12.5543E-03     13.0127E-03
            6360            6346     12.5543E-03     13.0127E-03
            6359            6346     12.5543E-03     13.0127E-03
            6379            6347     13.4454E-03     13.9240E-03
            6360            6347     13.4454E-03     13.9240E-03
            6378            6347     13.4454E-03     13.9240E-03
            6361            6347     13.4454E-03     13.9240E-03
            6362            6348     14.3661E-03     14.8654E-03
            6380            6348     14.3661E-03     14.8654E-03
            6379            6348     14.3661E-03     14.8654E-03
            6361            6348     14.3661E-03     14.8654E-03
            6363            6349     15.3030E-03     15.8325E-03
            6380            6349     15.3030E-03     15.8325E-03
            6362            6349     15.3030E-03     15.8325E-03
            6381            6349     15.3030E-03     15.8325E-03
            6381            6350     16.3147E-03     16.8457E-03
            6364            6350     16.3147E-03     16.8457E-03
            6382            6350     16.3147E-03     16.8457E-03
            6363            6350     16.3147E-03     16.8457E-03
            6382            6351     17.4142E-03     17.9362E-03
            6383            6351     17.4142E-03     17.9362E-03
            6364            6351     17.4142E-03     17.9362E-03
            6365            6351     17.4142E-03     17.9362E-03
            6366            6352     18.6883E-03     19.1566E-03
            6384            6352     18.6883E-03     19.1566E-03
            6365            6352     18.6883E-03     19.1566E-03
            6383            6352     18.6883E-03     19.1566E-03
            6367            6353     20.3310E-03     20.6436E-03
            6384            6353     20.3310E-03     20.6436E-03
            6366            6353     20.3310E-03     20.6436E-03
            6385            6353     20.3310E-03     20.6436E-03
            6367            6354     22.4431E-03     22.6897E-03
            6386            6354     22.4431E-03     22.6897E-03
            6368            6354     22.4431E-03     22.6897E-03
            6385            6354     22.4431E-03     22.6897E-03
            6369            6355     7.04506E-03     7.12605E-03
            6387            6355     7.04506E-03     7.12605E-03
            6388            6355     7.04506E-03     7.12605E-03
            6370            6355     7.04506E-03     7.12605E-03
            6371            6356     7.18070E-03     7.42644E-03
            6389            6356     7.18070E-03     7.42644E-03
            6370            6356     7.18070E-03     7.42644E-03
            6388            6356     7.18070E-03     7.42644E-03
            6372            6357     7.74457E-03     8.02481E-03
            6390            6357     7.74457E-03     8.02481E-03
            6389            6357     7.74457E-03     8.02481E-03
            6371            6357     7.74457E-03     8.02481E-03
            6390            6358     8.49648E-03     8.78308E-03
            6372            6358     8.49648E-03     8.78308E-03
            6391            6358     8.49648E-03     8.78308E-03
            6373            6358     8.49648E-03     8.78308E-03
            6391            6359     9.33264E-03     9.58421E-03
            6373            6359     9.33264E-03     9.58421E-03
            6392            6359     9.33264E-03     9.58421E-03
            6374            6359     9.33264E-03     9.58421E-03
            6393            6360     10.1930E-03     10.4169E-03
            6392            6360     10.1930E-03     10.4169E-03
            6374            6360     10.1930E-03     10.4169E-03
            6375            6360     10.1930E-03     10.4169E-03
            6393            6361     11.0536E-03     11.2697E-03
            6375            6361     11.0536E-03     11.2697E-03
            6376            6361     11.0536E-03     11.2697E-03
            6394            6361     11.0536E-03     11.2697E-03
            6377            6362     11.9273E-03     12.1435E-03
            6394            6362     11.9273E-03     12.1435E-03
            6395            6362     11.9273E-03     12.1435E-03
            6376            6362     11.9273E-03     12.1435E-03
            6395            6363     12.7994E-03     13.0291E-03
            6377            6363     12.7994E-03     13.0291E-03
            6396            6363     12.7994E-03     13.0291E-03
            6378            6363     12.7994E-03     13.0291E-03
            6396            6364     13.6793E-03     13.9275E-03
            6397            6364     13.6793E-03     13.9275E-03
            6378            6364     13.6793E-03     13.9275E-03
            6379            6364     13.6793E-03     13.9275E-03
            6379            6365     14.5402E-03     14.8226E-03
            6380            6365     14.5402E-03     14.8226E-03
            6398            6365     14.5402E-03     14.8226E-03
            6397            6365     14.5402E-03     14.8226E-03
            6399            6366     15.3900E-03     15.7046E-03
            6380            6366     15.3900E-03     15.7046E-03
            6398            6366     15.3900E-03     15.7046E-03
            6381            6366     15.3900E-03     15.7046E-03
            6382            6367     16.1780E-03     16.5451E-03
            6381            6367     16.1780E-03     16.5451E-03
            6400            6367     16.1780E-03     16.5451E-03
            6399            6367     16.1780E-03     16.5451E-03
            6383            6368     16.9218E-03     17.3217E-03
            6401            6368     16.9218E-03     17.3217E-03
            6400            6368     16.9218E-03     17.3217E-03
            6382            6368     16.9218E-03     17.3217E-03
            6383            6369     17.7295E-03     18.0915E-03
            6401            6369     17.7295E-03     18.0915E-03
            6384            6369     17.7295E-03     18.0915E-03
            6402            6369     17.7295E-03     18.0915E-03
            6384            6370     18.7942E-03     19.0855E-03
            6403            6370     18.7942E-03     19.0855E-03
            6385            6370     18.7942E-03     19.0855E-03
            6402            6370     18.7942E-03     19.0855E-03
            6385            6371     20.5622E-03     20.6707E-03
            6403            6371     20.5622E-03     20.6707E-03
            6404            6371     20.5622E-03     20.6707E-03
            6386            6371     20.5622E-03     20.6707E-03
            6405            6372     6.93980E-03     7.02434E-03
            6406            6372     6.93980E-03     7.02434E-03
            6388            6372     6.93980E-03     7.02434E-03
            6387            6372     6.93980E-03     7.02434E-03
            6388            6373     7.07508E-03     7.24149E-03
            6389            6373     7.07508E-03     7.24149E-03
            6407            6373     7.07508E-03     7.24149E-03
            6406            6373     7.07508E-03     7.24149E-03
            6389            6374     7.69461E-03     7.89870E-03
            6407            6374     7.69461E-03     7.89870E-03
            6408            6374     7.69461E-03     7.89870E-03
            6390            6374     7.69461E-03     7.89870E-03
            6409            6375     8.55019E-03     8.67263E-03
            6391            6375     8.55019E-03     8.67263E-03
            6390            6375     8.55019E-03     8.67263E-03
            6408            6375     8.55019E-03     8.67263E-03
            6409            6376     9.45522E-03     9.49354E-03
            6392            6376     9.45522E-03     9.49354E-03
            6410            6376     9.45522E-03     9.49354E-03
            6391            6376     9.45522E-03     9.49354E-03
            6410            6377     10.3393E-03     10.3386E-03
            6393            6377     10.3393E-03     10.3386E-03
            6392            6377     10.3393E-03     10.3386E-03
            6411            6377     10.3393E-03     10.3386E-03
            6411            6378     11.2118E-03     11.1925E-03
            6394            6378     11.2118E-03     11.1925E-03
            6412            6378     11.2118E-03     11.1925E-03
            6393            6378     11.2118E-03     11.1925E-03
            6412            6379     12.0727E-03     12.0529E-03
            6394            6379     12.0727E-03     12.0529E-03
            6395            6379     12.0727E-03     12.0529E-03
            6413            6379     12.0727E-03     12.0529E-03
            6396            6380     12.9313E-03     12.9187E-03
            6413            6380     12.9313E-03     12.9187E-03
            6395            6380     12.9313E-03     12.9187E-03
            6414            6380     12.9313E-03     12.9187E-03
            6397            6381     13.7695E-03     13.7772E-03
            6415            6381     13.7695E-03     13.7772E-03
            6414            6381     13.7695E-03     13.7772E-03
            6396            6381     13.7695E-03     13.7772E-03
            6416            6382     14.5814E-03     14.6152E-03
            6415            6382     14.5814E-03     14.6152E-03
            6398            6382     14.5814E-03     14.6152E-03
            6397            6382     14.5814E-03     14.6152E-03
            6399            6383     15.3131E-03     15.3965E-03
            6398            6383     15.3131E-03     15.3965E-03
            6417            6383     15.3131E-03     15.3965E-03
            6416            6383     15.3131E-03     15.3965E-03
            6417            6384     15.9300E-03     16.0750E-03
            6418            6384     15.9300E-03     16.0750E-03
            6400            6384     15.9300E-03     16.0750E-03
            6399            6384     15.9300E-03     16.0750E-03
            6419            6385     16.3513E-03     16.5812E-03
            6401            6385     16.3513E-03     16.5812E-03
            6418            6385     16.3513E-03     16.5812E-03
            6400            6385     16.3513E-03     16.5812E-03
            6420            6386     16.6417E-03     16.9309E-03
            6402            6386     16.6417E-03     16.9309E-03
            6401            6386     16.6417E-03     16.9309E-03
            6419            6386     16.6417E-03     16.9309E-03
            6402            6387     17.2099E-03     17.4002E-03
            6421            6387     17.2099E-03     17.4002E-03
            6420            6387     17.2099E-03     17.4002E-03
            6403            6387     17.2099E-03     17.4002E-03
            6403            6388     18.5791E-03     18.6188E-03
            6421            6388     18.5791E-03     18.6188E-03
            6404            6388     18.5791E-03     18.6188E-03
            6422            6388     18.5791E-03     18.6188E-03
            6406            6389     6.92957E-03     6.96534E-03
            6424            6389     6.92957E-03     6.96534E-03
            6423            6389     6.92957E-03     6.96534E-03
            6405            6389     6.92957E-03     6.96534E-03
            6425            6390     6.99897E-03     7.21860E-03
            6407            6390     6.99897E-03     7.21860E-03
            6424            6390     6.99897E-03     7.21860E-03
            6406            6390     6.99897E-03     7.21860E-03
            6408            6391     7.70484E-03     7.80904E-03
            6426            6391     7.70484E-03     7.80904E-03
            6407            6391     7.70484E-03     7.80904E-03
            6425            6391     7.70484E-03     7.80904E-03
            6408            6392     8.64341E-03     8.54519E-03
            6409            6392     8.64341E-03     8.54519E-03
            6427            6392     8.64341E-03     8.54519E-03
            6426            6392     8.64341E-03     8.54519E-03
            6427            6393     9.55127E-03     9.35778E-03
            6428            6393     9.55127E-03     9.35778E-03
            6409            6393     9.55127E-03     9.35778E-03
            6410            6393     9.55127E-03     9.35778E-03
            6428            6394     10.4198E-03     10.1814E-03
            6429            6394     10.4198E-03     10.1814E-03
            6411            6394     10.4198E-03     10.1814E-03
            6410            6394     10.4198E-03     10.1814E-03
            6411            6395     11.2654E-03     11.0083E-03
            6430            6395     11.2654E-03     11.0083E-03
            6429            6395     11.2654E-03     11.0083E-03
            6412            6395     11.2654E-03     11.0083E-03
            6430            6396     12.0954E-03     11.8330E-03
            6412            6396     12.0954E-03     11.8330E-03
            6413            6396     12.0954E-03     11.8330E-03
            6431            6396     12.0954E-03     11.8330E-03
            6414            6397     12.9091E-03     12.6497E-03
            6432            6397     12.9091E-03     12.6497E-03
            6431            6397     12.9091E-03     12.6497E-03
            6413            6397     12.9091E-03     12.6497E-03
            6415            6398     13.7004E-03     13.4487E-03
            6414            6398     13.7004E-03     13.4487E-03
            6432            6398     13.7004E-03     13.4487E-03
            6433            6398     13.7004E-03     13.4487E-03
            6416            6399     14.4380E-03     14.2062E-03
            6433            6399     14.4380E-03     14.2062E-03
            6415            6399     14.4380E-03     14.2062E-03
            6434            6399     14.4380E-03     14.2062E-03
            6417            6400     15.0842E-03     14.8853E-03
            6434            6400     15.0842E-03     14.8853E-03
            6435            6400     15.0842E-03     14.8853E-03
            6416            6400     15.0842E-03     14.8853E-03
            6435            6401     15.5583E-03     15.4197E-03
            6418            6401     15.5583E-03     15.4197E-03
            6436            6401     15.5583E-03     15.4197E-03
            6417            6401     15.5583E-03     15.4197E-03
            6436            6402     15.7761E-03     15.7379E-03
            6419            6402     15.7761E-03     15.7379E-03
            6437            6402     15.7761E-03     15.7379E-03
            6418            6402     15.7761E-03     15.7379E-03
            6438            6403     15.6216E-03     15.7210E-03
            6420            6403     15.6216E-03     15.7210E-03
            6437            6403     15.6216E-03     15.7210E-03
            6419            6403     15.6216E-03     15.7210E-03
            6439            6404     15.4925E-03     15.6393E-03
            6420            6404     15.4925E-03     15.6393E-03
            6438            6404     15.4925E-03     15.6393E-03
            6421            6404     15.4925E-03     15.6393E-03
            6440            6405     16.5425E-03     16.4385E-03
            6439            6405     16.5425E-03     16.4385E-03
            6421            6405     16.5425E-03     16.4385E-03
            6422            6405     16.5425E-03     16.4385E-03
            6442            6406     6.98053E-03     7.31106E-03
            6423            6406     6.98053E-03     7.31106E-03
            6424            6406     6.98053E-03     7.31106E-03
            6441            6406     6.98053E-03     7.31106E-03
            6442            6407     7.01883E-03     7.30472E-03
            6443            6407     7.01883E-03     7.30472E-03
            6425            6407     7.01883E-03     7.30472E-03
            6424            6407     7.01883E-03     7.30472E-03
            6425            6408     7.89367E-03     7.73830E-03
            6426            6408     7.89367E-03     7.73830E-03
            6444            6408     7.89367E-03     7.73830E-03
            6443            6408     7.89367E-03     7.73830E-03
            6445            6409     8.78894E-03     8.42887E-03
            6426            6409     8.78894E-03     8.42887E-03
            6444            6409     8.78894E-03     8.42887E-03
            6427            6409     8.78894E-03     8.42887E-03
            6445            6410     9.62320E-03     9.18597E-03
            6428            6410     9.62320E-03     9.18597E-03
            6427            6410     9.62320E-03     9.18597E-03
            6446            6410     9.62320E-03     9.18597E-03
            6429            6411     10.4332E-03     9.95829E-03
            6428            6411     10.4332E-03     9.95829E-03
            6446            6411     10.4332E-03     9.95829E-03
            6447            6411     10.4332E-03     9.95829E-03
            6430            6412     11.2173E-03     10.7272E-03
            6429            6412     11.2173E-03     10.7272E-03
            6447            6412     11.2173E-03     10.7272E-03
            6448            6412     11.2173E-03     10.7272E-03
            6448            6413     11.9868E-03     11.4866E-03
            6431            6413     11.9868E-03     11.4866E-03
            6449            6413     11.9868E-03     11.4866E-03
            6430            6413     11.9868E-03     11.4866E-03
            6431            6414     12.7356E-03     12.2272E-03
            6449            6414     12.7356E-03     12.2272E-03
            6450            6414     12.7356E-03     12.2272E-03
            6432            6414     12.7356E-03     12.2272E-03
            6433            6415     13.4514E-03     12.9369E-03
            6450            6415     13.4514E-03     12.9369E-03
            6451            6415     13.4514E-03     12.9369E-03
            6432            6415     13.4514E-03     12.9369E-03
            6433            6416     14.1081E-03     13.5897E-03
            6451            6416     14.1081E-03     13.5897E-03
            6452            6416     14.1081E-03     13.5897E-03
            6434            6416     14.1081E-03     13.5897E-03
            6434            6417     14.6651E-03     14.1495E-03
            6435            6417     14.6651E-03     14.1495E-03
            6453            6417     14.6651E-03     14.1495E-03
            6452            6417     14.6651E-03     14.1495E-03
            6453            6418     15.0451E-03     14.5542E-03
            6436            6418     15.0451E-03     14.5542E-03
            6454            6418     15.0451E-03     14.5542E-03
            6435            6418     15.0451E-03     14.5542E-03
            6454            6419     15.1544E-03     14.7147E-03
            6436            6419     15.1544E-03     14.7147E-03
            6455            6419     15.1544E-03     14.7147E-03
            6437            6419     15.1544E-03     14.7147E-03
            6437            6420     14.8349E-03     14.5269E-03
            6438            6420     14.8349E-03     14.5269E-03
            6456            6420     14.8349E-03     14.5269E-03
            6455            6420     14.8349E-03     14.5269E-03
            6457            6421     13.9591E-03     13.8636E-03
            6439            6421     13.9591E-03     13.8636E-03
            6456            6421     13.9591E-03     13.8636E-03
            6438            6421     13.9591E-03     13.8636E-03
            6457            6422     14.3215E-03     14.1470E-03
            6458            6422     14.3215E-03     14.1470E-03
            6439            6422     14.3215E-03     14.1470E-03
            6440            6422     14.3215E-03     14.1470E-03
            6460            6423     7.06836E-03     7.84197E-03
            6459            6423     7.06836E-03     7.84197E-03
            6442            6423     7.06836E-03     7.84197E-03
            6441            6423     7.06836E-03     7.84197E-03
            6460            6424     7.49873E-03     7.38245E-03
            6442            6424     7.49873E-03     7.38245E-03
            6461            6424     7.49873E-03     7.38245E-03
            6443            6424     7.49873E-03     7.38245E-03
            6461            6425     8.25477E-03     7.74741E-03
            6443            6425     8.25477E-03     7.74741E-03
            6444            6425     8.25477E-03     7.74741E-03
            6462            6425     8.25477E-03     7.74741E-03
            6445            6426     8.96264E-03     8.34594E-03
            6463            6426     8.96264E-03     8.34594E-03
            6462            6426     8.96264E-03     8.34594E-03
            6444            6426     8.96264E-03     8.34594E-03
            6445            6427     9.67874E-03     9.01764E-03
            6446            6427     9.67874E-03     9.01764E-03
            6463            6427     9.67874E-03     9.01764E-03
            6464            6427     9.67874E-03     9.01764E-03
            6465            6428     10.3891E-03     9.70409E-03
            6464            6428     10.3891E-03     9.70409E-03
            6446            6428     10.3891E-03     9.70409E-03
            6447            6428     10.3891E-03     9.70409E-03
            6466            6429     11.0926E-03     10.3901E-03
            6465            6429     11.0926E-03     10.3901E-03
            6448            6429     11.0926E-03     10.3901E-03
            6447            6429     11.0926E-03     10.3901E-03
            6448            6430     11.7793E-03     11.0564E-03
            6466            6430     11.7793E-03     11.0564E-03
            6467            6430     11.7793E-03     11.0564E-03
            6449            6430     11.7793E-03     11.0564E-03
            6468            6431     12.4392E-03     11.6952E-03
            6449            6431     12.4392E-03     11.6952E-03
            6450            6431     12.4392E-03     11.6952E-03
            6467            6431     12.4392E-03     11.6952E-03
            6451            6432     13.0550E-03     12.2833E-03
            6468            6432     13.0550E-03     12.2833E-03
            6450            6432     13.0550E-03     12.2833E-03
            6469            6432     13.0550E-03     12.2833E-03
            6470            6433     13.6065E-03     12.8026E-03
            6452            6433     13.6065E-03     12.8026E-03
            6469            6433     13.6065E-03     12.8026E-03
            6451            6433     13.6065E-03     12.8026E-03
            6453            6434     14.0500E-03     13.2084E-03
            6452            6434     14.0500E-03     13.2084E-03
            6470            6434     14.0500E-03     13.2084E-03
            6471            6434     14.0500E-03     13.2084E-03
            6453            6435     14.3521E-03     13.4637E-03
            6471            6435     14.3521E-03     13.4637E-03
            6454            6435     14.3521E-03     13.4637E-03
            6472            6435     14.3521E-03     13.4637E-03
            6473            6436     14.3976E-03     13.4758E-03
            6455            6436     14.3976E-03     13.4758E-03
            6472            6436     14.3976E-03     13.4758E-03
            6454            6436     14.3976E-03     13.4758E-03
            6455            6437     14.1388E-03     13.1906E-03
            6474            6437     14.1388E-03     13.1906E-03
            6473            6437     14.1388E-03     13.1906E-03
            6456            6437     14.1388E-03     13.1906E-03
            6474            6438     13.1895E-03     12.3510E-03
            6475            6438     13.1895E-03     12.3510E-03
            6456            6438     13.1895E-03     12.3510E-03
            6457            6438     13.1895E-03     12.3510E-03
            6458            6439     12.4939E-03     11.9743E-03
            6457            6439     12.4939E-03     11.9743E-03
            6475            6439     12.4939E-03     11.9743E-03
            6476            6439     12.4939E-03     11.9743E-03
            6460            6440     4.75981E-03     6.26384E-03
            6459            6440     4.75981E-03     6.26384E-03
            6478            6440     4.75981E-03     6.26384E-03
            6477            6440     4.75981E-03     6.26384E-03
            6478            6441     4.46699E-03     5.18049E-03
            6479            6441     4.46699E-03     5.18049E-03
            6460            6441     4.46699E-03     5.18049E-03
            6461            6441     4.46699E-03     5.18049E-03
            6461            6442     4.68728E-03     5.25052E-03
            6462            6442     4.68728E-03     5.25052E-03
            6479            6442     4.68728E-03     5.25052E-03
            6480            6442     4.68728E-03     5.25052E-03
            6480            6443     5.01918E-03     5.58174E-03
            6463            6443     5.01918E-03     5.58174E-03
            6481            6443     5.01918E-03     5.58174E-03
            6462            6443     5.01918E-03     5.58174E-03
            6464            6444     5.44308E-03     5.98616E-03
            6463            6444     5.44308E-03     5.98616E-03
            6481            6444     5.44308E-03     5.98616E-03
            6482            6444     5.44308E-03     5.98616E-03
            6465            6445     5.88107E-03     6.41553E-03
            6464            6445     5.88107E-03     6.41553E-03
            6483            6445     5.88107E-03     6.41553E-03
            6482            6445     5.88107E-03     6.41553E-03
            6465            6446     6.31838E-03     6.83815E-03
            6466            6446     6.31838E-03     6.83815E-03
            6483            6446     6.31838E-03     6.83815E-03
            6484            6446     6.31838E-03     6.83815E-03
            6466            6447     6.74570E-03     7.25356E-03
            6467            6447     6.74570E-03     7.25356E-03
            6484            6447     6.74570E-03     7.25356E-03
            6485            6447     6.74570E-03     7.25356E-03
            6485            6448     7.15493E-03     7.64360E-03
            6486            6448     7.15493E-03     7.64360E-03
            6468            6448     7.15493E-03     7.64360E-03
            6467            6448     7.15493E-03     7.64360E-03
            6468            6449     7.53740E-03     8.00859E-03
            6487            6449     7.53740E-03     8.00859E-03
            6469            6449     7.53740E-03     8.00859E-03
            6486            6449     7.53740E-03     8.00859E-03
            6469            6450     7.88002E-03     8.32183E-03
            6487            6450     7.88002E-03     8.32183E-03
            6470            6450     7.88002E-03     8.32183E-03
            6488            6450     7.88002E-03     8.32183E-03
            6471            6451     8.16728E-03     8.58109E-03
            6489            6451     8.16728E-03     8.58109E-03
            6470            6451     8.16728E-03     8.58109E-03
            6488            6451     8.16728E-03     8.58109E-03
            6489            6452     8.38464E-03     8.74849E-03
            6490            6452     8.38464E-03     8.74849E-03
            6471            6452     8.38464E-03     8.74849E-03
            6472            6452     8.38464E-03     8.74849E-03
            6473            6453     8.50922E-03     8.83108E-03
            6491            6453     8.50922E-03     8.83108E-03
            6490            6453     8.50922E-03     8.83108E-03
            6472            6453     8.50922E-03     8.83108E-03
            6473            6454     8.66416E-03     8.88406E-03
            6492            6454     8.66416E-03     8.88406E-03
            6474            6454     8.66416E-03     8.88406E-03
            6491            6454     8.66416E-03     8.88406E-03
            6493            6455     8.78694E-03     9.06688E-03
            6475            6455     8.78694E-03     9.06688E-03
            6492            6455     8.78694E-03     9.06688E-03
            6474            6455     8.78694E-03     9.06688E-03
            6494            6456     10.0452E-03     10.8345E-03
            6493            6456     10.0452E-03     10.8345E-03
            6476            6456     10.0452E-03     10.8345E-03
            6475            6456     10.0452E-03     10.8345E-03
            6477            6457     2.69657E-03     3.88354E-03
            6496            6457     2.69657E-03     3.88354E-03
            6478            6457     2.69657E-03     3.88354E-03
            6495            6457     2.69657E-03     3.88354E-03
            6479            6458     1.25982E-03     2.64939E-03
            6497            6458     1.25982E-03     2.64939E-03
            6478            6458     1.25982E-03     2.64939E-03
            6496            6458     1.25982E-03     2.64939E-03
            6480            6459     1.06681E-03     2.48110E-03
            6479            6459     1.06681E-03     2.48110E-03
            6498            6459     1.06681E-03     2.48110E-03
            6497            6459     1.06681E-03     2.48110E-03
            6480            6460     1.20721E-03     2.61606E-03
            6499            6460     1.20721E-03     2.61606E-03
            6498            6460     1.20721E-03     2.61606E-03
            6481            6460     1.20721E-03     2.61606E-03
            6500            6461     1.41384E-03     2.81866E-03
            6481            6461     1.41384E-03     2.81866E-03
            6482            6461     1.41384E-03     2.81866E-03
            6499            6461     1.41384E-03     2.81866E-03
            6500            6462     1.63320E-03     3.03770E-03
            6482            6462     1.63320E-03     3.03770E-03
            6501            6462     1.63320E-03     3.03770E-03
            6483            6462     1.63320E-03     3.03770E-03
            6502            6463     1.85013E-03     3.25103E-03
            6501            6463     1.85013E-03     3.25103E-03
            6484            6463     1.85013E-03     3.25103E-03
            6483            6463     1.85013E-03     3.25103E-03
            6485            6464     2.06250E-03     3.46275E-03
            6484            6464     2.06250E-03     3.46275E-03
            6502            6464     2.06250E-03     3.46275E-03
            6503            6464     2.06250E-03     3.46275E-03
            6503            6465     2.27267E-03     3.66879E-03
            6485            6465     2.27267E-03     3.66879E-03
            6486            6465     2.27267E-03     3.66879E-03
            6504            6465     2.27267E-03     3.66879E-03
            6504            6466     2.47832E-03     3.87405E-03
            6487            6466     2.47832E-03     3.87405E-03
            6505            6466     2.47832E-03     3.87405E-03
            6486            6466     2.47832E-03     3.87405E-03
            6488            6467     2.67993E-03     4.07051E-03
            6487            6467     2.67993E-03     4.07051E-03
            6505            6467     2.67993E-03     4.07051E-03
            6506            6467     2.67993E-03     4.07051E-03
            6506            6468     2.87207E-03     4.26205E-03
            6488            6468     2.87207E-03     4.26205E-03
            6489            6468     2.87207E-03     4.26205E-03
            6507            6468     2.87207E-03     4.26205E-03
            6490            6469     3.05533E-03     4.43905E-03
            6489            6469     3.05533E-03     4.43905E-03
            6508            6469     3.05533E-03     4.43905E-03
            6507            6469     3.05533E-03     4.43905E-03
            6508            6470     3.26812E-03     4.65359E-03
            6491            6470     3.26812E-03     4.65359E-03
            6509            6470     3.26812E-03     4.65359E-03
            6490            6470     3.26812E-03     4.65359E-03
            6509            6471     3.62283E-03     5.01025E-03
            6510            6471     3.62283E-03     5.01025E-03
            6492            6471     3.62283E-03     5.01025E-03
            6491            6471     3.62283E-03     5.01025E-03
            6493            6472     4.68401E-03     6.07437E-03
            6511            6472     4.68401E-03     6.07437E-03
            6510            6472     4.68401E-03     6.07437E-03
            6492            6472     4.68401E-03     6.07437E-03
            6494            6473     8.29475E-03     9.43615E-03
            6512            6473     8.29475E-03     9.43615E-03
            6511            6473     8.29475E-03     9.43615E-03
            6493            6473     8.29475E-03     9.43615E-03
            6514            6474     2.94281E-03     2.70661E-03
            6513            6474     2.94281E-03     2.70661E-03
            6495            6474     2.94281E-03     2.70661E-03
            6496            6474     2.94281E-03     2.70661E-03
            6496            6475     1.68779E-03     2.10150E-03
            6515            6475     1.68779E-03     2.10150E-03
            6497            6475     1.68779E-03     2.10150E-03
            6514            6475     1.68779E-03     2.10150E-03
            6515            6476     1.47336E-03     2.01300E-03
            6498            6476     1.47336E-03     2.01300E-03
            6516            6476     1.47336E-03     2.01300E-03
            6497            6476     1.47336E-03     2.01300E-03
            6516            6477     1.67459E-03     2.19085E-03
            6498            6477     1.67459E-03     2.19085E-03
            6499            6477     1.67459E-03     2.19085E-03
            6517            6477     1.67459E-03     2.19085E-03
            6518            6478     1.88242E-03     2.39967E-03
            6517            6478     1.88242E-03     2.39967E-03
            6499            6478     1.88242E-03     2.39967E-03
            6500            6478     1.88242E-03     2.39967E-03
            6519            6479     2.09591E-03     2.61290E-03
            6518            6479     2.09591E-03     2.61290E-03
            6500            6479     2.09591E-03     2.61290E-03
            6501            6479     2.09591E-03     2.61290E-03
            6520            6480     2.30820E-03     2.82633E-03
            6501            6480     2.30820E-03     2.82633E-03
            6502            6480     2.30820E-03     2.82633E-03
            6519            6480     2.30820E-03     2.82633E-03
            6503            6481     2.51876E-03     3.03483E-03
            6520            6481     2.51876E-03     3.03483E-03
            6502            6481     2.51876E-03     3.03483E-03
            6521            6481     2.51876E-03     3.03483E-03
            6521            6482     2.72840E-03     3.24503E-03
            6522            6482     2.72840E-03     3.24503E-03
            6503            6482     2.72840E-03     3.24503E-03
            6504            6482     2.72840E-03     3.24503E-03
            6522            6483     2.93810E-03     3.45210E-03
            6523            6483     2.93810E-03     3.45210E-03
            6504            6483     2.93810E-03     3.45210E-03
            6505            6483     2.93810E-03     3.45210E-03
            6523            6484     3.14625E-03     3.66131E-03
            6505            6484     3.14625E-03     3.66131E-03
            6506            6484     3.14625E-03     3.66131E-03
            6524            6484     3.14625E-03     3.66131E-03
            6524            6485     3.35302E-03     3.86490E-03
            6525            6485     3.35302E-03     3.86490E-03
            6506            6485     3.35302E-03     3.86490E-03
            6507            6485     3.35302E-03     3.86490E-03
            6507            6486     3.55395E-03     4.06907E-03
            6525            6486     3.55395E-03     4.06907E-03
            6508            6486     3.55395E-03     4.06907E-03
            6526            6486     3.55395E-03     4.06907E-03
            6526            6487     3.77458E-03     4.29193E-03
            6508            6487     3.77458E-03     4.29193E-03
            6527            6487     3.77458E-03     4.29193E-03
            6509            6487     3.77458E-03     4.29193E-03
            6528            6488     3.99243E-03     4.54682E-03
            6527            6488     3.99243E-03     4.54682E-03
            6510            6488     3.99243E-03     4.54682E-03
            6509            6488     3.99243E-03     4.54682E-03
            6528            6489     4.87215E-03     5.23540E-03
            6529            6489     4.87215E-03     5.23540E-03
            6510            6489     4.87215E-03     5.23540E-03
            6511            6489     4.87215E-03     5.23540E-03
            6529            6490     7.58144E-03     7.33070E-03
            6512            6490     7.58144E-03     7.33070E-03
            6511            6490     7.58144E-03     7.33070E-03
            6530            6490     7.58144E-03     7.33070E-03
            6514            6491     2.67314E-03     2.24889E-03
            6532            6491     2.67314E-03     2.24889E-03
            6531            6491     2.67314E-03     2.24889E-03
            6513            6491     2.67314E-03     2.24889E-03
            6514            6492     1.84701E-03     1.55692E-03
            6532            6492     1.84701E-03     1.55692E-03
            6533            6492     1.84701E-03     1.55692E-03
            6515            6492     1.84701E-03     1.55692E-03
            6516            6493     1.99705E-03     1.63758E-03
            6533            6493     1.99705E-03     1.63758E-03
            6515            6493     1.99705E-03     1.63758E-03
            6534            6493     1.99705E-03     1.63758E-03
            6534            6494     2.16207E-03     1.80053E-03
            6517            6494     2.16207E-03     1.80053E-03
            6535            6494     2.16207E-03     1.80053E-03
            6516            6494     2.16207E-03     1.80053E-03
            6535            6495     2.36239E-03     2.00075E-03
            6518            6495     2.36239E-03     2.00075E-03
            6517            6495     2.36239E-03     2.00075E-03
            6536            6495     2.36239E-03     2.00075E-03
            6537            6496     2.56183E-03     2.19943E-03
            6519            6496     2.56183E-03     2.19943E-03
            6536            6496     2.56183E-03     2.19943E-03
            6518            6496     2.56183E-03     2.19943E-03
            6520            6497     2.76498E-03     2.40195E-03
            6537            6497     2.76498E-03     2.40195E-03
            6538            6497     2.76498E-03     2.40195E-03
            6519            6497     2.76498E-03     2.40195E-03
            6520            6498     2.97004E-03     2.60829E-03
            6521            6498     2.97004E-03     2.60829E-03
            6539            6498     2.97004E-03     2.60829E-03
            6538            6498     2.97004E-03     2.60829E-03
            6521            6499     3.17797E-03     2.81495E-03
            6522            6499     3.17797E-03     2.81495E-03
            6539            6499     3.17797E-03     2.81495E-03
            6540            6499     3.17797E-03     2.81495E-03
            6522            6500     3.38687E-03     3.02558E-03
            6540            6500     3.38687E-03     3.02558E-03
            6523            6500     3.38687E-03     3.02558E-03
            6541            6500     3.38687E-03     3.02558E-03
            6541            6501     3.60098E-03     3.23820E-03
            6523            6501     3.60098E-03     3.23820E-03
            6542            6501     3.60098E-03     3.23820E-03
            6524            6501     3.60098E-03     3.23820E-03
            6525            6502     3.82042E-03     3.46082E-03
            6542            6502     3.82042E-03     3.46082E-03
            6524            6502     3.82042E-03     3.46082E-03
            6543            6502     3.82042E-03     3.46082E-03
            6526            6503     4.05713E-03     3.70109E-03
            6543            6503     4.05713E-03     3.70109E-03
            6544            6503     4.05713E-03     3.70109E-03
            6525            6503     4.05713E-03     3.70109E-03
            6545            6504     4.28299E-03     3.92978E-03
            6526            6504     4.28299E-03     3.92978E-03
            6544            6504     4.28299E-03     3.92978E-03
            6527            6504     4.28299E-03     3.92978E-03
            6545            6505     4.57184E-03     4.19980E-03
            6546            6505     4.57184E-03     4.19980E-03
            6528            6505     4.57184E-03     4.19980E-03
            6527            6505     4.57184E-03     4.19980E-03
            6546            6506     4.54285E-03     4.22472E-03
            6547            6506     4.54285E-03     4.22472E-03
            6528            6506     4.54285E-03     4.22472E-03
            6529            6506     4.54285E-03     4.22472E-03
            6530            6507     5.99423E-03     5.71040E-03
            6529            6507     5.99423E-03     5.71040E-03
            6548            6507     5.99423E-03     5.71040E-03
            6547            6507     5.99423E-03     5.71040E-03
            6531            6508     2.36713E-03     2.70537E-03
            6549            6508     2.36713E-03     2.70537E-03
            6532            6508     2.36713E-03     2.70537E-03
            6550            6508     2.36713E-03     2.70537E-03
            6551            6509     2.03448E-03     1.39729E-03
            6550            6509     2.03448E-03     1.39729E-03
            6532            6509     2.03448E-03     1.39729E-03
            6533            6509     2.03448E-03     1.39729E-03
            6534            6510     2.42564E-03     1.34490E-03
            6533            6510     2.42564E-03     1.34490E-03
            6552            6510     2.42564E-03     1.34490E-03
            6551            6510     2.42564E-03     1.34490E-03
            6535            6511     2.62634E-03     1.45201E-03
            6534            6511     2.62634E-03     1.45201E-03
            6552            6511     2.62634E-03     1.45201E-03
            6553            6511     2.62634E-03     1.45201E-03
            6536            6512     2.82042E-03     1.61001E-03
            6535            6512     2.82042E-03     1.61001E-03
            6554            6512     2.82042E-03     1.61001E-03
            6553            6512     2.82042E-03     1.61001E-03
            6537            6513     3.01622E-03     1.79338E-03
            6536            6513     3.01622E-03     1.79338E-03
            6554            6513     3.01622E-03     1.79338E-03
            6555            6513     3.01622E-03     1.79338E-03
            6538            6514     3.21286E-03     1.98476E-03
            6537            6514     3.21286E-03     1.98476E-03
            6556            6514     3.21286E-03     1.98476E-03
            6555            6514     3.21286E-03     1.98476E-03
            6556            6515     3.41580E-03     2.18383E-03
            6557            6515     3.41580E-03     2.18383E-03
            6538            6515     3.41580E-03     2.18383E-03
            6539            6515     3.41580E-03     2.18383E-03
            6557            6516     3.61775E-03     2.38602E-03
            6539            6516     3.61775E-03     2.38602E-03
            6558            6516     3.61775E-03     2.38602E-03
            6540            6516     3.61775E-03     2.38602E-03
            6541            6517     3.82455E-03     2.59016E-03
            6540            6517     3.82455E-03     2.59016E-03
            6558            6517     3.82455E-03     2.59016E-03
            6559            6517     3.82455E-03     2.59016E-03
            6560            6518     4.03095E-03     2.79919E-03
            6559            6518     4.03095E-03     2.79919E-03
            6541            6518     4.03095E-03     2.79919E-03
            6542            6518     4.03095E-03     2.79919E-03
            6543            6519     4.24791E-03     3.01300E-03
            6542            6519     4.24791E-03     3.01300E-03
            6561            6519     4.24791E-03     3.01300E-03
            6560            6519     4.24791E-03     3.01300E-03
            6544            6520     4.46462E-03     3.23566E-03
            6543            6520     4.46462E-03     3.23566E-03
            6561            6520     4.46462E-03     3.23566E-03
            6562            6520     4.46462E-03     3.23566E-03
            6545            6521     4.66680E-03     3.43966E-03
            6544            6521     4.66680E-03     3.43966E-03
            6563            6521     4.66680E-03     3.43966E-03
            6562            6521     4.66680E-03     3.43966E-03
            6546            6522     4.78485E-03     3.57425E-03
            6545            6522     4.78485E-03     3.57425E-03
            6563            6522     4.78485E-03     3.57425E-03
            6564            6522     4.78485E-03     3.57425E-03
            6547            6523     4.28218E-03     3.38265E-03
            6546            6523     4.28218E-03     3.38265E-03
            6565            6523     4.28218E-03     3.38265E-03
            6564            6523     4.28218E-03     3.38265E-03
            6547            6524     4.98726E-03     4.93228E-03
            6565            6524     4.98726E-03     4.93228E-03
            6548            6524     4.98726E-03     4.93228E-03
            6566            6524     4.98726E-03     4.93228E-03


  Minimum                            59.9919E-06     137.597E-06
      At Element                            2325            5156
            Node                              40             768

  Maximum                            99.3194E-03     103.391E-03
      At Element                            1756            3977
            Node                             102            4260

           Total                         204.011         208.250


Field Output reported at element nodes for region: A320-1.Region_2
   Computation algorithm: EXTRAPOLATE_COMPUTE_AVERAGE
   Averaged at nodes
   Averaging regions: ODB_REGIONS

   Element Label      Node Label         S.Mises         S.Mises
                                          @Loc 1          @Loc 2
-----------------------------------------------------------------
            2235               3     4.43946E-03     4.48179E-03
            1793               3     4.43946E-03     4.48179E-03
            2262               4     533.122E-06     532.352E-06
            3913               6     94.2187E-03     89.7738E-03
            2234               6     94.2187E-03     89.7738E-03
            3958               8     96.9349E-03     93.3669E-03
            3859               8     96.9349E-03     93.3669E-03
            3904              10     68.0814E-03     64.1799E-03
            5387              10     68.0814E-03     64.1799E-03
            5325              13     5.93519E-03     5.93522E-03
            5730              13     5.93519E-03     5.93522E-03
            5370              14     534.010E-06     537.608E-06
            5738              15     6.12814E-03     6.15928E-03
            5333              15     6.12814E-03     6.15928E-03
            1785              17     4.86893E-03     4.99101E-03
            2243              17     4.86893E-03     4.99101E-03
            2270              18     533.122E-06     532.352E-06
            2226              21     76.3479E-03     73.4892E-03
            3905              21     76.3479E-03     73.4892E-03
            3851              22     116.469E-03     90.5743E-03
            3950              22     116.469E-03     90.5743E-03
            3896              25     78.8437E-03     77.3330E-03
            5379              25     78.8437E-03     77.3330E-03
            5378              27     534.010E-06     537.608E-06
            2235              38     629.091E-06     623.318E-06
            2244              38     629.091E-06     623.318E-06
            2244              39     516.672E-06     522.656E-06
            2253              39     516.672E-06     522.656E-06
            2262              40     508.748E-06     511.984E-06
            2253              40     508.748E-06     511.984E-06
            2225             102     99.6898E-03     95.8581E-03
            2234             102     99.6898E-03     95.8581E-03
            2225             103     93.3967E-03     93.1157E-03
            2216             103     93.3967E-03     93.1157E-03
            2207             104     89.6602E-03     88.4638E-03
            2216             104     89.6602E-03     88.4638E-03
            2207             105     86.8791E-03     85.7454E-03
            2198             105     86.8791E-03     85.7454E-03
            2198             106     83.7979E-03     82.6059E-03
            2189             106     83.7979E-03     82.6059E-03
            2189             107     80.6507E-03     79.7774E-03
            2180             107     80.6507E-03     79.7774E-03
            2180             108     77.0768E-03     76.4597E-03
            2171             108     77.0768E-03     76.4597E-03
            2162             109     73.3788E-03     73.7547E-03
            2171             109     73.3788E-03     73.7547E-03
            2162             110     68.8407E-03     66.6870E-03
            2153             110     68.8407E-03     66.6870E-03
            2153             111     73.5656E-03     67.4432E-03
            2144             111     73.5656E-03     67.4432E-03
            2144             112     77.6951E-03     74.7085E-03
            2135             112     77.6951E-03     74.7085E-03
            2126             113     72.0847E-03     71.8098E-03
            2135             113     72.0847E-03     71.8098E-03
            2117             114     68.6875E-03     67.7401E-03
            2126             114     68.6875E-03     67.7401E-03
            2117             115     66.1359E-03     65.1753E-03
            2108             115     66.1359E-03     65.1753E-03
            2108             116     63.3701E-03     62.4004E-03
            2099             116     63.3701E-03     62.4004E-03
            2090             117     60.6486E-03     59.7912E-03
            2099             117     60.6486E-03     59.7912E-03
            2081             118     57.8205E-03     57.1117E-03
            2090             118     57.8205E-03     57.1117E-03
            2081             119     54.6491E-03     54.2729E-03
            2072             119     54.6491E-03     54.2729E-03
            2072             120     51.3069E-03     51.6134E-03
            2063             120     51.3069E-03     51.6134E-03
            2063             121     47.0495E-03     45.7111E-03
            2054             121     47.0495E-03     45.7111E-03
            2054             122     51.2086E-03     47.0158E-03
            2045             122     51.2086E-03     47.0158E-03
            2045             123     54.9769E-03     52.8430E-03
            2036             123     54.9769E-03     52.8430E-03
            2036             124     50.0448E-03     49.8152E-03
            2027             124     50.0448E-03     49.8152E-03
            2027             125     46.9675E-03     46.2785E-03
            2018             125     46.9675E-03     46.2785E-03
            2018             126     44.5759E-03     43.9163E-03
            2009             126     44.5759E-03     43.9163E-03
            2009             127     42.0668E-03     41.4137E-03
            2000             127     42.0668E-03     41.4137E-03
            1991             128     39.6094E-03     39.0620E-03
            2000             128     39.6094E-03     39.0620E-03
            1982             129     37.0782E-03     36.6447E-03
            1991             129     37.0782E-03     36.6447E-03
            1982             130     34.3057E-03     34.1493E-03
            1973             130     34.3057E-03     34.1493E-03
            1973             131     31.3418E-03     31.6373E-03
            1964             131     31.3418E-03     31.6373E-03
            1955             132     27.3882E-03     26.8719E-03
            1964             132     27.3882E-03     26.8719E-03
            1955             133     30.8435E-03     28.5204E-03
            1946             133     30.8435E-03     28.5204E-03
            1946             134     34.1867E-03     32.8542E-03
            1937             134     34.1867E-03     32.8542E-03
            1928             135     29.9607E-03     29.7915E-03
            1937             135     29.9607E-03     29.7915E-03
            1919             136     27.2414E-03     26.7990E-03
            1928             136     27.2414E-03     26.7990E-03
            1919             137     25.0611E-03     24.6807E-03
            1910             137     25.0611E-03     24.6807E-03
            1910             138     22.8627E-03     22.4988E-03
            1901             138     22.8627E-03     22.4988E-03
            1892             139     20.7388E-03     20.4721E-03
            1901             139     20.7388E-03     20.4721E-03
            1883             140     18.6055E-03     18.4211E-03
            1892             140     18.6055E-03     18.4211E-03
            1883             141     16.3645E-03     16.4081E-03
            1874             141     16.3645E-03     16.4081E-03
            1865             142     14.0503E-03     14.3560E-03
            1874             142     14.0503E-03     14.3560E-03
            1856             143     11.0865E-03     11.4236E-03
            1865             143     11.0865E-03     11.4236E-03
            1847             144     13.2403E-03     12.6962E-03
            1856             144     13.2403E-03     12.6962E-03
            1838             145     15.2001E-03     14.5825E-03
            1847             145     15.2001E-03     14.5825E-03
            1829             146     11.8896E-03     11.7693E-03
            1838             146     11.8896E-03     11.7693E-03
            1820             147     9.86619E-03     9.61297E-03
            1829             147     9.86619E-03     9.61297E-03
            1811             148     8.39075E-03     8.29513E-03
            1820             148     8.39075E-03     8.29513E-03
            1811             149     7.52458E-03     7.55189E-03
            1802             149     7.52458E-03     7.55189E-03
            1802             150     7.79147E-03     7.87425E-03
            1793             150     7.79147E-03     7.87425E-03
            3958             162     96.0949E-03     96.8407E-03
            3949             162     96.0949E-03     96.8407E-03
            3940             163     90.5491E-03     92.7322E-03
            3949             163     90.5491E-03     92.7322E-03
            3940             164     85.8893E-03     88.0584E-03
            3931             164     85.8893E-03     88.0584E-03
            3922             165     82.2716E-03     78.3655E-03
            3931             165     82.2716E-03     78.3655E-03
            3922             166     82.5763E-03     77.0068E-03
            3913             166     82.5763E-03     77.0068E-03
            3904             178     70.8215E-03     68.3279E-03
            3895             178     70.8215E-03     68.3279E-03
            3886             179     76.5645E-03     78.1972E-03
            3895             179     76.5645E-03     78.1972E-03
            3886             180     80.9260E-03     81.5012E-03
            3877             180     80.9260E-03     81.5012E-03
            3868             181     85.9517E-03     86.8980E-03
            3877             181     85.9517E-03     86.8980E-03
            3859             182     92.2882E-03     90.0241E-03
            3868             182     92.2882E-03     90.0241E-03
            5325             194     790.233E-06     775.372E-06
            5334             194     790.233E-06     775.372E-06
            5334             195     610.496E-06     612.815E-06
            5343             195     610.496E-06     612.815E-06
            5343             196     503.562E-06     509.094E-06
            5352             196     503.562E-06     509.094E-06
            5352             197     462.302E-06     473.587E-06
            5361             197     462.302E-06     473.587E-06
            5370             198     494.344E-06     503.544E-06
            5361             198     494.344E-06     503.544E-06
            5738             250     10.7969E-03     11.0275E-03
            5729             250     10.7969E-03     11.0275E-03
            5720             251     10.2210E-03     10.6582E-03
            5729             251     10.2210E-03     10.6582E-03
            5720             252     11.8269E-03     12.0543E-03
            5711             252     11.8269E-03     12.0543E-03
            5711             253     15.2557E-03     15.2940E-03
            5702             253     15.2557E-03     15.2940E-03
            5702             254     14.2017E-03     13.9512E-03
            5693             254     14.2017E-03     13.9512E-03
            5693             255     11.6078E-03     12.0045E-03
            5684             255     11.6078E-03     12.0045E-03
            5684             256     12.9950E-03     13.8652E-03
            5675             256     12.9950E-03     13.8652E-03
            5666             257     15.2064E-03     15.5352E-03
            5675             257     15.2064E-03     15.5352E-03
            5666             258     17.4805E-03     17.6039E-03
            5657             258     17.4805E-03     17.6039E-03
            5657             259     19.8502E-03     19.7610E-03
            5648             259     19.8502E-03     19.7610E-03
            5648             260     22.2116E-03     22.0655E-03
            5639             260     22.2116E-03     22.0655E-03
            5639             261     24.7931E-03     24.5414E-03
            5630             261     24.7931E-03     24.5414E-03
            5630             262     27.2864E-03     27.1276E-03
            5621             262     27.2864E-03     27.1276E-03
            5621             263     30.6629E-03     30.5084E-03
            5612             263     30.6629E-03     30.5084E-03
            5603             264     35.3582E-03     34.6038E-03
            5612             264     35.3582E-03     34.6038E-03
            5594             265     30.2162E-03     27.3280E-03
            5603             265     30.2162E-03     27.3280E-03
            5585             266     24.5833E-03     23.4021E-03
            5594             266     24.5833E-03     23.4021E-03
            5576             267     28.6534E-03     29.6870E-03
            5585             267     28.6534E-03     29.6870E-03
            5567             268     32.3290E-03     32.3789E-03
            5576             268     32.3290E-03     32.3789E-03
            5567             269     35.3835E-03     35.2914E-03
            5558             269     35.3835E-03     35.2914E-03
            5549             270     38.3247E-03     37.8968E-03
            5558             270     38.3247E-03     37.8968E-03
            5549             271     41.1331E-03     40.6876E-03
            5540             271     41.1331E-03     40.6876E-03
            5531             272     43.9304E-03     43.3980E-03
            5540             272     43.9304E-03     43.3980E-03
            5522             273     46.8768E-03     46.3394E-03
            5531             273     46.8768E-03     46.3394E-03
            5522             274     49.6341E-03     49.2094E-03
            5513             274     49.6341E-03     49.2094E-03
            5504             275     53.3670E-03     53.1971E-03
            5513             275     53.3670E-03     53.1971E-03
            5504             276     58.6769E-03     57.0064E-03
            5495             276     58.6769E-03     57.0064E-03
            5486             277     52.6605E-03     47.3860E-03
            5495             277     52.6605E-03     47.3860E-03
            5486             278     46.1473E-03     43.9406E-03
            5477             278     46.1473E-03     43.9406E-03
            5468             279     50.9661E-03     52.0855E-03
            5477             279     50.9661E-03     52.0855E-03
            5468             280     55.2448E-03     55.1076E-03
            5459             280     55.2448E-03     55.1076E-03
            5459             281     58.7877E-03     58.4454E-03
            5450             281     58.7877E-03     58.4454E-03
            5450             282     62.1406E-03     61.4705E-03
            5441             282     62.1406E-03     61.4705E-03
            5441             283     65.2792E-03     64.5501E-03
            5432             283     65.2792E-03     64.5501E-03
            5423             284     68.5701E-03     67.7802E-03
            5432             284     68.5701E-03     67.7802E-03
            5414             285     71.5533E-03     70.9155E-03
            5423             285     71.5533E-03     70.9155E-03
            5414             286     75.5836E-03     75.4499E-03
            5405             286     75.5836E-03     75.4499E-03
            5396             287     81.4976E-03     78.8705E-03
            5405             287     81.4976E-03     78.8705E-03
            5387             288     76.5687E-03     73.7776E-03
            5396             288     76.5687E-03     73.7776E-03
            2243             306     629.091E-06     623.318E-06
            2252             306     629.091E-06     623.318E-06
            2252             307     516.672E-06     522.656E-06
            2261             307     516.672E-06     522.656E-06
            2261             308     508.748E-06     511.984E-06
            2270             308     508.748E-06     511.984E-06
            1786             424     5.40038E-03     5.40179E-03
            2242             424     5.40038E-03     5.40179E-03
            2243             424     5.40038E-03     5.40179E-03
            1785             424     5.40038E-03     5.40179E-03
            1787             425     6.05386E-03     5.97323E-03
            2242             425     6.05386E-03     5.97323E-03
            2241             425     6.05386E-03     5.97323E-03
            1786             425     6.05386E-03     5.97323E-03
            2241             426     6.36867E-03     6.32396E-03
            2240             426     6.36867E-03     6.32396E-03
            1787             426     6.36867E-03     6.32396E-03
            1788             426     6.36867E-03     6.32396E-03
            2239             427     6.57408E-03     6.54449E-03
            2240             427     6.57408E-03     6.54449E-03
            1789             427     6.57408E-03     6.54449E-03
            1788             427     6.57408E-03     6.54449E-03
            2238             428     6.54500E-03     6.54339E-03
            1790             428     6.54500E-03     6.54339E-03
            2239             428     6.54500E-03     6.54339E-03
            1789             428     6.54500E-03     6.54339E-03
            1790             429     6.29239E-03     6.29666E-03
            2238             429     6.29239E-03     6.29666E-03
            2237             429     6.29239E-03     6.29666E-03
            1791             429     6.29239E-03     6.29666E-03
            1791             430     5.86373E-03     5.91601E-03
            1792             430     5.86373E-03     5.91601E-03
            2237             430     5.86373E-03     5.91601E-03
            2236             430     5.86373E-03     5.91601E-03
            1793             431     5.04270E-03     5.11615E-03
            2235             431     5.04270E-03     5.11615E-03
            2236             431     5.04270E-03     5.11615E-03
            1792             431     5.04270E-03     5.11615E-03
            2233             432     81.3700E-03     77.4665E-03
            3913             432     81.3700E-03     77.4665E-03
            3912             432     81.3700E-03     77.4665E-03
            2234             432     81.3700E-03     77.4665E-03
            2233             433     58.4562E-03     55.5973E-03
            2232             433     58.4562E-03     55.5973E-03
            3912             433     58.4562E-03     55.5973E-03
            3911             433     58.4562E-03     55.5973E-03
            3910             434     39.2233E-03     37.4566E-03
            3911             434     39.2233E-03     37.4566E-03
            2232             434     39.2233E-03     37.4566E-03
            2231             434     39.2233E-03     37.4566E-03
            3910             435     22.4362E-03     21.8055E-03
            2231             435     22.4362E-03     21.8055E-03
            3909             435     22.4362E-03     21.8055E-03
            2230             435     22.4362E-03     21.8055E-03
            2229             436     15.8617E-03     15.8441E-03
            2230             436     15.8617E-03     15.8441E-03
            3908             436     15.8617E-03     15.8441E-03
            3909             436     15.8617E-03     15.8441E-03
            2229             437     24.8758E-03     24.2828E-03
            3908             437     24.8758E-03     24.2828E-03
            2228             437     24.8758E-03     24.2828E-03
            3907             437     24.8758E-03     24.2828E-03
            2228             438     42.5365E-03     40.8641E-03
            2227             438     42.5365E-03     40.8641E-03
            3906             438     42.5365E-03     40.8641E-03
            3907             438     42.5365E-03     40.8641E-03
            2226             439     64.2880E-03     61.8033E-03
            2227             439     64.2880E-03     61.8033E-03
            3906             439     64.2880E-03     61.8033E-03
            3905             439     64.2880E-03     61.8033E-03
            2217             440     79.7161E-03     77.1764E-03
            2226             440     79.7161E-03     77.1764E-03
            2208             441     74.6771E-03     74.7234E-03
            2217             441     74.6771E-03     74.7234E-03
            2199             442     71.1957E-03     70.6272E-03
            2208             442     71.1957E-03     70.6272E-03
            2190             443     68.5591E-03     67.9660E-03
            2199             443     68.5591E-03     67.9660E-03
            2190             444     65.6305E-03     64.9817E-03
            2181             444     65.6305E-03     64.9817E-03
            2172             445     62.6336E-03     62.3936E-03
            2181             445     62.6336E-03     62.3936E-03
            2163             446     59.4266E-03     59.2396E-03
            2172             446     59.4266E-03     59.2396E-03
            2154             447     55.5119E-03     56.7454E-03
            2163             447     55.5119E-03     56.7454E-03
            2145             448     51.1866E-03     48.7246E-03
            2154             448     51.1866E-03     48.7246E-03
            2145             449     56.8439E-03     50.8787E-03
            2136             449     56.8439E-03     50.8787E-03
            2127             450     62.1677E-03     60.3275E-03
            2136             450     62.1677E-03     60.3275E-03
            2118             451     57.6223E-03     57.5695E-03
            2127             451     57.6223E-03     57.5695E-03
            2118             452     54.4219E-03     54.0021E-03
            2109             452     54.4219E-03     54.0021E-03
            2100             453     52.0328E-03     51.4714E-03
            2109             453     52.0328E-03     51.4714E-03
            2091             454     49.3826E-03     48.8846E-03
            2100             454     49.3826E-03     48.8846E-03
            2082             455     46.8863E-03     46.4128E-03
            2091             455     46.8863E-03     46.4128E-03
            2073             456     44.2068E-03     44.0250E-03
            2082             456     44.2068E-03     44.0250E-03
            2064             457     41.4302E-03     41.3705E-03
            2073             457     41.4302E-03     41.3705E-03
            2064             458     37.9589E-03     39.0184E-03
            2055             458     37.9589E-03     39.0184E-03
            2055             459     34.1703E-03     32.3702E-03
            2046             459     34.1703E-03     32.3702E-03
            2046             460     39.3684E-03     35.1727E-03
            2037             460     39.3684E-03     35.1727E-03
            2037             461     44.1991E-03     43.0699E-03
            2028             461     44.1991E-03     43.0699E-03
            2028             462     40.1603E-03     40.0600E-03
            2019             462     40.1603E-03     40.0600E-03
            2019             463     37.2326E-03     36.9807E-03
            2010             463     37.2326E-03     36.9807E-03
            2010             464     35.0539E-03     34.6813E-03
            2001             464     35.0539E-03     34.6813E-03
            2001             465     32.6820E-03     32.3942E-03
            1992             465     32.6820E-03     32.3942E-03
            1983             466     30.4662E-03     30.1991E-03
            1992             466     30.4662E-03     30.1991E-03
            1983             467     28.1027E-03     28.0814E-03
            1974             467     28.1027E-03     28.0814E-03
            1974             468     25.7083E-03     25.7905E-03
            1965             468     25.7083E-03     25.7905E-03
            1956             469     22.7430E-03     23.6914E-03
            1965             469     22.7430E-03     23.6914E-03
            1956             470     19.6117E-03     18.5661E-03
            1947             470     19.6117E-03     18.5661E-03
            1947             471     24.1048E-03     21.6811E-03
            1938             471     24.1048E-03     21.6811E-03
            1929             472     28.1981E-03     27.7089E-03
            1938             472     28.1981E-03     27.7089E-03
            1929             473     24.6825E-03     24.5779E-03
            1920             473     24.6825E-03     24.5779E-03
            1911             474     22.0861E-03     22.0092E-03
            1920             474     22.0861E-03     22.0092E-03
            1902             475     20.1900E-03     20.0065E-03
            1911             475     20.1900E-03     20.0065E-03
            1902             476     18.1832E-03     18.0967E-03
            1893             476     18.1832E-03     18.0967E-03
            1884             477     16.3556E-03     16.2926E-03
            1893             477     16.3556E-03     16.2926E-03
            1875             478     14.4774E-03     14.6090E-03
            1884             478     14.4774E-03     14.6090E-03
            1866             479     12.6721E-03     12.9382E-03
            1875             479     12.6721E-03     12.9382E-03
            1866             480     10.7614E-03     11.5652E-03
            1857             480     10.7614E-03     11.5652E-03
            1848             481     9.46260E-03     9.63976E-03
            1857             481     9.46260E-03     9.63976E-03
            1839             482     12.0542E-03     11.6770E-03
            1848             482     12.0542E-03     11.6770E-03
            1839             483     13.4983E-03     13.5172E-03
            1830             483     13.4983E-03     13.5172E-03
            1830             484     10.6661E-03     10.7224E-03
            1821             484     10.6661E-03     10.7224E-03
            1812             485     8.76225E-03     9.03392E-03
            1821             485     8.76225E-03     9.03392E-03
            1812             486     7.70184E-03     7.98324E-03
            1803             486     7.70184E-03     7.98324E-03
            1794             487     7.30257E-03     7.69352E-03
            1803             487     7.30257E-03     7.69352E-03
            1794             488     8.26522E-03     8.58319E-03
            1785             488     8.26522E-03     8.58319E-03
            2269             489     613.643E-06     615.529E-06
            2270             489     613.643E-06     615.529E-06
            2269             490     706.635E-06     708.275E-06
            2268             490     706.635E-06     708.275E-06
            2267             491     742.442E-06     743.664E-06
            2268             491     742.442E-06     743.664E-06
            2267             492     754.300E-06     757.362E-06
            2266             492     754.300E-06     757.362E-06
            2266             493     754.300E-06     757.362E-06
            2265             493     754.300E-06     757.362E-06
            2265             494     742.442E-06     743.664E-06
            2264             494     742.442E-06     743.664E-06
            2264             495     706.635E-06     708.275E-06
            2263             495     706.635E-06     708.275E-06
            2262             496     613.643E-06     615.529E-06
            2263             496     613.643E-06     615.529E-06
            3905             520     64.7813E-03     82.2086E-03
            3914             520     64.7813E-03     82.2086E-03
            3914             521     74.9463E-03     88.3452E-03
            3923             521     74.9463E-03     88.3452E-03
            3932             522     89.9714E-03     85.5581E-03
            3923             522     89.9714E-03     85.5581E-03
            3932             523     89.7603E-03     95.0251E-03
            3941             523     89.7603E-03     95.0251E-03
            3941             524     105.229E-03     90.5340E-03
            3950             524     105.229E-03     90.5340E-03
            3951             609     97.3691E-03     75.5259E-03
            3851             609     97.3691E-03     75.5259E-03
            3852             609     97.3691E-03     75.5259E-03
            3950             609     97.3691E-03     75.5259E-03
            3951             610     65.8582E-03     50.0702E-03
            3952             610     65.8582E-03     50.0702E-03
            3853             610     65.8582E-03     50.0702E-03
            3852             610     65.8582E-03     50.0702E-03
            3952             611     42.9000E-03     31.5099E-03
            3854             611     42.9000E-03     31.5099E-03
            3953             611     42.9000E-03     31.5099E-03
            3853             611     42.9000E-03     31.5099E-03
            3953             612     23.0029E-03     18.6893E-03
            3855             612     23.0029E-03     18.6893E-03
            3954             612     23.0029E-03     18.6893E-03
            3854             612     23.0029E-03     18.6893E-03
            3955             613     15.8951E-03     19.5568E-03
            3855             613     15.8951E-03     19.5568E-03
            3856             613     15.8951E-03     19.5568E-03
            3954             613     15.8951E-03     19.5568E-03
            3856             614     27.9416E-03     33.4097E-03
            3955             614     27.9416E-03     33.4097E-03
            3857             614     27.9416E-03     33.4097E-03
            3956             614     27.9416E-03     33.4097E-03
            3956             615     49.7358E-03     51.8806E-03
            3858             615     49.7358E-03     51.8806E-03
            3857             615     49.7358E-03     51.8806E-03
            3957             615     49.7358E-03     51.8806E-03
            3957             616     79.3301E-03     77.7005E-03
            3859             616     79.3301E-03     77.7005E-03
            3958             616     79.3301E-03     77.7005E-03
            3858             616     79.3301E-03     77.7005E-03
            5386             617     60.1589E-03     56.4179E-03
            3904             617     60.1589E-03     56.4179E-03
            3903             617     60.1589E-03     56.4179E-03
            5387             617     60.1589E-03     56.4179E-03
            3903             618     44.9122E-03     42.1725E-03
            5385             618     44.9122E-03     42.1725E-03
            5386             618     44.9122E-03     42.1725E-03
            3902             618     44.9122E-03     42.1725E-03
            5384             619     31.4570E-03     30.0498E-03
            3901             619     31.4570E-03     30.0498E-03
            3902             619     31.4570E-03     30.0498E-03
            5385             619     31.4570E-03     30.0498E-03
            5383             620     23.6885E-03     23.1260E-03
            5384             620     23.6885E-03     23.1260E-03
            3901             620     23.6885E-03     23.1260E-03
            3900             620     23.6885E-03     23.1260E-03
            5383             621     27.1205E-03     26.8884E-03
            3900             621     27.1205E-03     26.8884E-03
            5382             621     27.1205E-03     26.8884E-03
            3899             621     27.1205E-03     26.8884E-03
            5381             622     39.4359E-03     38.8725E-03
            5382             622     39.4359E-03     38.8725E-03
            3898             622     39.4359E-03     38.8725E-03
            3899             622     39.4359E-03     38.8725E-03
            3898             623     54.2857E-03     52.8728E-03
            5380             623     54.2857E-03     52.8728E-03
            3897             623     54.2857E-03     52.8728E-03
            5381             623     54.2857E-03     52.8728E-03
            3896             624     70.3667E-03     68.6346E-03
            5379             624     70.3667E-03     68.6346E-03
            5380             624     70.3667E-03     68.6346E-03
            3897             624     70.3667E-03     68.6346E-03
            3887             625     83.7348E-03     82.6094E-03
            3896             625     83.7348E-03     82.6094E-03
            3887             626     90.2378E-03     91.0565E-03
            3878             626     90.2378E-03     91.0565E-03
            3869             627     94.3889E-03     94.4460E-03
            3878             627     94.3889E-03     94.4460E-03
            3860             628     99.7753E-03     100.371E-03
            3869             628     99.7753E-03     100.371E-03
            3860             629     107.716E-03     103.253E-03
            3851             629     107.716E-03     103.253E-03
            5388             636     87.5091E-03     83.6048E-03
            5379             636     87.5091E-03     83.6048E-03
            5397             637     92.3453E-03     88.8782E-03
            5388             637     92.3453E-03     88.8782E-03
            5406             638     85.6654E-03     85.3782E-03
            5397             638     85.6654E-03     85.3782E-03
            5415             639     81.4968E-03     80.4829E-03
            5406             639     81.4968E-03     80.4829E-03
            5424             640     78.3920E-03     77.3208E-03
            5415             640     78.3920E-03     77.3208E-03
            5433             641     75.0191E-03     73.9565E-03
            5424             641     75.0191E-03     73.9565E-03
            5442             642     71.7217E-03     70.7814E-03
            5433             642     71.7217E-03     70.7814E-03
            5451             643     68.2664E-03     67.5538E-03
            5442             643     68.2664E-03     67.5538E-03
            5460             644     64.4502E-03     64.0970E-03
            5451             644     64.4502E-03     64.0970E-03
            5460             645     60.2768E-03     60.8649E-03
            5469             645     60.2768E-03     60.8649E-03
            5478             646     55.1184E-03     53.2854E-03
            5469             646     55.1184E-03     53.2854E-03
            5487             647     60.8250E-03     55.5682E-03
            5478             647     60.8250E-03     55.5682E-03
            5496             648     66.0262E-03     63.6148E-03
            5487             648     66.0262E-03     63.6148E-03
            5496             649     60.0789E-03     59.8257E-03
            5505             649     60.0789E-03     59.8257E-03
            5514             650     56.2474E-03     55.5140E-03
            5505             650     56.2474E-03     55.5140E-03
            5514             651     53.3295E-03     52.5937E-03
            5523             651     53.3295E-03     52.5937E-03
            5523             652     50.2853E-03     49.5152E-03
            5532             652     50.2853E-03     49.5152E-03
            5541             653     47.3332E-03     46.6771E-03
            5532             653     47.3332E-03     46.6771E-03
            5550             654     44.3675E-03     43.7388E-03
            5541             654     44.3675E-03     43.7388E-03
            5550             655     41.2777E-03     40.9138E-03
            5559             655     41.2777E-03     40.9138E-03
            5559             656     37.9545E-03     37.8418E-03
            5568             656     37.9545E-03     37.8418E-03
            5577             657     34.2641E-03     34.8358E-03
            5568             657     34.2641E-03     34.8358E-03
            5586             658     29.5380E-03     28.7939E-03
            5577             658     29.5380E-03     28.7939E-03
            5595             659     34.4054E-03     31.6376E-03
            5586             659     34.4054E-03     31.6376E-03
            5604             660     39.0303E-03     37.6762E-03
            5595             660     39.0303E-03     37.6762E-03
            5604             661     33.8428E-03     33.6464E-03
            5613             661     33.8428E-03     33.6464E-03
            5613             662     30.3837E-03     29.9635E-03
            5622             662     30.3837E-03     29.9635E-03
            5622             663     27.6756E-03     27.2860E-03
            5631             663     27.6756E-03     27.2860E-03
            5631             664     24.9477E-03     24.6057E-03
            5640             664     24.9477E-03     24.6057E-03
            5640             665     22.3637E-03     22.1278E-03
            5649             665     22.3637E-03     22.1278E-03
            5658             666     19.7900E-03     19.6923E-03
            5649             666     19.7900E-03     19.6923E-03
            5658             667     17.1861E-03     17.3458E-03
            5667             667     17.1861E-03     17.3458E-03
            5676             668     14.5910E-03     15.1467E-03
            5667             668     14.5910E-03     15.1467E-03
            5685             669     11.9473E-03     12.4008E-03
            5676             669     11.9473E-03     12.4008E-03
            5694             670     14.4402E-03     14.0046E-03
            5685             670     14.4402E-03     14.0046E-03
            5703             671     16.1317E-03     15.6229E-03
            5694             671     16.1317E-03     15.6229E-03
            5703             672     12.3901E-03     12.3113E-03
            5712             672     12.3901E-03     12.3113E-03
            5721             673     10.6255E-03     10.5612E-03
            5712             673     10.6255E-03     10.5612E-03
            5730             674     10.7044E-03     10.6938E-03
            5721             674     10.7044E-03     10.6938E-03
            5333             765     790.233E-06     775.372E-06
            5342             765     790.233E-06     775.372E-06
            5342             766     610.496E-06     612.815E-06
            5351             766     610.496E-06     612.815E-06
            5351             767     503.562E-06     509.094E-06
            5360             767     503.562E-06     509.094E-06
            5369             768     462.302E-06     473.587E-06
            5360             768     462.302E-06     473.587E-06
            5378             769     494.344E-06     503.544E-06
            5369             769     494.344E-06     503.544E-06
            5326             792     6.80156E-03     6.83028E-03
            5325             792     6.80156E-03     6.83028E-03
            5731             792     6.80156E-03     6.83028E-03
            5730             792     6.80156E-03     6.83028E-03
            5327             793     7.93955E-03     7.96592E-03
            5731             793     7.93955E-03     7.96592E-03
            5732             793     7.93955E-03     7.96592E-03
            5326             793     7.93955E-03     7.96592E-03
            5327             794     8.42679E-03     8.42783E-03
            5328             794     8.42679E-03     8.42783E-03
            5732             794     8.42679E-03     8.42783E-03
            5733             794     8.42679E-03     8.42783E-03
            5734             795     8.72239E-03     8.72589E-03
            5328             795     8.72239E-03     8.72589E-03
            5733             795     8.72239E-03     8.72589E-03
            5329             795     8.72239E-03     8.72589E-03
            5735             796     8.73603E-03     8.71968E-03
            5330             796     8.73603E-03     8.71968E-03
            5329             796     8.73603E-03     8.71968E-03
            5734             796     8.73603E-03     8.71968E-03
            5735             797     8.45950E-03     8.41961E-03
            5331             797     8.45950E-03     8.41961E-03
            5736             797     8.45950E-03     8.41961E-03
            5330             797     8.45950E-03     8.41961E-03
            5332             798     8.03161E-03     7.95182E-03
            5331             798     8.03161E-03     7.95182E-03
            5737             798     8.03161E-03     7.95182E-03
            5736             798     8.03161E-03     7.95182E-03
            5737             799     6.97103E-03     6.93022E-03
            5738             799     6.97103E-03     6.93022E-03
            5333             799     6.97103E-03     6.93022E-03
            5332             799     6.97103E-03     6.93022E-03
            5378             800     603.521E-06     606.129E-06
            5377             800     603.521E-06     606.129E-06
            5376             801     691.570E-06     691.031E-06
            5377             801     691.570E-06     691.031E-06
            5376             802     740.568E-06     738.878E-06
            5375             802     740.568E-06     738.878E-06
            5375             803     766.204E-06     764.909E-06
            5374             803     766.204E-06     764.909E-06
            5374             804     766.204E-06     764.909E-06
            5373             804     766.204E-06     764.909E-06
            5372             805     740.568E-06     738.878E-06
            5373             805     740.568E-06     738.878E-06
            5371             806     691.570E-06     691.031E-06
            5372             806     691.570E-06     691.031E-06
            5370             807     603.521E-06     606.129E-06
            5371             807     603.521E-06     606.129E-06
            1795            2369     9.76538E-03     9.78858E-03
            1794            2369     9.76538E-03     9.78858E-03
            1785            2369     9.76538E-03     9.78858E-03
            1786            2369     9.76538E-03     9.78858E-03
            1795            2370     11.6217E-03     11.4023E-03
            1786            2370     11.6217E-03     11.4023E-03
            1796            2370     11.6217E-03     11.4023E-03
            1787            2370     11.6217E-03     11.4023E-03
            1797            2371     12.2802E-03     12.1372E-03
            1788            2371     12.2802E-03     12.1372E-03
            1787            2371     12.2802E-03     12.1372E-03
            1796            2371     12.2802E-03     12.1372E-03
            1797            2372     12.6150E-03     12.5161E-03
            1789            2372     12.6150E-03     12.5161E-03
            1798            2372     12.6150E-03     12.5161E-03
            1788            2372     12.6150E-03     12.5161E-03
            1789            2373     12.5788E-03     12.5236E-03
            1790            2373     12.5788E-03     12.5236E-03
            1798            2373     12.5788E-03     12.5236E-03
            1799            2373     12.5788E-03     12.5236E-03
            1791            2374     12.1647E-03     12.1511E-03
            1800            2374     12.1647E-03     12.1511E-03
            1790            2374     12.1647E-03     12.1511E-03
            1799            2374     12.1647E-03     12.1511E-03
            1792            2375     11.3063E-03     11.3926E-03
            1801            2375     11.3063E-03     11.3926E-03
            1800            2375     11.3063E-03     11.3926E-03
            1791            2375     11.3063E-03     11.3926E-03
            1802            2376     9.29247E-03     9.41802E-03
            1801            2376     9.29247E-03     9.41802E-03
            1792            2376     9.29247E-03     9.41802E-03
            1793            2376     9.29247E-03     9.41802E-03
            1795            2377     9.11212E-03     9.31555E-03
            1794            2377     9.11212E-03     9.31555E-03
            1803            2377     9.11212E-03     9.31555E-03
            1804            2377     9.11212E-03     9.31555E-03
            1796            2378     11.7167E-03     11.6349E-03
            1804            2378     11.7167E-03     11.6349E-03
            1795            2378     11.7167E-03     11.6349E-03
            1805            2378     11.7167E-03     11.6349E-03
            1805            2379     12.7140E-03     12.5656E-03
            1797            2379     12.7140E-03     12.5656E-03
            1806            2379     12.7140E-03     12.5656E-03
            1796            2379     12.7140E-03     12.5656E-03
            1797            2380     13.0461E-03     12.9318E-03
            1806            2380     13.0461E-03     12.9318E-03
            1798            2380     13.0461E-03     12.9318E-03
            1807            2380     13.0461E-03     12.9318E-03
            1807            2381     13.0597E-03     12.9578E-03
            1799            2381     13.0597E-03     12.9578E-03
            1798            2381     13.0597E-03     12.9578E-03
            1808            2381     13.0597E-03     12.9578E-03
            1808            2382     12.7125E-03     12.6597E-03
            1799            2382     12.7125E-03     12.6597E-03
            1809            2382     12.7125E-03     12.6597E-03
            1800            2382     12.7125E-03     12.6597E-03
            1810            2383     11.7218E-03     11.6988E-03
            1801            2383     11.7218E-03     11.6988E-03
            1809            2383     11.7218E-03     11.6988E-03
            1800            2383     11.7218E-03     11.6988E-03
            1811            2384     9.24344E-03     9.24045E-03
            1802            2384     9.24344E-03     9.24045E-03
            1801            2384     9.24344E-03     9.24045E-03
            1810            2384     9.24344E-03     9.24045E-03
            1803            2385     9.13123E-03     9.42036E-03
            1812            2385     9.13123E-03     9.42036E-03
            1813            2385     9.13123E-03     9.42036E-03
            1804            2385     9.13123E-03     9.42036E-03
            1804            2386     11.5270E-03     11.7036E-03
            1805            2386     11.5270E-03     11.7036E-03
            1814            2386     11.5270E-03     11.7036E-03
            1813            2386     11.5270E-03     11.7036E-03
            1805            2387     12.9068E-03     12.9064E-03
            1815            2387     12.9068E-03     12.9064E-03
            1806            2387     12.9068E-03     12.9064E-03
            1814            2387     12.9068E-03     12.9064E-03
            1806            2388     13.4009E-03     13.3529E-03
            1816            2388     13.4009E-03     13.3529E-03
            1807            2388     13.4009E-03     13.3529E-03
            1815            2388     13.4009E-03     13.3529E-03
            1807            2389     13.4501E-03     13.4103E-03
            1817            2389     13.4501E-03     13.4103E-03
            1816            2389     13.4501E-03     13.4103E-03
            1808            2389     13.4501E-03     13.4103E-03
            1808            2390     13.0967E-03     13.0115E-03
            1809            2390     13.0967E-03     13.0115E-03
            1818            2390     13.0967E-03     13.0115E-03
            1817            2390     13.0967E-03     13.0115E-03
            1819            2391     11.9386E-03     11.7982E-03
            1810            2391     11.9386E-03     11.7982E-03
            1818            2391     11.9386E-03     11.7982E-03
            1809            2391     11.9386E-03     11.7982E-03
            1820            2392     9.74656E-03     9.62318E-03
            1819            2392     9.74656E-03     9.62318E-03
            1810            2392     9.74656E-03     9.62318E-03
            1811            2392     9.74656E-03     9.62318E-03
            1813            2393     9.85555E-03     10.1080E-03
            1812            2393     9.85555E-03     10.1080E-03
            1822            2393     9.85555E-03     10.1080E-03
            1821            2393     9.85555E-03     10.1080E-03
            1822            2394     11.7523E-03     11.9577E-03
            1813            2394     11.7523E-03     11.9577E-03
            1823            2394     11.7523E-03     11.9577E-03
            1814            2394     11.7523E-03     11.9577E-03
            1823            2395     12.9225E-03     13.0536E-03
            1824            2395     12.9225E-03     13.0536E-03
            1815            2395     12.9225E-03     13.0536E-03
            1814            2395     12.9225E-03     13.0536E-03
            1816            2396     13.3624E-03     13.4296E-03
            1815            2396     13.3624E-03     13.4296E-03
            1824            2396     13.3624E-03     13.4296E-03
            1825            2396     13.3624E-03     13.4296E-03
            1817            2397     13.4501E-03     13.5015E-03
            1825            2397     13.4501E-03     13.5015E-03
            1826            2397     13.4501E-03     13.5015E-03
            1816            2397     13.4501E-03     13.5015E-03
            1817            2398     13.2470E-03     13.2463E-03
            1827            2398     13.2470E-03     13.2463E-03
            1826            2398     13.2470E-03     13.2463E-03
            1818            2398     13.2470E-03     13.2463E-03
            1827            2399     12.3716E-03     12.2539E-03
            1828            2399     12.3716E-03     12.2539E-03
            1819            2399     12.3716E-03     12.2539E-03
            1818            2399     12.3716E-03     12.2539E-03
            1820            2400     10.7899E-03     10.5730E-03
            1828            2400     10.7899E-03     10.5730E-03
            1829            2400     10.7899E-03     10.5730E-03
            1819            2400     10.7899E-03     10.5730E-03
            1821            2401     11.3413E-03     11.4458E-03
            1822            2401     11.3413E-03     11.4458E-03
            1830            2401     11.3413E-03     11.4458E-03
            1831            2401     11.3413E-03     11.4458E-03
            1822            2402     12.2936E-03     12.4644E-03
            1832            2402     12.2936E-03     12.4644E-03
            1823            2402     12.2936E-03     12.4644E-03
            1831            2402     12.2936E-03     12.4644E-03
            1833            2403     12.6339E-03     12.8203E-03
            1824            2403     12.6339E-03     12.8203E-03
            1832            2403     12.6339E-03     12.8203E-03
            1823            2403     12.6339E-03     12.8203E-03
            1833            2404     12.8551E-03     13.0069E-03
            1825            2404     12.8551E-03     13.0069E-03
            1834            2404     12.8551E-03     13.0069E-03
            1824            2404     12.8551E-03     13.0069E-03
            1835            2405     12.9921E-03     13.0872E-03
            1826            2405     12.9921E-03     13.0872E-03
            1834            2405     12.9921E-03     13.0872E-03
            1825            2405     12.9921E-03     13.0872E-03
            1836            2406     13.0241E-03     13.1169E-03
            1827            2406     13.0241E-03     13.1169E-03
            1826            2406     13.0241E-03     13.1169E-03
            1835            2406     13.0241E-03     13.1169E-03
            1827            2407     13.0001E-03     13.0275E-03
            1837            2407     13.0001E-03     13.0275E-03
            1828            2407     13.0001E-03     13.0275E-03
            1836            2407     13.0001E-03     13.0275E-03
            1837            2408     12.4065E-03     12.3160E-03
            1828            2408     12.4065E-03     12.3160E-03
            1838            2408     12.4065E-03     12.3160E-03
            1829            2408     12.4065E-03     12.3160E-03
            1840            2409     13.0358E-03     13.1252E-03
            1831            2409     13.0358E-03     13.1252E-03
            1839            2409     13.0358E-03     13.1252E-03
            1830            2409     13.0358E-03     13.1252E-03
            1841            2410     12.1708E-03     12.3640E-03
            1831            2410     12.1708E-03     12.3640E-03
            1840            2410     12.1708E-03     12.3640E-03
            1832            2410     12.1708E-03     12.3640E-03
            1832            2411     11.8768E-03     12.0661E-03
            1841            2411     11.8768E-03     12.0661E-03
            1842            2411     11.8768E-03     12.0661E-03
            1833            2411     11.8768E-03     12.0661E-03
            1842            2412     12.0134E-03     12.1330E-03
            1833            2412     12.0134E-03     12.1330E-03
            1843            2412     12.0134E-03     12.1330E-03
            1834            2412     12.0134E-03     12.1330E-03
            1844            2413     12.1830E-03     12.2306E-03
            1834            2413     12.1830E-03     12.2306E-03
            1843            2413     12.1830E-03     12.2306E-03
            1835            2413     12.1830E-03     12.2306E-03
            1844            2414     12.4007E-03     12.3597E-03
            1835            2414     12.4007E-03     12.3597E-03
            1845            2414     12.4007E-03     12.3597E-03
            1836            2414     12.4007E-03     12.3597E-03
            1845            2415     13.0667E-03     12.9675E-03
            1836            2415     13.0667E-03     12.9675E-03
            1846            2415     13.0667E-03     12.9675E-03
            1837            2415     13.0667E-03     12.9675E-03
            1838            2416     14.4284E-03     14.0653E-03
            1837            2416     14.4284E-03     14.0653E-03
            1847            2416     14.4284E-03     14.0653E-03
            1846            2416     14.4284E-03     14.0653E-03
            1849            2417     12.4380E-03     11.9962E-03
            1840            2417     12.4380E-03     11.9962E-03
            1848            2417     12.4380E-03     11.9962E-03
            1839            2417     12.4380E-03     11.9962E-03
            1849            2418     12.6718E-03     12.3306E-03
            1840            2418     12.6718E-03     12.3306E-03
            1850            2418     12.6718E-03     12.3306E-03
            1841            2418     12.6718E-03     12.3306E-03
            1841            2419     12.7781E-03     12.6174E-03
            1851            2419     12.7781E-03     12.6174E-03
            1842            2419     12.7781E-03     12.6174E-03
            1850            2419     12.7781E-03     12.6174E-03
            1852            2420     13.0418E-03     12.9237E-03
            1843            2420     13.0418E-03     12.9237E-03
            1851            2420     13.0418E-03     12.9237E-03
            1842            2420     13.0418E-03     12.9237E-03
            1843            2421     13.1834E-03     13.0654E-03
            1853            2421     13.1834E-03     13.0654E-03
            1844            2421     13.1834E-03     13.0654E-03
            1852            2421     13.1834E-03     13.0654E-03
            1844            2422     13.2536E-03     13.0253E-03
            1854            2422     13.2536E-03     13.0253E-03
            1845            2422     13.2536E-03     13.0253E-03
            1853            2422     13.2536E-03     13.0253E-03
            1845            2423     13.3707E-03     13.0247E-03
            1854            2423     13.3707E-03     13.0247E-03
            1846            2423     13.3707E-03     13.0247E-03
            1855            2423     13.3707E-03     13.0247E-03
            1847            2424     13.3960E-03     12.9337E-03
            1846            2424     13.3960E-03     12.9337E-03
            1856            2424     13.3960E-03     12.9337E-03
            1855            2424     13.3960E-03     12.9337E-03
            1848            2425     11.4487E-03     11.0726E-03
            1849            2425     11.4487E-03     11.0726E-03
            1857            2425     11.4487E-03     11.0726E-03
            1858            2425     11.4487E-03     11.0726E-03
            1858            2426     13.7526E-03     12.9107E-03
            1859            2426     13.7526E-03     12.9107E-03
            1850            2426     13.7526E-03     12.9107E-03
            1849            2426     13.7526E-03     12.9107E-03
            1851            2427     14.2752E-03     13.6187E-03
            1860            2427     14.2752E-03     13.6187E-03
            1859            2427     14.2752E-03     13.6187E-03
            1850            2427     14.2752E-03     13.6187E-03
            1860            2428     14.5697E-03     14.0655E-03
            1852            2428     14.5697E-03     14.0655E-03
            1851            2428     14.5697E-03     14.0655E-03
            1861            2428     14.5697E-03     14.0655E-03
            1852            2429     14.7449E-03     14.3431E-03
            1861            2429     14.7449E-03     14.3431E-03
            1853            2429     14.7449E-03     14.3431E-03
            1862            2429     14.7449E-03     14.3431E-03
            1863            2430     14.7899E-03     14.4536E-03
            1854            2430     14.7899E-03     14.4536E-03
            1853            2430     14.7899E-03     14.4536E-03
            1862            2430     14.7899E-03     14.4536E-03
            1864            2431     14.4582E-03     14.2497E-03
            1855            2431     14.4582E-03     14.2497E-03
            1854            2431     14.4582E-03     14.2497E-03
            1863            2431     14.4582E-03     14.2497E-03
            1855            2432     12.6268E-03     12.7463E-03
            1864            2432     12.6268E-03     12.7463E-03
            1856            2432     12.6268E-03     12.7463E-03
            1865            2432     12.6268E-03     12.7463E-03
            1858            2433     12.0293E-03     12.4256E-03
            1867            2433     12.0293E-03     12.4256E-03
            1857            2433     12.0293E-03     12.4256E-03
            1866            2433     12.0293E-03     12.4256E-03
            1858            2434     13.8719E-03     13.5119E-03
            1868            2434     13.8719E-03     13.5119E-03
            1867            2434     13.8719E-03     13.5119E-03
            1859            2434     13.8719E-03     13.5119E-03
            1860            2435     14.5272E-03     13.8094E-03
            1868            2435     14.5272E-03     13.8094E-03
            1859            2435     14.5272E-03     13.8094E-03
            1869            2435     14.5272E-03     13.8094E-03
            1870            2436     14.7709E-03     14.0678E-03
            1861            2436     14.7709E-03     14.0678E-03
            1869            2436     14.7709E-03     14.0678E-03
            1860            2436     14.7709E-03     14.0678E-03
            1871            2437     15.0921E-03     14.5077E-03
            1861            2437     15.0921E-03     14.5077E-03
            1862            2437     15.0921E-03     14.5077E-03
            1870            2437     15.0921E-03     14.5077E-03
            1872            2438     15.4393E-03     15.0872E-03
            1863            2438     15.4393E-03     15.0872E-03
            1871            2438     15.4393E-03     15.0872E-03
            1862            2438     15.4393E-03     15.0872E-03
            1872            2439     15.4594E-03     15.4662E-03
            1873            2439     15.4594E-03     15.4662E-03
            1864            2439     15.4594E-03     15.4662E-03
            1863            2439     15.4594E-03     15.4662E-03
            1873            2440     14.6704E-03     14.9373E-03
            1874            2440     14.6704E-03     14.9373E-03
            1865            2440     14.6704E-03     14.9373E-03
            1864            2440     14.6704E-03     14.9373E-03
            1866            2441     13.0212E-03     13.3664E-03
            1876            2441     13.0212E-03     13.3664E-03
            1875            2441     13.0212E-03     13.3664E-03
            1867            2441     13.0212E-03     13.3664E-03
            1867            2442     13.9040E-03     14.0217E-03
            1876            2442     13.9040E-03     14.0217E-03
            1877            2442     13.9040E-03     14.0217E-03
            1868            2442     13.9040E-03     14.0217E-03
            1869            2443     14.6946E-03     14.3035E-03
            1878            2443     14.6946E-03     14.3035E-03
            1877            2443     14.6946E-03     14.3035E-03
            1868            2443     14.6946E-03     14.3035E-03
            1870            2444     15.1251E-03     14.5306E-03
            1878            2444     15.1251E-03     14.5306E-03
            1879            2444     15.1251E-03     14.5306E-03
            1869            2444     15.1251E-03     14.5306E-03
            1879            2445     15.5762E-03     15.0615E-03
            1870            2445     15.5762E-03     15.0615E-03
            1871            2445     15.5762E-03     15.0615E-03
            1880            2445     15.5762E-03     15.0615E-03
            1871            2446     16.0759E-03     15.8023E-03
            1880            2446     16.0759E-03     15.8023E-03
            1872            2446     16.0759E-03     15.8023E-03
            1881            2446     16.0759E-03     15.8023E-03
            1872            2447     16.2951E-03     16.3177E-03
            1873            2447     16.2951E-03     16.3177E-03
            1882            2447     16.2951E-03     16.3177E-03
            1881            2447     16.2951E-03     16.3177E-03
            1873            2448     16.3284E-03     16.4296E-03
            1874            2448     16.3284E-03     16.4296E-03
            1883            2448     16.3284E-03     16.4296E-03
            1882            2448     16.3284E-03     16.4296E-03
            1885            2449     14.3020E-03     14.5071E-03
            1876            2449     14.3020E-03     14.5071E-03
            1884            2449     14.3020E-03     14.5071E-03
            1875            2449     14.3020E-03     14.5071E-03
            1877            2450     14.3168E-03     14.5070E-03
            1885            2450     14.3168E-03     14.5070E-03
            1876            2450     14.3168E-03     14.5070E-03
            1886            2450     14.3168E-03     14.5070E-03
            1878            2451     14.7951E-03     14.7172E-03
            1877            2451     14.7951E-03     14.7172E-03
            1887            2451     14.7951E-03     14.7172E-03
            1886            2451     14.7951E-03     14.7172E-03
            1887            2452     15.3745E-03     15.0473E-03
            1888            2452     15.3745E-03     15.0473E-03
            1878            2452     15.3745E-03     15.0473E-03
            1879            2452     15.3745E-03     15.0473E-03
            1889            2453     15.9714E-03     15.6286E-03
            1880            2453     15.9714E-03     15.6286E-03
            1888            2453     15.9714E-03     15.6286E-03
            1879            2453     15.9714E-03     15.6286E-03
            1881            2454     16.5835E-03     16.3839E-03
            1880            2454     16.5835E-03     16.3839E-03
            1890            2454     16.5835E-03     16.3839E-03
            1889            2454     16.5835E-03     16.3839E-03
            1881            2455     17.1983E-03     17.1406E-03
            1882            2455     17.1983E-03     17.1406E-03
            1891            2455     17.1983E-03     17.1406E-03
            1890            2455     17.1983E-03     17.1406E-03
            1882            2456     18.0561E-03     17.9613E-03
            1891            2456     18.0561E-03     17.9613E-03
            1883            2456     18.0561E-03     17.9613E-03
            1892            2456     18.0561E-03     17.9613E-03
            1893            2457     15.7051E-03     15.7895E-03
            1894            2457     15.7051E-03     15.7895E-03
            1885            2457     15.7051E-03     15.7895E-03
            1884            2457     15.7051E-03     15.7895E-03
            1895            2458     14.9512E-03     15.1602E-03
            1886            2458     14.9512E-03     15.1602E-03
            1885            2458     14.9512E-03     15.1602E-03
            1894            2458     14.9512E-03     15.1602E-03
            1886            2459     15.0246E-03     15.1216E-03
            1896            2459     15.0246E-03     15.1216E-03
            1895            2459     15.0246E-03     15.1216E-03
            1887            2459     15.0246E-03     15.1216E-03
            1887            2460     15.5031E-03     15.4378E-03
            1896            2460     15.5031E-03     15.4378E-03
            1897            2460     15.5031E-03     15.4378E-03
            1888            2460     15.5031E-03     15.4378E-03
            1888            2461     16.2201E-03     16.0798E-03
            1897            2461     16.2201E-03     16.0798E-03
            1898            2461     16.2201E-03     16.0798E-03
            1889            2461     16.2201E-03     16.0798E-03
            1898            2462     17.1138E-03     16.9889E-03
            1899            2462     17.1138E-03     16.9889E-03
            1890            2462     17.1138E-03     16.9889E-03
            1889            2462     17.1138E-03     16.9889E-03
            1890            2463     18.2147E-03     18.0922E-03
            1899            2463     18.2147E-03     18.0922E-03
            1891            2463     18.2147E-03     18.0922E-03
            1900            2463     18.2147E-03     18.0922E-03
            1900            2464     19.7881E-03     19.5859E-03
            1891            2464     19.7881E-03     19.5859E-03
            1892            2464     19.7881E-03     19.5859E-03
            1901            2464     19.7881E-03     19.5859E-03
            1894            2465     17.2053E-03     17.2289E-03
            1902            2465     17.2053E-03     17.2289E-03
            1903            2465     17.2053E-03     17.2289E-03
            1893            2465     17.2053E-03     17.2289E-03
            1894            2466     15.7700E-03     15.9709E-03
            1903            2466     15.7700E-03     15.9709E-03
            1895            2466     15.7700E-03     15.9709E-03
            1904            2466     15.7700E-03     15.9709E-03
            1895            2467     15.2928E-03     15.5320E-03
            1904            2467     15.2928E-03     15.5320E-03
            1905            2467     15.2928E-03     15.5320E-03
            1896            2467     15.2928E-03     15.5320E-03
            1906            2468     15.5877E-03     15.7527E-03
            1897            2468     15.5877E-03     15.7527E-03
            1905            2468     15.5877E-03     15.7527E-03
            1896            2468     15.5877E-03     15.7527E-03
            1906            2469     16.4053E-03     16.4728E-03
            1907            2469     16.4053E-03     16.4728E-03
            1898            2469     16.4053E-03     16.4728E-03
            1897            2469     16.4053E-03     16.4728E-03
            1898            2470     17.6399E-03     17.6147E-03
            1899            2470     17.6399E-03     17.6147E-03
            1908            2470     17.6399E-03     17.6147E-03
            1907            2470     17.6399E-03     17.6147E-03
            1908            2471     19.3299E-03     19.2103E-03
            1899            2471     19.3299E-03     19.2103E-03
            1900            2471     19.3299E-03     19.2103E-03
            1909            2471     19.3299E-03     19.2103E-03
            1901            2472     21.5755E-03     21.3067E-03
            1900            2472     21.5755E-03     21.3067E-03
            1909            2472     21.5755E-03     21.3067E-03
            1910            2472     21.5755E-03     21.3067E-03
            1912            2473     18.8158E-03     18.7885E-03
            1902            2473     18.8158E-03     18.7885E-03
            1911            2473     18.8158E-03     18.7885E-03
            1903            2473     18.8158E-03     18.7885E-03
            1904            2474     16.6286E-03     16.8538E-03
            1912            2474     16.6286E-03     16.8538E-03
            1913            2474     16.6286E-03     16.8538E-03
            1903            2474     16.6286E-03     16.8538E-03
            1904            2475     15.5853E-03     15.9540E-03
            1913            2475     15.5853E-03     15.9540E-03
            1905            2475     15.5853E-03     15.9540E-03
            1914            2475     15.5853E-03     15.9540E-03
            1915            2476     15.5968E-03     16.0037E-03
            1914            2476     15.5968E-03     16.0037E-03
            1905            2476     15.5968E-03     16.0037E-03
            1906            2476     15.5968E-03     16.0037E-03
            1907            2477     16.5080E-03     16.8376E-03
            1906            2477     16.5080E-03     16.8376E-03
            1916            2477     16.5080E-03     16.8376E-03
            1915            2477     16.5080E-03     16.8376E-03
            1907            2478     18.1547E-03     18.2935E-03
            1917            2478     18.1547E-03     18.2935E-03
            1908            2478     18.1547E-03     18.2935E-03
            1916            2478     18.1547E-03     18.2935E-03
            1909            2479     20.4567E-03     20.3692E-03
            1918            2479     20.4567E-03     20.3692E-03
            1917            2479     20.4567E-03     20.3692E-03
            1908            2479     20.4567E-03     20.3692E-03
            1910            2480     23.4213E-03     23.1355E-03
            1919            2480     23.4213E-03     23.1355E-03
            1918            2480     23.4213E-03     23.1355E-03
            1909            2480     23.4213E-03     23.1355E-03
            1921            2481     20.4283E-03     20.4458E-03
            1911            2481     20.4283E-03     20.4458E-03
            1912            2481     20.4283E-03     20.4458E-03
            1920            2481     20.4283E-03     20.4458E-03
            1922            2482     17.6166E-03     17.9132E-03
            1912            2482     17.6166E-03     17.9132E-03
            1913            2482     17.6166E-03     17.9132E-03
            1921            2482     17.6166E-03     17.9132E-03
            1922            2483     15.8364E-03     16.4040E-03
            1913            2483     15.8364E-03     16.4040E-03
            1923            2483     15.8364E-03     16.4040E-03
            1914            2483     15.8364E-03     16.4040E-03
            1923            2484     15.2947E-03     15.9256E-03
            1914            2484     15.2947E-03     15.9256E-03
            1924            2484     15.2947E-03     15.9256E-03
            1915            2484     15.2947E-03     15.9256E-03
            1924            2485     16.2646E-03     16.8260E-03
            1916            2485     16.2646E-03     16.8260E-03
            1925            2485     16.2646E-03     16.8260E-03
            1915            2485     16.2646E-03     16.8260E-03
            1916            2486     18.5856E-03     18.9928E-03
            1925            2486     18.5856E-03     18.9928E-03
            1926            2486     18.5856E-03     18.9928E-03
            1917            2486     18.5856E-03     18.9928E-03
            1926            2487     21.6669E-03     21.7683E-03
            1917            2487     21.6669E-03     21.7683E-03
            1918            2487     21.6669E-03     21.7683E-03
            1927            2487     21.6669E-03     21.7683E-03
            1927            2488     25.2771E-03     25.0074E-03
            1928            2488     25.2771E-03     25.0074E-03
            1918            2488     25.2771E-03     25.0074E-03
            1919            2488     25.2771E-03     25.0074E-03
            1929            2489     22.6207E-03     22.7130E-03
            1921            2489     22.6207E-03     22.7130E-03
            1930            2489     22.6207E-03     22.7130E-03
            1920            2489     22.6207E-03     22.7130E-03
            1921            2490     18.5448E-03     19.0047E-03
            1930            2490     18.5448E-03     19.0047E-03
            1922            2490     18.5448E-03     19.0047E-03
            1931            2490     18.5448E-03     19.0047E-03
            1923            2491     15.4101E-03     16.1008E-03
            1922            2491     15.4101E-03     16.1008E-03
            1931            2491     15.4101E-03     16.1008E-03
            1932            2491     15.4101E-03     16.1008E-03
            1933            2492     14.4244E-03     15.1487E-03
            1923            2492     14.4244E-03     15.1487E-03
            1932            2492     14.4244E-03     15.1487E-03
            1924            2492     14.4244E-03     15.1487E-03
            1925            2493     15.5007E-03     16.0843E-03
            1933            2493     15.5007E-03     16.0843E-03
            1924            2493     15.5007E-03     16.0843E-03
            1934            2493     15.5007E-03     16.0843E-03
            1935            2494     18.3357E-03     18.7541E-03
            1934            2494     18.3357E-03     18.7541E-03
            1926            2494     18.3357E-03     18.7541E-03
            1925            2494     18.3357E-03     18.7541E-03
            1927            2495     22.7861E-03     23.0660E-03
            1926            2495     22.7861E-03     23.0660E-03
            1936            2495     22.7861E-03     23.0660E-03
            1935            2495     22.7861E-03     23.0660E-03
            1936            2496     27.6518E-03     27.6633E-03
            1928            2496     27.6518E-03     27.6633E-03
            1927            2496     27.6518E-03     27.6633E-03
            1937            2496     27.6518E-03     27.6633E-03
            1938            2497     24.5406E-03     24.3505E-03
            1939            2497     24.5406E-03     24.3505E-03
            1929            2497     24.5406E-03     24.3505E-03
            1930            2497     24.5406E-03     24.3505E-03
            1930            2498     18.0685E-03     18.2994E-03
            1931            2498     18.0685E-03     18.2994E-03
            1939            2498     18.0685E-03     18.2994E-03
            1940            2498     18.0685E-03     18.2994E-03
            1931            2499     14.0581E-03     14.5022E-03
            1941            2499     14.0581E-03     14.5022E-03
            1932            2499     14.0581E-03     14.5022E-03
            1940            2499     14.0581E-03     14.5022E-03
            1942            2500     12.7772E-03     13.2681E-03
            1933            2500     12.7772E-03     13.2681E-03
            1932            2500     12.7772E-03     13.2681E-03
            1941            2500     12.7772E-03     13.2681E-03
            1933            2501     13.9700E-03     14.2121E-03
            1942            2501     13.9700E-03     14.2121E-03
            1934            2501     13.9700E-03     14.2121E-03
            1943            2501     13.9700E-03     14.2121E-03
            1943            2502     17.2583E-03     17.0552E-03
            1934            2502     17.2583E-03     17.0552E-03
            1935            2502     17.2583E-03     17.0552E-03
            1944            2502     17.2583E-03     17.0552E-03
            1944            2503     22.6228E-03     22.0773E-03
            1936            2503     22.6228E-03     22.0773E-03
            1945            2503     22.6228E-03     22.0773E-03
            1935            2503     22.6228E-03     22.0773E-03
            1937            2504     30.0819E-03     29.0921E-03
            1936            2504     30.0819E-03     29.0921E-03
            1945            2504     30.0819E-03     29.0921E-03
            1946            2504     30.0819E-03     29.0921E-03
            1938            2505     21.9400E-03     19.8333E-03
            1948            2505     21.9400E-03     19.8333E-03
            1947            2505     21.9400E-03     19.8333E-03
            1939            2505     21.9400E-03     19.8333E-03
            1949            2506     17.9851E-03     16.7073E-03
            1948            2506     17.9851E-03     16.7073E-03
            1939            2506     17.9851E-03     16.7073E-03
            1940            2506     17.9851E-03     16.7073E-03
            1950            2507     15.4626E-03     14.9453E-03
            1941            2507     15.4626E-03     14.9453E-03
            1949            2507     15.4626E-03     14.9453E-03
            1940            2507     15.4626E-03     14.9453E-03
            1951            2508     14.7141E-03     14.5114E-03
            1941            2508     14.7141E-03     14.5114E-03
            1942            2508     14.7141E-03     14.5114E-03
            1950            2508     14.7141E-03     14.5114E-03
            1951            2509     15.8056E-03     15.4802E-03
            1943            2509     15.8056E-03     15.4802E-03
            1942            2509     15.8056E-03     15.4802E-03
            1952            2509     15.8056E-03     15.4802E-03
            1943            2510     18.5385E-03     17.6953E-03
            1953            2510     18.5385E-03     17.6953E-03
            1944            2510     18.5385E-03     17.6953E-03
            1952            2510     18.5385E-03     17.6953E-03
            1945            2511     22.4022E-03     20.8836E-03
            1954            2511     22.4022E-03     20.8836E-03
            1953            2511     22.4022E-03     20.8836E-03
            1944            2511     22.4022E-03     20.8836E-03
            1946            2512     27.7421E-03     25.6481E-03
            1945            2512     27.7421E-03     25.6481E-03
            1954            2512     27.7421E-03     25.6481E-03
            1955            2512     27.7421E-03     25.6481E-03
            1956            2513     19.7157E-03     18.2300E-03
            1947            2513     19.7157E-03     18.2300E-03
            1948            2513     19.7157E-03     18.2300E-03
            1957            2513     19.7157E-03     18.2300E-03
            1948            2514     18.9477E-03     17.1738E-03
            1957            2514     18.9477E-03     17.1738E-03
            1958            2514     18.9477E-03     17.1738E-03
            1949            2514     18.9477E-03     17.1738E-03
            1950            2515     17.5696E-03     16.1868E-03
            1949            2515     17.5696E-03     16.1868E-03
            1959            2515     17.5696E-03     16.1868E-03
            1958            2515     17.5696E-03     16.1868E-03
            1960            2516     17.2850E-03     16.2568E-03
            1959            2516     17.2850E-03     16.2568E-03
            1951            2516     17.2850E-03     16.2568E-03
            1950            2516     17.2850E-03     16.2568E-03
            1960            2517     18.4537E-03     17.5778E-03
            1951            2517     18.4537E-03     17.5778E-03
            1952            2517     18.4537E-03     17.5778E-03
            1961            2517     18.4537E-03     17.5778E-03
            1962            2518     20.8318E-03     19.9155E-03
            1953            2518     20.8318E-03     19.9155E-03
            1952            2518     20.8318E-03     19.9155E-03
            1961            2518     20.8318E-03     19.9155E-03
            1954            2519     23.8003E-03     22.8705E-03
            1962            2519     23.8003E-03     22.8705E-03
            1963            2519     23.8003E-03     22.8705E-03
            1953            2519     23.8003E-03     22.8705E-03
            1963            2520     26.3629E-03     25.6718E-03
            1955            2520     26.3629E-03     25.6718E-03
            1954            2520     26.3629E-03     25.6718E-03
            1964            2520     26.3629E-03     25.6718E-03
            1965            2521     21.5654E-03     22.2053E-03
            1966            2521     21.5654E-03     22.2053E-03
            1956            2521     21.5654E-03     22.2053E-03
            1957            2521     21.5654E-03     22.2053E-03
            1966            2522     19.3236E-03     18.9479E-03
            1958            2522     19.3236E-03     18.9479E-03
            1957            2522     19.3236E-03     18.9479E-03
            1967            2522     19.3236E-03     18.9479E-03
            1967            2523     17.4588E-03     16.2145E-03
            1968            2523     17.4588E-03     16.2145E-03
            1959            2523     17.4588E-03     16.2145E-03
            1958            2523     17.4588E-03     16.2145E-03
            1960            2524     16.9141E-03     15.5404E-03
            1959            2524     16.9141E-03     15.5404E-03
            1969            2524     16.9141E-03     15.5404E-03
            1968            2524     16.9141E-03     15.5404E-03
            1970            2525     18.4572E-03     17.3374E-03
            1969            2525     18.4572E-03     17.3374E-03
            1961            2525     18.4572E-03     17.3374E-03
            1960            2525     18.4572E-03     17.3374E-03
            1962            2526     21.6592E-03     21.0356E-03
            1970            2526     21.6592E-03     21.0356E-03
            1971            2526     21.6592E-03     21.0356E-03
            1961            2526     21.6592E-03     21.0356E-03
            1972            2527     25.6058E-03     25.6940E-03
            1962            2527     25.6058E-03     25.6940E-03
            1971            2527     25.6058E-03     25.6940E-03
            1963            2527     25.6058E-03     25.6940E-03
            1964            2528     29.4897E-03     29.9000E-03
            1973            2528     29.4897E-03     29.9000E-03
            1963            2528     29.4897E-03     29.9000E-03
            1972            2528     29.4897E-03     29.9000E-03
            1975            2529     23.4501E-03     23.8714E-03
            1966            2529     23.4501E-03     23.8714E-03
            1974            2529     23.4501E-03     23.8714E-03
            1965            2529     23.4501E-03     23.8714E-03
            1976            2530     19.7941E-03     20.1155E-03
            1967            2530     19.7941E-03     20.1155E-03
            1975            2530     19.7941E-03     20.1155E-03
            1966            2530     19.7941E-03     20.1155E-03
            1977            2531     17.5886E-03     16.9737E-03
            1968            2531     17.5886E-03     16.9737E-03
            1967            2531     17.5886E-03     16.9737E-03
            1976            2531     17.5886E-03     16.9737E-03
            1978            2532     17.0958E-03     15.9541E-03
            1977            2532     17.0958E-03     15.9541E-03
            1968            2532     17.0958E-03     15.9541E-03
            1969            2532     17.0958E-03     15.9541E-03
            1969            2533     18.9168E-03     17.9817E-03
            1978            2533     18.9168E-03     17.9817E-03
            1970            2533     18.9168E-03     17.9817E-03
            1979            2533     18.9168E-03     17.9817E-03
            1971            2534     22.5982E-03     22.2792E-03
            1970            2534     22.5982E-03     22.2792E-03
            1979            2534     22.5982E-03     22.2792E-03
            1980            2534     22.5982E-03     22.2792E-03
            1980            2535     27.0269E-03     27.2488E-03
            1981            2535     27.0269E-03     27.2488E-03
            1972            2535     27.0269E-03     27.2488E-03
            1971            2535     27.0269E-03     27.2488E-03
            1973            2536     31.7930E-03     31.9062E-03
            1982            2536     31.7930E-03     31.9062E-03
            1972            2536     31.7930E-03     31.9062E-03
            1981            2536     31.7930E-03     31.9062E-03
            1983            2537     25.3433E-03     25.5176E-03
            1974            2537     25.3433E-03     25.5176E-03
            1984            2537     25.3433E-03     25.5176E-03
            1975            2537     25.3433E-03     25.5176E-03
            1985            2538     20.6389E-03     20.9321E-03
            1976            2538     20.6389E-03     20.9321E-03
            1975            2538     20.6389E-03     20.9321E-03
            1984            2538     20.6389E-03     20.9321E-03
            1976            2539     17.8074E-03     17.6656E-03
            1986            2539     17.8074E-03     17.6656E-03
            1977            2539     17.8074E-03     17.6656E-03
            1985            2539     17.8074E-03     17.6656E-03
            1986            2540     17.3559E-03     16.7142E-03
            1977            2540     17.3559E-03     16.7142E-03
            1978            2540     17.3559E-03     16.7142E-03
            1987            2540     17.3559E-03     16.7142E-03
            1978            2541     19.4285E-03     18.8371E-03
            1987            2541     19.4285E-03     18.8371E-03
            1979            2541     19.4285E-03     18.8371E-03
            1988            2541     19.4285E-03     18.8371E-03
            1989            2542     23.3852E-03     23.1832E-03
            1979            2542     23.3852E-03     23.1832E-03
            1980            2542     23.3852E-03     23.1832E-03
            1988            2542     23.3852E-03     23.1832E-03
            1989            2543     28.3706E-03     28.3680E-03
            1980            2543     28.3706E-03     28.3680E-03
            1981            2543     28.3706E-03     28.3680E-03
            1990            2543     28.3706E-03     28.3680E-03
            1990            2544     34.0574E-03     33.8407E-03
            1981            2544     34.0574E-03     33.8407E-03
            1991            2544     34.0574E-03     33.8407E-03
            1982            2544     34.0574E-03     33.8407E-03
            1992            2545     27.2403E-03     27.2364E-03
            1984            2545     27.2403E-03     27.2364E-03
            1983            2545     27.2403E-03     27.2364E-03
            1993            2545     27.2403E-03     27.2364E-03
            1994            2546     21.6790E-03     21.9493E-03
            1985            2546     21.6790E-03     21.9493E-03
            1993            2546     21.6790E-03     21.9493E-03
            1984            2546     21.6790E-03     21.9493E-03
            1995            2547     18.2368E-03     18.3622E-03
            1985            2547     18.2368E-03     18.3622E-03
            1994            2547     18.2368E-03     18.3622E-03
            1986            2547     18.2368E-03     18.3622E-03
            1996            2548     17.5580E-03     17.4026E-03
            1986            2548     17.5580E-03     17.4026E-03
            1987            2548     17.5580E-03     17.4026E-03
            1995            2548     17.5580E-03     17.4026E-03
            1997            2549     19.8038E-03     19.5786E-03
            1988            2549     19.8038E-03     19.5786E-03
            1996            2549     19.8038E-03     19.5786E-03
            1987            2549     19.8038E-03     19.5786E-03
            1997            2550     24.1932E-03     24.0708E-03
            1989            2550     24.1932E-03     24.0708E-03
            1998            2550     24.1932E-03     24.0708E-03
            1988            2550     24.1932E-03     24.0708E-03
            1998            2551     29.7801E-03     29.6403E-03
            1989            2551     29.7801E-03     29.6403E-03
            1999            2551     29.7801E-03     29.6403E-03
            1990            2551     29.7801E-03     29.6403E-03
            1991            2552     36.2024E-03     35.8262E-03
            1999            2552     36.2024E-03     35.8262E-03
            1990            2552     36.2024E-03     35.8262E-03
            2000            2552     36.2024E-03     35.8262E-03
            2002            2553     29.1675E-03     29.0885E-03
            1992            2553     29.1675E-03     29.0885E-03
            1993            2553     29.1675E-03     29.0885E-03
            2001            2553     29.1675E-03     29.0885E-03
            1993            2554     22.8977E-03     23.1697E-03
            1994            2554     22.8977E-03     23.1697E-03
            2002            2554     22.8977E-03     23.1697E-03
            2003            2554     22.8977E-03     23.1697E-03
            2004            2555     18.7103E-03     19.0972E-03
            1994            2555     18.7103E-03     19.0972E-03
            2003            2555     18.7103E-03     19.0972E-03
            1995            2555     18.7103E-03     19.0972E-03
            1996            2556     17.7256E-03     18.0136E-03
            2004            2556     17.7256E-03     18.0136E-03
            2005            2556     17.7256E-03     18.0136E-03
            1995            2556     17.7256E-03     18.0136E-03
            2006            2557     20.1207E-03     20.2763E-03
            1996            2557     20.1207E-03     20.2763E-03
            2005            2557     20.1207E-03     20.2763E-03
            1997            2557     20.1207E-03     20.2763E-03
            2007            2558     24.9725E-03     25.0126E-03
            1997            2558     24.9725E-03     25.0126E-03
            1998            2558     24.9725E-03     25.0126E-03
            2006            2558     24.9725E-03     25.0126E-03
            2008            2559     31.2491E-03     31.1136E-03
            2007            2559     31.2491E-03     31.1136E-03
            1998            2559     31.2491E-03     31.1136E-03
            1999            2559     31.2491E-03     31.1136E-03
            2000            2560     38.3443E-03     37.8895E-03
            2009            2560     38.3443E-03     37.8895E-03
            1999            2560     38.3443E-03     37.8895E-03
            2008            2560     38.3443E-03     37.8895E-03
            2011            2561     31.1556E-03     31.0525E-03
            2002            2561     31.1556E-03     31.0525E-03
            2001            2561     31.1556E-03     31.0525E-03
            2010            2561     31.1556E-03     31.0525E-03
            2011            2562     24.0976E-03     24.4630E-03
            2012            2562     24.0976E-03     24.4630E-03
            2002            2562     24.0976E-03     24.4630E-03
            2003            2562     24.0976E-03     24.4630E-03
            2003            2563     19.2079E-03     19.8888E-03
            2012            2563     19.2079E-03     19.8888E-03
            2004            2563     19.2079E-03     19.8888E-03
            2013            2563     19.2079E-03     19.8888E-03
            2005            2564     17.7978E-03     18.5723E-03
            2013            2564     17.7978E-03     18.5723E-03
            2014            2564     17.7978E-03     18.5723E-03
            2004            2564     17.7978E-03     18.5723E-03
            2005            2565     20.3331E-03     20.9711E-03
            2006            2565     20.3331E-03     20.9711E-03
            2015            2565     20.3331E-03     20.9711E-03
            2014            2565     20.3331E-03     20.9711E-03
            2006            2566     25.7228E-03     26.0660E-03
            2015            2566     25.7228E-03     26.0660E-03
            2007            2566     25.7228E-03     26.0660E-03
            2016            2566     25.7228E-03     26.0660E-03
            2017            2567     32.6659E-03     32.6282E-03
            2016            2567     32.6659E-03     32.6282E-03
            2008            2567     32.6659E-03     32.6282E-03
            2007            2567     32.6659E-03     32.6282E-03
            2018            2568     40.5052E-03     40.0567E-03
            2008            2568     40.5052E-03     40.0567E-03
            2009            2568     40.5052E-03     40.0567E-03
            2017            2568     40.5052E-03     40.0567E-03
            2011            2569     33.0666E-03     33.0816E-03
            2010            2569     33.0666E-03     33.0816E-03
            2019            2569     33.0666E-03     33.0816E-03
            2020            2569     33.0666E-03     33.0816E-03
            2021            2570     25.3964E-03     26.0129E-03
            2012            2570     25.3964E-03     26.0129E-03
            2011            2570     25.3964E-03     26.0129E-03
            2020            2570     25.3964E-03     26.0129E-03
            2012            2571     19.6111E-03     20.7316E-03
            2021            2571     19.6111E-03     20.7316E-03
            2022            2571     19.6111E-03     20.7316E-03
            2013            2571     19.6111E-03     20.7316E-03
            2023            2572     17.4423E-03     18.6670E-03
            2014            2572     17.4423E-03     18.6670E-03
            2013            2572     17.4423E-03     18.6670E-03
            2022            2572     17.4423E-03     18.6670E-03
            2015            2573     20.0508E-03     21.0876E-03
            2024            2573     20.0508E-03     21.0876E-03
            2023            2573     20.0508E-03     21.0876E-03
            2014            2573     20.0508E-03     21.0876E-03
            2016            2574     26.3207E-03     27.0941E-03
            2015            2574     26.3207E-03     27.0941E-03
            2024            2574     26.3207E-03     27.0941E-03
            2025            2574     26.3207E-03     27.0941E-03
            2025            2575     34.1548E-03     34.4786E-03
            2017            2575     34.1548E-03     34.4786E-03
            2026            2575     34.1548E-03     34.4786E-03
            2016            2575     34.1548E-03     34.4786E-03
            2018            2576     42.5914E-03     42.2541E-03
            2026            2576     42.5914E-03     42.2541E-03
            2017            2576     42.5914E-03     42.2541E-03
            2027            2576     42.5914E-03     42.2541E-03
            2019            2577     35.6002E-03     35.8777E-03
            2028            2577     35.6002E-03     35.8777E-03
            2020            2577     35.6002E-03     35.8777E-03
            2029            2577     35.6002E-03     35.8777E-03
            2020            2578     26.4764E-03     27.3678E-03
            2030            2578     26.4764E-03     27.3678E-03
            2021            2578     26.4764E-03     27.3678E-03
            2029            2578     26.4764E-03     27.3678E-03
            2030            2579     19.0120E-03     20.2943E-03
            2031            2579     19.0120E-03     20.2943E-03
            2021            2579     19.0120E-03     20.2943E-03
            2022            2579     19.0120E-03     20.2943E-03
            2032            2580     16.2710E-03     17.6586E-03
            2022            2580     16.2710E-03     17.6586E-03
            2031            2580     16.2710E-03     17.6586E-03
            2023            2580     16.2710E-03     17.6586E-03
            2032            2581     19.0444E-03     20.0994E-03
            2023            2581     19.0444E-03     20.0994E-03
            2033            2581     19.0444E-03     20.0994E-03
            2024            2581     19.0444E-03     20.0994E-03
            2025            2582     25.9162E-03     26.5813E-03
            2024            2582     25.9162E-03     26.5813E-03
            2034            2582     25.9162E-03     26.5813E-03
            2033            2582     25.9162E-03     26.5813E-03
            2035            2583     35.3956E-03     35.9031E-03
            2025            2583     35.3956E-03     35.9031E-03
            2034            2583     35.3956E-03     35.9031E-03
            2026            2583     35.3956E-03     35.9031E-03
            2035            2584     45.3309E-03     45.4445E-03
            2027            2584     45.3309E-03     45.4445E-03
            2036            2584     45.3309E-03     45.4445E-03
            2026            2584     45.3309E-03     45.4445E-03
            2029            2585     37.6335E-03     36.9492E-03
            2037            2585     37.6335E-03     36.9492E-03
            2038            2585     37.6335E-03     36.9492E-03
            2028            2585     37.6335E-03     36.9492E-03
            2038            2586     25.6541E-03     25.6509E-03
            2030            2586     25.6541E-03     25.6509E-03
            2039            2586     25.6541E-03     25.6509E-03
            2029            2586     25.6541E-03     25.6509E-03
            2039            2587     17.1384E-03     17.7216E-03
            2031            2587     17.1384E-03     17.7216E-03
            2030            2587     17.1384E-03     17.7216E-03
            2040            2587     17.1384E-03     17.7216E-03
            2041            2588     13.8723E-03     14.7641E-03
            2040            2588     13.8723E-03     14.7641E-03
            2031            2588     13.8723E-03     14.7641E-03
            2032            2588     13.8723E-03     14.7641E-03
            2033            2589     16.8468E-03     17.2240E-03
            2032            2589     16.8468E-03     17.2240E-03
            2041            2589     16.8468E-03     17.2240E-03
            2042            2589     16.8468E-03     17.2240E-03
            2042            2590     24.3449E-03     23.8112E-03
            2033            2590     24.3449E-03     23.8112E-03
            2034            2590     24.3449E-03     23.8112E-03
            2043            2590     24.3449E-03     23.8112E-03
            2034            2591     34.7612E-03     33.6397E-03
            2035            2591     34.7612E-03     33.6397E-03
            2043            2591     34.7612E-03     33.6397E-03
            2044            2591     34.7612E-03     33.6397E-03
            2045            2592     47.8975E-03     46.1948E-03
            2036            2592     47.8975E-03     46.1948E-03
            2035            2592     47.8975E-03     46.1948E-03
            2044            2592     47.8975E-03     46.1948E-03
            2047            2593     34.2507E-03     30.4790E-03
            2037            2593     34.2507E-03     30.4790E-03
            2038            2593     34.2507E-03     30.4790E-03
            2046            2593     34.2507E-03     30.4790E-03
            2039            2594     25.2640E-03     22.7571E-03
            2038            2594     25.2640E-03     22.7571E-03
            2047            2594     25.2640E-03     22.7571E-03
            2048            2594     25.2640E-03     22.7571E-03
            2048            2595     19.0633E-03     17.9940E-03
            2049            2595     19.0633E-03     17.9940E-03
            2040            2595     19.0633E-03     17.9940E-03
            2039            2595     19.0633E-03     17.9940E-03
            2050            2596     16.7165E-03     16.3777E-03
            2040            2596     16.7165E-03     16.3777E-03
            2049            2596     16.7165E-03     16.3777E-03
            2041            2596     16.7165E-03     16.3777E-03
            2042            2597     19.3280E-03     18.6929E-03
            2041            2597     19.3280E-03     18.6929E-03
            2050            2597     19.3280E-03     18.6929E-03
            2051            2597     19.3280E-03     18.6929E-03
            2042            2598     25.7318E-03     24.0766E-03
            2051            2598     25.7318E-03     24.0766E-03
            2043            2598     25.7318E-03     24.0766E-03
            2052            2598     25.7318E-03     24.0766E-03
            2043            2599     34.0018E-03     31.1247E-03
            2044            2599     34.0018E-03     31.1247E-03
            2052            2599     34.0018E-03     31.1247E-03
            2053            2599     34.0018E-03     31.1247E-03
            2054            2600     44.8515E-03     41.0008E-03
            2053            2600     44.8515E-03     41.0008E-03
            2044            2600     44.8515E-03     41.0008E-03
            2045            2600     44.8515E-03     41.0008E-03
            2047            2601     31.7264E-03     29.4271E-03
            2055            2601     31.7264E-03     29.4271E-03
            2056            2601     31.7264E-03     29.4271E-03
            2046            2601     31.7264E-03     29.4271E-03
            2057            2602     26.4322E-03     23.7836E-03
            2056            2602     26.4322E-03     23.7836E-03
            2047            2602     26.4322E-03     23.7836E-03
            2048            2602     26.4322E-03     23.7836E-03
            2049            2603     21.7685E-03     19.6204E-03
            2058            2603     21.7685E-03     19.6204E-03
            2048            2603     21.7685E-03     19.6204E-03
            2057            2603     21.7685E-03     19.6204E-03
            2050            2604     20.2663E-03     18.6564E-03
            2059            2604     20.2663E-03     18.6564E-03
            2058            2604     20.2663E-03     18.6564E-03
            2049            2604     20.2663E-03     18.6564E-03
            2059            2605     22.8474E-03     21.4449E-03
            2060            2605     22.8474E-03     21.4449E-03
            2051            2605     22.8474E-03     21.4449E-03
            2050            2605     22.8474E-03     21.4449E-03
            2060            2606     28.5295E-03     26.9642E-03
            2051            2606     28.5295E-03     26.9642E-03
            2052            2606     28.5295E-03     26.9642E-03
            2061            2606     28.5295E-03     26.9642E-03
            2062            2607     35.7855E-03     34.0776E-03
            2052            2607     35.7855E-03     34.0776E-03
            2061            2607     35.7855E-03     34.0776E-03
            2053            2607     35.7855E-03     34.0776E-03
            2053            2608     43.3394E-03     41.8363E-03
            2054            2608     43.3394E-03     41.8363E-03
            2062            2608     43.3394E-03     41.8363E-03
            2063            2608     43.3394E-03     41.8363E-03
            2065            2609     34.2438E-03     35.1414E-03
            2055            2609     34.2438E-03     35.1414E-03
            2064            2609     34.2438E-03     35.1414E-03
            2056            2609     34.2438E-03     35.1414E-03
            2065            2610     27.1296E-03     26.8643E-03
            2066            2610     27.1296E-03     26.8643E-03
            2057            2610     27.1296E-03     26.8643E-03
            2056            2610     27.1296E-03     26.8643E-03
            2057            2611     21.3632E-03     19.6820E-03
            2066            2611     21.3632E-03     19.6820E-03
            2067            2611     21.3632E-03     19.6820E-03
            2058            2611     21.3632E-03     19.6820E-03
            2068            2612     19.2928E-03     17.2215E-03
            2067            2612     19.2928E-03     17.2215E-03
            2059            2612     19.2928E-03     17.2215E-03
            2058            2612     19.2928E-03     17.2215E-03
            2069            2613     22.5351E-03     20.8919E-03
            2068            2613     22.5351E-03     20.8919E-03
            2060            2613     22.5351E-03     20.8919E-03
            2059            2613     22.5351E-03     20.8919E-03
            2060            2614     29.6250E-03     28.7998E-03
            2070            2614     29.6250E-03     28.7998E-03
            2061            2614     29.6250E-03     28.7998E-03
            2069            2614     29.6250E-03     28.7998E-03
            2070            2615     38.3088E-03     38.5191E-03
            2061            2615     38.3088E-03     38.5191E-03
            2062            2615     38.3088E-03     38.5191E-03
            2071            2615     38.3088E-03     38.5191E-03
            2071            2616     47.0775E-03     47.6462E-03
            2072            2616     47.0775E-03     47.6462E-03
            2062            2616     47.0775E-03     47.6462E-03
            2063            2616     47.0775E-03     47.6462E-03
            2074            2617     36.5733E-03     37.0816E-03
            2073            2617     36.5733E-03     37.0816E-03
            2065            2617     36.5733E-03     37.0816E-03
            2064            2617     36.5733E-03     37.0816E-03
            2066            2618     27.8861E-03     28.4825E-03
            2074            2618     27.8861E-03     28.4825E-03
            2075            2618     27.8861E-03     28.4825E-03
            2065            2618     27.8861E-03     28.4825E-03
            2067            2619     21.4686E-03     20.7265E-03
            2066            2619     21.4686E-03     20.7265E-03
            2075            2619     21.4686E-03     20.7265E-03
            2076            2619     21.4686E-03     20.7265E-03
            2077            2620     19.2925E-03     17.6028E-03
            2076            2620     19.2925E-03     17.6028E-03
            2067            2620     19.2925E-03     17.6028E-03
            2068            2620     19.2925E-03     17.6028E-03
            2077            2621     22.9827E-03     21.6628E-03
            2069            2621     22.9827E-03     21.6628E-03
            2068            2621     22.9827E-03     21.6628E-03
            2078            2621     22.9827E-03     21.6628E-03
            2079            2622     30.8435E-03     30.5612E-03
            2078            2622     30.8435E-03     30.5612E-03
            2069            2622     30.8435E-03     30.5612E-03
            2070            2622     30.8435E-03     30.5612E-03
            2071            2623     40.0959E-03     40.5342E-03
            2079            2623     40.0959E-03     40.5342E-03
            2070            2623     40.0959E-03     40.5342E-03
            2080            2623     40.0959E-03     40.5342E-03
            2080            2624     49.7079E-03     49.8098E-03
            2072            2624     49.7079E-03     49.8098E-03
            2081            2624     49.7079E-03     49.8098E-03
            2071            2624     49.7079E-03     49.8098E-03
            2083            2625     38.8438E-03     38.9858E-03
            2082            2625     38.8438E-03     38.9858E-03
            2073            2625     38.8438E-03     38.9858E-03
            2074            2625     38.8438E-03     38.9858E-03
            2084            2626     28.9925E-03     29.4275E-03
            2075            2626     28.9925E-03     29.4275E-03
            2074            2626     28.9925E-03     29.4275E-03
            2083            2626     28.9925E-03     29.4275E-03
            2075            2627     21.7678E-03     21.6188E-03
            2076            2627     21.7678E-03     21.6188E-03
            2085            2627     21.7678E-03     21.6188E-03
            2084            2627     21.7678E-03     21.6188E-03
            2086            2628     19.5649E-03     18.6162E-03
            2076            2628     19.5649E-03     18.6162E-03
            2085            2628     19.5649E-03     18.6162E-03
            2077            2628     19.5649E-03     18.6162E-03
            2087            2629     23.6017E-03     22.7827E-03
            2086            2629     23.6017E-03     22.7827E-03
            2077            2629     23.6017E-03     22.7827E-03
            2078            2629     23.6017E-03     22.7827E-03
            2088            2630     31.8187E-03     31.6538E-03
            2087            2630     31.8187E-03     31.6538E-03
            2078            2630     31.8187E-03     31.6538E-03
            2079            2630     31.8187E-03     31.6538E-03
            2079            2631     41.6905E-03     41.7385E-03
            2088            2631     41.6905E-03     41.7385E-03
            2080            2631     41.6905E-03     41.7385E-03
            2089            2631     41.6905E-03     41.7385E-03
            2080            2632     52.3344E-03     51.9718E-03
            2081            2632     52.3344E-03     51.9718E-03
            2090            2632     52.3344E-03     51.9718E-03
            2089            2632     52.3344E-03     51.9718E-03
            2082            2633     41.0485E-03     40.9575E-03
            2092            2633     41.0485E-03     40.9575E-03
            2083            2633     41.0485E-03     40.9575E-03
            2091            2633     41.0485E-03     40.9575E-03
            2084            2634     30.2999E-03     30.6539E-03
            2092            2634     30.2999E-03     30.6539E-03
            2093            2634     30.2999E-03     30.6539E-03
            2083            2634     30.2999E-03     30.6539E-03
            2084            2635     22.3616E-03     22.5503E-03
            2093            2635     22.3616E-03     22.5503E-03
            2085            2635     22.3616E-03     22.5503E-03
            2094            2635     22.3616E-03     22.5503E-03
            2095            2636     19.8436E-03     19.6053E-03
            2086            2636     19.8436E-03     19.6053E-03
            2094            2636     19.8436E-03     19.6053E-03
            2085            2636     19.8436E-03     19.6053E-03
            2087            2637     24.0763E-03     23.7675E-03
            2095            2637     24.0763E-03     23.7675E-03
            2086            2637     24.0763E-03     23.7675E-03
            2096            2637     24.0763E-03     23.7675E-03
            2087            2638     32.8113E-03     32.7004E-03
            2096            2638     32.8113E-03     32.7004E-03
            2088            2638     32.8113E-03     32.7004E-03
            2097            2638     32.8113E-03     32.7004E-03
            2097            2639     43.3464E-03     43.1804E-03
            2088            2639     43.3464E-03     43.1804E-03
            2089            2639     43.3464E-03     43.1804E-03
            2098            2639     43.3464E-03     43.1804E-03
            2089            2640     54.7590E-03     54.1853E-03
            2090            2640     54.7590E-03     54.1853E-03
            2098            2640     54.7590E-03     54.1853E-03
            2099            2640     54.7590E-03     54.1853E-03
            2091            2641     43.2634E-03     43.0868E-03
            2092            2641     43.2634E-03     43.0868E-03
            2101            2641     43.2634E-03     43.0868E-03
            2100            2641     43.2634E-03     43.0868E-03
            2102            2642     31.7962E-03     32.1607E-03
            2092            2642     31.7962E-03     32.1607E-03
            2101            2642     31.7962E-03     32.1607E-03
            2093            2642     31.7962E-03     32.1607E-03
            2094            2643     23.0095E-03     23.5724E-03
            2102            2643     23.0095E-03     23.5724E-03
            2093            2643     23.0095E-03     23.5724E-03
            2103            2643     23.0095E-03     23.5724E-03
            2104            2644     20.1016E-03     20.5265E-03
            2094            2644     20.1016E-03     20.5265E-03
            2095            2644     20.1016E-03     20.5265E-03
            2103            2644     20.1016E-03     20.5265E-03
            2105            2645     24.5039E-03     24.7433E-03
            2096            2645     24.5039E-03     24.7433E-03
            2095            2645     24.5039E-03     24.7433E-03
            2104            2645     24.5039E-03     24.7433E-03
            2105            2646     33.7612E-03     33.8620E-03
            2097            2646     33.7612E-03     33.8620E-03
            2096            2646     33.7612E-03     33.8620E-03
            2106            2646     33.7612E-03     33.8620E-03
            2106            2647     45.0454E-03     44.8851E-03
            2107            2647     45.0454E-03     44.8851E-03
            2097            2647     45.0454E-03     44.8851E-03
            2098            2647     45.0454E-03     44.8851E-03
            2108            2648     57.1570E-03     56.4961E-03
            2098            2648     57.1570E-03     56.4961E-03
            2099            2648     57.1570E-03     56.4961E-03
            2107            2648     57.1570E-03     56.4961E-03
            2100            2649     45.5244E-03     45.3578E-03
            2110            2649     45.5244E-03     45.3578E-03
            2101            2649     45.5244E-03     45.3578E-03
            2109            2649     45.5244E-03     45.3578E-03
            2111            2650     33.2458E-03     33.7770E-03
            2101            2650     33.2458E-03     33.7770E-03
            2102            2650     33.2458E-03     33.7770E-03
            2110            2650     33.2458E-03     33.7770E-03
            2103            2651     23.6941E-03     24.7246E-03
            2112            2651     23.6941E-03     24.7246E-03
            2102            2651     23.6941E-03     24.7246E-03
            2111            2651     23.6941E-03     24.7246E-03
            2113            2652     20.2473E-03     21.4190E-03
            2112            2652     20.2473E-03     21.4190E-03
            2103            2652     20.2473E-03     21.4190E-03
            2104            2652     20.2473E-03     21.4190E-03
            2113            2653     24.8017E-03     25.7477E-03
            2104            2653     24.8017E-03     25.7477E-03
            2114            2653     24.8017E-03     25.7477E-03
            2105            2653     24.8017E-03     25.7477E-03
            2105            2654     34.6757E-03     35.2176E-03
            2115            2654     34.6757E-03     35.2176E-03
            2106            2654     34.6757E-03     35.2176E-03
            2114            2654     34.6757E-03     35.2176E-03
            2107            2655     46.6546E-03     46.6665E-03
            2116            2655     46.6546E-03     46.6665E-03
            2115            2655     46.6546E-03     46.6665E-03
            2106            2655     46.6546E-03     46.6665E-03
            2107            2656     59.5575E-03     58.9350E-03
            2116            2656     59.5575E-03     58.9350E-03
            2117            2656     59.5575E-03     58.9350E-03
            2108            2656     59.5575E-03     58.9350E-03
            2118            2657     47.6497E-03     47.6908E-03
            2110            2657     47.6497E-03     47.6908E-03
            2119            2657     47.6497E-03     47.6908E-03
            2109            2657     47.6497E-03     47.6908E-03
            2119            2658     34.7929E-03     35.7643E-03
            2111            2658     34.7929E-03     35.7643E-03
            2110            2658     34.7929E-03     35.7643E-03
            2120            2658     34.7929E-03     35.7643E-03
            2120            2659     24.2427E-03     25.9493E-03
            2111            2659     24.2427E-03     25.9493E-03
            2121            2659     24.2427E-03     25.9493E-03
            2112            2659     24.2427E-03     25.9493E-03
            2121            2660     19.8411E-03     21.6964E-03
            2113            2660     19.8411E-03     21.6964E-03
            2112            2660     19.8411E-03     21.6964E-03
            2122            2660     19.8411E-03     21.6964E-03
            2114            2661     24.4508E-03     25.9621E-03
            2122            2661     24.4508E-03     25.9621E-03
            2123            2661     24.4508E-03     25.9621E-03
            2113            2661     24.4508E-03     25.9621E-03
            2115            2662     35.3758E-03     36.5065E-03
            2124            2662     35.3758E-03     36.5065E-03
            2114            2662     35.3758E-03     36.5065E-03
            2123            2662     35.3758E-03     36.5065E-03
            2115            2663     48.3447E-03     48.9055E-03
            2124            2663     48.3447E-03     48.9055E-03
            2125            2663     48.3447E-03     48.9055E-03
            2116            2663     48.3447E-03     48.9055E-03
            2125            2664     61.8109E-03     61.4096E-03
            2116            2664     61.8109E-03     61.4096E-03
            2117            2664     61.8109E-03     61.4096E-03
            2126            2664     61.8109E-03     61.4096E-03
            2127            2665     50.4748E-03     50.9713E-03
            2119            2665     50.4748E-03     50.9713E-03
            2128            2665     50.4748E-03     50.9713E-03
            2118            2665     50.4748E-03     50.9713E-03
            2119            2666     35.9913E-03     37.2878E-03
            2128            2666     35.9913E-03     37.2878E-03
            2120            2666     35.9913E-03     37.2878E-03
            2129            2666     35.9913E-03     37.2878E-03
            2120            2667     23.4684E-03     25.3082E-03
            2130            2667     23.4684E-03     25.3082E-03
            2121            2667     23.4684E-03     25.3082E-03
            2129            2667     23.4684E-03     25.3082E-03
            2131            2668     18.3692E-03     20.4412E-03
            2130            2668     18.3692E-03     20.4412E-03
            2121            2668     18.3692E-03     20.4412E-03
            2122            2668     18.3692E-03     20.4412E-03
            2123            2669     23.1775E-03     24.6948E-03
            2132            2669     23.1775E-03     24.6948E-03
            2122            2669     23.1775E-03     24.6948E-03
            2131            2669     23.1775E-03     24.6948E-03
            2123            2670     34.7584E-03     35.6386E-03
            2124            2670     34.7584E-03     35.6386E-03
            2132            2670     34.7584E-03     35.6386E-03
            2133            2670     34.7584E-03     35.6386E-03
            2124            2671     49.6380E-03     50.3842E-03
            2125            2671     49.6380E-03     50.3842E-03
            2133            2671     49.6380E-03     50.3842E-03
            2134            2671     49.6380E-03     50.3842E-03
            2126            2672     64.8711E-03     65.1110E-03
            2125            2672     64.8711E-03     65.1110E-03
            2135            2672     64.8711E-03     65.1110E-03
            2134            2672     64.8711E-03     65.1110E-03
            2136            2673     52.5887E-03     51.2936E-03
            2128            2673     52.5887E-03     51.2936E-03
            2127            2673     52.5887E-03     51.2936E-03
            2137            2673     52.5887E-03     51.2936E-03
            2128            2674     34.8091E-03     34.3824E-03
            2137            2674     34.8091E-03     34.3824E-03
            2129            2674     34.8091E-03     34.3824E-03
            2138            2674     34.8091E-03     34.3824E-03
            2129            2675     21.0988E-03     21.6670E-03
            2139            2675     21.0988E-03     21.6670E-03
            2130            2675     21.0988E-03     21.6670E-03
            2138            2675     21.0988E-03     21.6670E-03
            2131            2676     15.2329E-03     16.4842E-03
            2140            2676     15.2329E-03     16.4842E-03
            2139            2676     15.2329E-03     16.4842E-03
            2130            2676     15.2329E-03     16.4842E-03
            2131            2677     20.3133E-03     20.7882E-03
            2141            2677     20.3133E-03     20.7882E-03
            2140            2677     20.3133E-03     20.7882E-03
            2132            2677     20.3133E-03     20.7882E-03
            2132            2678     32.6515E-03     31.7144E-03
            2133            2678     32.6515E-03     31.7144E-03
            2142            2678     32.6515E-03     31.7144E-03
            2141            2678     32.6515E-03     31.7144E-03
            2142            2679     48.4400E-03     46.6881E-03
            2133            2679     48.4400E-03     46.6881E-03
            2143            2679     48.4400E-03     46.6881E-03
            2134            2679     48.4400E-03     46.6881E-03
            2144            2680     67.5109E-03     65.0465E-03
            2143            2680     67.5109E-03     65.0465E-03
            2135            2680     67.5109E-03     65.0465E-03
            2134            2680     67.5109E-03     65.0465E-03
            2146            2681     48.6060E-03     43.1477E-03
            2137            2681     48.6060E-03     43.1477E-03
            2145            2681     48.6060E-03     43.1477E-03
            2136            2681     48.6060E-03     43.1477E-03
            2146            2682     34.1428E-03     30.3079E-03
            2138            2682     34.1428E-03     30.3079E-03
            2137            2682     34.1428E-03     30.3079E-03
            2147            2682     34.1428E-03     30.3079E-03
            2138            2683     23.5812E-03     21.8363E-03
            2139            2683     23.5812E-03     21.8363E-03
            2148            2683     23.5812E-03     21.8363E-03
            2147            2683     23.5812E-03     21.8363E-03
            2148            2684     19.0705E-03     18.5346E-03
            2140            2684     19.0705E-03     18.5346E-03
            2149            2684     19.0705E-03     18.5346E-03
            2139            2684     19.0705E-03     18.5346E-03
            2149            2685     23.4422E-03     22.4464E-03
            2150            2685     23.4422E-03     22.4464E-03
            2141            2685     23.4422E-03     22.4464E-03
            2140            2685     23.4422E-03     22.4464E-03
            2151            2686     34.1078E-03     31.5637E-03
            2142            2686     34.1078E-03     31.5637E-03
            2141            2686     34.1078E-03     31.5637E-03
            2150            2686     34.1078E-03     31.5637E-03
            2143            2687     47.1420E-03     42.8313E-03
            2151            2687     47.1420E-03     42.8313E-03
            2152            2687     47.1420E-03     42.8313E-03
            2142            2687     47.1420E-03     42.8313E-03
            2153            2688     63.8110E-03     58.1378E-03
            2143            2688     63.8110E-03     58.1378E-03
            2152            2688     63.8110E-03     58.1378E-03
            2144            2688     63.8110E-03     58.1378E-03
            2155            2689     46.0335E-03     43.0482E-03
            2146            2689     46.0335E-03     43.0482E-03
            2154            2689     46.0335E-03     43.0482E-03
            2145            2689     46.0335E-03     43.0482E-03
            2147            2690     35.6792E-03     32.2839E-03
            2156            2690     35.6792E-03     32.2839E-03
            2155            2690     35.6792E-03     32.2839E-03
            2146            2690     35.6792E-03     32.2839E-03
            2156            2691     26.9012E-03     24.0390E-03
            2157            2691     26.9012E-03     24.0390E-03
            2148            2691     26.9012E-03     24.0390E-03
            2147            2691     26.9012E-03     24.0390E-03
            2158            2692     23.6467E-03     21.4625E-03
            2157            2692     23.6467E-03     21.4625E-03
            2149            2692     23.6467E-03     21.4625E-03
            2148            2692     23.6467E-03     21.4625E-03
            2149            2693     27.8590E-03     25.9361E-03
            2150            2693     27.8590E-03     25.9361E-03
            2159            2693     27.8590E-03     25.9361E-03
            2158            2693     27.8590E-03     25.9361E-03
            2151            2694     37.3976E-03     35.1874E-03
            2159            2694     37.3976E-03     35.1874E-03
            2160            2694     37.3976E-03     35.1874E-03
            2150            2694     37.3976E-03     35.1874E-03
            2152            2695     49.4264E-03     46.9616E-03
            2151            2695     49.4264E-03     46.9616E-03
            2160            2695     49.4264E-03     46.9616E-03
            2161            2695     49.4264E-03     46.9616E-03
            2162            2696     62.3235E-03     60.0322E-03
            2161            2696     62.3235E-03     60.0322E-03
            2152            2696     62.3235E-03     60.0322E-03
            2153            2696     62.3235E-03     60.0322E-03
            2164            2697     49.1840E-03     50.4035E-03
            2155            2697     49.1840E-03     50.4035E-03
            2154            2697     49.1840E-03     50.4035E-03
            2163            2697     49.1840E-03     50.4035E-03
            2156            2698     36.8092E-03     36.7992E-03
            2165            2698     36.8092E-03     36.7992E-03
            2155            2698     36.8092E-03     36.7992E-03
            2164            2698     36.8092E-03     36.7992E-03
            2157            2699     26.3139E-03     24.3741E-03
            2156            2699     26.3139E-03     24.3741E-03
            2166            2699     26.3139E-03     24.3741E-03
            2165            2699     26.3139E-03     24.3741E-03
            2157            2700     22.0404E-03     19.3645E-03
            2158            2700     22.0404E-03     19.3645E-03
            2167            2700     22.0404E-03     19.3645E-03
            2166            2700     22.0404E-03     19.3645E-03
            2159            2701     27.2014E-03     25.1203E-03
            2167            2701     27.2014E-03     25.1203E-03
            2158            2701     27.2014E-03     25.1203E-03
            2168            2701     27.2014E-03     25.1203E-03
            2168            2702     38.8445E-03     37.9315E-03
            2160            2702     38.8445E-03     37.9315E-03
            2159            2702     38.8445E-03     37.9315E-03
            2169            2702     38.8445E-03     37.9315E-03
            2161            2703     52.7225E-03     53.1415E-03
            2160            2703     52.7225E-03     53.1415E-03
            2170            2703     52.7225E-03     53.1415E-03
            2169            2703     52.7225E-03     53.1415E-03
            2171            2704     66.6611E-03     67.4488E-03
            2170            2704     66.6611E-03     67.4488E-03
            2161            2704     66.6611E-03     67.4488E-03
            2162            2704     66.6611E-03     67.4488E-03
            2163            2705     51.9026E-03     52.5525E-03
            2172            2705     51.9026E-03     52.5525E-03
            2164            2705     51.9026E-03     52.5525E-03
            2173            2705     51.9026E-03     52.5525E-03
            2165            2706     37.8511E-03     38.8744E-03
            2173            2706     37.8511E-03     38.8744E-03
            2164            2706     37.8511E-03     38.8744E-03
            2174            2706     37.8511E-03     38.8744E-03
            2166            2707     26.3876E-03     25.7450E-03
            2165            2707     26.3876E-03     25.7450E-03
            2174            2707     26.3876E-03     25.7450E-03
            2175            2707     26.3876E-03     25.7450E-03
            2175            2708     21.8817E-03     19.8432E-03
            2167            2708     21.8817E-03     19.8432E-03
            2176            2708     21.8817E-03     19.8432E-03
            2166            2708     21.8817E-03     19.8432E-03
            2177            2709     27.7008E-03     26.1775E-03
            2167            2709     27.7008E-03     26.1775E-03
            2176            2709     27.7008E-03     26.1775E-03
            2168            2709     27.7008E-03     26.1775E-03
            2168            2710     40.3340E-03     40.2689E-03
            2177            2710     40.3340E-03     40.2689E-03
            2178            2710     40.3340E-03     40.2689E-03
            2169            2710     40.3340E-03     40.2689E-03
            2179            2711     54.8505E-03     55.6370E-03
            2178            2711     54.8505E-03     55.6370E-03
            2169            2711     54.8505E-03     55.6370E-03
            2170            2711     54.8505E-03     55.6370E-03
            2170            2712     69.5997E-03     69.7356E-03
            2171            2712     69.5997E-03     69.7356E-03
            2179            2712     69.5997E-03     69.7356E-03
            2180            2712     69.5997E-03     69.7356E-03
            2181            2713     54.5044E-03     54.7287E-03
            2172            2713     54.5044E-03     54.7287E-03
            2173            2713     54.5044E-03     54.7287E-03
            2182            2713     54.5044E-03     54.7287E-03
            2173            2714     39.1605E-03     39.9318E-03
            2183            2714     39.1605E-03     39.9318E-03
            2182            2714     39.1605E-03     39.9318E-03
            2174            2714     39.1605E-03     39.9318E-03
            2175            2715     26.8511E-03     27.0006E-03
            2184            2715     26.8511E-03     27.0006E-03
            2183            2715     26.8511E-03     27.0006E-03
            2174            2715     26.8511E-03     27.0006E-03
            2185            2716     22.1602E-03     21.2066E-03
            2184            2716     22.1602E-03     21.2066E-03
            2176            2716     22.1602E-03     21.2066E-03
            2175            2716     22.1602E-03     21.2066E-03
            2186            2717     28.3745E-03     27.6069E-03
            2176            2717     28.3745E-03     27.6069E-03
            2177            2717     28.3745E-03     27.6069E-03
            2185            2717     28.3745E-03     27.6069E-03
            2187            2718     41.5379E-03     41.6877E-03
            2186            2718     41.5379E-03     41.6877E-03
            2177            2718     41.5379E-03     41.6877E-03
            2178            2718     41.5379E-03     41.6877E-03
            2179            2719     56.6534E-03     56.9389E-03
            2187            2719     56.6534E-03     56.9389E-03
            2178            2719     56.6534E-03     56.9389E-03
            2188            2719     56.6534E-03     56.9389E-03
            2188            2720     72.5334E-03     72.1408E-03
            2189            2720     72.5334E-03     72.1408E-03
            2180            2720     72.5334E-03     72.1408E-03
            2179            2720     72.5334E-03     72.1408E-03
            2190            2721     57.0729E-03     57.0390E-03
            2181            2721     57.0729E-03     57.0390E-03
            2182            2721     57.0729E-03     57.0390E-03
            2191            2721     57.0729E-03     57.0390E-03
            2182            2722     40.7635E-03     41.5104E-03
            2192            2722     40.7635E-03     41.5104E-03
            2183            2722     40.7635E-03     41.5104E-03
            2191            2722     40.7635E-03     41.5104E-03
            2183            2723     27.5044E-03     28.1891E-03
            2193            2723     27.5044E-03     28.1891E-03
            2192            2723     27.5044E-03     28.1891E-03
            2184            2723     27.5044E-03     28.1891E-03
            2193            2724     22.5274E-03     22.7130E-03
            2194            2724     22.5274E-03     22.7130E-03
            2184            2724     22.5274E-03     22.7130E-03
            2185            2724     22.5274E-03     22.7130E-03
            2186            2725     28.9691E-03     29.0484E-03
            2195            2725     28.9691E-03     29.0484E-03
            2185            2725     28.9691E-03     29.0484E-03
            2194            2725     28.9691E-03     29.0484E-03
            2196            2726     42.6139E-03     42.9085E-03
            2186            2726     42.6139E-03     42.9085E-03
            2187            2726     42.6139E-03     42.9085E-03
            2195            2726     42.6139E-03     42.9085E-03
            2188            2727     58.5822E-03     58.7155E-03
            2197            2727     58.5822E-03     58.7155E-03
            2196            2727     58.5822E-03     58.7155E-03
            2187            2727     58.5822E-03     58.7155E-03
            2188            2728     75.3076E-03     74.6721E-03
            2189            2728     75.3076E-03     74.6721E-03
            2198            2728     75.3076E-03     74.6721E-03
            2197            2728     75.3076E-03     74.6721E-03
            2191            2729     59.5776E-03     59.5152E-03
            2199            2729     59.5776E-03     59.5152E-03
            2190            2729     59.5776E-03     59.5152E-03
            2200            2729     59.5776E-03     59.5152E-03
            2201            2730     42.3918E-03     43.2665E-03
            2200            2730     42.3918E-03     43.2665E-03
            2191            2730     42.3918E-03     43.2665E-03
            2192            2730     42.3918E-03     43.2665E-03
            2202            2731     28.2773E-03     29.6716E-03
            2192            2731     28.2773E-03     29.6716E-03
            2193            2731     28.2773E-03     29.6716E-03
            2201            2731     28.2773E-03     29.6716E-03
            2194            2732     22.7426E-03     24.1073E-03
            2202            2732     22.7426E-03     24.1073E-03
            2203            2732     22.7426E-03     24.1073E-03
            2193            2732     22.7426E-03     24.1073E-03
            2195            2733     29.3779E-03     30.4781E-03
            2204            2733     29.3779E-03     30.4781E-03
            2203            2733     29.3779E-03     30.4781E-03
            2194            2733     29.3779E-03     30.4781E-03
            2205            2734     43.6719E-03     44.4784E-03
            2196            2734     43.6719E-03     44.4784E-03
            2195            2734     43.6719E-03     44.4784E-03
            2204            2734     43.6719E-03     44.4784E-03
            2205            2735     60.3680E-03     60.6025E-03
            2206            2735     60.3680E-03     60.6025E-03
            2196            2735     60.3680E-03     60.6025E-03
            2197            2735     60.3680E-03     60.6025E-03
            2198            2736     77.9544E-03     77.3049E-03
            2207            2736     77.9544E-03     77.3049E-03
            2197            2736     77.9544E-03     77.3049E-03
            2206            2736     77.9544E-03     77.3049E-03
            2208            2737     61.9386E-03     62.0926E-03
            2209            2737     61.9386E-03     62.0926E-03
            2200            2737     61.9386E-03     62.0926E-03
            2199            2737     61.9386E-03     62.0926E-03
            2210            2738     44.1383E-03     45.5785E-03
            2200            2738     44.1383E-03     45.5785E-03
            2209            2738     44.1383E-03     45.5785E-03
            2201            2738     44.1383E-03     45.5785E-03
            2210            2739     28.9447E-03     31.2506E-03
            2211            2739     28.9447E-03     31.2506E-03
            2202            2739     28.9447E-03     31.2506E-03
            2201            2739     28.9447E-03     31.2506E-03
            2211            2740     22.2836E-03     24.6674E-03
            2212            2740     22.2836E-03     24.6674E-03
            2203            2740     22.2836E-03     24.6674E-03
            2202            2740     22.2836E-03     24.6674E-03
            2212            2741     28.9497E-03     30.8378E-03
            2203            2741     28.9497E-03     30.8378E-03
            2213            2741     28.9497E-03     30.8378E-03
            2204            2741     28.9497E-03     30.8378E-03
            2214            2742     44.4519E-03     45.9503E-03
            2205            2742     44.4519E-03     45.9503E-03
            2204            2742     44.4519E-03     45.9503E-03
            2213            2742     44.4519E-03     45.9503E-03
            2205            2743     62.2425E-03     63.1222E-03
            2206            2743     62.2425E-03     63.1222E-03
            2214            2743     62.2425E-03     63.1222E-03
            2215            2743     62.2425E-03     63.1222E-03
            2215            2744     80.4340E-03     80.0253E-03
            2207            2744     80.4340E-03     80.0253E-03
            2206            2744     80.4340E-03     80.0253E-03
            2216            2744     80.4340E-03     80.0253E-03
            2218            2745     65.0515E-03     65.8167E-03
            2209            2745     65.0515E-03     65.8167E-03
            2217            2745     65.0515E-03     65.8167E-03
            2208            2745     65.0515E-03     65.8167E-03
            2209            2746     45.4646E-03     47.2007E-03
            2218            2746     45.4646E-03     47.2007E-03
            2219            2746     45.4646E-03     47.2007E-03
            2210            2746     45.4646E-03     47.2007E-03
            2219            2747     28.0028E-03     30.3875E-03
            2210            2747     28.0028E-03     30.3875E-03
            2211            2747     28.0028E-03     30.3875E-03
            2220            2747     28.0028E-03     30.3875E-03
            2211            2748     20.5331E-03     23.2304E-03
            2220            2748     20.5331E-03     23.2304E-03
            2221            2748     20.5331E-03     23.2304E-03
            2212            2748     20.5331E-03     23.2304E-03
            2221            2749     27.4179E-03     29.3326E-03
            2222            2749     27.4179E-03     29.3326E-03
            2213            2749     27.4179E-03     29.3326E-03
            2212            2749     27.4179E-03     29.3326E-03
            2223            2750     43.6154E-03     44.6926E-03
            2222            2750     43.6154E-03     44.6926E-03
            2213            2750     43.6154E-03     44.6926E-03
            2214            2750     43.6154E-03     44.6926E-03
            2224            2751     63.5989E-03     64.6030E-03
            2215            2751     63.5989E-03     64.6030E-03
            2214            2751     63.5989E-03     64.6030E-03
            2223            2751     63.5989E-03     64.6030E-03
            2216            2752     83.8178E-03     84.2124E-03
            2224            2752     83.8178E-03     84.2124E-03
            2225            2752     83.8178E-03     84.2124E-03
            2215            2752     83.8178E-03     84.2124E-03
            2218            2753     67.2658E-03     65.3627E-03
            2226            2753     67.2658E-03     65.3627E-03
            2227            2753     67.2658E-03     65.3627E-03
            2217            2753     67.2658E-03     65.3627E-03
            2219            2754     43.9663E-03     43.0960E-03
            2218            2754     43.9663E-03     43.0960E-03
            2228            2754     43.9663E-03     43.0960E-03
            2227            2754     43.9663E-03     43.0960E-03
            2228            2755     25.2249E-03     25.7262E-03
            2220            2755     25.2249E-03     25.7262E-03
            2229            2755     25.2249E-03     25.7262E-03
            2219            2755     25.2249E-03     25.7262E-03
            2221            2756     16.7658E-03     18.3068E-03
            2230            2756     16.7658E-03     18.3068E-03
            2229            2756     16.7658E-03     18.3068E-03
            2220            2756     16.7658E-03     18.3068E-03
            2230            2757     23.9658E-03     24.4810E-03
            2222            2757     23.9658E-03     24.4810E-03
            2221            2757     23.9658E-03     24.4810E-03
            2231            2757     23.9658E-03     24.4810E-03
            2231            2758     41.0169E-03     39.6442E-03
            2232            2758     41.0169E-03     39.6442E-03
            2222            2758     41.0169E-03     39.6442E-03
            2223            2758     41.0169E-03     39.6442E-03
            2223            2759     61.8656E-03     59.4758E-03
            2232            2759     61.8656E-03     59.4758E-03
            2224            2759     61.8656E-03     59.4758E-03
            2233            2759     61.8656E-03     59.4758E-03
            2224            2760     86.5599E-03     83.3395E-03
            2225            2760     86.5599E-03     83.3395E-03
            2234            2760     86.5599E-03     83.3395E-03
            2233            2760     86.5599E-03     83.3395E-03
            2245            2761     680.642E-06     681.526E-06
            2244            2761     680.642E-06     681.526E-06
            2236            2761     680.642E-06     681.526E-06
            2235            2761     680.642E-06     681.526E-06
            2237            2762     731.923E-06     738.000E-06
            2245            2762     731.923E-06     738.000E-06
            2236            2762     731.923E-06     738.000E-06
            2246            2762     731.923E-06     738.000E-06
            2238            2763     733.758E-06     738.233E-06
            2246            2763     733.758E-06     738.233E-06
            2247            2763     733.758E-06     738.233E-06
            2237            2763     733.758E-06     738.233E-06
            2248            2764     730.520E-06     734.557E-06
            2238            2764     730.520E-06     734.557E-06
            2239            2764     730.520E-06     734.557E-06
            2247            2764     730.520E-06     734.557E-06
            2249            2765     730.520E-06     734.557E-06
            2248            2765     730.520E-06     734.557E-06
            2239            2765     730.520E-06     734.557E-06
            2240            2765     730.520E-06     734.557E-06
            2249            2766     733.758E-06     738.233E-06
            2241            2766     733.758E-06     738.233E-06
            2240            2766     733.758E-06     738.233E-06
            2250            2766     733.758E-06     738.233E-06
            2242            2767     731.923E-06     738.000E-06
            2250            2767     731.923E-06     738.000E-06
            2251            2767     731.923E-06     738.000E-06
            2241            2767     731.923E-06     738.000E-06
            2243            2768     680.642E-06     681.526E-06
            2242            2768     680.642E-06     681.526E-06
            2252            2768     680.642E-06     681.526E-06
            2251            2768     680.642E-06     681.526E-06
            2254            2769     627.627E-06     631.767E-06
            2253            2769     627.627E-06     631.767E-06
            2245            2769     627.627E-06     631.767E-06
            2244            2769     627.627E-06     631.767E-06
            2246            2770     750.269E-06     755.515E-06
            2254            2770     750.269E-06     755.515E-06
            2245            2770     750.269E-06     755.515E-06
            2255            2770     750.269E-06     755.515E-06
            2255            2771     750.177E-06     756.965E-06
            2247            2771     750.177E-06     756.965E-06
            2256            2771     750.177E-06     756.965E-06
            2246            2771     750.177E-06     756.965E-06
            2247            2772     741.374E-06     746.949E-06
            2248            2772     741.374E-06     746.949E-06
            2257            2772     741.374E-06     746.949E-06
            2256            2772     741.374E-06     746.949E-06
            2257            2773     741.374E-06     746.949E-06
            2258            2773     741.374E-06     746.949E-06
            2249            2773     741.374E-06     746.949E-06
            2248            2773     741.374E-06     746.949E-06
            2258            2774     750.177E-06     756.965E-06
            2259            2774     750.177E-06     756.965E-06
            2250            2774     750.177E-06     756.965E-06
            2249            2774     750.177E-06     756.965E-06
            2251            2775     750.269E-06     755.515E-06
            2260            2775     750.269E-06     755.515E-06
            2259            2775     750.269E-06     755.515E-06
            2250            2775     750.269E-06     755.515E-06
            2251            2776     627.627E-06     631.767E-06
            2252            2776     627.627E-06     631.767E-06
            2260            2776     627.627E-06     631.767E-06
            2261            2776     627.627E-06     631.767E-06
            2254            2777     610.215E-06     612.452E-06
            2253            2777     610.215E-06     612.452E-06
            2263            2777     610.215E-06     612.452E-06
            2262            2777     610.215E-06     612.452E-06
            2264            2778     727.152E-06     729.291E-06
            2263            2778     727.152E-06     729.291E-06
            2254            2778     727.152E-06     729.291E-06
            2255            2778     727.152E-06     729.291E-06
            2256            2779     748.166E-06     752.021E-06
            2255            2779     748.166E-06     752.021E-06
            2265            2779     748.166E-06     752.021E-06
            2264            2779     748.166E-06     752.021E-06
            2265            2780     749.820E-06     754.184E-06
            2266            2780     749.820E-06     754.184E-06
            2256            2780     749.820E-06     754.184E-06
            2257            2780     749.820E-06     754.184E-06
            2267            2781     749.820E-06     754.184E-06
            2258            2781     749.820E-06     754.184E-06
            2257            2781     749.820E-06     754.184E-06
            2266            2781     749.820E-06     754.184E-06
            2267            2782     748.166E-06     752.021E-06
            2259            2782     748.166E-06     752.021E-06
            2268            2782     748.166E-06     752.021E-06
            2258            2782     748.166E-06     752.021E-06
            2268            2783     727.152E-06     729.291E-06
            2269            2783     727.152E-06     729.291E-06
            2260            2783     727.152E-06     729.291E-06
            2259            2783     727.152E-06     729.291E-06
            2261            2784     610.215E-06     612.452E-06
            2269            2784     610.215E-06     612.452E-06
            2260            2784     610.215E-06     612.452E-06
            2270            2784     610.215E-06     612.452E-06
            3851            4163     93.1576E-03     89.5584E-03
            3860            4163     93.1576E-03     89.5584E-03
            3852            4163     93.1576E-03     89.5584E-03
            3861            4163     93.1576E-03     89.5584E-03
            3852            4164     66.0006E-03     63.4425E-03
            3853            4164     66.0006E-03     63.4425E-03
            3862            4164     66.0006E-03     63.4425E-03
            3861            4164     66.0006E-03     63.4425E-03
            3862            4165     43.5160E-03     41.7721E-03
            3853            4165     43.5160E-03     41.7721E-03
            3854            4165     43.5160E-03     41.7721E-03
            3863            4165     43.5160E-03     41.7721E-03
            3854            4166     25.7153E-03     25.4947E-03
            3855            4166     25.7153E-03     25.4947E-03
            3864            4166     25.7153E-03     25.4947E-03
            3863            4166     25.7153E-03     25.4947E-03
            3864            4167     19.7732E-03     21.0129E-03
            3855            4167     19.7732E-03     21.0129E-03
            3856            4167     19.7732E-03     21.0129E-03
            3865            4167     19.7732E-03     21.0129E-03
            3856            4168     30.4988E-03     31.8394E-03
            3866            4168     30.4988E-03     31.8394E-03
            3857            4168     30.4988E-03     31.8394E-03
            3865            4168     30.4988E-03     31.8394E-03
            3867            4169     51.4259E-03     51.9371E-03
            3857            4169     51.4259E-03     51.9371E-03
            3866            4169     51.4259E-03     51.9371E-03
            3858            4169     51.4259E-03     51.9371E-03
            3858            4170     77.9440E-03     76.8895E-03
            3868            4170     77.9440E-03     76.8895E-03
            3867            4170     77.9440E-03     76.8895E-03
            3859            4170     77.9440E-03     76.8895E-03
            3860            4171     89.4626E-03     91.0532E-03
            3870            4171     89.4626E-03     91.0532E-03
            3869            4171     89.4626E-03     91.0532E-03
            3861            4171     89.4626E-03     91.0532E-03
            3871            4172     67.7687E-03     69.9684E-03
            3861            4172     67.7687E-03     69.9684E-03
            3870            4172     67.7687E-03     69.9684E-03
            3862            4172     67.7687E-03     69.9684E-03
            3871            4173     46.3790E-03     47.7190E-03
            3863            4173     46.3790E-03     47.7190E-03
            3862            4173     46.3790E-03     47.7190E-03
            3872            4173     46.3790E-03     47.7190E-03
            3872            4174     29.4744E-03     30.4981E-03
            3863            4174     29.4744E-03     30.4981E-03
            3873            4174     29.4744E-03     30.4981E-03
            3864            4174     29.4744E-03     30.4981E-03
            3873            4175     24.0801E-03     25.8442E-03
            3864            4175     24.0801E-03     25.8442E-03
            3865            4175     24.0801E-03     25.8442E-03
            3874            4175     24.0801E-03     25.8442E-03
            3865            4176     34.2099E-03     37.0900E-03
            3866            4176     34.2099E-03     37.0900E-03
            3875            4176     34.2099E-03     37.0900E-03
            3874            4176     34.2099E-03     37.0900E-03
            3866            4177     53.8337E-03     57.2137E-03
            3876            4177     53.8337E-03     57.2137E-03
            3867            4177     53.8337E-03     57.2137E-03
            3875            4177     53.8337E-03     57.2137E-03
            3868            4178     75.3906E-03     77.5369E-03
            3867            4178     75.3906E-03     77.5369E-03
            3876            4178     75.3906E-03     77.5369E-03
            3877            4178     75.3906E-03     77.5369E-03
            3870            4179     85.0852E-03     86.5771E-03
            3879            4179     85.0852E-03     86.5771E-03
            3869            4179     85.0852E-03     86.5771E-03
            3878            4179     85.0852E-03     86.5771E-03
            3879            4180     66.4566E-03     69.5047E-03
            3870            4180     66.4566E-03     69.5047E-03
            3871            4180     66.4566E-03     69.5047E-03
            3880            4180     66.4566E-03     69.5047E-03
            3880            4181     47.3394E-03     49.5734E-03
            3871            4181     47.3394E-03     49.5734E-03
            3872            4181     47.3394E-03     49.5734E-03
            3881            4181     47.3394E-03     49.5734E-03
            3882            4182     31.0675E-03     31.9168E-03
            3872            4182     31.0675E-03     31.9168E-03
            3881            4182     31.0675E-03     31.9168E-03
            3873            4182     31.0675E-03     31.9168E-03
            3883            4183     26.3047E-03     27.1287E-03
            3882            4183     26.3047E-03     27.1287E-03
            3873            4183     26.3047E-03     27.1287E-03
            3874            4183     26.3047E-03     27.1287E-03
            3875            4184     36.1486E-03     38.3941E-03
            3883            4184     36.1486E-03     38.3941E-03
            3874            4184     36.1486E-03     38.3941E-03
            3884            4184     36.1486E-03     38.3941E-03
            3875            4185     53.1214E-03     56.4605E-03
            3876            4185     53.1214E-03     56.4605E-03
            3884            4185     53.1214E-03     56.4605E-03
            3885            4185     53.1214E-03     56.4605E-03
            3877            4186     71.4466E-03     73.4516E-03
            3876            4186     71.4466E-03     73.4516E-03
            3885            4186     71.4466E-03     73.4516E-03
            3886            4186     71.4466E-03     73.4516E-03
            3888            4187     81.6731E-03     83.4188E-03
            3878            4187     81.6731E-03     83.4188E-03
            3887            4187     81.6731E-03     83.4188E-03
            3879            4187     81.6731E-03     83.4188E-03
            3888            4188     63.7628E-03     65.8707E-03
            3880            4188     63.7628E-03     65.8707E-03
            3879            4188     63.7628E-03     65.8707E-03
            3889            4188     63.7628E-03     65.8707E-03
            3890            4189     46.0897E-03     47.1482E-03
            3880            4189     46.0897E-03     47.1482E-03
            3881            4189     46.0897E-03     47.1482E-03
            3889            4189     46.0897E-03     47.1482E-03
            3890            4190     32.0062E-03     32.0729E-03
            3881            4190     32.0062E-03     32.0729E-03
            3891            4190     32.0062E-03     32.0729E-03
            3882            4190     32.0062E-03     32.0729E-03
            3891            4191     27.8674E-03     27.3771E-03
            3892            4191     27.8674E-03     27.3771E-03
            3883            4191     27.8674E-03     27.3771E-03
            3882            4191     27.8674E-03     27.3771E-03
            3892            4192     36.3333E-03     36.1803E-03
            3893            4192     36.3333E-03     36.1803E-03
            3883            4192     36.3333E-03     36.1803E-03
            3884            4192     36.3333E-03     36.1803E-03
            3893            4193     51.6198E-03     52.9054E-03
            3885            4193     51.6198E-03     52.9054E-03
            3884            4193     51.6198E-03     52.9054E-03
            3894            4193     51.6198E-03     52.9054E-03
            3895            4194     68.3111E-03     70.2959E-03
            3885            4194     68.3111E-03     70.2959E-03
            3886            4194     68.3111E-03     70.2959E-03
            3894            4194     68.3111E-03     70.2959E-03
            3888            4195     75.4998E-03     74.6705E-03
            3887            4195     75.4998E-03     74.6705E-03
            3896            4195     75.4998E-03     74.6705E-03
            3897            4195     75.4998E-03     74.6705E-03
            3897            4196     59.3721E-03     58.7731E-03
            3889            4196     59.3721E-03     58.7731E-03
            3898            4196     59.3721E-03     58.7731E-03
            3888            4196     59.3721E-03     58.7731E-03
            3889            4197     44.6665E-03     44.2421E-03
            3899            4197     44.6665E-03     44.2421E-03
            3890            4197     44.6665E-03     44.2421E-03
            3898            4197     44.6665E-03     44.2421E-03
            3900            4198     33.7513E-03     33.3761E-03
            3899            4198     33.7513E-03     33.3761E-03
            3891            4198     33.7513E-03     33.3761E-03
            3890            4198     33.7513E-03     33.3761E-03
            3891            4199     30.5645E-03     29.4812E-03
            3892            4199     30.5645E-03     29.4812E-03
            3901            4199     30.5645E-03     29.4812E-03
            3900            4199     30.5645E-03     29.4812E-03
            3893            4200     36.8836E-03     34.6622E-03
            3892            4200     36.8836E-03     34.6622E-03
            3901            4200     36.8836E-03     34.6622E-03
            3902            4200     36.8836E-03     34.6622E-03
            3902            4201     49.4443E-03     46.4415E-03
            3894            4201     49.4443E-03     46.4415E-03
            3893            4201     49.4443E-03     46.4415E-03
            3903            4201     49.4443E-03     46.4415E-03
            3895            4202     63.7114E-03     60.8832E-03
            3894            4202     63.7114E-03     60.8832E-03
            3904            4202     63.7114E-03     60.8832E-03
            3903            4202     63.7114E-03     60.8832E-03
            3905            4203     56.8734E-03     71.7833E-03
            3906            4203     56.8734E-03     71.7833E-03
            3915            4203     56.8734E-03     71.7833E-03
            3914            4203     56.8734E-03     71.7833E-03
            3915            4204     42.3833E-03     52.8750E-03
            3916            4204     42.3833E-03     52.8750E-03
            3907            4204     42.3833E-03     52.8750E-03
            3906            4204     42.3833E-03     52.8750E-03
            3907            4205     29.5245E-03     36.9939E-03
            3917            4205     29.5245E-03     36.9939E-03
            3916            4205     29.5245E-03     36.9939E-03
            3908            4205     29.5245E-03     36.9939E-03
            3909            4206     23.4774E-03     26.9342E-03
            3917            4206     23.4774E-03     26.9342E-03
            3918            4206     23.4774E-03     26.9342E-03
            3908            4206     23.4774E-03     26.9342E-03
            3918            4207     28.7535E-03     27.1181E-03
            3910            4207     28.7535E-03     27.1181E-03
            3919            4207     28.7535E-03     27.1181E-03
            3909            4207     28.7535E-03     27.1181E-03
            3919            4208     41.5146E-03     36.9414E-03
            3910            4208     41.5146E-03     36.9414E-03
            3920            4208     41.5146E-03     36.9414E-03
            3911            4208     41.5146E-03     36.9414E-03
            3921            4209     57.1069E-03     51.3325E-03
            3911            4209     57.1069E-03     51.3325E-03
            3920            4209     57.1069E-03     51.3325E-03
            3912            4209     57.1069E-03     51.3325E-03
            3913            4210     73.7804E-03     67.8763E-03
            3921            4210     73.7804E-03     67.8763E-03
            3912            4210     73.7804E-03     67.8763E-03
            3922            4210     73.7804E-03     67.8763E-03
            3915            4211     64.7708E-03     80.5682E-03
            3923            4211     64.7708E-03     80.5682E-03
            3924            4211     64.7708E-03     80.5682E-03
            3914            4211     64.7708E-03     80.5682E-03
            3916            4212     47.0400E-03     64.0050E-03
            3925            4212     47.0400E-03     64.0050E-03
            3915            4212     47.0400E-03     64.0050E-03
            3924            4212     47.0400E-03     64.0050E-03
            3916            4213     33.6877E-03     47.4473E-03
            3917            4213     33.6877E-03     47.4473E-03
            3925            4213     33.6877E-03     47.4473E-03
            3926            4213     33.6877E-03     47.4473E-03
            3926            4214     26.9551E-03     34.5969E-03
            3918            4214     26.9551E-03     34.5969E-03
            3917            4214     26.9551E-03     34.5969E-03
            3927            4214     26.9551E-03     34.5969E-03
            3919            4215     30.7275E-03     30.3387E-03
            3928            4215     30.7275E-03     30.3387E-03
            3918            4215     30.7275E-03     30.3387E-03
            3927            4215     30.7275E-03     30.3387E-03
            3929            4216     42.6949E-03     37.2937E-03
            3920            4216     42.6949E-03     37.2937E-03
            3928            4216     42.6949E-03     37.2937E-03
            3919            4216     42.6949E-03     37.2937E-03
            3930            4217     57.9508E-03     51.6402E-03
            3920            4217     57.9508E-03     51.6402E-03
            3929            4217     57.9508E-03     51.6402E-03
            3921            4217     57.9508E-03     51.6402E-03
            3930            4218     74.1094E-03     69.1090E-03
            3931            4218     74.1094E-03     69.1090E-03
            3922            4218     74.1094E-03     69.1090E-03
            3921            4218     74.1094E-03     69.1090E-03
            3923            4219     78.5624E-03     80.0243E-03
            3933            4219     78.5624E-03     80.0243E-03
            3924            4219     78.5624E-03     80.0243E-03
            3932            4219     78.5624E-03     80.0243E-03
            3925            4220     56.2835E-03     65.2002E-03
            3934            4220     56.2835E-03     65.2002E-03
            3933            4220     56.2835E-03     65.2002E-03
            3924            4220     56.2835E-03     65.2002E-03
            3926            4221     36.8037E-03     45.9447E-03
            3934            4221     36.8037E-03     45.9447E-03
            3935            4221     36.8037E-03     45.9447E-03
            3925            4221     36.8037E-03     45.9447E-03
            3926            4222     23.8849E-03     30.4454E-03
            3935            4222     23.8849E-03     30.4454E-03
            3936            4222     23.8849E-03     30.4454E-03
            3927            4222     23.8849E-03     30.4454E-03
            3927            4223     25.1321E-03     28.7740E-03
            3936            4223     25.1321E-03     28.7740E-03
            3937            4223     25.1321E-03     28.7740E-03
            3928            4223     25.1321E-03     28.7740E-03
            3929            4224     40.0461E-03     41.6515E-03
            3937            4224     40.0461E-03     41.6515E-03
            3928            4224     40.0461E-03     41.6515E-03
            3938            4224     40.0461E-03     41.6515E-03
            3938            4225     58.9773E-03     61.1569E-03
            3930            4225     58.9773E-03     61.1569E-03
            3929            4225     58.9773E-03     61.1569E-03
            3939            4225     58.9773E-03     61.1569E-03
            3931            4226     77.2199E-03     79.8530E-03
            3930            4226     77.2199E-03     79.8530E-03
            3939            4226     77.2199E-03     79.8530E-03
            3940            4226     77.2199E-03     79.8530E-03
            3932            4227     81.7439E-03     84.6437E-03
            3941            4227     81.7439E-03     84.6437E-03
            3933            4227     81.7439E-03     84.6437E-03
            3942            4227     81.7439E-03     84.6437E-03
            3933            4228     62.6938E-03     62.4978E-03
            3943            4228     62.6938E-03     62.4978E-03
            3942            4228     62.6938E-03     62.4978E-03
            3934            4228     62.6938E-03     62.4978E-03
            3935            4229     40.8055E-03     40.5752E-03
            3934            4229     40.8055E-03     40.5752E-03
            3943            4229     40.8055E-03     40.5752E-03
            3944            4229     40.8055E-03     40.5752E-03
            3945            4230     23.4085E-03     26.5230E-03
            3944            4230     23.4085E-03     26.5230E-03
            3935            4230     23.4085E-03     26.5230E-03
            3936            4230     23.4085E-03     26.5230E-03
            3946            4231     21.3311E-03     27.8010E-03
            3945            4231     21.3311E-03     27.8010E-03
            3936            4231     21.3311E-03     27.8010E-03
            3937            4231     21.3311E-03     27.8010E-03
            3947            4232     36.2176E-03     43.4228E-03
            3938            4232     36.2176E-03     43.4228E-03
            3937            4232     36.2176E-03     43.4228E-03
            3946            4232     36.2176E-03     43.4228E-03
            3938            4233     58.0672E-03     65.1822E-03
            3948            4233     58.0672E-03     65.1822E-03
            3947            4233     58.0672E-03     65.1822E-03
            3939            4233     58.0672E-03     65.1822E-03
            3939            4234     80.0224E-03     84.6121E-03
            3948            4234     80.0224E-03     84.6121E-03
            3940            4234     80.0224E-03     84.6121E-03
            3949            4234     80.0224E-03     84.6121E-03
            3950            4235     91.8526E-03     76.9784E-03
            3951            4235     91.8526E-03     76.9784E-03
            3941            4235     91.8526E-03     76.9784E-03
            3942            4235     91.8526E-03     76.9784E-03
            3951            4236     66.3745E-03     51.0161E-03
            3952            4236     66.3745E-03     51.0161E-03
            3942            4236     66.3745E-03     51.0161E-03
            3943            4236     66.3745E-03     51.0161E-03
            3944            4237     43.3024E-03     30.5692E-03
            3952            4237     43.3024E-03     30.5692E-03
            3943            4237     43.3024E-03     30.5692E-03
            3953            4237     43.3024E-03     30.5692E-03
            3954            4238     23.1590E-03     20.0016E-03
            3944            4238     23.1590E-03     20.0016E-03
            3953            4238     23.1590E-03     20.0016E-03
            3945            4238     23.1590E-03     20.0016E-03
            3945            4239     17.2431E-03     24.4354E-03
            3954            4239     17.2431E-03     24.4354E-03
            3955            4239     17.2431E-03     24.4354E-03
            3946            4239     17.2431E-03     24.4354E-03
            3946            4240     30.6631E-03     40.5938E-03
            3956            4240     30.6631E-03     40.5938E-03
            3955            4240     30.6631E-03     40.5938E-03
            3947            4240     30.6631E-03     40.5938E-03
            3957            4241     53.6110E-03     60.9899E-03
            3948            4241     53.6110E-03     60.9899E-03
            3947            4241     53.6110E-03     60.9899E-03
            3956            4241     53.6110E-03     60.9899E-03
            3949            4242     81.2453E-03     84.5147E-03
            3948            4242     81.2453E-03     84.5147E-03
            3958            4242     81.2453E-03     84.5147E-03
            3957            4242     81.2453E-03     84.5147E-03
            5325            5425     778.707E-06     774.817E-06
            5334            5425     778.707E-06     774.817E-06
            5326            5425     778.707E-06     774.817E-06
            5335            5425     778.707E-06     774.817E-06
            5326            5426     752.189E-06     759.781E-06
            5336            5426     752.189E-06     759.781E-06
            5327            5426     752.189E-06     759.781E-06
            5335            5426     752.189E-06     759.781E-06
            5328            5427     743.212E-06     751.038E-06
            5337            5427     743.212E-06     751.038E-06
            5336            5427     743.212E-06     751.038E-06
            5327            5427     743.212E-06     751.038E-06
            5337            5428     748.326E-06     755.870E-06
            5338            5428     748.326E-06     755.870E-06
            5328            5428     748.326E-06     755.870E-06
            5329            5428     748.326E-06     755.870E-06
            5339            5429     748.326E-06     755.870E-06
            5338            5429     748.326E-06     755.870E-06
            5329            5429     748.326E-06     755.870E-06
            5330            5429     748.326E-06     755.870E-06
            5331            5430     743.212E-06     751.038E-06
            5339            5430     743.212E-06     751.038E-06
            5340            5430     743.212E-06     751.038E-06
            5330            5430     743.212E-06     751.038E-06
            5340            5431     752.189E-06     759.781E-06
            5331            5431     752.189E-06     759.781E-06
            5341            5431     752.189E-06     759.781E-06
            5332            5431     752.189E-06     759.781E-06
            5333            5432     778.707E-06     774.817E-06
            5342            5432     778.707E-06     774.817E-06
            5332            5432     778.707E-06     774.817E-06
            5341            5432     778.707E-06     774.817E-06
            5334            5433     671.191E-06     675.670E-06
            5335            5433     671.191E-06     675.670E-06
            5343            5433     671.191E-06     675.670E-06
            5344            5433     671.191E-06     675.670E-06
            5335            5434     754.741E-06     764.167E-06
            5336            5434     754.741E-06     764.167E-06
            5345            5434     754.741E-06     764.167E-06
            5344            5434     754.741E-06     764.167E-06
            5345            5435     781.889E-06     792.900E-06
            5346            5435     781.889E-06     792.900E-06
            5337            5435     781.889E-06     792.900E-06
            5336            5435     781.889E-06     792.900E-06
            5338            5436     790.430E-06     800.151E-06
            5337            5436     790.430E-06     800.151E-06
            5346            5436     790.430E-06     800.151E-06
            5347            5436     790.430E-06     800.151E-06
            5339            5437     790.430E-06     800.151E-06
            5338            5437     790.430E-06     800.151E-06
            5347            5437     790.430E-06     800.151E-06
            5348            5437     790.430E-06     800.151E-06
            5349            5438     781.889E-06     792.900E-06
            5340            5438     781.889E-06     792.900E-06
            5339            5438     781.889E-06     792.900E-06
            5348            5438     781.889E-06     792.900E-06
            5341            5439     754.741E-06     764.167E-06
            5349            5439     754.741E-06     764.167E-06
            5340            5439     754.741E-06     764.167E-06
            5350            5439     754.741E-06     764.167E-06
            5351            5440     671.191E-06     675.670E-06
            5341            5440     671.191E-06     675.670E-06
            5342            5440     671.191E-06     675.670E-06
            5350            5440     671.191E-06     675.670E-06
            5352            5441     591.078E-06     595.511E-06
            5353            5441     591.078E-06     595.511E-06
            5343            5441     591.078E-06     595.511E-06
            5344            5441     591.078E-06     595.511E-06
            5353            5442     730.739E-06     734.629E-06
            5345            5442     730.739E-06     734.629E-06
            5354            5442     730.739E-06     734.629E-06
            5344            5442     730.739E-06     734.629E-06
            5355            5443     796.331E-06     802.108E-06
            5346            5443     796.331E-06     802.108E-06
            5354            5443     796.331E-06     802.108E-06
            5345            5443     796.331E-06     802.108E-06
            5356            5444     808.876E-06     815.317E-06
            5347            5444     808.876E-06     815.317E-06
            5346            5444     808.876E-06     815.317E-06
            5355            5444     808.876E-06     815.317E-06
            5347            5445     808.876E-06     815.317E-06
            5356            5445     808.876E-06     815.317E-06
            5348            5445     808.876E-06     815.317E-06
            5357            5445     808.876E-06     815.317E-06
            5348            5446     796.331E-06     802.108E-06
            5349            5446     796.331E-06     802.108E-06
            5357            5446     796.331E-06     802.108E-06
            5358            5446     796.331E-06     802.108E-06
            5358            5447     730.739E-06     734.629E-06
            5350            5447     730.739E-06     734.629E-06
            5349            5447     730.739E-06     734.629E-06
            5359            5447     730.739E-06     734.629E-06
            5351            5448     591.078E-06     595.511E-06
            5359            5448     591.078E-06     595.511E-06
            5350            5448     591.078E-06     595.511E-06
            5360            5448     591.078E-06     595.511E-06
            5352            5449     569.989E-06     576.958E-06
            5361            5449     569.989E-06     576.958E-06
            5353            5449     569.989E-06     576.958E-06
            5362            5449     569.989E-06     576.958E-06
            5353            5450     723.645E-06     724.825E-06
            5363            5450     723.645E-06     724.825E-06
            5362            5450     723.645E-06     724.825E-06
            5354            5450     723.645E-06     724.825E-06
            5355            5451     781.931E-06     782.187E-06
            5363            5451     781.931E-06     782.187E-06
            5364            5451     781.931E-06     782.187E-06
            5354            5451     781.931E-06     782.187E-06
            5365            5452     799.296E-06     800.562E-06
            5355            5452     799.296E-06     800.562E-06
            5356            5452     799.296E-06     800.562E-06
            5364            5452     799.296E-06     800.562E-06
            5365            5453     799.296E-06     800.562E-06
            5366            5453     799.296E-06     800.562E-06
            5357            5453     799.296E-06     800.562E-06
            5356            5453     799.296E-06     800.562E-06
            5358            5454     781.931E-06     782.187E-06
            5366            5454     781.931E-06     782.187E-06
            5357            5454     781.931E-06     782.187E-06
            5367            5454     781.931E-06     782.187E-06
            5368            5455     723.645E-06     724.825E-06
            5359            5455     723.645E-06     724.825E-06
            5358            5455     723.645E-06     724.825E-06
            5367            5455     723.645E-06     724.825E-06
            5368            5456     569.989E-06     576.958E-06
            5360            5456     569.989E-06     576.958E-06
            5359            5456     569.989E-06     576.958E-06
            5369            5456     569.989E-06     576.958E-06
            5361            5457     587.845E-06     592.823E-06
            5370            5457     587.845E-06     592.823E-06
            5362            5457     587.845E-06     592.823E-06
            5371            5457     587.845E-06     592.823E-06
            5362            5458     708.650E-06     708.319E-06
            5372            5458     708.650E-06     708.319E-06
            5363            5458     708.650E-06     708.319E-06
            5371            5458     708.650E-06     708.319E-06
            5373            5459     754.655E-06     753.199E-06
            5363            5459     754.655E-06     753.199E-06
            5372            5459     754.655E-06     753.199E-06
            5364            5459     754.655E-06     753.199E-06
            5373            5460     777.094E-06     775.800E-06
            5365            5460     777.094E-06     775.800E-06
            5364            5460     777.094E-06     775.800E-06
            5374            5460     777.094E-06     775.800E-06
            5366            5461     777.094E-06     775.800E-06
            5375            5461     777.094E-06     775.800E-06
            5374            5461     777.094E-06     775.800E-06
            5365            5461     777.094E-06     775.800E-06
            5367            5462     754.655E-06     753.199E-06
            5375            5462     754.655E-06     753.199E-06
            5366            5462     754.655E-06     753.199E-06
            5376            5462     754.655E-06     753.199E-06
            5377            5463     708.650E-06     708.319E-06
            5368            5463     708.650E-06     708.319E-06
            5376            5463     708.650E-06     708.319E-06
            5367            5463     708.650E-06     708.319E-06
            5378            5464     587.845E-06     592.823E-06
            5377            5464     587.845E-06     592.823E-06
            5369            5464     587.845E-06     592.823E-06
            5368            5464     587.845E-06     592.823E-06
            5388            5465     75.1834E-03     71.8331E-03
            5389            5465     75.1834E-03     71.8331E-03
            5379            5465     75.1834E-03     71.8331E-03
            5380            5465     75.1834E-03     71.8331E-03
            5389            5466     53.2232E-03     50.8950E-03
            5380            5466     53.2232E-03     50.8950E-03
            5390            5466     53.2232E-03     50.8950E-03
            5381            5466     53.2232E-03     50.8950E-03
            5381            5467     35.0486E-03     33.8073E-03
            5390            5467     35.0486E-03     33.8073E-03
            5382            5467     35.0486E-03     33.8073E-03
            5391            5467     35.0486E-03     33.8073E-03
            5392            5468     19.8616E-03     19.7436E-03
            5383            5468     19.8616E-03     19.7436E-03
            5382            5468     19.8616E-03     19.7436E-03
            5391            5468     19.8616E-03     19.7436E-03
            5383            5469     15.8413E-03     16.1126E-03
            5392            5469     15.8413E-03     16.1126E-03
            5393            5469     15.8413E-03     16.1126E-03
            5384            5469     15.8413E-03     16.1126E-03
            5385            5470     26.2630E-03     25.7927E-03
            5393            5470     26.2630E-03     25.7927E-03
            5394            5470     26.2630E-03     25.7927E-03
            5384            5470     26.2630E-03     25.7927E-03
            5386            5471     43.4594E-03     41.9391E-03
            5394            5471     43.4594E-03     41.9391E-03
            5385            5471     43.4594E-03     41.9391E-03
            5395            5471     43.4594E-03     41.9391E-03
            5395            5472     64.7147E-03     62.3472E-03
            5396            5472     64.7147E-03     62.3472E-03
            5386            5472     64.7147E-03     62.3472E-03
            5387            5472     64.7147E-03     62.3472E-03
            5397            5473     79.7954E-03     76.9855E-03
            5398            5473     79.7954E-03     76.9855E-03
            5388            5473     79.7954E-03     76.9855E-03
            5389            5473     79.7954E-03     76.9855E-03
            5399            5474     56.3614E-03     54.4835E-03
            5390            5474     56.3614E-03     54.4835E-03
            5398            5474     56.3614E-03     54.4835E-03
            5389            5474     56.3614E-03     54.4835E-03
            5391            5475     37.1557E-03     36.3648E-03
            5390            5475     37.1557E-03     36.3648E-03
            5400            5475     37.1557E-03     36.3648E-03
            5399            5475     37.1557E-03     36.3648E-03
            5400            5476     22.9680E-03     23.9286E-03
            5391            5476     22.9680E-03     23.9286E-03
            5392            5476     22.9680E-03     23.9286E-03
            5401            5476     22.9680E-03     23.9286E-03
            5401            5477     19.3649E-03     20.8983E-03
            5402            5477     19.3649E-03     20.8983E-03
            5393            5477     19.3649E-03     20.8983E-03
            5392            5477     19.3649E-03     20.8983E-03
            5393            5478     29.0273E-03     29.3421E-03
            5403            5478     29.0273E-03     29.3421E-03
            5394            5478     29.0273E-03     29.3421E-03
            5402            5478     29.0273E-03     29.3421E-03
            5394            5479     46.8380E-03     45.9333E-03
            5404            5479     46.8380E-03     45.9333E-03
            5395            5479     46.8380E-03     45.9333E-03
            5403            5479     46.8380E-03     45.9333E-03
            5396            5480     69.3735E-03     67.4238E-03
            5404            5480     69.3735E-03     67.4238E-03
            5395            5480     69.3735E-03     67.4238E-03
            5405            5480     69.3735E-03     67.4238E-03
            5406            5481     76.6864E-03     77.0494E-03
            5407            5481     76.6864E-03     77.0494E-03
            5398            5481     76.6864E-03     77.0494E-03
            5397            5481     76.6864E-03     77.0494E-03
            5398            5482     57.8564E-03     58.9198E-03
            5399            5482     57.8564E-03     58.9198E-03
            5407            5482     57.8564E-03     58.9198E-03
            5408            5482     57.8564E-03     58.9198E-03
            5408            5483     39.7761E-03     41.1308E-03
            5399            5483     39.7761E-03     41.1308E-03
            5409            5483     39.7761E-03     41.1308E-03
            5400            5483     39.7761E-03     41.1308E-03
            5401            5484     26.6398E-03     28.8208E-03
            5409            5484     26.6398E-03     28.8208E-03
            5410            5484     26.6398E-03     28.8208E-03
            5400            5484     26.6398E-03     28.8208E-03
            5410            5485     23.2264E-03     25.8244E-03
            5411            5485     23.2264E-03     25.8244E-03
            5402            5485     23.2264E-03     25.8244E-03
            5401            5485     23.2264E-03     25.8244E-03
            5402            5486     31.8331E-03     33.9046E-03
            5412            5486     31.8331E-03     33.9046E-03
            5411            5486     31.8331E-03     33.9046E-03
            5403            5486     31.8331E-03     33.9046E-03
            5403            5487     48.3300E-03     49.8016E-03
            5404            5487     48.3300E-03     49.8016E-03
            5413            5487     48.3300E-03     49.8016E-03
            5412            5487     48.3300E-03     49.8016E-03
            5414            5488     66.6485E-03     67.1969E-03
            5405            5488     66.6485E-03     67.1969E-03
            5404            5488     66.6485E-03     67.1969E-03
            5413            5488     66.6485E-03     67.1969E-03
            5406            5489     72.9678E-03     72.6223E-03
            5407            5489     72.9678E-03     72.6223E-03
            5415            5489     72.9678E-03     72.6223E-03
            5416            5489     72.9678E-03     72.6223E-03
            5408            5490     56.3255E-03     57.1782E-03
            5417            5490     56.3255E-03     57.1782E-03
            5416            5490     56.3255E-03     57.1782E-03
            5407            5490     56.3255E-03     57.1782E-03
            5408            5491     40.6064E-03     42.2245E-03
            5417            5491     40.6064E-03     42.2245E-03
            5409            5491     40.6064E-03     42.2245E-03
            5418            5491     40.6064E-03     42.2245E-03
            5409            5492     28.2864E-03     30.4047E-03
            5410            5492     28.2864E-03     30.4047E-03
            5418            5492     28.2864E-03     30.4047E-03
            5419            5492     28.2864E-03     30.4047E-03
            5419            5493     25.0147E-03     27.3958E-03
            5420            5493     25.0147E-03     27.3958E-03
            5410            5493     25.0147E-03     27.3958E-03
            5411            5493     25.0147E-03     27.3958E-03
            5412            5494     32.7743E-03     34.8251E-03
            5421            5494     32.7743E-03     34.8251E-03
            5411            5494     32.7743E-03     34.8251E-03
            5420            5494     32.7743E-03     34.8251E-03
            5412            5495     46.8636E-03     48.0123E-03
            5422            5495     46.8636E-03     48.0123E-03
            5421            5495     46.8636E-03     48.0123E-03
            5413            5495     46.8636E-03     48.0123E-03
            5422            5496     63.0945E-03     63.0632E-03
            5413            5496     63.0945E-03     63.0632E-03
            5423            5496     63.0945E-03     63.0632E-03
            5414            5496     63.0945E-03     63.0632E-03
            5415            5497     70.2185E-03     69.5981E-03
            5416            5497     70.2185E-03     69.5981E-03
            5425            5497     70.2185E-03     69.5981E-03
            5424            5497     70.2185E-03     69.5981E-03
            5417            5498     54.2831E-03     54.4934E-03
            5425            5498     54.2831E-03     54.4934E-03
            5416            5498     54.2831E-03     54.4934E-03
            5426            5498     54.2831E-03     54.4934E-03
            5426            5499     39.8023E-03     40.6855E-03
            5417            5499     39.8023E-03     40.6855E-03
            5418            5499     39.8023E-03     40.6855E-03
            5427            5499     39.8023E-03     40.6855E-03
            5419            5500     28.7695E-03     30.1412E-03
            5427            5500     28.7695E-03     30.1412E-03
            5418            5500     28.7695E-03     30.1412E-03
            5428            5500     28.7695E-03     30.1412E-03
            5429            5501     25.5325E-03     27.0744E-03
            5428            5501     25.5325E-03     27.0744E-03
            5419            5501     25.5325E-03     27.0744E-03
            5420            5501     25.5325E-03     27.0744E-03
            5420            5502     32.0677E-03     33.3083E-03
            5429            5502     32.0677E-03     33.3083E-03
            5430            5502     32.0677E-03     33.3083E-03
            5421            5502     32.0677E-03     33.3083E-03
            5421            5503     44.9160E-03     45.4951E-03
            5422            5503     44.9160E-03     45.4951E-03
            5431            5503     44.9160E-03     45.4951E-03
            5430            5503     44.9160E-03     45.4951E-03
            5432            5504     60.4382E-03     60.1399E-03
            5431            5504     60.4382E-03     60.1399E-03
            5422            5504     60.4382E-03     60.1399E-03
            5423            5504     60.4382E-03     60.1399E-03
            5434            5505     67.3039E-03     66.6458E-03
            5433            5505     67.3039E-03     66.6458E-03
            5425            5505     67.3039E-03     66.6458E-03
            5424            5505     67.3039E-03     66.6458E-03
            5425            5506     52.3432E-03     52.3411E-03
            5434            5506     52.3432E-03     52.3411E-03
            5435            5506     52.3432E-03     52.3411E-03
            5426            5506     52.3432E-03     52.3411E-03
            5435            5507     38.7237E-03     39.0434E-03
            5436            5507     38.7237E-03     39.0434E-03
            5426            5507     38.7237E-03     39.0434E-03
            5427            5507     38.7237E-03     39.0434E-03
            5436            5508     28.4453E-03     28.8860E-03
            5428            5508     28.4453E-03     28.8860E-03
            5427            5508     28.4453E-03     28.8860E-03
            5437            5508     28.4453E-03     28.8860E-03
            5438            5509     25.3091E-03     25.8848E-03
            5437            5509     25.3091E-03     25.8848E-03
            5428            5509     25.3091E-03     25.8848E-03
            5429            5509     25.3091E-03     25.8848E-03
            5438            5510     31.1425E-03     31.7919E-03
            5430            5510     31.1425E-03     31.7919E-03
            5429            5510     31.1425E-03     31.7919E-03
            5439            5510     31.1425E-03     31.7919E-03
            5440            5511     43.0862E-03     43.4537E-03
            5431            5511     43.0862E-03     43.4537E-03
            5430            5511     43.0862E-03     43.4537E-03
            5439            5511     43.0862E-03     43.4537E-03
            5440            5512     57.6220E-03     57.3055E-03
            5431            5512     57.6220E-03     57.3055E-03
            5432            5512     57.6220E-03     57.3055E-03
            5441            5512     57.6220E-03     57.3055E-03
            5443            5513     64.3949E-03     63.8501E-03
            5434            5513     64.3949E-03     63.8501E-03
            5433            5513     64.3949E-03     63.8501E-03
            5442            5513     64.3949E-03     63.8501E-03
            5444            5514     50.3011E-03     50.2947E-03
            5434            5514     50.3011E-03     50.2947E-03
            5435            5514     50.3011E-03     50.2947E-03
            5443            5514     50.3011E-03     50.2947E-03
            5435            5515     37.6244E-03     37.6307E-03
            5436            5515     37.6244E-03     37.6307E-03
            5444            5515     37.6244E-03     37.6307E-03
            5445            5515     37.6244E-03     37.6307E-03
            5436            5516     27.9461E-03     27.6245E-03
            5446            5516     27.9461E-03     27.6245E-03
            5445            5516     27.9461E-03     27.6245E-03
            5437            5516     27.9461E-03     27.6245E-03
            5438            5517     24.9289E-03     24.6545E-03
            5447            5517     24.9289E-03     24.6545E-03
            5437            5517     24.9289E-03     24.6545E-03
            5446            5517     24.9289E-03     24.6545E-03
            5439            5518     30.2537E-03     30.4661E-03
            5447            5518     30.2537E-03     30.4661E-03
            5448            5518     30.2537E-03     30.4661E-03
            5438            5518     30.2537E-03     30.4661E-03
            5440            5519     41.1851E-03     41.5416E-03
            5448            5519     41.1851E-03     41.5416E-03
            5439            5519     41.1851E-03     41.5416E-03
            5449            5519     41.1851E-03     41.5416E-03
            5440            5520     54.8418E-03     54.6361E-03
            5449            5520     54.8418E-03     54.6361E-03
            5441            5520     54.8418E-03     54.6361E-03
            5450            5520     54.8418E-03     54.6361E-03
            5443            5521     61.4589E-03     61.1864E-03
            5451            5521     61.4589E-03     61.1864E-03
            5452            5521     61.4589E-03     61.1864E-03
            5442            5521     61.4589E-03     61.1864E-03
            5443            5522     48.3477E-03     48.5731E-03
            5444            5522     48.3477E-03     48.5731E-03
            5453            5522     48.3477E-03     48.5731E-03
            5452            5522     48.3477E-03     48.5731E-03
            5444            5523     36.4938E-03     36.3483E-03
            5454            5523     36.4938E-03     36.3483E-03
            5453            5523     36.4938E-03     36.3483E-03
            5445            5523     36.4938E-03     36.3483E-03
            5454            5524     27.4216E-03     26.3568E-03
            5446            5524     27.4216E-03     26.3568E-03
            5445            5524     27.4216E-03     26.3568E-03
            5455            5524     27.4216E-03     26.3568E-03
            5455            5525     24.5434E-03     23.3775E-03
            5456            5525     24.5434E-03     23.3775E-03
            5447            5525     24.5434E-03     23.3775E-03
            5446            5525     24.5434E-03     23.3775E-03
            5447            5526     29.4042E-03     29.2558E-03
            5456            5526     29.4042E-03     29.2558E-03
            5457            5526     29.4042E-03     29.2558E-03
            5448            5526     29.4042E-03     29.2558E-03
            5449            5527     39.4763E-03     39.9669E-03
            5457            5527     39.4763E-03     39.9669E-03
            5458            5527     39.4763E-03     39.9669E-03
            5448            5527     39.4763E-03     39.9669E-03
            5458            5528     52.0596E-03     52.1392E-03
            5449            5528     52.0596E-03     52.1392E-03
            5450            5528     52.0596E-03     52.1392E-03
            5459            5528     52.0596E-03     52.1392E-03
            5460            5529     58.3091E-03     58.5854E-03
            5452            5529     58.3091E-03     58.5854E-03
            5461            5529     58.3091E-03     58.5854E-03
            5451            5529     58.3091E-03     58.5854E-03
            5461            5530     46.4977E-03     47.1320E-03
            5453            5530     46.4977E-03     47.1320E-03
            5462            5530     46.4977E-03     47.1320E-03
            5452            5530     46.4977E-03     47.1320E-03
            5462            5531     35.4623E-03     35.0137E-03
            5453            5531     35.4623E-03     35.0137E-03
            5463            5531     35.4623E-03     35.0137E-03
            5454            5531     35.4623E-03     35.0137E-03
            5463            5532     26.7898E-03     24.9848E-03
            5464            5532     26.7898E-03     24.9848E-03
            5455            5532     26.7898E-03     24.9848E-03
            5454            5532     26.7898E-03     24.9848E-03
            5456            5533     24.1631E-03     22.0806E-03
            5455            5533     24.1631E-03     22.0806E-03
            5464            5533     24.1631E-03     22.0806E-03
            5465            5533     24.1631E-03     22.0806E-03
            5466            5534     28.8572E-03     28.0599E-03
            5457            5534     28.8572E-03     28.0599E-03
            5456            5534     28.8572E-03     28.0599E-03
            5465            5534     28.8572E-03     28.0599E-03
            5466            5535     37.9687E-03     38.7030E-03
            5458            5535     37.9687E-03     38.7030E-03
            5457            5535     37.9687E-03     38.7030E-03
            5467            5535     37.9687E-03     38.7030E-03
            5459            5536     49.1558E-03     49.7112E-03
            5467            5536     49.1558E-03     49.7112E-03
            5468            5536     49.1558E-03     49.7112E-03
            5458            5536     49.1558E-03     49.7112E-03
            5460            5537     55.1174E-03     55.9173E-03
            5469            5537     55.1174E-03     55.9173E-03
            5470            5537     55.1174E-03     55.9173E-03
            5461            5537     55.1174E-03     55.9173E-03
            5470            5538     44.5305E-03     44.6623E-03
            5462            5538     44.5305E-03     44.6623E-03
            5471            5538     44.5305E-03     44.6623E-03
            5461            5538     44.5305E-03     44.6623E-03
            5463            5539     34.2642E-03     32.9836E-03
            5472            5539     34.2642E-03     32.9836E-03
            5471            5539     34.2642E-03     32.9836E-03
            5462            5539     34.2642E-03     32.9836E-03
            5464            5540     26.4611E-03     24.1896E-03
            5472            5540     26.4611E-03     24.1896E-03
            5463            5540     26.4611E-03     24.1896E-03
            5473            5540     26.4611E-03     24.1896E-03
            5465            5541     24.1588E-03     21.5650E-03
            5474            5541     24.1588E-03     21.5650E-03
            5473            5541     24.1588E-03     21.5650E-03
            5464            5541     24.1588E-03     21.5650E-03
            5474            5542     28.4527E-03     26.5343E-03
            5475            5542     28.4527E-03     26.5343E-03
            5465            5542     28.4527E-03     26.5343E-03
            5466            5542     28.4527E-03     26.5343E-03
            5467            5543     36.7288E-03     36.5001E-03
            5475            5543     36.7288E-03     36.5001E-03
            5476            5543     36.7288E-03     36.5001E-03
            5466            5543     36.7288E-03     36.5001E-03
            5477            5544     46.1695E-03     47.1902E-03
            5476            5544     46.1695E-03     47.1902E-03
            5467            5544     46.1695E-03     47.1902E-03
            5468            5544     46.1695E-03     47.1902E-03
            5478            5545     50.7872E-03     48.6448E-03
            5470            5545     50.7872E-03     48.6448E-03
            5469            5545     50.7872E-03     48.6448E-03
            5479            5545     50.7872E-03     48.6448E-03
            5480            5546     41.8757E-03     39.4211E-03
            5470            5546     41.8757E-03     39.4211E-03
            5471            5546     41.8757E-03     39.4211E-03
            5479            5546     41.8757E-03     39.4211E-03
            5471            5547     33.3517E-03     31.1541E-03
            5481            5547     33.3517E-03     31.1541E-03
            5472            5547     33.3517E-03     31.1541E-03
            5480            5547     33.3517E-03     31.1541E-03
            5472            5548     27.1801E-03     25.2427E-03
            5481            5548     27.1801E-03     25.2427E-03
            5473            5548     27.1801E-03     25.2427E-03
            5482            5548     27.1801E-03     25.2427E-03
            5482            5549     25.3513E-03     23.2470E-03
            5483            5549     25.3513E-03     23.2470E-03
            5474            5549     25.3513E-03     23.2470E-03
            5473            5549     25.3513E-03     23.2470E-03
            5474            5550     28.5978E-03     25.9461E-03
            5484            5550     28.5978E-03     25.9461E-03
            5475            5550     28.5978E-03     25.9461E-03
            5483            5550     28.5978E-03     25.9461E-03
            5475            5551     35.3504E-03     32.1807E-03
            5476            5551     35.3504E-03     32.1807E-03
            5484            5551     35.3504E-03     32.1807E-03
            5485            5551     35.3504E-03     32.1807E-03
            5485            5552     42.7014E-03     39.9444E-03
            5477            5552     42.7014E-03     39.9444E-03
            5476            5552     42.7014E-03     39.9444E-03
            5486            5552     42.7014E-03     39.9444E-03
            5488            5553     53.1443E-03     48.3334E-03
            5479            5553     53.1443E-03     48.3334E-03
            5487            5553     53.1443E-03     48.3334E-03
            5478            5553     53.1443E-03     48.3334E-03
            5488            5554     39.9849E-03     36.4608E-03
            5489            5554     39.9849E-03     36.4608E-03
            5480            5554     39.9849E-03     36.4608E-03
            5479            5554     39.9849E-03     36.4608E-03
            5489            5555     30.0854E-03     28.1440E-03
            5480            5555     30.0854E-03     28.1440E-03
            5490            5555     30.0854E-03     28.1440E-03
            5481            5555     30.0854E-03     28.1440E-03
            5491            5556     22.9748E-03     22.2700E-03
            5481            5556     22.9748E-03     22.2700E-03
            5490            5556     22.9748E-03     22.2700E-03
            5482            5556     22.9748E-03     22.2700E-03
            5491            5557     21.1688E-03     20.6625E-03
            5492            5557     21.1688E-03     20.6625E-03
            5482            5557     21.1688E-03     20.6625E-03
            5483            5557     21.1688E-03     20.6625E-03
            5483            5558     25.4885E-03     23.9380E-03
            5484            5558     25.4885E-03     23.9380E-03
            5492            5558     25.4885E-03     23.9380E-03
            5493            5558     25.4885E-03     23.9380E-03
            5484            5559     33.9761E-03     30.6902E-03
            5485            5559     33.9761E-03     30.6902E-03
            5494            5559     33.9761E-03     30.6902E-03
            5493            5559     33.9761E-03     30.6902E-03
            5485            5560     45.8441E-03     41.0701E-03
            5495            5560     45.8441E-03     41.0701E-03
            5494            5560     45.8441E-03     41.0701E-03
            5486            5560     45.8441E-03     41.0701E-03
            5487            5561     57.2383E-03     55.3844E-03
            5488            5561     57.2383E-03     55.3844E-03
            5496            5561     57.2383E-03     55.3844E-03
            5497            5561     57.2383E-03     55.3844E-03
            5488            5562     40.9990E-03     39.9137E-03
            5497            5562     40.9990E-03     39.9137E-03
            5498            5562     40.9990E-03     39.9137E-03
            5489            5562     40.9990E-03     39.9137E-03
            5498            5563     28.3644E-03     28.0377E-03
            5489            5563     28.3644E-03     28.0377E-03
            5499            5563     28.3644E-03     28.0377E-03
            5490            5563     28.3644E-03     28.0377E-03
            5490            5564     19.9286E-03     20.6567E-03
            5499            5564     19.9286E-03     20.6567E-03
            5500            5564     19.9286E-03     20.6567E-03
            5491            5564     19.9286E-03     20.6567E-03
            5492            5565     17.9083E-03     18.9983E-03
            5501            5565     17.9083E-03     18.9983E-03
            5491            5565     17.9083E-03     18.9983E-03
            5500            5565     17.9083E-03     18.9983E-03
            5493            5566     23.4870E-03     23.9475E-03
            5501            5566     23.4870E-03     23.9475E-03
            5492            5566     23.4870E-03     23.9475E-03
            5502            5566     23.4870E-03     23.9475E-03
            5494            5567     34.8397E-03     34.5509E-03
            5493            5567     34.8397E-03     34.5509E-03
            5503            5567     34.8397E-03     34.5509E-03
            5502            5567     34.8397E-03     34.5509E-03
            5504            5568     50.2613E-03     49.1491E-03
            5495            5568     50.2613E-03     49.1491E-03
            5503            5568     50.2613E-03     49.1491E-03
            5494            5568     50.2613E-03     49.1491E-03
            5506            5569     54.1908E-03     54.3722E-03
            5496            5569     54.1908E-03     54.3722E-03
            5497            5569     54.1908E-03     54.3722E-03
            5505            5569     54.1908E-03     54.3722E-03
            5497            5570     41.8821E-03     42.6166E-03
            5506            5570     41.8821E-03     42.6166E-03
            5498            5570     41.8821E-03     42.6166E-03
            5507            5570     41.8821E-03     42.6166E-03
            5508            5571     30.4088E-03     31.4283E-03
            5498            5571     30.4088E-03     31.4283E-03
            5507            5571     30.4088E-03     31.4283E-03
            5499            5571     30.4088E-03     31.4283E-03
            5499            5572     22.7702E-03     24.2621E-03
            5509            5572     22.7702E-03     24.2621E-03
            5500            5572     22.7702E-03     24.2621E-03
            5508            5572     22.7702E-03     24.2621E-03
            5500            5573     20.8932E-03     22.6175E-03
            5510            5573     20.8932E-03     22.6175E-03
            5501            5573     20.8932E-03     22.6175E-03
            5509            5573     20.8932E-03     22.6175E-03
            5502            5574     25.7560E-03     27.2011E-03
            5501            5574     25.7560E-03     27.2011E-03
            5510            5574     25.7560E-03     27.2011E-03
            5511            5574     25.7560E-03     27.2011E-03
            5503            5575     35.8764E-03     36.8678E-03
            5502            5575     35.8764E-03     36.8678E-03
            5512            5575     35.8764E-03     36.8678E-03
            5511            5575     35.8764E-03     36.8678E-03
            5504            5576     47.6049E-03     47.8917E-03
            5503            5576     47.6049E-03     47.8917E-03
            5513            5576     47.6049E-03     47.8917E-03
            5512            5576     47.6049E-03     47.8917E-03
            5506            5577     50.8201E-03     50.5022E-03
            5515            5577     50.8201E-03     50.5022E-03
            5505            5577     50.8201E-03     50.5022E-03
            5514            5577     50.8201E-03     50.5022E-03
            5506            5578     40.4075E-03     40.8970E-03
            5515            5578     40.4075E-03     40.8970E-03
            5516            5578     40.4075E-03     40.8970E-03
            5507            5578     40.4075E-03     40.8970E-03
            5516            5579     31.0048E-03     32.1002E-03
            5507            5579     31.0048E-03     32.1002E-03
            5517            5579     31.0048E-03     32.1002E-03
            5508            5579     31.0048E-03     32.1002E-03
            5509            5580     24.0977E-03     25.5374E-03
            5517            5580     24.0977E-03     25.5374E-03
            5508            5580     24.0977E-03     25.5374E-03
            5518            5580     24.0977E-03     25.5374E-03
            5510            5581     22.3392E-03     23.9088E-03
            5509            5581     22.3392E-03     23.9088E-03
            5519            5581     22.3392E-03     23.9088E-03
            5518            5581     22.3392E-03     23.9088E-03
            5511            5582     26.4962E-03     27.8208E-03
            5519            5582     26.4962E-03     27.8208E-03
            5510            5582     26.4962E-03     27.8208E-03
            5520            5582     26.4962E-03     27.8208E-03
            5511            5583     34.5212E-03     35.1926E-03
            5521            5583     34.5212E-03     35.1926E-03
            5512            5583     34.5212E-03     35.1926E-03
            5520            5583     34.5212E-03     35.1926E-03
            5512            5584     44.3774E-03     44.2964E-03
            5522            5584     44.3774E-03     44.2964E-03
            5521            5584     44.3774E-03     44.2964E-03
            5513            5584     44.3774E-03     44.2964E-03
            5524            5585     48.2666E-03     47.7876E-03
            5523            5585     48.2666E-03     47.7876E-03
            5515            5585     48.2666E-03     47.7876E-03
            5514            5585     48.2666E-03     47.7876E-03
            5525            5586     38.6091E-03     38.6550E-03
            5515            5586     38.6091E-03     38.6550E-03
            5516            5586     38.6091E-03     38.6550E-03
            5524            5586     38.6091E-03     38.6550E-03
            5516            5587     30.3261E-03     30.8870E-03
            5526            5587     30.3261E-03     30.8870E-03
            5525            5587     30.3261E-03     30.8870E-03
            5517            5587     30.3261E-03     30.8870E-03
            5517            5588     24.5000E-03     25.4572E-03
            5518            5588     24.5000E-03     25.4572E-03
            5527            5588     24.5000E-03     25.4572E-03
            5526            5588     24.5000E-03     25.4572E-03
            5519            5589     22.7906E-03     23.8438E-03
            5528            5589     22.7906E-03     23.8438E-03
            5527            5589     22.7906E-03     23.8438E-03
            5518            5589     22.7906E-03     23.8438E-03
            5529            5590     25.9480E-03     26.7374E-03
            5520            5590     25.9480E-03     26.7374E-03
            5528            5590     25.9480E-03     26.7374E-03
            5519            5590     25.9480E-03     26.7374E-03
            5521            5591     32.8538E-03     33.1603E-03
            5530            5591     32.8538E-03     33.1603E-03
            5520            5591     32.8538E-03     33.1603E-03
            5529            5591     32.8538E-03     33.1603E-03
            5530            5592     41.9537E-03     41.7021E-03
            5522            5592     41.9537E-03     41.7021E-03
            5531            5592     41.9537E-03     41.7021E-03
            5521            5592     41.9537E-03     41.7021E-03
            5533            5593     45.6564E-03     45.1276E-03
            5523            5593     45.6564E-03     45.1276E-03
            5524            5593     45.6564E-03     45.1276E-03
            5532            5593     45.6564E-03     45.1276E-03
            5533            5594     36.9023E-03     36.7830E-03
            5534            5594     36.9023E-03     36.7830E-03
            5525            5594     36.9023E-03     36.7830E-03
            5524            5594     36.9023E-03     36.7830E-03
            5534            5595     29.4537E-03     29.6329E-03
            5535            5595     29.4537E-03     29.6329E-03
            5526            5595     29.4537E-03     29.6329E-03
            5525            5595     29.4537E-03     29.6329E-03
            5526            5596     24.2872E-03     24.6853E-03
            5535            5596     24.2872E-03     24.6853E-03
            5536            5596     24.2872E-03     24.6853E-03
            5527            5596     24.2872E-03     24.6853E-03
            5528            5597     22.6662E-03     23.1722E-03
            5536            5597     22.6662E-03     23.1722E-03
            5537            5597     22.6662E-03     23.1722E-03
            5527            5597     22.6662E-03     23.1722E-03
            5529            5598     25.2384E-03     25.6719E-03
            5528            5598     25.2384E-03     25.6719E-03
            5538            5598     25.2384E-03     25.6719E-03
            5537            5598     25.2384E-03     25.6719E-03
            5529            5599     31.2914E-03     31.4482E-03
            5530            5599     31.2914E-03     31.4482E-03
            5538            5599     31.2914E-03     31.4482E-03
            5539            5599     31.2914E-03     31.4482E-03
            5531            5600     39.4624E-03     39.1821E-03
            5540            5600     39.4624E-03     39.1821E-03
            5530            5600     39.4624E-03     39.1821E-03
            5539            5600     39.4624E-03     39.1821E-03
            5542            5601     43.0671E-03     42.5789E-03
            5541            5601     43.0671E-03     42.5789E-03
            5533            5601     43.0671E-03     42.5789E-03
            5532            5601     43.0671E-03     42.5789E-03
            5534            5602     35.1355E-03     34.9411E-03
            5533            5602     35.1355E-03     34.9411E-03
            5542            5602     35.1355E-03     34.9411E-03
            5543            5602     35.1355E-03     34.9411E-03
            5544            5603     28.5621E-03     28.5105E-03
            5535            5603     28.5621E-03     28.5105E-03
            5543            5603     28.5621E-03     28.5105E-03
            5534            5603     28.5621E-03     28.5105E-03
            5536            5604     23.9552E-03     23.9347E-03
            5545            5604     23.9552E-03     23.9347E-03
            5535            5604     23.9552E-03     23.9347E-03
            5544            5604     23.9552E-03     23.9347E-03
            5546            5605     22.4269E-03     22.4924E-03
            5536            5605     22.4269E-03     22.4924E-03
            5545            5605     22.4269E-03     22.4924E-03
            5537            5605     22.4269E-03     22.4924E-03
            5547            5606     24.5256E-03     24.7115E-03
            5538            5606     24.5256E-03     24.7115E-03
            5546            5606     24.5256E-03     24.7115E-03
            5537            5606     24.5256E-03     24.7115E-03
            5547            5607     29.6792E-03     29.7812E-03
            5548            5607     29.6792E-03     29.7812E-03
            5539            5607     29.6792E-03     29.7812E-03
            5538            5607     29.6792E-03     29.7812E-03
            5539            5608     37.0189E-03     36.7809E-03
            5540            5608     37.0189E-03     36.7809E-03
            5548            5608     37.0189E-03     36.7809E-03
            5549            5608     37.0189E-03     36.7809E-03
            5542            5609     40.5398E-03     40.1517E-03
            5551            5609     40.5398E-03     40.1517E-03
            5550            5609     40.5398E-03     40.1517E-03
            5541            5609     40.5398E-03     40.1517E-03
            5552            5610     33.4544E-03     33.3296E-03
            5542            5610     33.4544E-03     33.3296E-03
            5543            5610     33.4544E-03     33.3296E-03
            5551            5610     33.4544E-03     33.3296E-03
            5552            5611     27.6370E-03     27.4251E-03
            5543            5611     27.6370E-03     27.4251E-03
            5553            5611     27.6370E-03     27.4251E-03
            5544            5611     27.6370E-03     27.4251E-03
            5544            5612     23.6223E-03     23.2132E-03
            5545            5612     23.6223E-03     23.2132E-03
            5553            5612     23.6223E-03     23.2132E-03
            5554            5612     23.6223E-03     23.2132E-03
            5554            5613     22.1868E-03     21.8264E-03
            5545            5613     22.1868E-03     21.8264E-03
            5546            5613     22.1868E-03     21.8264E-03
            5555            5613     22.1868E-03     21.8264E-03
            5546            5614     23.8102E-03     23.7706E-03
            5556            5614     23.8102E-03     23.7706E-03
            5547            5614     23.8102E-03     23.7706E-03
            5555            5614     23.8102E-03     23.7706E-03
            5547            5615     28.1910E-03     28.3472E-03
            5556            5615     28.1910E-03     28.3472E-03
            5548            5615     28.1910E-03     28.3472E-03
            5557            5615     28.1910E-03     28.3472E-03
            5548            5616     34.6464E-03     34.5160E-03
            5557            5616     34.6464E-03     34.5160E-03
            5558            5616     34.6464E-03     34.5160E-03
            5549            5616     34.6464E-03     34.5160E-03
            5551            5617     37.9368E-03     37.7951E-03
            5550            5617     37.9368E-03     37.7951E-03
            5559            5617     37.9368E-03     37.7951E-03
            5560            5617     37.9368E-03     37.7951E-03
            5560            5618     31.8267E-03     31.8620E-03
            5552            5618     31.8267E-03     31.8620E-03
            5561            5618     31.8267E-03     31.8620E-03
            5551            5618     31.8267E-03     31.8620E-03
            5561            5619     26.8142E-03     26.5012E-03
            5562            5619     26.8142E-03     26.5012E-03
            5552            5619     26.8142E-03     26.5012E-03
            5553            5619     26.8142E-03     26.5012E-03
            5562            5620     23.1996E-03     22.3471E-03
            5554            5620     23.1996E-03     22.3471E-03
            5563            5620     23.1996E-03     22.3471E-03
            5553            5620     23.1996E-03     22.3471E-03
            5554            5621     21.8967E-03     21.0064E-03
            5564            5621     21.8967E-03     21.0064E-03
            5563            5621     21.8967E-03     21.0064E-03
            5555            5621     21.8967E-03     21.0064E-03
            5555            5622     23.2597E-03     22.9822E-03
            5564            5622     23.2597E-03     22.9822E-03
            5556            5622     23.2597E-03     22.9822E-03
            5565            5622     23.2597E-03     22.9822E-03
            5566            5623     26.8233E-03     27.0603E-03
            5556            5623     26.8233E-03     27.0603E-03
            5557            5623     26.8233E-03     27.0603E-03
            5565            5623     26.8233E-03     27.0603E-03
            5557            5624     32.2379E-03     32.3604E-03
            5566            5624     32.2379E-03     32.3604E-03
            5558            5624     32.2379E-03     32.3604E-03
            5567            5624     32.2379E-03     32.3604E-03
            5568            5625     35.2717E-03     35.4993E-03
            5569            5625     35.2717E-03     35.4993E-03
            5560            5625     35.2717E-03     35.4993E-03
            5559            5625     35.2717E-03     35.4993E-03
            5560            5626     30.3347E-03     30.5970E-03
            5561            5626     30.3347E-03     30.5970E-03
            5570            5626     30.3347E-03     30.5970E-03
            5569            5626     30.3347E-03     30.5970E-03
            5571            5627     25.9978E-03     25.4450E-03
            5570            5627     25.9978E-03     25.4450E-03
            5562            5627     25.9978E-03     25.4450E-03
            5561            5627     25.9978E-03     25.4450E-03
            5563            5628     22.6976E-03     21.3985E-03
            5571            5628     22.6976E-03     21.3985E-03
            5572            5628     22.6976E-03     21.3985E-03
            5562            5628     22.6976E-03     21.3985E-03
            5563            5629     21.5584E-03     20.1141E-03
            5572            5629     21.5584E-03     20.1141E-03
            5573            5629     21.5584E-03     20.1141E-03
            5564            5629     21.5584E-03     20.1141E-03
            5574            5630     22.8408E-03     22.0705E-03
            5573            5630     22.8408E-03     22.0705E-03
            5565            5630     22.8408E-03     22.0705E-03
            5564            5630     22.8408E-03     22.0705E-03
            5575            5631     25.7000E-03     26.0162E-03
            5574            5631     25.7000E-03     26.0162E-03
            5565            5631     25.7000E-03     26.0162E-03
            5566            5631     25.7000E-03     26.0162E-03
            5575            5632     29.8421E-03     30.2773E-03
            5566            5632     29.8421E-03     30.2773E-03
            5567            5632     29.8421E-03     30.2773E-03
            5576            5632     29.8421E-03     30.2773E-03
            5569            5633     32.5213E-03     33.0762E-03
            5568            5633     32.5213E-03     33.0762E-03
            5577            5633     32.5213E-03     33.0762E-03
            5578            5633     32.5213E-03     33.0762E-03
            5569            5634     28.8632E-03     28.7825E-03
            5578            5634     28.8632E-03     28.7825E-03
            5579            5634     28.8632E-03     28.7825E-03
            5570            5634     28.8632E-03     28.7825E-03
            5580            5635     25.1199E-03     24.1091E-03
            5570            5635     25.1199E-03     24.1091E-03
            5579            5635     25.1199E-03     24.1091E-03
            5571            5635     25.1199E-03     24.1091E-03
            5572            5636     22.2386E-03     20.7026E-03
            5581            5636     22.2386E-03     20.7026E-03
            5571            5636     22.2386E-03     20.7026E-03
            5580            5636     22.2386E-03     20.7026E-03
            5581            5637     21.2910E-03     19.5763E-03
            5582            5637     21.2910E-03     19.5763E-03
            5572            5637     21.2910E-03     19.5763E-03
            5573            5637     21.2910E-03     19.5763E-03
            5573            5638     22.5170E-03     21.0565E-03
            5582            5638     22.5170E-03     21.0565E-03
            5574            5638     22.5170E-03     21.0565E-03
            5583            5638     22.5170E-03     21.0565E-03
            5583            5639     24.9039E-03     24.4653E-03
            5574            5639     24.9039E-03     24.4653E-03
            5575            5639     24.9039E-03     24.4653E-03
            5584            5639     24.9039E-03     24.4653E-03
            5576            5640     27.4118E-03     28.1109E-03
            5584            5640     27.4118E-03     28.1109E-03
            5585            5640     27.4118E-03     28.1109E-03
            5575            5640     27.4118E-03     28.1109E-03
            5586            5641     29.0282E-03     27.9678E-03
            5577            5641     29.0282E-03     27.9678E-03
            5587            5641     29.0282E-03     27.9678E-03
            5578            5641     29.0282E-03     27.9678E-03
            5578            5642     27.1084E-03     25.7027E-03
            5579            5642     27.1084E-03     25.7027E-03
            5588            5642     27.1084E-03     25.7027E-03
            5587            5642     27.1084E-03     25.7027E-03
            5579            5643     24.3939E-03     23.0819E-03
            5588            5643     24.3939E-03     23.0819E-03
            5580            5643     24.3939E-03     23.0819E-03
            5589            5643     24.3939E-03     23.0819E-03
            5589            5644     22.3585E-03     21.1549E-03
            5580            5644     22.3585E-03     21.1549E-03
            5581            5644     22.3585E-03     21.1549E-03
            5590            5644     22.3585E-03     21.1549E-03
            5591            5645     21.6494E-03     20.3309E-03
            5581            5645     21.6494E-03     20.3309E-03
            5582            5645     21.6494E-03     20.3309E-03
            5590            5645     21.6494E-03     20.3309E-03
            5582            5646     22.4044E-03     20.7423E-03
            5591            5646     22.4044E-03     20.7423E-03
            5583            5646     22.4044E-03     20.7423E-03
            5592            5646     22.4044E-03     20.7423E-03
            5593            5647     24.1307E-03     22.0885E-03
            5584            5647     24.1307E-03     22.0885E-03
            5592            5647     24.1307E-03     22.0885E-03
            5583            5647     24.1307E-03     22.0885E-03
            5585            5648     24.8536E-03     23.1732E-03
            5593            5648     24.8536E-03     23.1732E-03
            5584            5648     24.8536E-03     23.1732E-03
            5594            5648     24.8536E-03     23.1732E-03
            5595            5649     31.2581E-03     28.7967E-03
            5586            5649     31.2581E-03     28.7967E-03
            5596            5649     31.2581E-03     28.7967E-03
            5587            5649     31.2581E-03     28.7967E-03
            5587            5650     25.7381E-03     24.0269E-03
            5597            5650     25.7381E-03     24.0269E-03
            5596            5650     25.7381E-03     24.0269E-03
            5588            5650     25.7381E-03     24.0269E-03
            5597            5651     21.8955E-03     20.9916E-03
            5598            5651     21.8955E-03     20.9916E-03
            5589            5651     21.8955E-03     20.9916E-03
            5588            5651     21.8955E-03     20.9916E-03
            5599            5652     19.4624E-03     19.1041E-03
            5598            5652     19.4624E-03     19.1041E-03
            5590            5652     19.4624E-03     19.1041E-03
            5589            5652     19.4624E-03     19.1041E-03
            5600            5653     18.8339E-03     18.5418E-03
            5599            5653     18.8339E-03     18.5418E-03
            5590            5653     18.8339E-03     18.5418E-03
            5591            5653     18.8339E-03     18.5418E-03
            5591            5654     20.0770E-03     19.3648E-03
            5600            5654     20.0770E-03     19.3648E-03
            5601            5654     20.0770E-03     19.3648E-03
            5592            5654     20.0770E-03     19.3648E-03
            5593            5655     23.0846E-03     21.5042E-03
            5601            5655     23.0846E-03     21.5042E-03
            5602            5655     23.0846E-03     21.5042E-03
            5592            5655     23.0846E-03     21.5042E-03
            5603            5656     27.7001E-03     25.1836E-03
            5602            5656     27.7001E-03     25.1836E-03
            5594            5656     27.7001E-03     25.1836E-03
            5593            5656     27.7001E-03     25.1836E-03
            5595            5657     34.4086E-03     33.4830E-03
            5605            5657     34.4086E-03     33.4830E-03
            5596            5657     34.4086E-03     33.4830E-03
            5604            5657     34.4086E-03     33.4830E-03
            5596            5658     26.1204E-03     25.7531E-03
            5606            5658     26.1204E-03     25.7531E-03
            5597            5658     26.1204E-03     25.7531E-03
            5605            5658     26.1204E-03     25.7531E-03
            5607            5659     20.5116E-03     20.5164E-03
            5606            5659     20.5116E-03     20.5164E-03
            5597            5659     20.5116E-03     20.5164E-03
            5598            5659     20.5116E-03     20.5164E-03
            5599            5660     17.5001E-03     17.9149E-03
            5607            5660     17.5001E-03     17.9149E-03
            5608            5660     17.5001E-03     17.9149E-03
            5598            5660     17.5001E-03     17.9149E-03
            5600            5661     16.8305E-03     17.3986E-03
            5609            5661     16.8305E-03     17.3986E-03
            5599            5661     16.8305E-03     17.3986E-03
            5608            5661     16.8305E-03     17.3986E-03
            5600            5662     18.6745E-03     19.0940E-03
            5610            5662     18.6745E-03     19.0940E-03
            5601            5662     18.6745E-03     19.0940E-03
            5609            5662     18.6745E-03     19.0940E-03
            5610            5663     23.4296E-03     23.5779E-03
            5602            5663     23.4296E-03     23.5779E-03
            5611            5663     23.4296E-03     23.5779E-03
            5601            5663     23.4296E-03     23.5779E-03
            5602            5664     31.0494E-03     30.6776E-03
            5612            5664     31.0494E-03     30.6776E-03
            5603            5664     31.0494E-03     30.6776E-03
            5611            5664     31.0494E-03     30.6776E-03
            5604            5665     31.4286E-03     31.4436E-03
            5614            5665     31.4286E-03     31.4436E-03
            5613            5665     31.4286E-03     31.4436E-03
            5605            5665     31.4286E-03     31.4436E-03
            5606            5666     26.3700E-03     26.7443E-03
            5614            5666     26.3700E-03     26.7443E-03
            5605            5666     26.3700E-03     26.7443E-03
            5615            5666     26.3700E-03     26.7443E-03
            5616            5667     21.9049E-03     22.4905E-03
            5615            5667     21.9049E-03     22.4905E-03
            5607            5667     21.9049E-03     22.4905E-03
            5606            5667     21.9049E-03     22.4905E-03
            5608            5668     19.3976E-03     20.1401E-03
            5607            5668     19.3976E-03     20.1401E-03
            5617            5668     19.3976E-03     20.1401E-03
            5616            5668     19.3976E-03     20.1401E-03
            5609            5669     18.8005E-03     19.6289E-03
            5617            5669     18.8005E-03     19.6289E-03
            5608            5669     18.8005E-03     19.6289E-03
            5618            5669     18.8005E-03     19.6289E-03
            5619            5670     20.2549E-03     21.0054E-03
            5609            5670     20.2549E-03     21.0054E-03
            5618            5670     20.2549E-03     21.0054E-03
            5610            5670     20.2549E-03     21.0054E-03
            5619            5671     23.9104E-03     24.3947E-03
            5620            5671     23.9104E-03     24.3947E-03
            5611            5671     23.9104E-03     24.3947E-03
            5610            5671     23.9104E-03     24.3947E-03
            5612            5672     28.4319E-03     28.4989E-03
            5620            5672     28.4319E-03     28.4989E-03
            5621            5672     28.4319E-03     28.4989E-03
            5611            5672     28.4319E-03     28.4989E-03
            5613            5673     28.4599E-03     28.2071E-03
            5622            5673     28.4599E-03     28.2071E-03
            5614            5673     28.4599E-03     28.2071E-03
            5623            5673     28.4599E-03     28.2071E-03
            5624            5674     25.0339E-03     25.1848E-03
            5623            5674     25.0339E-03     25.1848E-03
            5614            5674     25.0339E-03     25.1848E-03
            5615            5674     25.0339E-03     25.1848E-03
            5615            5675     22.2990E-03     22.8171E-03
            5624            5675     22.2990E-03     22.8171E-03
            5625            5675     22.2990E-03     22.8171E-03
            5616            5675     22.2990E-03     22.8171E-03
            5625            5676     20.4066E-03     21.0914E-03
            5626            5676     20.4066E-03     21.0914E-03
            5617            5676     20.4066E-03     21.0914E-03
            5616            5676     20.4066E-03     21.0914E-03
            5618            5677     19.8768E-03     20.6033E-03
            5627            5677     19.8768E-03     20.6033E-03
            5626            5677     19.8768E-03     20.6033E-03
            5617            5677     19.8768E-03     20.6033E-03
            5628            5678     20.7650E-03     21.3853E-03
            5619            5678     20.7650E-03     21.3853E-03
            5618            5678     20.7650E-03     21.3853E-03
            5627            5678     20.7650E-03     21.3853E-03
            5629            5679     22.7048E-03     22.9912E-03
            5628            5679     22.7048E-03     22.9912E-03
            5619            5679     22.7048E-03     22.9912E-03
            5620            5679     22.7048E-03     22.9912E-03
            5630            5680     25.5863E-03     25.5393E-03
            5621            5680     25.5863E-03     25.5393E-03
            5629            5680     25.5863E-03     25.5393E-03
            5620            5680     25.5863E-03     25.5393E-03
            5632            5681     26.1712E-03     25.9026E-03
            5631            5681     26.1712E-03     25.9026E-03
            5623            5681     26.1712E-03     25.9026E-03
            5622            5681     26.1712E-03     25.9026E-03
            5624            5682     23.6044E-03     23.5739E-03
            5623            5682     23.6044E-03     23.5739E-03
            5633            5682     23.6044E-03     23.5739E-03
            5632            5682     23.6044E-03     23.5739E-03
            5633            5683     21.8644E-03     22.0823E-03
            5625            5683     21.8644E-03     22.0823E-03
            5624            5683     21.8644E-03     22.0823E-03
            5634            5683     21.8644E-03     22.0823E-03
            5626            5684     20.7740E-03     21.1864E-03
            5635            5684     20.7740E-03     21.1864E-03
            5625            5684     20.7740E-03     21.1864E-03
            5634            5684     20.7740E-03     21.1864E-03
            5636            5685     20.2801E-03     20.7441E-03
            5635            5685     20.2801E-03     20.7441E-03
            5626            5685     20.2801E-03     20.7441E-03
            5627            5685     20.2801E-03     20.7441E-03
            5628            5686     20.4443E-03     20.8220E-03
            5627            5686     20.4443E-03     20.8220E-03
            5636            5686     20.4443E-03     20.8220E-03
            5637            5686     20.4443E-03     20.8220E-03
            5638            5687     21.4271E-03     21.6192E-03
            5628            5687     21.4271E-03     21.6192E-03
            5637            5687     21.4271E-03     21.6192E-03
            5629            5687     21.4271E-03     21.6192E-03
            5629            5688     23.4788E-03     23.3935E-03
            5638            5688     23.4788E-03     23.3935E-03
            5630            5688     23.4788E-03     23.3935E-03
            5639            5688     23.4788E-03     23.3935E-03
            5640            5689     23.9274E-03     23.6952E-03
            5632            5689     23.9274E-03     23.6952E-03
            5631            5689     23.9274E-03     23.6952E-03
            5641            5689     23.9274E-03     23.6952E-03
            5633            5690     22.3079E-03     22.2486E-03
            5632            5690     22.3079E-03     22.2486E-03
            5641            5690     22.3079E-03     22.2486E-03
            5642            5690     22.3079E-03     22.2486E-03
            5634            5691     21.3295E-03     21.3667E-03
            5643            5691     21.3295E-03     21.3667E-03
            5642            5691     21.3295E-03     21.3667E-03
            5633            5691     21.3295E-03     21.3667E-03
            5643            5692     20.7132E-03     20.8234E-03
            5635            5692     20.7132E-03     20.8234E-03
            5634            5692     20.7132E-03     20.8234E-03
            5644            5692     20.7132E-03     20.8234E-03
            5636            5693     20.2756E-03     20.4540E-03
            5644            5693     20.2756E-03     20.4540E-03
            5635            5693     20.2756E-03     20.4540E-03
            5645            5693     20.2756E-03     20.4540E-03
            5645            5694     20.0532E-03     20.2769E-03
            5637            5694     20.0532E-03     20.2769E-03
            5636            5694     20.0532E-03     20.2769E-03
            5646            5694     20.0532E-03     20.2769E-03
            5647            5695     20.3198E-03     20.4896E-03
            5638            5695     20.3198E-03     20.4896E-03
            5646            5695     20.3198E-03     20.4896E-03
            5637            5695     20.3198E-03     20.4896E-03
            5638            5696     21.4099E-03     21.3866E-03
            5639            5696     21.4099E-03     21.3866E-03
            5647            5696     21.4099E-03     21.3866E-03
            5648            5696     21.4099E-03     21.3866E-03
            5640            5697     21.7942E-03     21.6474E-03
            5650            5697     21.7942E-03     21.6474E-03
            5649            5697     21.7942E-03     21.6474E-03
            5641            5697     21.7942E-03     21.6474E-03
            5642            5698     21.0566E-03     20.9991E-03
            5651            5698     21.0566E-03     20.9991E-03
            5650            5698     21.0566E-03     20.9991E-03
            5641            5698     21.0566E-03     20.9991E-03
            5643            5699     20.7938E-03     20.7000E-03
            5651            5699     20.7938E-03     20.7000E-03
            5652            5699     20.7938E-03     20.7000E-03
            5642            5699     20.7938E-03     20.7000E-03
            5652            5700     20.5331E-03     20.3922E-03
            5644            5700     20.5331E-03     20.3922E-03
            5643            5700     20.5331E-03     20.3922E-03
            5653            5700     20.5331E-03     20.3922E-03
            5644            5701     20.1588E-03     20.0725E-03
            5645            5701     20.1588E-03     20.0725E-03
            5653            5701     20.1588E-03     20.0725E-03
            5654            5701     20.1588E-03     20.0725E-03
            5646            5702     19.6862E-03     19.7521E-03
            5655            5702     19.6862E-03     19.7521E-03
            5645            5702     19.6862E-03     19.7521E-03
            5654            5702     19.6862E-03     19.7521E-03
            5647            5703     19.2774E-03     19.4557E-03
            5656            5703     19.2774E-03     19.4557E-03
            5655            5703     19.2774E-03     19.4557E-03
            5646            5703     19.2774E-03     19.4557E-03
            5648            5704     19.4915E-03     19.5489E-03
            5656            5704     19.4915E-03     19.5489E-03
            5647            5704     19.4915E-03     19.5489E-03
            5657            5704     19.4915E-03     19.5489E-03
            5659            5705     19.7785E-03     19.7661E-03
            5649            5705     19.7785E-03     19.7661E-03
            5658            5705     19.7785E-03     19.7661E-03
            5650            5705     19.7785E-03     19.7661E-03
            5660            5706     19.9768E-03     19.9648E-03
            5650            5706     19.9768E-03     19.9648E-03
            5659            5706     19.9768E-03     19.9648E-03
            5651            5706     19.9768E-03     19.9648E-03
            5652            5707     20.2660E-03     20.0496E-03
            5651            5707     20.2660E-03     20.0496E-03
            5661            5707     20.2660E-03     20.0496E-03
            5660            5707     20.2660E-03     20.0496E-03
            5662            5708     20.2695E-03     19.8743E-03
            5653            5708     20.2695E-03     19.8743E-03
            5652            5708     20.2695E-03     19.8743E-03
            5661            5708     20.2695E-03     19.8743E-03
            5663            5709     19.9723E-03     19.5916E-03
            5662            5709     19.9723E-03     19.5916E-03
            5654            5709     19.9723E-03     19.5916E-03
            5653            5709     19.9723E-03     19.5916E-03
            5663            5710     19.3550E-03     19.2308E-03
            5664            5710     19.3550E-03     19.2308E-03
            5655            5710     19.3550E-03     19.2308E-03
            5654            5710     19.3550E-03     19.2308E-03
            5656            5711     18.4624E-03     18.6277E-03
            5655            5711     18.4624E-03     18.6277E-03
            5664            5711     18.4624E-03     18.6277E-03
            5665            5711     18.4624E-03     18.6277E-03
            5657            5712     17.7232E-03     17.9209E-03
            5656            5712     17.7232E-03     17.9209E-03
            5666            5712     17.7232E-03     17.9209E-03
            5665            5712     17.7232E-03     17.9209E-03
            5659            5713     17.8547E-03     18.0505E-03
            5658            5713     17.8547E-03     18.0505E-03
            5667            5713     17.8547E-03     18.0505E-03
            5668            5713     17.8547E-03     18.0505E-03
            5660            5714     19.0985E-03     19.1190E-03
            5659            5714     19.0985E-03     19.1190E-03
            5669            5714     19.0985E-03     19.1190E-03
            5668            5714     19.0985E-03     19.1190E-03
            5660            5715     19.7963E-03     19.4232E-03
            5669            5715     19.7963E-03     19.4232E-03
            5670            5715     19.7963E-03     19.4232E-03
            5661            5715     19.7963E-03     19.4232E-03
            5671            5716     19.8180E-03     19.1962E-03
            5661            5716     19.8180E-03     19.1962E-03
            5662            5716     19.8180E-03     19.1962E-03
            5670            5716     19.8180E-03     19.1962E-03
            5662            5717     19.6112E-03     18.9399E-03
            5663            5717     19.6112E-03     18.9399E-03
            5671            5717     19.6112E-03     18.9399E-03
            5672            5717     19.6112E-03     18.9399E-03
            5673            5718     19.1488E-03     18.7036E-03
            5664            5718     19.1488E-03     18.7036E-03
            5663            5718     19.1488E-03     18.7036E-03
            5672            5718     19.1488E-03     18.7036E-03
            5665            5719     17.9212E-03     18.0088E-03
            5664            5719     17.9212E-03     18.0088E-03
            5674            5719     17.9212E-03     18.0088E-03
            5673            5719     17.9212E-03     18.0088E-03
            5674            5720     16.1282E-03     16.4984E-03
            5675            5720     16.1282E-03     16.4984E-03
            5665            5720     16.1282E-03     16.4984E-03
            5666            5720     16.1282E-03     16.4984E-03
            5676            5721     16.1705E-03     16.5279E-03
            5677            5721     16.1705E-03     16.5279E-03
            5668            5721     16.1705E-03     16.5279E-03
            5667            5721     16.1705E-03     16.5279E-03
            5669            5722     18.4335E-03     18.3133E-03
            5677            5722     18.4335E-03     18.3133E-03
            5678            5722     18.4335E-03     18.3133E-03
            5668            5722     18.4335E-03     18.3133E-03
            5678            5723     19.1686E-03     18.6462E-03
            5679            5723     19.1686E-03     18.6462E-03
            5669            5723     19.1686E-03     18.6462E-03
            5670            5723     19.1686E-03     18.6462E-03
            5679            5724     19.2267E-03     18.5054E-03
            5670            5724     19.2267E-03     18.5054E-03
            5680            5724     19.2267E-03     18.5054E-03
            5671            5724     19.2267E-03     18.5054E-03
            5681            5725     19.0959E-03     18.2999E-03
            5671            5725     19.0959E-03     18.2999E-03
            5680            5725     19.0959E-03     18.2999E-03
            5672            5725     19.0959E-03     18.2999E-03
            5673            5726     18.8089E-03     18.0448E-03
            5672            5726     18.8089E-03     18.0448E-03
            5682            5726     18.8089E-03     18.0448E-03
            5681            5726     18.8089E-03     18.0448E-03
            5683            5727     17.7899E-03     17.4126E-03
            5673            5727     17.7899E-03     17.4126E-03
            5682            5727     17.7899E-03     17.4126E-03
            5674            5727     17.7899E-03     17.4126E-03
            5675            5728     14.9580E-03     15.3824E-03
            5674            5728     14.9580E-03     15.3824E-03
            5683            5728     14.9580E-03     15.3824E-03
            5684            5728     14.9580E-03     15.3824E-03
            5686            5729     14.4645E-03     14.5465E-03
            5677            5729     14.4645E-03     14.5465E-03
            5685            5729     14.4645E-03     14.5465E-03
            5676            5729     14.4645E-03     14.5465E-03
            5687            5730     17.5824E-03     17.1974E-03
            5677            5730     17.5824E-03     17.1974E-03
            5686            5730     17.5824E-03     17.1974E-03
            5678            5730     17.5824E-03     17.1974E-03
            5687            5731     18.4617E-03     17.9778E-03
            5679            5731     18.4617E-03     17.9778E-03
            5688            5731     18.4617E-03     17.9778E-03
            5678            5731     18.4617E-03     17.9778E-03
            5688            5732     18.7584E-03     18.2366E-03
            5680            5732     18.7584E-03     18.2366E-03
            5679            5732     18.7584E-03     18.2366E-03
            5689            5732     18.7584E-03     18.2366E-03
            5689            5733     18.7093E-03     18.1188E-03
            5680            5733     18.7093E-03     18.1188E-03
            5690            5733     18.7093E-03     18.1188E-03
            5681            5733     18.7093E-03     18.1188E-03
            5681            5734     18.3213E-03     17.6237E-03
            5691            5734     18.3213E-03     17.6237E-03
            5690            5734     18.3213E-03     17.6237E-03
            5682            5734     18.3213E-03     17.6237E-03
            5691            5735     17.4690E-03     16.6516E-03
            5682            5735     17.4690E-03     16.6516E-03
            5683            5735     17.4690E-03     16.6516E-03
            5692            5735     17.4690E-03     16.6516E-03
            5693            5736     14.2727E-03     14.0390E-03
            5692            5736     14.2727E-03     14.0390E-03
            5684            5736     14.2727E-03     14.0390E-03
            5683            5736     14.2727E-03     14.0390E-03
            5694            5737     15.3984E-03     15.0219E-03
            5686            5737     15.3984E-03     15.0219E-03
            5695            5737     15.3984E-03     15.0219E-03
            5685            5737     15.3984E-03     15.0219E-03
            5687            5738     16.4915E-03     16.1928E-03
            5696            5738     16.4915E-03     16.1928E-03
            5695            5738     16.4915E-03     16.1928E-03
            5686            5738     16.4915E-03     16.1928E-03
            5697            5739     16.9476E-03     16.7133E-03
            5696            5739     16.9476E-03     16.7133E-03
            5688            5739     16.9476E-03     16.7133E-03
            5687            5739     16.9476E-03     16.7133E-03
            5698            5740     17.2398E-03     17.0730E-03
            5688            5740     17.2398E-03     17.0730E-03
            5689            5740     17.2398E-03     17.0730E-03
            5697            5740     17.2398E-03     17.0730E-03
            5689            5741     17.1959E-03     17.0261E-03
            5690            5741     17.1959E-03     17.0261E-03
            5699            5741     17.1959E-03     17.0261E-03
            5698            5741     17.1959E-03     17.0261E-03
            5691            5742     16.7880E-03     16.5879E-03
            5690            5742     16.7880E-03     16.5879E-03
            5699            5742     16.7880E-03     16.5879E-03
            5700            5742     16.7880E-03     16.5879E-03
            5701            5743     16.2962E-03     15.9737E-03
            5700            5743     16.2962E-03     15.9737E-03
            5692            5743     16.2962E-03     15.9737E-03
            5691            5743     16.2962E-03     15.9737E-03
            5702            5744     15.1996E-03     14.8546E-03
            5693            5744     15.1996E-03     14.8546E-03
            5701            5744     15.1996E-03     14.8546E-03
            5692            5744     15.1996E-03     14.8546E-03
            5695            5745     16.2946E-03     16.0663E-03
            5704            5745     16.2946E-03     16.0663E-03
            5694            5745     16.2946E-03     16.0663E-03
            5703            5745     16.2946E-03     16.0663E-03
            5695            5746     16.2759E-03     16.2893E-03
            5696            5746     16.2759E-03     16.2893E-03
            5705            5746     16.2759E-03     16.2893E-03
            5704            5746     16.2759E-03     16.2893E-03
            5696            5747     16.2205E-03     16.2087E-03
            5705            5747     16.2205E-03     16.2087E-03
            5697            5747     16.2205E-03     16.2087E-03
            5706            5747     16.2205E-03     16.2087E-03
            5706            5748     16.2665E-03     16.2799E-03
            5707            5748     16.2665E-03     16.2799E-03
            5698            5748     16.2665E-03     16.2799E-03
            5697            5748     16.2665E-03     16.2799E-03
            5707            5749     16.2029E-03     16.2527E-03
            5698            5749     16.2029E-03     16.2527E-03
            5699            5749     16.2029E-03     16.2527E-03
            5708            5749     16.2029E-03     16.2527E-03
            5708            5750     16.0015E-03     16.1414E-03
            5699            5750     16.0015E-03     16.1414E-03
            5700            5750     16.0015E-03     16.1414E-03
            5709            5750     16.0015E-03     16.1414E-03
            5710            5751     15.8942E-03     16.1017E-03
            5709            5751     15.8942E-03     16.1017E-03
            5700            5751     15.8942E-03     16.1017E-03
            5701            5751     15.8942E-03     16.1017E-03
            5710            5752     15.6303E-03     15.7544E-03
            5701            5752     15.6303E-03     15.7544E-03
            5702            5752     15.6303E-03     15.7544E-03
            5711            5752     15.6303E-03     15.7544E-03
            5704            5753     14.1775E-03     14.0961E-03
            5712            5753     14.1775E-03     14.0961E-03
            5713            5753     14.1775E-03     14.0961E-03
            5703            5753     14.1775E-03     14.0961E-03
            5704            5754     16.4898E-03     16.4895E-03
            5713            5754     16.4898E-03     16.4895E-03
            5714            5754     16.4898E-03     16.4895E-03
            5705            5754     16.4898E-03     16.4895E-03
            5714            5755     16.9333E-03     16.9896E-03
            5715            5755     16.9333E-03     16.9896E-03
            5705            5755     16.9333E-03     16.9896E-03
            5706            5755     16.9333E-03     16.9896E-03
            5706            5756     16.8474E-03     16.8752E-03
            5707            5756     16.8474E-03     16.8752E-03
            5715            5756     16.8474E-03     16.8752E-03
            5716            5756     16.8474E-03     16.8752E-03
            5708            5757     16.8117E-03     16.8475E-03
            5716            5757     16.8117E-03     16.8475E-03
            5717            5757     16.8117E-03     16.8475E-03
            5707            5757     16.8117E-03     16.8475E-03
            5717            5758     16.8292E-03     16.8972E-03
            5709            5758     16.8292E-03     16.8972E-03
            5718            5758     16.8292E-03     16.8972E-03
            5708            5758     16.8292E-03     16.8972E-03
            5719            5759     16.2208E-03     16.3698E-03
            5718            5759     16.2208E-03     16.3698E-03
            5710            5759     16.2208E-03     16.3698E-03
            5709            5759     16.2208E-03     16.3698E-03
            5711            5760     13.6952E-03     13.9125E-03
            5720            5760     13.6952E-03     13.9125E-03
            5719            5760     13.6952E-03     13.9125E-03
            5710            5760     13.6952E-03     13.9125E-03
            5713            5761     12.9704E-03     12.8549E-03
            5712            5761     12.9704E-03     12.8549E-03
            5721            5761     12.9704E-03     12.8549E-03
            5722            5761     12.9704E-03     12.8549E-03
            5722            5762     16.1409E-03     16.0566E-03
            5713            5762     16.1409E-03     16.0566E-03
            5714            5762     16.1409E-03     16.0566E-03
            5723            5762     16.1409E-03     16.0566E-03
            5724            5763     16.9796E-03     16.9873E-03
            5723            5763     16.9796E-03     16.9873E-03
            5714            5763     16.9796E-03     16.9873E-03
            5715            5763     16.9796E-03     16.9873E-03
            5724            5764     16.9880E-03     16.9911E-03
            5715            5764     16.9880E-03     16.9911E-03
            5716            5764     16.9880E-03     16.9911E-03
            5725            5764     16.9880E-03     16.9911E-03
            5725            5765     16.9784E-03     16.9642E-03
            5717            5765     16.9784E-03     16.9642E-03
            5716            5765     16.9784E-03     16.9642E-03
            5726            5765     16.9784E-03     16.9642E-03
            5718            5766     16.9601E-03     16.9004E-03
            5727            5766     16.9601E-03     16.9004E-03
            5726            5766     16.9601E-03     16.9004E-03
            5717            5766     16.9601E-03     16.9004E-03
            5718            5767     16.0436E-03     16.0049E-03
            5719            5767     16.0436E-03     16.0049E-03
            5728            5767     16.0436E-03     16.0049E-03
            5727            5767     16.0436E-03     16.0049E-03
            5729            5768     12.6808E-03     12.9118E-03
            5728            5768     12.6808E-03     12.9118E-03
            5720            5768     12.6808E-03     12.9118E-03
            5719            5768     12.6808E-03     12.9118E-03
            5721            5769     12.8310E-03     12.8558E-03
            5722            5769     12.8310E-03     12.8558E-03
            5730            5769     12.8310E-03     12.8558E-03
            5731            5769     12.8310E-03     12.8558E-03
            5722            5770     15.5301E-03     15.5347E-03
            5732            5770     15.5301E-03     15.5347E-03
            5731            5770     15.5301E-03     15.5347E-03
            5723            5770     15.5301E-03     15.5347E-03
            5732            5771     16.4482E-03     16.4249E-03
            5723            5771     16.4482E-03     16.4249E-03
            5724            5771     16.4482E-03     16.4249E-03
            5733            5771     16.4482E-03     16.4249E-03
            5725            5772     16.8344E-03     16.8302E-03
            5734            5772     16.8344E-03     16.8302E-03
            5724            5772     16.8344E-03     16.8302E-03
            5733            5772     16.8344E-03     16.8302E-03
            5734            5773     16.8504E-03     16.8097E-03
            5725            5773     16.8504E-03     16.8097E-03
            5726            5773     16.8504E-03     16.8097E-03
            5735            5773     16.8504E-03     16.8097E-03
            5735            5774     16.4817E-03     16.3866E-03
            5736            5774     16.4817E-03     16.3866E-03
            5727            5774     16.4817E-03     16.3866E-03
            5726            5774     16.4817E-03     16.3866E-03
            5727            5775     15.6468E-03     15.4834E-03
            5736            5775     15.6468E-03     15.4834E-03
            5728            5775     15.6468E-03     15.4834E-03
            5737            5775     15.6468E-03     15.4834E-03
            5738            5776     12.9765E-03     12.9892E-03
            5729            5776     12.9765E-03     12.9892E-03
            5728            5776     12.9765E-03     12.9892E-03
            5737            5776     12.9765E-03     12.9892E-03


  Minimum                            462.302E-06     473.587E-06
      At Element                            5369            5369
            Node                             768             768

  Maximum                            116.469E-03     103.253E-03
      At Element                            3950            3860
            Node                              22             629

           Total                         118.548         117.921


Field Output reported at element nodes for region: A320-1.Region_3
   Computation algorithm: EXTRAPOLATE_COMPUTE_AVERAGE
   Averaged at nodes
   Averaging regions: ODB_REGIONS

   Element Label      Node Label         S.Mises         S.Mises
                                          @Loc 1          @Loc 2
-----------------------------------------------------------------
            1760               1     639.683E-06     636.115E-06
               1               1     639.683E-06     636.115E-06
            3550               2     6.32938E-03     6.31540E-03
            1757               2     6.32938E-03     6.31540E-03
              29               2     6.32938E-03     6.31540E-03
               4               2     6.32938E-03     6.31540E-03
              28               3     3.05983E-03     3.60915E-03
             329               3     3.05983E-03     3.60915E-03
              25               4     152.641E-06     260.161E-06
              78               5     35.3019E-03     39.2122E-03
             379               5     35.3019E-03     39.2122E-03
            2348               5     35.3019E-03     39.2122E-03
            3501               5     35.3019E-03     39.2122E-03
             415               6     102.560E-03     110.210E-03
             378               6     102.560E-03     110.210E-03
            2343               7     42.0514E-03     47.9503E-03
            5288               7     42.0514E-03     47.9503E-03
             421               7     42.0514E-03     47.9503E-03
             384               7     42.0514E-03     47.9503E-03
             457               8     95.9222E-03     112.040E-03
             420               8     95.9222E-03     112.040E-03
             426               9     19.9670E-03     21.4013E-03
             505               9     19.9670E-03     21.4013E-03
            4106               9     19.9670E-03     21.4013E-03
            5283               9     19.9670E-03     21.4013E-03
             745              10     74.8380E-03     78.6524E-03
             462              10     74.8380E-03     78.6524E-03
             463              11     661.241E-06     657.087E-06
            6572              11     661.241E-06     657.087E-06
            4067              12     8.24611E-03     8.22331E-03
             468              12     8.24611E-03     8.22331E-03
            6567              12     8.24611E-03     8.22331E-03
             544              12     8.24611E-03     8.22331E-03
             504              13     2.82604E-03     3.65230E-03
            4307              13     2.82604E-03     3.65230E-03
             499              14     187.281E-06     290.524E-06
            6603              15     2.61316E-03     3.53776E-03
             784              15     2.61316E-03     3.53776E-03
            1781              17     3.37458E-03     3.93645E-03
            3850              17     3.37458E-03     3.93645E-03
            1784              18     152.641E-06     260.161E-06
            3801              21     99.3923E-03     106.194E-03
            2384              21     99.3923E-03     106.194E-03
            2379              22     167.152E-03     177.364E-03
            5324              22     167.152E-03     177.364E-03
            5319              25     84.5519E-03     90.6208E-03
            4346              25     84.5519E-03     90.6208E-03
            6608              27     187.281E-06     290.524E-06
            1760              29     645.134E-06     640.978E-06
               2              29     645.134E-06     640.978E-06
               1              29     645.134E-06     640.978E-06
            1759              29     645.134E-06     640.978E-06
            1759              30     654.147E-06     645.265E-06
               2              30     654.147E-06     645.265E-06
            1758              30     654.147E-06     645.265E-06
               3              30     654.147E-06     645.265E-06
               3              31     648.087E-06     636.370E-06
            1757              31     648.087E-06     636.370E-06
            1758              31     648.087E-06     636.370E-06
               4              31     648.087E-06     636.370E-06
               4              32     5.56065E-03     5.55419E-03
              29              32     5.56065E-03     5.55419E-03
               8              32     5.56065E-03     5.55419E-03
              79              32     5.56065E-03     5.55419E-03
               8              33     4.49031E-03     4.49092E-03
             129              33     4.49031E-03     4.49092E-03
              79              33     4.49031E-03     4.49092E-03
              12              33     4.49031E-03     4.49092E-03
              16              34     3.17772E-03     3.19094E-03
              12              34     3.17772E-03     3.19094E-03
             179              34     3.17772E-03     3.19094E-03
             129              34     3.17772E-03     3.19094E-03
              16              35     1.70761E-03     1.75378E-03
             229              35     1.70761E-03     1.75378E-03
              20              35     1.70761E-03     1.75378E-03
             179              35     1.70761E-03     1.75378E-03
              24              36     999.820E-06     1.13588E-03
              20              36     999.820E-06     1.13588E-03
             229              36     999.820E-06     1.13588E-03
             279              36     999.820E-06     1.13588E-03
             279              37     2.05675E-03     2.43215E-03
             329              37     2.05675E-03     2.43215E-03
              28              37     2.05675E-03     2.43215E-03
              24              37     2.05675E-03     2.43215E-03
              28              38     418.952E-06     431.992E-06
              27              38     418.952E-06     431.992E-06
              26              39     285.756E-06     250.868E-06
              27              39     285.756E-06     250.868E-06
              25              40     157.437E-06     241.974E-06
              26              40     157.437E-06     241.974E-06
              21              41     168.732E-06     207.222E-06
              25              41     168.732E-06     207.222E-06
              21              42     242.788E-06     222.341E-06
              17              42     242.788E-06     222.341E-06
              17              43     373.026E-06     364.016E-06
              13              43     373.026E-06     364.016E-06
               9              44     488.173E-06     481.635E-06
              13              44     488.173E-06     481.635E-06
               5              45     570.462E-06     564.900E-06
               9              45     570.462E-06     564.900E-06
               1              46     624.779E-06     620.138E-06
               5              46     624.779E-06     620.138E-06
              29              47     12.0911E-03     12.0208E-03
            3550              47     12.0911E-03     12.0208E-03
            3549              47     12.0911E-03     12.0208E-03
              30              47     12.0911E-03     12.0208E-03
            3549              48     12.1533E-03     12.0835E-03
              30              48     12.1533E-03     12.0835E-03
              31              48     12.1533E-03     12.0835E-03
            3548              48     12.1533E-03     12.0835E-03
            3547              49     12.1545E-03     12.1030E-03
            3548              49     12.1545E-03     12.1030E-03
              32              49     12.1545E-03     12.1030E-03
              31              49     12.1545E-03     12.1030E-03
            3547              50     12.1732E-03     12.2421E-03
            3546              50     12.1732E-03     12.2421E-03
              32              50     12.1732E-03     12.2421E-03
              33              50     12.1732E-03     12.2421E-03
              34              51     12.5170E-03     12.3390E-03
            3545              51     12.5170E-03     12.3390E-03
              33              51     12.5170E-03     12.3390E-03
            3546              51     12.5170E-03     12.3390E-03
              35              52     12.5221E-03     12.2999E-03
            3545              52     12.5221E-03     12.2999E-03
              34              52     12.5221E-03     12.2999E-03
            3544              52     12.5221E-03     12.2999E-03
            3544              53     13.0753E-03     13.1082E-03
            3543              53     13.0753E-03     13.1082E-03
              36              53     13.0753E-03     13.1082E-03
              35              53     13.0753E-03     13.1082E-03
              37              54     14.0582E-03     13.8622E-03
            3543              54     14.0582E-03     13.8622E-03
              36              54     14.0582E-03     13.8622E-03
            3542              54     14.0582E-03     13.8622E-03
              38              55     14.2572E-03     13.9586E-03
            3542              55     14.2572E-03     13.9586E-03
              37              55     14.2572E-03     13.9586E-03
            3541              55     14.2572E-03     13.9586E-03
              39              56     14.4253E-03     14.1647E-03
              38              56     14.4253E-03     14.1647E-03
            3540              56     14.4253E-03     14.1647E-03
            3541              56     14.4253E-03     14.1647E-03
            3540              57     14.6002E-03     14.3678E-03
              40              57     14.6002E-03     14.3678E-03
            3539              57     14.6002E-03     14.3678E-03
              39              57     14.6002E-03     14.3678E-03
            3539              58     14.7437E-03     14.6587E-03
              41              58     14.7437E-03     14.6587E-03
            3538              58     14.7437E-03     14.6587E-03
              40              58     14.7437E-03     14.6587E-03
            3537              59     14.9684E-03     14.9901E-03
            3538              59     14.9684E-03     14.9901E-03
              42              59     14.9684E-03     14.9901E-03
              41              59     14.9684E-03     14.9901E-03
            3537              60     15.1774E-03     15.2200E-03
              43              60     15.1774E-03     15.2200E-03
            3536              60     15.1774E-03     15.2200E-03
              42              60     15.1774E-03     15.2200E-03
              44              61     15.2022E-03     15.7901E-03
            3535              61     15.2022E-03     15.7901E-03
              43              61     15.2022E-03     15.7901E-03
            3536              61     15.2022E-03     15.7901E-03
            3535              62     16.1717E-03     15.9474E-03
            3534              62     16.1717E-03     15.9474E-03
              44              62     16.1717E-03     15.9474E-03
              45              62     16.1717E-03     15.9474E-03
            3534              63     16.1285E-03     15.7190E-03
            3533              63     16.1285E-03     15.7190E-03
              46              63     16.1285E-03     15.7190E-03
              45              63     16.1285E-03     15.7190E-03
              47              64     15.9041E-03     16.4558E-03
            3533              64     15.9041E-03     16.4558E-03
              46              64     15.9041E-03     16.4558E-03
            3532              64     15.9041E-03     16.4558E-03
              48              65     17.0664E-03     16.7952E-03
            3531              65     17.0664E-03     16.7952E-03
            3532              65     17.0664E-03     16.7952E-03
              47              65     17.0664E-03     16.7952E-03
            3531              66     17.5613E-03     16.9329E-03
              48              66     17.5613E-03     16.9329E-03
              49              66     17.5613E-03     16.9329E-03
            3530              66     17.5613E-03     16.9329E-03
              49              67     17.8096E-03     17.4647E-03
            3530              67     17.8096E-03     17.4647E-03
            3529              67     17.8096E-03     17.4647E-03
              50              67     17.8096E-03     17.4647E-03
              50              68     18.1348E-03     17.7574E-03
            3528              68     18.1348E-03     17.7574E-03
              51              68     18.1348E-03     17.7574E-03
            3529              68     18.1348E-03     17.7574E-03
            3528              69     18.3388E-03     18.2461E-03
            3527              69     18.3388E-03     18.2461E-03
              52              69     18.3388E-03     18.2461E-03
              51              69     18.3388E-03     18.2461E-03
              52              70     18.6402E-03     18.7504E-03
            3526              70     18.6402E-03     18.7504E-03
              53              70     18.6402E-03     18.7504E-03
            3527              70     18.6402E-03     18.7504E-03
            3525              71     18.9092E-03     19.0242E-03
              54              71     18.9092E-03     19.0242E-03
              53              71     18.9092E-03     19.0242E-03
            3526              71     18.9092E-03     19.0242E-03
              55              72     18.8194E-03     19.8735E-03
            3525              72     18.8194E-03     19.8735E-03
            3524              72     18.8194E-03     19.8735E-03
              54              72     18.8194E-03     19.8735E-03
              55              73     20.2846E-03     19.9484E-03
            3524              73     20.2846E-03     19.9484E-03
              56              73     20.2846E-03     19.9484E-03
            3523              73     20.2846E-03     19.9484E-03
              57              74     20.0731E-03     19.4544E-03
              56              74     20.0731E-03     19.4544E-03
            3522              74     20.0731E-03     19.4544E-03
            3523              74     20.0731E-03     19.4544E-03
            3521              75     19.1990E-03     20.4232E-03
            3522              75     19.1990E-03     20.4232E-03
              57              75     19.1990E-03     20.4232E-03
              58              75     19.1990E-03     20.4232E-03
              59              76     20.8972E-03     20.5333E-03
            3520              76     20.8972E-03     20.5333E-03
              58              76     20.8972E-03     20.5333E-03
            3521              76     20.8972E-03     20.5333E-03
              60              77     21.7048E-03     20.6686E-03
            3519              77     21.7048E-03     20.6686E-03
            3520              77     21.7048E-03     20.6686E-03
              59              77     21.7048E-03     20.6686E-03
            3518              78     21.8593E-03     21.5124E-03
            3519              78     21.8593E-03     21.5124E-03
              60              78     21.8593E-03     21.5124E-03
              61              78     21.8593E-03     21.5124E-03
            3517              79     22.3018E-03     21.7817E-03
              62              79     22.3018E-03     21.7817E-03
              61              79     22.3018E-03     21.7817E-03
            3518              79     22.3018E-03     21.7817E-03
            3517              80     22.5114E-03     22.4143E-03
            3516              80     22.5114E-03     22.4143E-03
              63              80     22.5114E-03     22.4143E-03
              62              80     22.5114E-03     22.4143E-03
            3516              81     22.8292E-03     23.0330E-03
            3515              81     22.8292E-03     23.0330E-03
              64              81     22.8292E-03     23.0330E-03
              63              81     22.8292E-03     23.0330E-03
              65              82     23.1147E-03     23.2939E-03
            3514              82     23.1147E-03     23.2939E-03
              64              82     23.1147E-03     23.2939E-03
            3515              82     23.1147E-03     23.2939E-03
            3514              83     22.8626E-03     24.3784E-03
            3513              83     22.8626E-03     24.3784E-03
              65              83     22.8626E-03     24.3784E-03
              66              83     22.8626E-03     24.3784E-03
              67              84     24.7824E-03     24.3246E-03
            3513              84     24.7824E-03     24.3246E-03
            3512              84     24.7824E-03     24.3246E-03
              66              84     24.7824E-03     24.3246E-03
              68              85     24.3624E-03     23.5270E-03
            3511              85     24.3624E-03     23.5270E-03
            3512              85     24.3624E-03     23.5270E-03
              67              85     24.3624E-03     23.5270E-03
              68              86     22.8610E-03     24.8513E-03
            3511              86     22.8610E-03     24.8513E-03
            3510              86     22.8610E-03     24.8513E-03
              69              86     22.8610E-03     24.8513E-03
            3509              87     25.2139E-03     24.8593E-03
            3510              87     25.2139E-03     24.8593E-03
              70              87     25.2139E-03     24.8593E-03
              69              87     25.2139E-03     24.8593E-03
              71              88     26.2930E-03     24.9899E-03
            3508              88     26.2930E-03     24.9899E-03
              70              88     26.2930E-03     24.9899E-03
            3509              88     26.2930E-03     24.9899E-03
            3508              89     26.2733E-03     26.1174E-03
              72              89     26.2733E-03     26.1174E-03
            3507              89     26.2733E-03     26.1174E-03
              71              89     26.2733E-03     26.1174E-03
            3507              90     26.6225E-03     26.3983E-03
              73              90     26.6225E-03     26.3983E-03
            3506              90     26.6225E-03     26.3983E-03
              72              90     26.6225E-03     26.3983E-03
              74              91     27.0225E-03     27.0151E-03
            3506              91     27.0225E-03     27.0151E-03
              73              91     27.0225E-03     27.0151E-03
            3505              91     27.0225E-03     27.0151E-03
            3505              92     27.1812E-03     27.2826E-03
              75              92     27.1812E-03     27.2826E-03
            3504              92     27.1812E-03     27.2826E-03
              74              92     27.1812E-03     27.2826E-03
              76              93     26.7510E-03     28.4921E-03
            3504              93     26.7510E-03     28.4921E-03
            3503              93     26.7510E-03     28.4921E-03
              75              93     26.7510E-03     28.4921E-03
              77              94     28.9955E-03     28.3253E-03
            3502              94     28.9955E-03     28.3253E-03
              76              94     28.9955E-03     28.3253E-03
            3503              94     28.9955E-03     28.3253E-03
            3501              95     28.3363E-03     27.2719E-03
              78              95     28.3363E-03     27.2719E-03
            3502              95     28.3363E-03     27.2719E-03
              77              95     28.3363E-03     27.2719E-03
             379              96     41.0815E-03     48.2726E-03
             385              96     41.0815E-03     48.2726E-03
              78              96     41.0815E-03     48.2726E-03
             128              96     41.0815E-03     48.2726E-03
             385              97     52.3455E-03     58.2625E-03
             391              97     52.3455E-03     58.2625E-03
             128              97     52.3455E-03     58.2625E-03
             178              97     52.3455E-03     58.2625E-03
             178              98     65.5614E-03     74.1633E-03
             391              98     65.5614E-03     74.1633E-03
             228              98     65.5614E-03     74.1633E-03
             397              98     65.5614E-03     74.1633E-03
             228              99     77.7113E-03     89.9018E-03
             403              99     77.7113E-03     89.9018E-03
             397              99     77.7113E-03     89.9018E-03
             278              99     77.7113E-03     89.9018E-03
             409             100     87.3539E-03     101.798E-03
             278             100     87.3539E-03     101.798E-03
             328             100     87.3539E-03     101.798E-03
             403             100     87.3539E-03     101.798E-03
             328             101     96.9827E-03     108.119E-03
             378             101     96.9827E-03     108.119E-03
             409             101     96.9827E-03     108.119E-03
             415             101     96.9827E-03     108.119E-03
             377             102     113.120E-03     108.818E-03
             378             102     113.120E-03     108.818E-03
             377             103     107.331E-03     101.312E-03
             376             103     107.331E-03     101.312E-03
             376             104     96.5562E-03     99.5225E-03
             375             104     96.5562E-03     99.5225E-03
             375             105     94.9392E-03     92.7679E-03
             374             105     94.9392E-03     92.7679E-03
             374             106     90.4080E-03     90.4430E-03
             373             106     90.4080E-03     90.4430E-03
             372             107     87.1351E-03     85.6582E-03
             373             107     87.1351E-03     85.6582E-03
             372             108     82.0389E-03     83.5190E-03
             371             108     82.0389E-03     83.5190E-03
             370             109     81.6729E-03     77.3896E-03
             371             109     81.6729E-03     77.3896E-03
             369             110     77.9831E-03     74.5617E-03
             370             110     77.9831E-03     74.5617E-03
             369             111     77.3156E-03     86.5350E-03
             368             111     77.3156E-03     86.5350E-03
             368             112     88.1499E-03     84.8370E-03
             367             112     88.1499E-03     84.8370E-03
             367             113     83.0588E-03     78.4822E-03
             366             113     83.0588E-03     78.4822E-03
             366             114     74.1633E-03     76.5280E-03
             365             114     74.1633E-03     76.5280E-03
             365             115     72.4774E-03     70.8034E-03
             364             115     72.4774E-03     70.8034E-03
             363             116     68.5530E-03     68.4890E-03
             364             116     68.5530E-03     68.4890E-03
             362             117     65.3751E-03     65.0482E-03
             363             117     65.3751E-03     65.0482E-03
             361             118     62.2239E-03     61.2880E-03
             362             118     62.2239E-03     61.2880E-03
             361             119     57.9794E-03     58.8440E-03
             360             119     57.9794E-03     58.8440E-03
             359             120     56.5380E-03     53.7318E-03
             360             120     56.5380E-03     53.7318E-03
             359             121     52.9836E-03     50.5822E-03
             358             121     52.9836E-03     50.5822E-03
             357             122     53.5596E-03     59.9168E-03
             358             122     53.5596E-03     59.9168E-03
             357             123     62.1936E-03     59.9327E-03
             356             123     62.1936E-03     59.9327E-03
             356             124     57.7984E-03     54.6292E-03
             355             124     57.7984E-03     54.6292E-03
             355             125     50.7005E-03     52.4480E-03
             354             125     50.7005E-03     52.4480E-03
             354             126     48.8638E-03     47.6788E-03
             353             126     48.8638E-03     47.6788E-03
             352             127     45.3960E-03     45.3944E-03
             353             127     45.3960E-03     45.3944E-03
             352             128     42.5089E-03     42.2720E-03
             351             128     42.5089E-03     42.2720E-03
             351             129     39.5446E-03     39.0440E-03
             350             129     39.5446E-03     39.0440E-03
             350             130     35.9869E-03     36.3845E-03
             349             130     35.9869E-03     36.3845E-03
             348             131     33.6064E-03     32.1166E-03
             349             131     33.6064E-03     32.1166E-03
             347             132     29.9962E-03     28.6645E-03
             348             132     29.9962E-03     28.6645E-03
             346             133     31.7074E-03     35.4432E-03
             347             133     31.7074E-03     35.4432E-03
             345             134     38.3794E-03     37.1003E-03
             346             134     38.3794E-03     37.1003E-03
             345             135     34.7007E-03     32.8432E-03
             344             135     34.7007E-03     32.8432E-03
             343             136     29.3392E-03     30.5184E-03
             344             136     29.3392E-03     30.5184E-03
             342             137     27.4357E-03     26.7042E-03
             343             137     27.4357E-03     26.7042E-03
             342             138     24.4647E-03     24.5192E-03
             341             138     24.4647E-03     24.5192E-03
             340             139     21.9338E-03     21.7870E-03
             341             139     21.9338E-03     21.7870E-03
             339             140     19.2666E-03     19.1549E-03
             340             140     19.2666E-03     19.1549E-03
             339             141     16.4375E-03     16.4668E-03
             338             141     16.4375E-03     16.4668E-03
             337             142     13.3395E-03     13.1994E-03
             338             142     13.3395E-03     13.1994E-03
             336             143     9.67400E-03     9.46609E-03
             337             143     9.67400E-03     9.46609E-03
             336             144     11.8917E-03     13.2312E-03
             335             144     11.8917E-03     13.2312E-03
             334             145     16.3731E-03     16.0609E-03
             335             145     16.3731E-03     16.0609E-03
             333             146     13.6323E-03     12.9558E-03
             334             146     13.6323E-03     12.9558E-03
             333             147     10.2335E-03     10.8374E-03
             332             147     10.2335E-03     10.8374E-03
             332             148     8.68410E-03     8.45801E-03
             331             148     8.68410E-03     8.45801E-03
             330             149     7.09934E-03     7.30302E-03
             331             149     7.09934E-03     7.30302E-03
             330             150     6.15098E-03     6.72872E-03
             329             150     6.15098E-03     6.72872E-03
            2348             151     53.9410E-03     55.8746E-03
             379             151     53.9410E-03     55.8746E-03
            2347             151     53.9410E-03     55.8746E-03
             380             151     53.9410E-03     55.8746E-03
             381             152     63.3714E-03     62.7175E-03
            2347             152     63.3714E-03     62.7175E-03
             380             152     63.3714E-03     62.7175E-03
            2346             152     63.3714E-03     62.7175E-03
            2345             153     62.5443E-03     63.8714E-03
             382             153     62.5443E-03     63.8714E-03
             381             153     62.5443E-03     63.8714E-03
            2346             153     62.5443E-03     63.8714E-03
            2345             154     61.5063E-03     62.8291E-03
             382             154     61.5063E-03     62.8291E-03
            2344             154     61.5063E-03     62.8291E-03
             383             154     61.5063E-03     62.8291E-03
             383             155     62.4210E-03     67.4107E-03
             384             155     62.4210E-03     67.4107E-03
            2343             155     62.4210E-03     67.4107E-03
            2344             155     62.4210E-03     67.4107E-03
             427             156     32.1781E-03     33.6031E-03
             390             156     32.1781E-03     33.6031E-03
             384             156     32.1781E-03     33.6031E-03
             421             156     32.1781E-03     33.6031E-03
             427             157     34.4769E-03     35.2002E-03
             390             157     34.4769E-03     35.2002E-03
             396             157     34.4769E-03     35.2002E-03
             433             157     34.4769E-03     35.2002E-03
             402             158     44.7982E-03     49.0793E-03
             396             158     44.7982E-03     49.0793E-03
             439             158     44.7982E-03     49.0793E-03
             433             158     44.7982E-03     49.0793E-03
             408             159     57.7656E-03     70.6378E-03
             439             159     57.7656E-03     70.6378E-03
             445             159     57.7656E-03     70.6378E-03
             402             159     57.7656E-03     70.6378E-03
             445             160     69.0807E-03     91.4486E-03
             414             160     69.0807E-03     91.4486E-03
             408             160     69.0807E-03     91.4486E-03
             451             160     69.0807E-03     91.4486E-03
             420             161     84.8796E-03     106.019E-03
             414             161     84.8796E-03     106.019E-03
             457             161     84.8796E-03     106.019E-03
             451             161     84.8796E-03     106.019E-03
             420             162     103.834E-03     100.531E-03
             419             162     103.834E-03     100.531E-03
             419             163     99.4349E-03     95.5739E-03
             418             163     99.4349E-03     95.5739E-03
             418             164     95.9873E-03     92.5295E-03
             417             164     95.9873E-03     92.5295E-03
             417             165     95.4324E-03     89.3423E-03
             416             165     95.4324E-03     89.3423E-03
             415             166     92.7041E-03     98.0487E-03
             416             166     92.7041E-03     98.0487E-03
             422             167     24.5782E-03     22.8484E-03
            5288             167     24.5782E-03     22.8484E-03
            5287             167     24.5782E-03     22.8484E-03
             421             167     24.5782E-03     22.8484E-03
            5287             168     25.0679E-03     23.4962E-03
            5286             168     25.0679E-03     23.4962E-03
             423             168     25.0679E-03     23.4962E-03
             422             168     25.0679E-03     23.4962E-03
            5286             169     22.4112E-03     23.6120E-03
             423             169     22.4112E-03     23.6120E-03
             424             169     22.4112E-03     23.6120E-03
            5285             169     22.4112E-03     23.6120E-03
            5284             170     22.3692E-03     21.7086E-03
             424             170     22.3692E-03     21.7086E-03
             425             170     22.3692E-03     21.7086E-03
            5285             170     22.3692E-03     21.7086E-03
             425             171     21.5052E-03     22.1653E-03
            5284             171     21.5052E-03     22.1653E-03
            5283             171     21.5052E-03     22.1653E-03
             426             171     21.5052E-03     22.1653E-03
             426             172     19.5474E-03     21.1882E-03
             432             172     19.5474E-03     21.1882E-03
             505             172     19.5474E-03     21.1882E-03
             545             172     19.5474E-03     21.1882E-03
             585             173     29.5451E-03     32.2966E-03
             545             173     29.5451E-03     32.2966E-03
             432             173     29.5451E-03     32.2966E-03
             438             173     29.5451E-03     32.2966E-03
             438             174     42.2779E-03     46.7114E-03
             625             174     42.2779E-03     46.7114E-03
             585             174     42.2779E-03     46.7114E-03
             444             174     42.2779E-03     46.7114E-03
             665             175     53.9904E-03     61.5861E-03
             625             175     53.9904E-03     61.5861E-03
             450             175     53.9904E-03     61.5861E-03
             444             175     53.9904E-03     61.5861E-03
             705             176     64.1142E-03     73.8542E-03
             456             176     64.1142E-03     73.8542E-03
             665             176     64.1142E-03     73.8542E-03
             450             176     64.1142E-03     73.8542E-03
             705             177     71.8397E-03     78.6315E-03
             745             177     71.8397E-03     78.6315E-03
             456             177     71.8397E-03     78.6315E-03
             462             177     71.8397E-03     78.6315E-03
             461             178     81.5148E-03     77.3944E-03
             462             178     81.5148E-03     77.3944E-03
             461             179     85.3058E-03     79.0607E-03
             460             179     85.3058E-03     79.0607E-03
             459             180     83.9208E-03     88.5912E-03
             460             180     83.9208E-03     88.5912E-03
             459             181     96.0758E-03     88.7055E-03
             458             181     96.0758E-03     88.7055E-03
             458             182     100.783E-03     97.9559E-03
             457             182     100.783E-03     97.9559E-03
            6572             183     667.222E-06     660.457E-06
             464             183     667.222E-06     660.457E-06
             463             183     667.222E-06     660.457E-06
            6571             183     667.222E-06     660.457E-06
             465             184     669.763E-06     663.193E-06
            6570             184     669.763E-06     663.193E-06
            6571             184     669.763E-06     663.193E-06
             464             184     669.763E-06     663.193E-06
             465             185     664.504E-06     664.842E-06
             466             185     664.504E-06     664.842E-06
            6570             185     664.504E-06     664.842E-06
            6569             185     664.504E-06     664.842E-06
            6569             186     672.013E-06     665.687E-06
             467             186     672.013E-06     665.687E-06
             466             186     672.013E-06     665.687E-06
            6568             186     672.013E-06     665.687E-06
             468             187     669.943E-06     653.142E-06
             467             187     669.943E-06     653.142E-06
            6567             187     669.943E-06     653.142E-06
            6568             187     669.943E-06     653.142E-06
             474             188     7.60488E-03     7.56543E-03
            4107             188     7.60488E-03     7.56543E-03
            4067             188     7.60488E-03     7.56543E-03
             468             188     7.60488E-03     7.56543E-03
             474             189     6.58135E-03     6.53950E-03
             480             189     6.58135E-03     6.53950E-03
            4147             189     6.58135E-03     6.53950E-03
            4107             189     6.58135E-03     6.53950E-03
             486             190     5.25120E-03     5.18727E-03
            4147             190     5.25120E-03     5.18727E-03
            4187             190     5.25120E-03     5.18727E-03
             480             190     5.25120E-03     5.18727E-03
            4187             191     3.63863E-03     3.52996E-03
             492             191     3.63863E-03     3.52996E-03
             486             191     3.63863E-03     3.52996E-03
            4227             191     3.63863E-03     3.52996E-03
             498             192     1.95919E-03     1.90893E-03
            4227             192     1.95919E-03     1.90893E-03
             492             192     1.95919E-03     1.90893E-03
            4267             192     1.95919E-03     1.90893E-03
            4307             193     1.99662E-03     2.41888E-03
             498             193     1.99662E-03     2.41888E-03
             504             193     1.99662E-03     2.41888E-03
            4267             193     1.99662E-03     2.41888E-03
             503             194     701.378E-06     696.900E-06
             504             194     701.378E-06     696.900E-06
             503             195     522.980E-06     493.299E-06
             502             195     522.980E-06     493.299E-06
             501             196     312.899E-06     343.698E-06
             502             196     312.899E-06     343.698E-06
             501             197     221.105E-06     200.413E-06
             500             197     221.105E-06     200.413E-06
             500             198     176.841E-06     234.172E-06
             499             198     176.841E-06     234.172E-06
             493             199     170.349E-06     228.477E-06
             499             199     170.349E-06     228.477E-06
             493             200     214.143E-06     225.814E-06
             487             200     214.143E-06     225.814E-06
             487             201     361.171E-06     360.971E-06
             481             201     361.171E-06     360.971E-06
             475             202     496.421E-06     488.243E-06
             481             202     496.421E-06     488.243E-06
             475             203     586.042E-06     580.265E-06
             469             203     586.042E-06     580.265E-06
             463             204     643.977E-06     638.938E-06
             469             204     643.977E-06     638.938E-06
            4105             205     21.1885E-03     21.3989E-03
            4106             205     21.1885E-03     21.3989E-03
             505             205     21.1885E-03     21.3989E-03
             506             205     21.1885E-03     21.3989E-03
             507             206     25.0554E-03     24.0075E-03
             506             206     25.0554E-03     24.0075E-03
            4105             206     25.0554E-03     24.0075E-03
            4104             206     25.0554E-03     24.0075E-03
             508             207     25.3960E-03     25.4573E-03
            4103             207     25.3960E-03     25.4573E-03
            4104             207     25.3960E-03     25.4573E-03
             507             207     25.3960E-03     25.4573E-03
             509             208     23.9252E-03     25.4389E-03
            4103             208     23.9252E-03     25.4389E-03
            4102             208     23.9252E-03     25.4389E-03
             508             208     23.9252E-03     25.4389E-03
            4101             209     24.3722E-03     24.7319E-03
             509             209     24.3722E-03     24.7319E-03
             510             209     24.3722E-03     24.7319E-03
            4102             209     24.3722E-03     24.7319E-03
             510             210     24.4013E-03     24.6492E-03
             511             210     24.4013E-03     24.6492E-03
            4100             210     24.4013E-03     24.6492E-03
            4101             210     24.4013E-03     24.6492E-03
             512             211     24.3515E-03     24.1547E-03
            4100             211     24.3515E-03     24.1547E-03
            4099             211     24.3515E-03     24.1547E-03
             511             211     24.3515E-03     24.1547E-03
            4099             212     24.3616E-03     23.7398E-03
             513             212     24.3616E-03     23.7398E-03
             512             212     24.3616E-03     23.7398E-03
            4098             212     24.3616E-03     23.7398E-03
            4097             213     24.2433E-03     23.4910E-03
            4098             213     24.2433E-03     23.4910E-03
             514             213     24.2433E-03     23.4910E-03
             513             213     24.2433E-03     23.4910E-03
            4097             214     23.9881E-03     22.8511E-03
            4096             214     23.9881E-03     22.8511E-03
             514             214     23.9881E-03     22.8511E-03
             515             214     23.9881E-03     22.8511E-03
            4095             215     23.3771E-03     23.2332E-03
             515             215     23.3771E-03     23.2332E-03
             516             215     23.3771E-03     23.2332E-03
            4096             215     23.3771E-03     23.2332E-03
             517             216     21.8447E-03     22.3936E-03
            4094             216     21.8447E-03     22.3936E-03
             516             216     21.8447E-03     22.3936E-03
            4095             216     21.8447E-03     22.3936E-03
            4093             217     21.9986E-03     21.1887E-03
             518             217     21.9986E-03     21.1887E-03
             517             217     21.9986E-03     21.1887E-03
            4094             217     21.9986E-03     21.1887E-03
            4092             218     22.1528E-03     22.2202E-03
            4093             218     22.1528E-03     22.2202E-03
             518             218     22.1528E-03     22.2202E-03
             519             218     22.1528E-03     22.2202E-03
             520             219     21.0235E-03     22.1344E-03
            4092             219     21.0235E-03     22.1344E-03
            4091             219     21.0235E-03     22.1344E-03
             519             219     21.0235E-03     22.1344E-03
            4090             220     21.2442E-03     21.5894E-03
             520             220     21.2442E-03     21.5894E-03
             521             220     21.2442E-03     21.5894E-03
            4091             220     21.2442E-03     21.5894E-03
            4089             221     21.1786E-03     21.4645E-03
             522             221     21.1786E-03     21.4645E-03
            4090             221     21.1786E-03     21.4645E-03
             521             221     21.1786E-03     21.4645E-03
            4089             222     21.0794E-03     21.0766E-03
             523             222     21.0794E-03     21.0766E-03
             522             222     21.0794E-03     21.0766E-03
            4088             222     21.0794E-03     21.0766E-03
             523             223     21.0970E-03     20.6748E-03
            4088             223     21.0970E-03     20.6748E-03
            4087             223     21.0970E-03     20.6748E-03
             524             223     21.0970E-03     20.6748E-03
             524             224     20.9813E-03     20.4122E-03
             525             224     20.9813E-03     20.4122E-03
            4087             224     20.9813E-03     20.4122E-03
            4086             224     20.9813E-03     20.4122E-03
            4085             225     20.8984E-03     20.2109E-03
             525             225     20.8984E-03     20.2109E-03
             526             225     20.8984E-03     20.2109E-03
            4086             225     20.8984E-03     20.2109E-03
            4085             226     20.6612E-03     19.8824E-03
            4084             226     20.6612E-03     19.8824E-03
             526             226     20.6612E-03     19.8824E-03
             527             226     20.6612E-03     19.8824E-03
            4084             227     20.3140E-03     20.0904E-03
             527             227     20.3140E-03     20.0904E-03
             528             227     20.3140E-03     20.0904E-03
            4083             227     20.3140E-03     20.0904E-03
             528             228     19.1610E-03     19.2543E-03
             529             228     19.1610E-03     19.2543E-03
            4083             228     19.1610E-03     19.2543E-03
            4082             228     19.1610E-03     19.2543E-03
             530             229     18.8956E-03     18.3623E-03
             529             229     18.8956E-03     18.3623E-03
            4081             229     18.8956E-03     18.3623E-03
            4082             229     18.8956E-03     18.3623E-03
             531             230     18.9465E-03     18.9302E-03
            4080             230     18.9465E-03     18.9302E-03
             530             230     18.9465E-03     18.9302E-03
            4081             230     18.9465E-03     18.9302E-03
            4080             231     18.3106E-03     18.7980E-03
            4079             231     18.3106E-03     18.7980E-03
             532             231     18.3106E-03     18.7980E-03
             531             231     18.3106E-03     18.7980E-03
            4078             232     18.4193E-03     18.4778E-03
             532             232     18.4193E-03     18.4778E-03
             533             232     18.4193E-03     18.4778E-03
            4079             232     18.4193E-03     18.4778E-03
             534             233     18.3883E-03     18.3974E-03
             533             233     18.3883E-03     18.3974E-03
            4077             233     18.3883E-03     18.3974E-03
            4078             233     18.3883E-03     18.3974E-03
            4076             234     18.3372E-03     18.2047E-03
             534             234     18.3372E-03     18.2047E-03
             535             234     18.3372E-03     18.2047E-03
            4077             234     18.3372E-03     18.2047E-03
             535             235     18.3287E-03     18.0642E-03
            4075             235     18.3287E-03     18.0642E-03
            4076             235     18.3287E-03     18.0642E-03
             536             235     18.3287E-03     18.0642E-03
            4075             236     18.2843E-03     17.9868E-03
             536             236     18.2843E-03     17.9868E-03
            4074             236     18.2843E-03     17.9868E-03
             537             236     18.2843E-03     17.9868E-03
            4074             237     18.2385E-03     17.8938E-03
            4073             237     18.2385E-03     17.8938E-03
             537             237     18.2385E-03     17.8938E-03
             538             237     18.2385E-03     17.8938E-03
            4072             238     18.1025E-03     17.8807E-03
             538             238     18.1025E-03     17.8807E-03
             539             238     18.1025E-03     17.8807E-03
            4073             238     18.1025E-03     17.8807E-03
             539             239     16.9042E-03     16.7697E-03
            4072             239     16.9042E-03     16.7697E-03
            4071             239     16.9042E-03     16.7697E-03
             540             239     16.9042E-03     16.7697E-03
            4070             240     16.0231E-03     15.7371E-03
             540             240     16.0231E-03     15.7371E-03
             541             240     16.0231E-03     15.7371E-03
            4071             240     16.0231E-03     15.7371E-03
             541             241     16.0434E-03     15.9309E-03
             542             241     16.0434E-03     15.9309E-03
            4070             241     16.0434E-03     15.9309E-03
            4069             241     16.0434E-03     15.9309E-03
            4068             242     15.8958E-03     15.8804E-03
            4069             242     15.8958E-03     15.8804E-03
             543             242     15.8958E-03     15.8804E-03
             542             242     15.8958E-03     15.8804E-03
            4068             243     15.8941E-03     15.7883E-03
             544             243     15.8941E-03     15.7883E-03
            4067             243     15.8941E-03     15.7883E-03
             543             243     15.8941E-03     15.7883E-03
            6567             244     8.49708E-03     8.45450E-03
            6573             244     8.49708E-03     8.45450E-03
             544             244     8.49708E-03     8.45450E-03
             584             244     8.49708E-03     8.45450E-03
            6573             245     8.31469E-03     8.27172E-03
             624             245     8.31469E-03     8.27172E-03
            6579             245     8.31469E-03     8.27172E-03
             584             245     8.31469E-03     8.27172E-03
            6579             246     7.72331E-03     7.67156E-03
             664             246     7.72331E-03     7.67156E-03
            6585             246     7.72331E-03     7.67156E-03
             624             246     7.72331E-03     7.67156E-03
             704             247     6.67009E-03     6.63904E-03
             664             247     6.67009E-03     6.63904E-03
            6591             247     6.67009E-03     6.63904E-03
            6585             247     6.67009E-03     6.63904E-03
            6597             248     5.24130E-03     5.30812E-03
             744             248     5.24130E-03     5.30812E-03
            6591             248     5.24130E-03     5.30812E-03
             704             248     5.24130E-03     5.30812E-03
             784             249     3.54909E-03     4.06844E-03
             744             249     3.54909E-03     4.06844E-03
            6603             249     3.54909E-03     4.06844E-03
            6597             249     3.54909E-03     4.06844E-03
             783             250     3.31528E-03     4.37643E-03
             784             250     3.31528E-03     4.37643E-03
             783             251     3.53403E-03     3.89954E-03
             782             251     3.53403E-03     3.89954E-03
             781             252     7.86059E-03     6.50352E-03
             782             252     7.86059E-03     6.50352E-03
             780             253     11.2432E-03     11.6364E-03
             781             253     11.2432E-03     11.6364E-03
             780             254     10.3443E-03     11.5337E-03
             779             254     10.3443E-03     11.5337E-03
             778             255     8.94443E-03     7.88369E-03
             779             255     8.94443E-03     7.88369E-03
             777             256     10.0154E-03     9.25292E-03
             778             256     10.0154E-03     9.25292E-03
             777             257     12.4221E-03     11.9267E-03
             776             257     12.4221E-03     11.9267E-03
             776             258     15.2532E-03     15.0462E-03
             775             258     15.2532E-03     15.0462E-03
             774             259     18.2751E-03     18.0291E-03
             775             259     18.2751E-03     18.0291E-03
             774             260     21.1903E-03     21.2384E-03
             773             260     21.1903E-03     21.2384E-03
             772             261     24.5178E-03     23.9262E-03
             773             261     24.5178E-03     23.9262E-03
             772             262     26.9615E-03     28.2525E-03
             771             262     26.9615E-03     28.2525E-03
             770             263     32.6339E-03     30.7090E-03
             771             263     32.6339E-03     30.7090E-03
             770             264     36.2061E-03     35.6382E-03
             769             264     36.2061E-03     35.6382E-03
             768             265     30.9499E-03     34.2519E-03
             769             265     30.9499E-03     34.2519E-03
             768             266     29.4099E-03     26.8894E-03
             767             266     29.4099E-03     26.8894E-03
             767             267     31.3108E-03     29.3212E-03
             766             267     31.3108E-03     29.3212E-03
             765             268     33.0434E-03     33.0125E-03
             766             268     33.0434E-03     33.0125E-03
             765             269     36.5653E-03     35.8076E-03
             764             269     36.5653E-03     35.8076E-03
             763             270     39.6263E-03     39.2537E-03
             764             270     39.6263E-03     39.2537E-03
             763             271     42.7869E-03     42.4424E-03
             762             271     42.7869E-03     42.4424E-03
             762             272     45.9337E-03     45.8658E-03
             761             272     45.9337E-03     45.8658E-03
             761             273     49.6485E-03     48.5504E-03
             760             273     49.6485E-03     48.5504E-03
             759             274     51.8567E-03     53.8049E-03
             760             274     51.8567E-03     53.8049E-03
             759             275     59.3993E-03     55.9479E-03
             758             275     59.3993E-03     55.9479E-03
             757             276     63.5727E-03     61.9043E-03
             758             276     63.5727E-03     61.9043E-03
             756             277     55.7980E-03     62.1199E-03
             757             277     55.7980E-03     62.1199E-03
             755             278     55.5139E-03     51.8101E-03
             756             278     55.5139E-03     51.8101E-03
             754             279     57.5509E-03     54.1351E-03
             755             279     57.5509E-03     54.1351E-03
             754             280     58.2849E-03     58.7541E-03
             753             280     58.2849E-03     58.7541E-03
             752             281     62.5267E-03     61.3471E-03
             753             281     62.5267E-03     61.3471E-03
             752             282     65.8575E-03     65.3351E-03
             751             282     65.8575E-03     65.3351E-03
             751             283     69.3196E-03     69.1373E-03
             750             283     69.3196E-03     69.1373E-03
             749             284     73.5531E-03     71.8940E-03
             750             284     73.5531E-03     71.8940E-03
             748             285     75.6972E-03     78.2056E-03
             749             285     75.6972E-03     78.2056E-03
             748             286     85.1880E-03     80.1872E-03
             747             286     85.1880E-03     80.1872E-03
             747             287     90.1665E-03     87.3587E-03
             746             287     90.1665E-03     87.3587E-03
             745             288     79.9427E-03     87.1553E-03
             746             288     79.9427E-03     87.1553E-03
            1782             306     418.952E-06     431.992E-06
            1781             306     418.952E-06     431.992E-06
            1783             307     285.756E-06     250.868E-06
            1782             307     285.756E-06     250.868E-06
            1784             308     157.437E-06     241.974E-06
            1783             308     157.437E-06     241.974E-06
            1760             412     624.779E-06     620.138E-06
            1764             412     624.779E-06     620.138E-06
            1764             413     570.462E-06     564.900E-06
            1768             413     570.462E-06     564.900E-06
            1772             414     488.173E-06     481.635E-06
            1768             414     488.173E-06     481.635E-06
            1776             415     373.026E-06     364.016E-06
            1772             415     373.026E-06     364.016E-06
            1776             416     242.788E-06     222.341E-06
            1780             416     242.788E-06     222.341E-06
            1780             417     168.732E-06     207.222E-06
            1784             417     168.732E-06     207.222E-06
            3800             418     3.97138E-03     4.28522E-03
            1777             418     3.97138E-03     4.28522E-03
            3850             418     3.97138E-03     4.28522E-03
            1781             418     3.97138E-03     4.28522E-03
            3800             419     4.94191E-03     5.03016E-03
            1777             419     4.94191E-03     5.03016E-03
            3750             419     4.94191E-03     5.03016E-03
            1773             419     4.94191E-03     5.03016E-03
            3700             420     5.80106E-03     5.83321E-03
            3750             420     5.80106E-03     5.83321E-03
            1769             420     5.80106E-03     5.83321E-03
            1773             420     5.80106E-03     5.83321E-03
            3650             421     6.52908E-03     6.47794E-03
            3700             421     6.52908E-03     6.47794E-03
            1769             421     6.52908E-03     6.47794E-03
            1765             421     6.52908E-03     6.47794E-03
            3650             422     6.84246E-03     6.78700E-03
            1765             422     6.84246E-03     6.78700E-03
            1761             422     6.84246E-03     6.78700E-03
            3600             422     6.84246E-03     6.78700E-03
            3600             423     6.77257E-03     6.73579E-03
            1761             423     6.77257E-03     6.73579E-03
            3550             423     6.77257E-03     6.73579E-03
            1757             423     6.77257E-03     6.73579E-03
            3801             440     88.6708E-03     85.8254E-03
            3802             440     88.6708E-03     85.8254E-03
            3803             441     84.0692E-03     79.2078E-03
            3802             441     84.0692E-03     79.2078E-03
            3804             442     75.2509E-03     77.6044E-03
            3803             442     75.2509E-03     77.6044E-03
            3805             443     73.5484E-03     71.8378E-03
            3804             443     73.5484E-03     71.8378E-03
            3806             444     69.7523E-03     69.6217E-03
            3805             444     69.7523E-03     69.6217E-03
            3807             445     67.0497E-03     65.6601E-03
            3806             445     67.0497E-03     65.6601E-03
            3808             446     63.1053E-03     63.8106E-03
            3807             446     63.1053E-03     63.8106E-03
            3808             447     63.4167E-03     59.6455E-03
            3809             447     63.4167E-03     59.6455E-03
            3809             448     62.1892E-03     58.2341E-03
            3810             448     62.1892E-03     58.2341E-03
            3811             449     61.3248E-03     67.9937E-03
            3810             449     61.3248E-03     67.9937E-03
            3812             450     68.3692E-03     66.3683E-03
            3811             450     68.3692E-03     66.3683E-03
            3813             451     64.4652E-03     60.8201E-03
            3812             451     64.4652E-03     60.8201E-03
            3813             452     57.2730E-03     59.1879E-03
            3814             452     57.2730E-03     59.1879E-03
            3814             453     55.5722E-03     54.2960E-03
            3815             453     55.5722E-03     54.2960E-03
            3816             454     52.2574E-03     52.1315E-03
            3815             454     52.2574E-03     52.1315E-03
            3816             455     49.5879E-03     49.1548E-03
            3817             455     49.5879E-03     49.1548E-03
            3817             456     47.0617E-03     46.0961E-03
            3818             456     47.0617E-03     46.0961E-03
            3819             457     43.8876E-03     44.0949E-03
            3818             457     43.8876E-03     44.0949E-03
            3819             458     43.4711E-03     40.8433E-03
            3820             458     43.4711E-03     40.8433E-03
            3821             459     42.4314E-03     39.3137E-03
            3820             459     42.4314E-03     39.3137E-03
            3821             460     42.3699E-03     46.8197E-03
            3822             460     42.3699E-03     46.8197E-03
            3823             461     47.4644E-03     46.3454E-03
            3822             461     47.4644E-03     46.3454E-03
            3824             462     44.2535E-03     41.7645E-03
            3823             462     44.2535E-03     41.7645E-03
            3825             463     38.6171E-03     40.0654E-03
            3824             463     38.6171E-03     40.0654E-03
            3825             464     36.8666E-03     36.0237E-03
            3826             464     36.8666E-03     36.0237E-03
            3827             465     33.9902E-03     33.9532E-03
            3826             465     33.9902E-03     33.9532E-03
            3828             466     31.6011E-03     31.2822E-03
            3827             466     31.6011E-03     31.2822E-03
            3829             467     29.2601E-03     28.6754E-03
            3828             467     29.2601E-03     28.6754E-03
            3829             468     26.6803E-03     26.5514E-03
            3830             468     26.6803E-03     26.5514E-03
            3830             469     25.6326E-03     24.0071E-03
            3831             469     25.6326E-03     24.0071E-03
            3832             470     24.6958E-03     22.4720E-03
            3831             470     24.6958E-03     22.4720E-03
            3833             471     25.4269E-03     27.9099E-03
            3832             471     25.4269E-03     27.9099E-03
            3834             472     28.8280E-03     28.4784E-03
            3833             472     28.8280E-03     28.4784E-03
            3834             473     26.2341E-03     24.7701E-03
            3835             473     26.2341E-03     24.7701E-03
            3836             474     22.0155E-03     23.0294E-03
            3835             474     22.0155E-03     23.0294E-03
            3836             475     20.2383E-03     19.7939E-03
            3837             475     20.2383E-03     19.7939E-03
            3837             476     17.8017E-03     17.8489E-03
            3838             476     17.8017E-03     17.8489E-03
            3838             477     15.7207E-03     15.5145E-03
            3839             477     15.7207E-03     15.5145E-03
            3839             478     13.6370E-03     13.4051E-03
            3840             478     13.6370E-03     13.4051E-03
            3841             479     11.7665E-03     11.3390E-03
            3840             479     11.7665E-03     11.3390E-03
            3842             480     10.5890E-03     9.75247E-03
            3841             480     10.5890E-03     9.75247E-03
            3843             481     10.3241E-03     9.16286E-03
            3842             481     10.3241E-03     9.16286E-03
            3844             482     11.0650E-03     12.0350E-03
            3843             482     11.0650E-03     12.0350E-03
            3845             483     11.7519E-03     12.0308E-03
            3844             483     11.7519E-03     12.0308E-03
            3846             484     9.55932E-03     8.77662E-03
            3845             484     9.55932E-03     8.77662E-03
            3846             485     6.53816E-03     7.08473E-03
            3847             485     6.53816E-03     7.08473E-03
            3848             486     5.22222E-03     4.83069E-03
            3847             486     5.22222E-03     4.83069E-03
            3849             487     4.83922E-03     4.24435E-03
            3848             487     4.83922E-03     4.24435E-03
            3850             488     5.63268E-03     5.92526E-03
            3849             488     5.63268E-03     5.92526E-03
            2354             514     36.8793E-03     35.6271E-03
            3501             514     36.8793E-03     35.6271E-03
            2348             514     36.8793E-03     35.6271E-03
            3551             514     36.8793E-03     35.6271E-03
            3601             515     46.2682E-03     46.8762E-03
            3551             515     46.2682E-03     46.8762E-03
            2354             515     46.2682E-03     46.8762E-03
            2360             515     46.2682E-03     46.8762E-03
            2366             516     60.0111E-03     63.7303E-03
            3601             516     60.0111E-03     63.7303E-03
            2360             516     60.0111E-03     63.7303E-03
            3651             516     60.0111E-03     63.7303E-03
            3701             517     73.1474E-03     81.1860E-03
            3651             517     73.1474E-03     81.1860E-03
            2366             517     73.1474E-03     81.1860E-03
            2372             517     73.1474E-03     81.1860E-03
            2372             518     83.7060E-03     95.1207E-03
            3701             518     83.7060E-03     95.1207E-03
            3751             518     83.7060E-03     95.1207E-03
            2378             518     83.7060E-03     95.1207E-03
            3751             519     93.8124E-03     103.357E-03
            2378             519     93.8124E-03     103.357E-03
            2384             519     93.8124E-03     103.357E-03
            3801             519     93.8124E-03     103.357E-03
            2384             520     137.221E-03     145.281E-03
            2383             520     137.221E-03     145.281E-03
            2383             521     173.494E-03     179.159E-03
            2382             521     173.494E-03     179.159E-03
            2381             522     189.190E-03     192.076E-03
            2382             522     189.190E-03     192.076E-03
            2380             523     208.451E-03     204.848E-03
            2381             523     208.451E-03     204.848E-03
            2380             524     221.670E-03     215.455E-03
            2379             524     221.670E-03     215.455E-03
            2379             525     154.987E-03     172.115E-03
            5324             525     154.987E-03     172.115E-03
            2373             525     154.987E-03     172.115E-03
            5318             525     154.987E-03     172.115E-03
            5312             526     132.820E-03     159.184E-03
            2367             526     132.820E-03     159.184E-03
            2373             526     132.820E-03     159.184E-03
            5318             526     132.820E-03     159.184E-03
            5306             527     114.978E-03     139.594E-03
            5312             527     114.978E-03     139.594E-03
            2361             527     114.978E-03     139.594E-03
            2367             527     114.978E-03     139.594E-03
            2361             528     98.8147E-03     117.340E-03
            5306             528     98.8147E-03     117.340E-03
            5300             528     98.8147E-03     117.340E-03
            2355             528     98.8147E-03     117.340E-03
            2349             529     80.3742E-03     95.6837E-03
            5294             529     80.3742E-03     95.6837E-03
            2355             529     80.3742E-03     95.6837E-03
            5300             529     80.3742E-03     95.6837E-03
            5288             530     60.2830E-03     71.8421E-03
            2349             530     60.2830E-03     71.8421E-03
            2343             530     60.2830E-03     71.8421E-03
            5294             530     60.2830E-03     71.8421E-03
            5320             625     92.4889E-03     89.9090E-03
            5319             625     92.4889E-03     89.9090E-03
            5321             626     100.437E-03     93.3948E-03
            5320             626     100.437E-03     93.3948E-03
            5321             627     100.504E-03     106.106E-03
            5322             627     100.504E-03     106.106E-03
            5323             628     116.077E-03     107.651E-03
            5322             628     116.077E-03     107.651E-03
            5324             629     123.606E-03     118.675E-03
            5323             629     123.606E-03     118.675E-03
            5283             630     31.0423E-03     33.3326E-03
            5289             630     31.0423E-03     33.3326E-03
            4106             630     31.0423E-03     33.3326E-03
            4146             630     31.0423E-03     33.3326E-03
            4186             631     45.1372E-03     48.6374E-03
            4146             631     45.1372E-03     48.6374E-03
            5289             631     45.1372E-03     48.6374E-03
            5295             631     45.1372E-03     48.6374E-03
            4186             632     58.4158E-03     63.4814E-03
            5295             632     58.4158E-03     63.4814E-03
            4226             632     58.4158E-03     63.4814E-03
            5301             632     58.4158E-03     63.4814E-03
            4226             633     69.6087E-03     77.6299E-03
            5307             633     69.6087E-03     77.6299E-03
            5301             633     69.6087E-03     77.6299E-03
            4266             633     69.6087E-03     77.6299E-03
            5313             634     77.4606E-03     88.3992E-03
            4266             634     77.4606E-03     88.3992E-03
            4306             634     77.4606E-03     88.3992E-03
            5307             634     77.4606E-03     88.3992E-03
            5319             635     82.4652E-03     91.4206E-03
            4306             635     82.4652E-03     91.4206E-03
            5313             635     82.4652E-03     91.4206E-03
            4346             635     82.4652E-03     91.4206E-03
            4346             636     92.1471E-03     99.7614E-03
            4345             636     92.1471E-03     99.7614E-03
            4345             637     104.094E-03     100.339E-03
            4344             637     104.094E-03     100.339E-03
            4344             638     98.2673E-03     92.5802E-03
            4343             638     98.2673E-03     92.5802E-03
            4342             639     87.5310E-03     90.3544E-03
            4343             639     87.5310E-03     90.3544E-03
            4341             640     85.3750E-03     83.4359E-03
            4342             640     85.3750E-03     83.4359E-03
            4341             641     80.7057E-03     80.5568E-03
            4340             641     80.7057E-03     80.5568E-03
            4339             642     76.8702E-03     76.4216E-03
            4340             642     76.8702E-03     76.4216E-03
            4338             643     73.0851E-03     71.9389E-03
            4339             643     73.0851E-03     71.9389E-03
            4337             644     68.0889E-03     69.0236E-03
            4338             644     68.0889E-03     69.0236E-03
            4336             645     66.6111E-03     63.0662E-03
            4337             645     66.6111E-03     63.0662E-03
            4335             646     62.7619E-03     59.6055E-03
            4336             646     62.7619E-03     59.6055E-03
            4335             647     63.5138E-03     71.1993E-03
            4334             647     63.5138E-03     71.1993E-03
            4333             648     73.8104E-03     71.3215E-03
            4334             648     73.8104E-03     71.3215E-03
            4332             649     68.7962E-03     64.8434E-03
            4333             649     68.7962E-03     64.8434E-03
            4332             650     60.2016E-03     62.3560E-03
            4331             650     60.2016E-03     62.3560E-03
            4330             651     57.9299E-03     56.5812E-03
            4331             651     57.9299E-03     56.5812E-03
            4329             652     53.8255E-03     53.7660E-03
            4330             652     53.8255E-03     53.7660E-03
            4328             653     50.3758E-03     50.0472E-03
            4329             653     50.3758E-03     50.0472E-03
            4328             654     46.8553E-03     46.5703E-03
            4327             654     46.8553E-03     46.5703E-03
            4326             655     43.3358E-03     42.6755E-03
            4327             655     43.3358E-03     42.6755E-03
            4326             656     39.0911E-03     39.4610E-03
            4325             656     39.0911E-03     39.4610E-03
            4324             657     36.3258E-03     34.4907E-03
            4325             657     36.3258E-03     34.4907E-03
            4324             658     32.3844E-03     30.5951E-03
            4323             658     32.3844E-03     30.5951E-03
            4323             659     34.7571E-03     38.9147E-03
            4322             659     34.7571E-03     38.9147E-03
            4321             660     42.4623E-03     41.2484E-03
            4322             660     42.4623E-03     41.2484E-03
            4320             661     38.1527E-03     35.9790E-03
            4321             661     38.1527E-03     35.9790E-03
            4320             662     31.7081E-03     33.1056E-03
            4319             662     31.7081E-03     33.1056E-03
            4319             663     29.1909E-03     28.4015E-03
            4318             663     29.1909E-03     28.4015E-03
            4318             664     25.5191E-03     25.5648E-03
            4317             664     25.5191E-03     25.5648E-03
            4317             665     22.3197E-03     22.1223E-03
            4316             665     22.3197E-03     22.1223E-03
            4316             666     18.9373E-03     18.8289E-03
            4315             666     18.9373E-03     18.8289E-03
            4315             667     15.4447E-03     15.3383E-03
            4314             667     15.4447E-03     15.3383E-03
            4314             668     11.4195E-03     11.4254E-03
            4313             668     11.4195E-03     11.4254E-03
            4313             669     7.13813E-03     6.76835E-03
            4312             669     7.13813E-03     6.76835E-03
            4312             670     9.88012E-03     11.0372E-03
            4311             670     9.88012E-03     11.0372E-03
            4310             671     14.4994E-03     14.5105E-03
            4311             671     14.4994E-03     14.5105E-03
            4309             672     10.9569E-03     10.1883E-03
            4310             672     10.9569E-03     10.1883E-03
            4308             673     6.93635E-03     7.71050E-03
            4309             673     6.93635E-03     7.71050E-03
            4308             674     5.62727E-03     6.33244E-03
            4307             674     5.62727E-03     6.33244E-03
            6604             765     701.378E-06     696.900E-06
            6603             765     701.378E-06     696.900E-06
            6605             766     522.980E-06     493.299E-06
            6604             766     522.980E-06     493.299E-06
            6606             767     312.899E-06     343.698E-06
            6605             767     312.899E-06     343.698E-06
            6607             768     221.105E-06     200.413E-06
            6606             768     221.105E-06     200.413E-06
            6608             769     176.841E-06     234.172E-06
            6607             769     176.841E-06     234.172E-06
            6578             825     643.977E-06     638.938E-06
            6572             825     643.977E-06     638.938E-06
            6584             826     586.042E-06     580.265E-06
            6578             826     586.042E-06     580.265E-06
            6584             827     496.421E-06     488.243E-06
            6590             827     496.421E-06     488.243E-06
            6596             828     361.171E-06     360.971E-06
            6590             828     361.171E-06     360.971E-06
            6596             829     214.143E-06     225.814E-06
            6602             829     214.143E-06     225.814E-06
            6608             830     170.349E-06     228.477E-06
            6602             830     170.349E-06     228.477E-06
               2             831     628.174E-06     624.082E-06
               5             831     628.174E-06     624.082E-06
               6             831     628.174E-06     624.082E-06
               1             831     628.174E-06     624.082E-06
               3             832     636.364E-06     627.315E-06
               6             832     636.364E-06     627.315E-06
               7             832     636.364E-06     627.315E-06
               2             832     636.364E-06     627.315E-06
               8             833     632.547E-06     621.633E-06
               3             833     632.547E-06     621.633E-06
               7             833     632.547E-06     621.633E-06
               4             833     632.547E-06     621.633E-06
               5             834     575.512E-06     572.367E-06
              10             834     575.512E-06     572.367E-06
               6             834     575.512E-06     572.367E-06
               9             834     575.512E-06     572.367E-06
              10             835     587.965E-06     577.850E-06
               6             835     587.965E-06     577.850E-06
               7             835     587.965E-06     577.850E-06
              11             835     587.965E-06     577.850E-06
               8             836     583.486E-06     576.813E-06
              11             836     583.486E-06     576.813E-06
               7             836     583.486E-06     576.813E-06
              12             836     583.486E-06     576.813E-06
               9             837     491.464E-06     490.046E-06
              13             837     491.464E-06     490.046E-06
              10             837     491.464E-06     490.046E-06
              14             837     491.464E-06     490.046E-06
              11             838     510.541E-06     496.016E-06
              14             838     510.541E-06     496.016E-06
              10             838     510.541E-06     496.016E-06
              15             838     510.541E-06     496.016E-06
              16             839     510.864E-06     507.907E-06
              15             839     510.864E-06     507.907E-06
              12             839     510.864E-06     507.907E-06
              11             839     510.864E-06     507.907E-06
              13             840     377.804E-06     385.431E-06
              17             840     377.804E-06     385.431E-06
              14             840     377.804E-06     385.431E-06
              18             840     377.804E-06     385.431E-06
              15             841     410.253E-06     396.137E-06
              18             841     410.253E-06     396.137E-06
              14             841     410.253E-06     396.137E-06
              19             841     410.253E-06     396.137E-06
              19             842     415.038E-06     418.698E-06
              20             842     415.038E-06     418.698E-06
              15             842     415.038E-06     418.698E-06
              16             842     415.038E-06     418.698E-06
              17             843     241.323E-06     259.563E-06
              21             843     241.323E-06     259.563E-06
              18             843     241.323E-06     259.563E-06
              22             843     241.323E-06     259.563E-06
              19             844     302.739E-06     275.460E-06
              22             844     302.739E-06     275.460E-06
              18             844     302.739E-06     275.460E-06
              23             844     302.739E-06     275.460E-06
              23             845     316.487E-06     324.635E-06
              24             845     316.487E-06     324.635E-06
              19             845     316.487E-06     324.635E-06
              20             845     316.487E-06     324.635E-06
              25             846     163.797E-06     216.392E-06
              21             846     163.797E-06     216.392E-06
              22             846     163.797E-06     216.392E-06
              26             846     163.797E-06     216.392E-06
              27             847     267.231E-06     227.605E-06
              22             847     267.231E-06     227.605E-06
              26             847     267.231E-06     227.605E-06
              23             847     267.231E-06     227.605E-06
              23             848     346.807E-06     356.476E-06
              27             848     346.807E-06     356.476E-06
              28             848     346.807E-06     356.476E-06
              24             848     346.807E-06     356.476E-06
              30             849     10.5515E-03     10.5181E-03
              80             849     10.5515E-03     10.5181E-03
              79             849     10.5515E-03     10.5181E-03
              29             849     10.5515E-03     10.5181E-03
              30             850     10.6644E-03     10.5888E-03
              81             850     10.6644E-03     10.5888E-03
              80             850     10.6644E-03     10.5888E-03
              31             850     10.6644E-03     10.5888E-03
              32             851     10.8122E-03     10.7261E-03
              81             851     10.8122E-03     10.7261E-03
              82             851     10.8122E-03     10.7261E-03
              31             851     10.8122E-03     10.7261E-03
              83             852     10.9614E-03     11.1359E-03
              82             852     10.9614E-03     11.1359E-03
              33             852     10.9614E-03     11.1359E-03
              32             852     10.9614E-03     11.1359E-03
              33             853     11.6551E-03     11.3518E-03
              34             853     11.6551E-03     11.3518E-03
              84             853     11.6551E-03     11.3518E-03
              83             853     11.6551E-03     11.3518E-03
              34             854     11.7674E-03     11.6535E-03
              35             854     11.7674E-03     11.6535E-03
              85             854     11.7674E-03     11.6535E-03
              84             854     11.7674E-03     11.6535E-03
              35             855     12.0416E-03     12.3562E-03
              86             855     12.0416E-03     12.3562E-03
              36             855     12.0416E-03     12.3562E-03
              85             855     12.0416E-03     12.3562E-03
              36             856     13.0827E-03     12.8321E-03
              87             856     13.0827E-03     12.8321E-03
              37             856     13.0827E-03     12.8321E-03
              86             856     13.0827E-03     12.8321E-03
              37             857     13.5414E-03     13.3451E-03
              88             857     13.5414E-03     13.3451E-03
              38             857     13.5414E-03     13.3451E-03
              87             857     13.5414E-03     13.3451E-03
              38             858     14.0872E-03     13.9580E-03
              88             858     14.0872E-03     13.9580E-03
              39             858     14.0872E-03     13.9580E-03
              89             858     14.0872E-03     13.9580E-03
              90             859     14.7158E-03     14.5777E-03
              39             859     14.7158E-03     14.5777E-03
              89             859     14.7158E-03     14.5777E-03
              40             859     14.7158E-03     14.5777E-03
              90             860     15.3138E-03     15.3723E-03
              41             860     15.3138E-03     15.3723E-03
              40             860     15.3138E-03     15.3723E-03
              91             860     15.3138E-03     15.3723E-03
              92             861     16.0914E-03     16.1064E-03
              41             861     16.0914E-03     16.1064E-03
              91             861     16.0914E-03     16.1064E-03
              42             861     16.0914E-03     16.1064E-03
              42             862     16.7741E-03     16.7225E-03
              93             862     16.7741E-03     16.7225E-03
              92             862     16.7741E-03     16.7225E-03
              43             862     16.7741E-03     16.7225E-03
              43             863     17.0682E-03     17.9504E-03
              44             863     17.0682E-03     17.9504E-03
              94             863     17.0682E-03     17.9504E-03
              93             863     17.0682E-03     17.9504E-03
              95             864     18.9245E-03     18.0811E-03
              94             864     18.9245E-03     18.0811E-03
              44             864     18.9245E-03     18.0811E-03
              45             864     18.9245E-03     18.0811E-03
              96             865     18.7825E-03     18.3003E-03
              46             865     18.7825E-03     18.3003E-03
              45             865     18.7825E-03     18.3003E-03
              95             865     18.7825E-03     18.3003E-03
              47             866     17.3065E-03     18.8134E-03
              46             866     17.3065E-03     18.8134E-03
              97             866     17.3065E-03     18.8134E-03
              96             866     17.3065E-03     18.8134E-03
              97             867     18.9840E-03     18.3769E-03
              47             867     18.9840E-03     18.3769E-03
              98             867     18.9840E-03     18.3769E-03
              48             867     18.9840E-03     18.3769E-03
              48             868     20.1572E-03     19.5156E-03
              98             868     20.1572E-03     19.5156E-03
              99             868     20.1572E-03     19.5156E-03
              49             868     20.1572E-03     19.5156E-03
              50             869     20.7316E-03     20.8762E-03
             100             869     20.7316E-03     20.8762E-03
              99             869     20.7316E-03     20.8762E-03
              49             869     20.7316E-03     20.8762E-03
             100             870     21.8850E-03     21.6616E-03
              50             870     21.8850E-03     21.6616E-03
             101             870     21.8850E-03     21.6616E-03
              51             870     21.8850E-03     21.6616E-03
             101             871     22.7363E-03     22.8906E-03
             102             871     22.7363E-03     22.8906E-03
              51             871     22.7363E-03     22.8906E-03
              52             871     22.7363E-03     22.8906E-03
              52             872     23.7625E-03     23.8799E-03
             102             872     23.7625E-03     23.8799E-03
             103             872     23.7625E-03     23.8799E-03
              53             872     23.7625E-03     23.8799E-03
             104             873     24.6076E-03     24.5393E-03
              53             873     24.6076E-03     24.5393E-03
              54             873     24.6076E-03     24.5393E-03
             103             873     24.6076E-03     24.5393E-03
              55             874     24.7054E-03     26.2258E-03
             105             874     24.7054E-03     26.2258E-03
             104             874     24.7054E-03     26.2258E-03
              54             874     24.7054E-03     26.2258E-03
              56             875     27.3636E-03     25.9922E-03
             105             875     27.3636E-03     25.9922E-03
              55             875     27.3636E-03     25.9922E-03
             106             875     27.3636E-03     25.9922E-03
              57             876     26.7471E-03     25.8934E-03
             107             876     26.7471E-03     25.8934E-03
             106             876     26.7471E-03     25.8934E-03
              56             876     26.7471E-03     25.8934E-03
             107             877     23.7890E-03     26.6902E-03
             108             877     23.7890E-03     26.6902E-03
              57             877     23.7890E-03     26.6902E-03
              58             877     23.7890E-03     26.6902E-03
              59             878     26.6784E-03     25.7044E-03
             109             878     26.6784E-03     25.7044E-03
             108             878     26.6784E-03     25.7044E-03
              58             878     26.6784E-03     25.7044E-03
              60             879     28.5542E-03     27.3318E-03
              59             879     28.5542E-03     27.3318E-03
             110             879     28.5542E-03     27.3318E-03
             109             879     28.5542E-03     27.3318E-03
             111             880     28.8300E-03     29.3787E-03
             110             880     28.8300E-03     29.3787E-03
              60             880     28.8300E-03     29.3787E-03
              61             880     28.8300E-03     29.3787E-03
              61             881     30.4267E-03     30.1213E-03
             112             881     30.4267E-03     30.1213E-03
             111             881     30.4267E-03     30.1213E-03
              62             881     30.4267E-03     30.1213E-03
              62             882     31.4187E-03     31.6740E-03
             112             882     31.4187E-03     31.6740E-03
             113             882     31.4187E-03     31.6740E-03
              63             882     31.4187E-03     31.6740E-03
              63             883     32.5752E-03     32.8075E-03
             113             883     32.5752E-03     32.8075E-03
              64             883     32.5752E-03     32.8075E-03
             114             883     32.5752E-03     32.8075E-03
              64             884     33.4949E-03     33.4005E-03
              65             884     33.4949E-03     33.4005E-03
             114             884     33.4949E-03     33.4005E-03
             115             884     33.4949E-03     33.4005E-03
              66             885     33.3086E-03     35.4605E-03
             116             885     33.3086E-03     35.4605E-03
             115             885     33.3086E-03     35.4605E-03
              65             885     33.3086E-03     35.4605E-03
             117             886     36.6998E-03     34.7694E-03
              66             886     36.6998E-03     34.7694E-03
              67             886     36.6998E-03     34.7694E-03
             116             886     36.6998E-03     34.7694E-03
              67             887     35.5290E-03     34.2784E-03
             117             887     35.5290E-03     34.2784E-03
             118             887     35.5290E-03     34.2784E-03
              68             887     35.5290E-03     34.2784E-03
             118             888     31.1583E-03     35.5596E-03
              68             888     31.1583E-03     35.5596E-03
              69             888     31.1583E-03     35.5596E-03
             119             888     31.1583E-03     35.5596E-03
             119             889     35.4653E-03     34.2315E-03
             120             889     35.4653E-03     34.2315E-03
              69             889     35.4653E-03     34.2315E-03
              70             889     35.4653E-03     34.2315E-03
             120             890     38.0713E-03     36.3378E-03
              70             890     38.0713E-03     36.3378E-03
             121             890     38.0713E-03     36.3378E-03
              71             890     38.0713E-03     36.3378E-03
              72             891     37.8867E-03     38.9909E-03
              71             891     37.8867E-03     38.9909E-03
             121             891     37.8867E-03     38.9909E-03
             122             891     37.8867E-03     38.9909E-03
             123             892     39.6677E-03     39.8288E-03
              73             892     39.6677E-03     39.8288E-03
              72             892     39.6677E-03     39.8288E-03
             122             892     39.6677E-03     39.8288E-03
              74             893     41.1136E-03     41.3447E-03
             123             893     41.1136E-03     41.3447E-03
              73             893     41.1136E-03     41.3447E-03
             124             893     41.1136E-03     41.3447E-03
              75             894     41.9233E-03     42.0747E-03
             125             894     41.9233E-03     42.0747E-03
             124             894     41.9233E-03     42.0747E-03
              74             894     41.9233E-03     42.0747E-03
              75             895     41.5746E-03     44.3252E-03
             126             895     41.5746E-03     44.3252E-03
             125             895     41.5746E-03     44.3252E-03
              76             895     41.5746E-03     44.3252E-03
             127             896     45.5920E-03     43.2145E-03
              76             896     45.5920E-03     43.2145E-03
             126             896     45.5920E-03     43.2145E-03
              77             896     45.5920E-03     43.2145E-03
              78             897     43.8660E-03     42.3105E-03
             127             897     43.8660E-03     42.3105E-03
             128             897     43.8660E-03     42.3105E-03
              77             897     43.8660E-03     42.3105E-03
              79             898     8.44724E-03     8.46938E-03
              80             898     8.44724E-03     8.46938E-03
             130             898     8.44724E-03     8.46938E-03
             129             898     8.44724E-03     8.46938E-03
              81             899     8.67172E-03     8.62156E-03
              80             899     8.67172E-03     8.62156E-03
             130             899     8.67172E-03     8.62156E-03
             131             899     8.67172E-03     8.62156E-03
              82             900     9.04713E-03     8.94231E-03
             131             900     9.04713E-03     8.94231E-03
             132             900     9.04713E-03     8.94231E-03
              81             900     9.04713E-03     8.94231E-03
              83             901     9.47242E-03     9.81440E-03
             132             901     9.47242E-03     9.81440E-03
             133             901     9.47242E-03     9.81440E-03
              82             901     9.47242E-03     9.81440E-03
             134             902     10.7589E-03     10.2284E-03
              83             902     10.7589E-03     10.2284E-03
             133             902     10.7589E-03     10.2284E-03
              84             902     10.7589E-03     10.2284E-03
              84             903     10.9739E-03     10.9357E-03
             134             903     10.9739E-03     10.9357E-03
              85             903     10.9739E-03     10.9357E-03
             135             903     10.9739E-03     10.9357E-03
             135             904     10.8013E-03     11.5240E-03
             136             904     10.8013E-03     11.5240E-03
              85             904     10.8013E-03     11.5240E-03
              86             904     10.8013E-03     11.5240E-03
              86             905     11.9891E-03     11.6774E-03
             137             905     11.9891E-03     11.6774E-03
             136             905     11.9891E-03     11.6774E-03
              87             905     11.9891E-03     11.6774E-03
             138             906     12.8637E-03     12.8514E-03
              88             906     12.8637E-03     12.8514E-03
             137             906     12.8637E-03     12.8514E-03
              87             906     12.8637E-03     12.8514E-03
              89             907     13.8659E-03     14.0188E-03
             139             907     13.8659E-03     14.0188E-03
              88             907     13.8659E-03     14.0188E-03
             138             907     13.8659E-03     14.0188E-03
             139             908     15.1137E-03     15.1095E-03
             140             908     15.1137E-03     15.1095E-03
              90             908     15.1137E-03     15.1095E-03
              89             908     15.1137E-03     15.1095E-03
             141             909     16.2352E-03     16.4175E-03
              90             909     16.2352E-03     16.4175E-03
             140             909     16.2352E-03     16.4175E-03
              91             909     16.2352E-03     16.4175E-03
              91             910     17.6520E-03     17.5669E-03
             142             910     17.6520E-03     17.5669E-03
             141             910     17.6520E-03     17.5669E-03
              92             910     17.6520E-03     17.5669E-03
              93             911     18.9049E-03     18.6118E-03
             143             911     18.9049E-03     18.6118E-03
              92             911     18.9049E-03     18.6118E-03
             142             911     18.9049E-03     18.6118E-03
             144             912     19.5891E-03     20.7015E-03
              93             912     19.5891E-03     20.7015E-03
              94             912     19.5891E-03     20.7015E-03
             143             912     19.5891E-03     20.7015E-03
             144             913     22.5190E-03     20.9035E-03
             145             913     22.5190E-03     20.9035E-03
              94             913     22.5190E-03     20.9035E-03
              95             913     22.5190E-03     20.9035E-03
              96             914     22.2126E-03     21.6135E-03
              95             914     22.2126E-03     21.6135E-03
             145             914     22.2126E-03     21.6135E-03
             146             914     22.2126E-03     21.6135E-03
             146             915     19.4366E-03     22.1581E-03
             147             915     19.4366E-03     22.1581E-03
              97             915     19.4366E-03     22.1581E-03
              96             915     19.4366E-03     22.1581E-03
              98             916     21.8601E-03     20.9719E-03
             148             916     21.8601E-03     20.9719E-03
             147             916     21.8601E-03     20.9719E-03
              97             916     21.8601E-03     20.9719E-03
              98             917     23.7999E-03     23.1246E-03
              99             917     23.7999E-03     23.1246E-03
             149             917     23.7999E-03     23.1246E-03
             148             917     23.7999E-03     23.1246E-03
              99             918     24.5375E-03     25.3043E-03
             150             918     24.5375E-03     25.3043E-03
             100             918     24.5375E-03     25.3043E-03
             149             918     24.5375E-03     25.3043E-03
             101             919     26.5074E-03     26.3598E-03
             100             919     26.5074E-03     26.3598E-03
             151             919     26.5074E-03     26.3598E-03
             150             919     26.5074E-03     26.3598E-03
             151             920     27.9120E-03     28.1298E-03
             152             920     27.9120E-03     28.1298E-03
             102             920     27.9120E-03     28.1298E-03
             101             920     27.9120E-03     28.1298E-03
             153             921     29.6290E-03     29.5279E-03
             102             921     29.6290E-03     29.5279E-03
             103             921     29.6290E-03     29.5279E-03
             152             921     29.6290E-03     29.5279E-03
             153             922     31.1192E-03     30.6230E-03
             154             922     31.1192E-03     30.6230E-03
             103             922     31.1192E-03     30.6230E-03
             104             922     31.1192E-03     30.6230E-03
             105             923     31.5516E-03     33.4258E-03
             155             923     31.5516E-03     33.4258E-03
             104             923     31.5516E-03     33.4258E-03
             154             923     31.5516E-03     33.4258E-03
             155             924     35.5988E-03     33.0704E-03
             106             924     35.5988E-03     33.0704E-03
             105             924     35.5988E-03     33.0704E-03
             156             924     35.5988E-03     33.0704E-03
             106             925     34.5486E-03     33.4134E-03
             157             925     34.5486E-03     33.4134E-03
             107             925     34.5486E-03     33.4134E-03
             156             925     34.5486E-03     33.4134E-03
             107             926     29.6336E-03     34.4965E-03
             108             926     29.6336E-03     34.4965E-03
             157             926     29.6336E-03     34.4965E-03
             158             926     29.6336E-03     34.4965E-03
             159             927     33.9352E-03     32.5033E-03
             158             927     33.9352E-03     32.5033E-03
             108             927     33.9352E-03     32.5033E-03
             109             927     33.9352E-03     32.5033E-03
             110             928     36.8682E-03     35.3727E-03
             160             928     36.8682E-03     35.3727E-03
             109             928     36.8682E-03     35.3727E-03
             159             928     36.8682E-03     35.3727E-03
             111             929     36.9833E-03     38.4533E-03
             160             929     36.9833E-03     38.4533E-03
             161             929     36.9833E-03     38.4533E-03
             110             929     36.9833E-03     38.4533E-03
             162             930     39.5532E-03     39.2445E-03
             111             930     39.5532E-03     39.2445E-03
             161             930     39.5532E-03     39.2445E-03
             112             930     39.5532E-03     39.2445E-03
             163             931     41.1105E-03     41.3572E-03
             112             931     41.1105E-03     41.3572E-03
             162             931     41.1105E-03     41.3572E-03
             113             931     41.1105E-03     41.3572E-03
             114             932     43.0055E-03     42.8994E-03
             113             932     43.0055E-03     42.8994E-03
             163             932     43.0055E-03     42.8994E-03
             164             932     43.0055E-03     42.8994E-03
             114             933     44.6476E-03     43.9451E-03
             115             933     44.6476E-03     43.9451E-03
             165             933     44.6476E-03     43.9451E-03
             164             933     44.6476E-03     43.9451E-03
             116             934     44.7397E-03     47.4001E-03
             165             934     44.7397E-03     47.4001E-03
             115             934     44.7397E-03     47.4001E-03
             166             934     44.7397E-03     47.4001E-03
             167             935     49.8772E-03     46.3939E-03
             116             935     49.8772E-03     46.3939E-03
             166             935     49.8772E-03     46.3939E-03
             117             935     49.8772E-03     46.3939E-03
             167             936     47.9972E-03     46.2895E-03
             118             936     47.9972E-03     46.2895E-03
             117             936     47.9972E-03     46.2895E-03
             168             936     47.9972E-03     46.2895E-03
             118             937     40.9563E-03     48.0702E-03
             119             937     40.9563E-03     48.0702E-03
             169             937     40.9563E-03     48.0702E-03
             168             937     40.9563E-03     48.0702E-03
             170             938     47.3472E-03     45.4044E-03
             120             938     47.3472E-03     45.4044E-03
             119             938     47.3472E-03     45.4044E-03
             169             938     47.3472E-03     45.4044E-03
             121             939     51.3730E-03     49.0176E-03
             170             939     51.3730E-03     49.0176E-03
             171             939     51.3730E-03     49.0176E-03
             120             939     51.3730E-03     49.0176E-03
             171             940     50.7900E-03     52.9397E-03
             172             940     50.7900E-03     52.9397E-03
             122             940     50.7900E-03     52.9397E-03
             121             940     50.7900E-03     52.9397E-03
             123             941     53.6601E-03     53.7586E-03
             172             941     53.6601E-03     53.7586E-03
             173             941     53.6601E-03     53.7586E-03
             122             941     53.6601E-03     53.7586E-03
             124             942     56.0163E-03     55.7864E-03
             173             942     56.0163E-03     55.7864E-03
             174             942     56.0163E-03     55.7864E-03
             123             942     56.0163E-03     55.7864E-03
             174             943     57.4210E-03     57.0039E-03
             125             943     57.4210E-03     57.0039E-03
             175             943     57.4210E-03     57.0039E-03
             124             943     57.4210E-03     57.0039E-03
             125             944     57.3498E-03     60.7905E-03
             176             944     57.3498E-03     60.7905E-03
             126             944     57.3498E-03     60.7905E-03
             175             944     57.3498E-03     60.7905E-03
             176             945     63.4209E-03     59.1565E-03
             126             945     63.4209E-03     59.1565E-03
             127             945     63.4209E-03     59.1565E-03
             177             945     63.4209E-03     59.1565E-03
             127             946     60.6971E-03     58.5174E-03
             128             946     60.6971E-03     58.5174E-03
             177             946     60.6971E-03     58.5174E-03
             178             946     60.6971E-03     58.5174E-03
             129             947     5.87831E-03     6.03853E-03
             180             947     5.87831E-03     6.03853E-03
             130             947     5.87831E-03     6.03853E-03
             179             947     5.87831E-03     6.03853E-03
             131             948     6.30070E-03     6.39349E-03
             181             948     6.30070E-03     6.39349E-03
             130             948     6.30070E-03     6.39349E-03
             180             948     6.30070E-03     6.39349E-03
             132             949     7.10057E-03     7.05181E-03
             182             949     7.10057E-03     7.05181E-03
             131             949     7.10057E-03     7.05181E-03
             181             949     7.10057E-03     7.05181E-03
             182             950     7.92320E-03     8.45440E-03
             133             950     7.92320E-03     8.45440E-03
             183             950     7.92320E-03     8.45440E-03
             132             950     7.92320E-03     8.45440E-03
             133             951     10.0284E-03     9.06609E-03
             183             951     10.0284E-03     9.06609E-03
             184             951     10.0284E-03     9.06609E-03
             134             951     10.0284E-03     9.06609E-03
             184             952     10.4248E-03     10.3579E-03
             185             952     10.4248E-03     10.3579E-03
             135             952     10.4248E-03     10.3579E-03
             134             952     10.4248E-03     10.3579E-03
             136             953     9.78562E-03     11.1063E-03
             135             953     9.78562E-03     11.1063E-03
             186             953     9.78562E-03     11.1063E-03
             185             953     9.78562E-03     11.1063E-03
             136             954     11.3593E-03     11.0278E-03
             137             954     11.3593E-03     11.0278E-03
             187             954     11.3593E-03     11.0278E-03
             186             954     11.3593E-03     11.0278E-03
             138             955     12.6944E-03     12.8461E-03
             188             955     12.6944E-03     12.8461E-03
             187             955     12.6944E-03     12.8461E-03
             137             955     12.6944E-03     12.8461E-03
             189             956     14.0233E-03     14.4271E-03
             139             956     14.0233E-03     14.4271E-03
             138             956     14.0233E-03     14.4271E-03
             188             956     14.0233E-03     14.4271E-03
             140             957     15.7464E-03     15.7323E-03
             190             957     15.7464E-03     15.7323E-03
             139             957     15.7464E-03     15.7323E-03
             189             957     15.7464E-03     15.7323E-03
             140             958     17.2577E-03     17.4440E-03
             190             958     17.2577E-03     17.4440E-03
             141             958     17.2577E-03     17.4440E-03
             191             958     17.2577E-03     17.4440E-03
             142             959     19.1520E-03     18.9913E-03
             141             959     19.1520E-03     18.9913E-03
             192             959     19.1520E-03     18.9913E-03
             191             959     19.1520E-03     18.9913E-03
             143             960     20.8991E-03     20.4539E-03
             193             960     20.8991E-03     20.4539E-03
             192             960     20.8991E-03     20.4539E-03
             142             960     20.8991E-03     20.4539E-03
             144             961     22.0046E-03     23.3746E-03
             143             961     22.0046E-03     23.3746E-03
             194             961     22.0046E-03     23.3746E-03
             193             961     22.0046E-03     23.3746E-03
             145             962     26.2098E-03     23.8479E-03
             194             962     26.2098E-03     23.8479E-03
             195             962     26.2098E-03     23.8479E-03
             144             962     26.2098E-03     23.8479E-03
             146             963     25.9208E-03     25.3142E-03
             196             963     25.9208E-03     25.3142E-03
             145             963     25.9208E-03     25.3142E-03
             195             963     25.9208E-03     25.3142E-03
             196             964     22.0906E-03     26.4367E-03
             146             964     22.0906E-03     26.4367E-03
             147             964     22.0906E-03     26.4367E-03
             197             964     22.0906E-03     26.4367E-03
             197             965     25.5691E-03     24.6325E-03
             198             965     25.5691E-03     24.6325E-03
             148             965     25.5691E-03     24.6325E-03
             147             965     25.5691E-03     24.6325E-03
             199             966     28.0640E-03     27.2283E-03
             148             966     28.0640E-03     27.2283E-03
             198             966     28.0640E-03     27.2283E-03
             149             966     28.0640E-03     27.2283E-03
             199             967     28.4949E-03     29.6995E-03
             149             967     28.4949E-03     29.6995E-03
             150             967     28.4949E-03     29.6995E-03
             200             967     28.4949E-03     29.6995E-03
             150             968     30.8289E-03     30.5522E-03
             201             968     30.8289E-03     30.5522E-03
             151             968     30.8289E-03     30.5522E-03
             200             968     30.8289E-03     30.5522E-03
             201             969     32.4803E-03     32.6430E-03
             151             969     32.4803E-03     32.6430E-03
             202             969     32.4803E-03     32.6430E-03
             152             969     32.4803E-03     32.6430E-03
             202             970     34.6358E-03     34.4038E-03
             153             970     34.6358E-03     34.4038E-03
             152             970     34.6358E-03     34.4038E-03
             203             970     34.6358E-03     34.4038E-03
             203             971     36.7028E-03     35.9236E-03
             154             971     36.7028E-03     35.9236E-03
             153             971     36.7028E-03     35.9236E-03
             204             971     36.7028E-03     35.9236E-03
             155             972     37.6292E-03     39.8753E-03
             205             972     37.6292E-03     39.8753E-03
             204             972     37.6292E-03     39.8753E-03
             154             972     37.6292E-03     39.8753E-03
             156             973     43.4881E-03     39.8471E-03
             205             973     43.4881E-03     39.8471E-03
             206             973     43.4881E-03     39.8471E-03
             155             973     43.4881E-03     39.8471E-03
             207             974     42.3352E-03     41.1535E-03
             157             974     42.3352E-03     41.1535E-03
             156             974     42.3352E-03     41.1535E-03
             206             974     42.3352E-03     41.1535E-03
             208             975     35.8063E-03     43.2881E-03
             157             975     35.8063E-03     43.2881E-03
             158             975     35.8063E-03     43.2881E-03
             207             975     35.8063E-03     43.2881E-03
             209             976     41.8369E-03     40.3365E-03
             159             976     41.8369E-03     40.3365E-03
             158             976     41.8369E-03     40.3365E-03
             208             976     41.8369E-03     40.3365E-03
             209             977     45.4344E-03     43.4833E-03
             210             977     45.4344E-03     43.4833E-03
             160             977     45.4344E-03     43.4833E-03
             159             977     45.4344E-03     43.4833E-03
             160             978     44.6853E-03     46.7724E-03
             211             978     44.6853E-03     46.7724E-03
             161             978     44.6853E-03     46.7724E-03
             210             978     44.6853E-03     46.7724E-03
             211             979     47.5520E-03     46.9922E-03
             212             979     47.5520E-03     46.9922E-03
             161             979     47.5520E-03     46.9922E-03
             162             979     47.5520E-03     46.9922E-03
             163             980     49.2573E-03     49.3904E-03
             213             980     49.2573E-03     49.3904E-03
             212             980     49.2573E-03     49.3904E-03
             162             980     49.2573E-03     49.3904E-03
             163             981     51.6041E-03     51.3041E-03
             164             981     51.6041E-03     51.3041E-03
             213             981     51.6041E-03     51.3041E-03
             214             981     51.6041E-03     51.3041E-03
             164             982     53.9499E-03     52.8247E-03
             214             982     53.9499E-03     52.8247E-03
             165             982     53.9499E-03     52.8247E-03
             215             982     53.9499E-03     52.8247E-03
             166             983     54.6397E-03     57.8214E-03
             165             983     54.6397E-03     57.8214E-03
             215             983     54.6397E-03     57.8214E-03
             216             983     54.6397E-03     57.8214E-03
             216             984     62.2180E-03     57.2226E-03
             217             984     62.2180E-03     57.2226E-03
             166             984     62.2180E-03     57.2226E-03
             167             984     62.2180E-03     57.2226E-03
             167             985     60.1192E-03     58.3260E-03
             168             985     60.1192E-03     58.3260E-03
             217             985     60.1192E-03     58.3260E-03
             218             985     60.1192E-03     58.3260E-03
             168             986     50.7088E-03     61.4737E-03
             169             986     50.7088E-03     61.4737E-03
             219             986     50.7088E-03     61.4737E-03
             218             986     50.7088E-03     61.4737E-03
             220             987     59.4583E-03     57.3692E-03
             169             987     59.4583E-03     57.3692E-03
             170             987     59.4583E-03     57.3692E-03
             219             987     59.4583E-03     57.3692E-03
             171             988     64.3620E-03     61.1015E-03
             220             988     64.3620E-03     61.1015E-03
             221             988     64.3620E-03     61.1015E-03
             170             988     64.3620E-03     61.1015E-03
             172             989     62.4097E-03     65.1927E-03
             221             989     62.4097E-03     65.1927E-03
             171             989     62.4097E-03     65.1927E-03
             222             989     62.4097E-03     65.1927E-03
             222             990     65.5871E-03     65.2641E-03
             173             990     65.5871E-03     65.2641E-03
             223             990     65.5871E-03     65.2641E-03
             172             990     65.5871E-03     65.2641E-03
             174             991     68.3484E-03     67.4931E-03
             224             991     68.3484E-03     67.4931E-03
             223             991     68.3484E-03     67.4931E-03
             173             991     68.3484E-03     67.4931E-03
             175             992     70.2679E-03     69.2016E-03
             225             992     70.2679E-03     69.2016E-03
             174             992     70.2679E-03     69.2016E-03
             224             992     70.2679E-03     69.2016E-03
             175             993     70.8532E-03     74.7433E-03
             176             993     70.8532E-03     74.7433E-03
             226             993     70.8532E-03     74.7433E-03
             225             993     70.8532E-03     74.7433E-03
             176             994     79.9233E-03     73.5929E-03
             226             994     79.9233E-03     73.5929E-03
             227             994     79.9233E-03     73.5929E-03
             177             994     79.9233E-03     73.5929E-03
             177             995     76.8125E-03     74.4313E-03
             227             995     76.8125E-03     74.4313E-03
             178             995     76.8125E-03     74.4313E-03
             228             995     76.8125E-03     74.4313E-03
             180             996     3.06180E-03     3.56207E-03
             179             996     3.06180E-03     3.56207E-03
             229             996     3.06180E-03     3.56207E-03
             230             996     3.06180E-03     3.56207E-03
             181             997     3.97863E-03     4.28168E-03
             230             997     3.97863E-03     4.28168E-03
             180             997     3.97863E-03     4.28168E-03
             231             997     3.97863E-03     4.28168E-03
             182             998     5.47956E-03     5.32596E-03
             231             998     5.47956E-03     5.32596E-03
             232             998     5.47956E-03     5.32596E-03
             181             998     5.47956E-03     5.32596E-03
             182             999     6.73970E-03     7.50899E-03
             232             999     6.73970E-03     7.50899E-03
             233             999     6.73970E-03     7.50899E-03
             183             999     6.73970E-03     7.50899E-03
             184            1000     9.64578E-03     8.31814E-03
             233            1000     9.64578E-03     8.31814E-03
             234            1000     9.64578E-03     8.31814E-03
             183            1000     9.64578E-03     8.31814E-03
             185            1001     10.3025E-03     10.2746E-03
             234            1001     10.3025E-03     10.2746E-03
             184            1001     10.3025E-03     10.2746E-03
             235            1001     10.3025E-03     10.2746E-03
             236            1002     9.36125E-03     11.6276E-03
             186            1002     9.36125E-03     11.6276E-03
             235            1002     9.36125E-03     11.6276E-03
             185            1002     9.36125E-03     11.6276E-03
             237            1003     11.5018E-03     11.1775E-03
             187            1003     11.5018E-03     11.1775E-03
             186            1003     11.5018E-03     11.1775E-03
             236            1003     11.5018E-03     11.1775E-03
             187            1004     13.0719E-03     13.1142E-03
             237            1004     13.0719E-03     13.1142E-03
             238            1004     13.0719E-03     13.1142E-03
             188            1004     13.0719E-03     13.1142E-03
             239            1005     14.2991E-03     14.8593E-03
             188            1005     14.2991E-03     14.8593E-03
             189            1005     14.2991E-03     14.8593E-03
             238            1005     14.2991E-03     14.8593E-03
             189            1006     16.3459E-03     16.3202E-03
             190            1006     16.3459E-03     16.3202E-03
             239            1006     16.3459E-03     16.3202E-03
             240            1006     16.3459E-03     16.3202E-03
             240            1007     18.1038E-03     18.5434E-03
             190            1007     18.1038E-03     18.5434E-03
             241            1007     18.1038E-03     18.5434E-03
             191            1007     18.1038E-03     18.5434E-03
             192            1008     20.4485E-03     20.5373E-03
             242            1008     20.4485E-03     20.5373E-03
             191            1008     20.4485E-03     20.5373E-03
             241            1008     20.4485E-03     20.5373E-03
             242            1009     22.6107E-03     22.4171E-03
             192            1009     22.6107E-03     22.4171E-03
             193            1009     22.6107E-03     22.4171E-03
             243            1009     22.6107E-03     22.4171E-03
             194            1010     24.0083E-03     26.0937E-03
             244            1010     24.0083E-03     26.0937E-03
             193            1010     24.0083E-03     26.0937E-03
             243            1010     24.0083E-03     26.0937E-03
             195            1011     29.4018E-03     26.5411E-03
             244            1011     29.4018E-03     26.5411E-03
             194            1011     29.4018E-03     26.5411E-03
             245            1011     29.4018E-03     26.5411E-03
             195            1012     29.3512E-03     28.9409E-03
             196            1012     29.3512E-03     28.9409E-03
             246            1012     29.3512E-03     28.9409E-03
             245            1012     29.3512E-03     28.9409E-03
             246            1013     24.8180E-03     31.3981E-03
             197            1013     24.8180E-03     31.3981E-03
             247            1013     24.8180E-03     31.3981E-03
             196            1013     24.8180E-03     31.3981E-03
             198            1014     29.3627E-03     28.5876E-03
             197            1014     29.3627E-03     28.5876E-03
             248            1014     29.3627E-03     28.5876E-03
             247            1014     29.3627E-03     28.5876E-03
             249            1015     31.9009E-03     30.6410E-03
             198            1015     31.9009E-03     30.6410E-03
             199            1015     31.9009E-03     30.6410E-03
             248            1015     31.9009E-03     30.6410E-03
             199            1016     31.4699E-03     33.1771E-03
             250            1016     31.4699E-03     33.1771E-03
             249            1016     31.4699E-03     33.1771E-03
             200            1016     31.4699E-03     33.1771E-03
             200            1017     34.0162E-03     33.8692E-03
             251            1017     34.0162E-03     33.8692E-03
             201            1017     34.0162E-03     33.8692E-03
             250            1017     34.0162E-03     33.8692E-03
             252            1018     35.7854E-03     36.4957E-03
             202            1018     35.7854E-03     36.4957E-03
             251            1018     35.7854E-03     36.4957E-03
             201            1018     35.7854E-03     36.4957E-03
             253            1019     38.3706E-03     38.6943E-03
             202            1019     38.3706E-03     38.6943E-03
             203            1019     38.3706E-03     38.6943E-03
             252            1019     38.3706E-03     38.6943E-03
             204            1020     40.9276E-03     40.5936E-03
             203            1020     40.9276E-03     40.5936E-03
             254            1020     40.9276E-03     40.5936E-03
             253            1020     40.9276E-03     40.5936E-03
             254            1021     42.1831E-03     45.5631E-03
             255            1021     42.1831E-03     45.5631E-03
             205            1021     42.1831E-03     45.5631E-03
             204            1021     42.1831E-03     45.5631E-03
             205            1022     49.9036E-03     45.4718E-03
             255            1022     49.9036E-03     45.4718E-03
             256            1022     49.9036E-03     45.4718E-03
             206            1022     49.9036E-03     45.4718E-03
             257            1023     49.1029E-03     48.2471E-03
             256            1023     49.1029E-03     48.2471E-03
             207            1023     49.1029E-03     48.2471E-03
             206            1023     49.1029E-03     48.2471E-03
             208            1024     41.3987E-03     52.5745E-03
             257            1024     41.3987E-03     52.5745E-03
             207            1024     41.3987E-03     52.5745E-03
             258            1024     41.3987E-03     52.5745E-03
             208            1025     49.0762E-03     47.8747E-03
             209            1025     49.0762E-03     47.8747E-03
             258            1025     49.0762E-03     47.8747E-03
             259            1025     49.0762E-03     47.8747E-03
             210            1026     52.5904E-03     49.9182E-03
             259            1026     52.5904E-03     49.9182E-03
             209            1026     52.5904E-03     49.9182E-03
             260            1026     52.5904E-03     49.9182E-03
             261            1027     50.2717E-03     53.2495E-03
             260            1027     50.2717E-03     53.2495E-03
             210            1027     50.2717E-03     53.2495E-03
             211            1027     50.2717E-03     53.2495E-03
             262            1028     53.3080E-03     53.0352E-03
             261            1028     53.3080E-03     53.0352E-03
             212            1028     53.3080E-03     53.0352E-03
             211            1028     53.3080E-03     53.0352E-03
             263            1029     55.0443E-03     56.0469E-03
             212            1029     55.0443E-03     56.0469E-03
             213            1029     55.0443E-03     56.0469E-03
             262            1029     55.0443E-03     56.0469E-03
             263            1030     57.8481E-03     58.4308E-03
             214            1030     57.8481E-03     58.4308E-03
             213            1030     57.8481E-03     58.4308E-03
             264            1030     57.8481E-03     58.4308E-03
             215            1031     60.8035E-03     60.3230E-03
             214            1031     60.8035E-03     60.3230E-03
             265            1031     60.8035E-03     60.3230E-03
             264            1031     60.8035E-03     60.3230E-03
             215            1032     61.8858E-03     66.6690E-03
             266            1032     61.8858E-03     66.6690E-03
             265            1032     61.8858E-03     66.6690E-03
             216            1032     61.8858E-03     66.6690E-03
             216            1033     72.1026E-03     65.9853E-03
             267            1033     72.1026E-03     65.9853E-03
             266            1033     72.1026E-03     65.9853E-03
             217            1033     72.1026E-03     65.9853E-03
             217            1034     70.4867E-03     69.1620E-03
             218            1034     70.4867E-03     69.1620E-03
             267            1034     70.4867E-03     69.1620E-03
             268            1034     70.4867E-03     69.1620E-03
             218            1035     59.2892E-03     75.3145E-03
             219            1035     59.2892E-03     75.3145E-03
             269            1035     59.2892E-03     75.3145E-03
             268            1035     59.2892E-03     75.3145E-03
             219            1036     70.1654E-03     68.5228E-03
             220            1036     70.1654E-03     68.5228E-03
             270            1036     70.1654E-03     68.5228E-03
             269            1036     70.1654E-03     68.5228E-03
             220            1037     74.9388E-03     70.5892E-03
             221            1037     74.9388E-03     70.5892E-03
             271            1037     74.9388E-03     70.5892E-03
             270            1037     74.9388E-03     70.5892E-03
             272            1038     70.6952E-03     74.6263E-03
             271            1038     70.6952E-03     74.6263E-03
             222            1038     70.6952E-03     74.6263E-03
             221            1038     70.6952E-03     74.6263E-03
             222            1039     73.9039E-03     74.1896E-03
             223            1039     73.9039E-03     74.1896E-03
             273            1039     73.9039E-03     74.1896E-03
             272            1039     73.9039E-03     74.1896E-03
             223            1040     77.0609E-03     77.0220E-03
             273            1040     77.0609E-03     77.0220E-03
             274            1040     77.0609E-03     77.0220E-03
             224            1040     77.0609E-03     77.0220E-03
             274            1041     79.4017E-03     79.1519E-03
             225            1041     79.4017E-03     79.1519E-03
             224            1041     79.4017E-03     79.1519E-03
             275            1041     79.4017E-03     79.1519E-03
             276            1042     80.5506E-03     86.3095E-03
             226            1042     80.5506E-03     86.3095E-03
             225            1042     80.5506E-03     86.3095E-03
             275            1042     80.5506E-03     86.3095E-03
             227            1043     93.0372E-03     85.1785E-03
             277            1043     93.0372E-03     85.1785E-03
             226            1043     93.0372E-03     85.1785E-03
             276            1043     93.0372E-03     85.1785E-03
             227            1044     90.5352E-03     88.7508E-03
             228            1044     90.5352E-03     88.7508E-03
             278            1044     90.5352E-03     88.7508E-03
             277            1044     90.5352E-03     88.7508E-03
             230            1045     1.70194E-03     2.33424E-03
             229            1045     1.70194E-03     2.33424E-03
             280            1045     1.70194E-03     2.33424E-03
             279            1045     1.70194E-03     2.33424E-03
             281            1046     3.01483E-03     3.30773E-03
             230            1046     3.01483E-03     3.30773E-03
             280            1046     3.01483E-03     3.30773E-03
             231            1046     3.01483E-03     3.30773E-03
             282            1047     5.11172E-03     4.87847E-03
             232            1047     5.11172E-03     4.87847E-03
             231            1047     5.11172E-03     4.87847E-03
             281            1047     5.11172E-03     4.87847E-03
             282            1048     6.69419E-03     7.82762E-03
             232            1048     6.69419E-03     7.82762E-03
             233            1048     6.69419E-03     7.82762E-03
             283            1048     6.69419E-03     7.82762E-03
             283            1049     10.3515E-03     9.13642E-03
             284            1049     10.3515E-03     9.13642E-03
             233            1049     10.3515E-03     9.13642E-03
             234            1049     10.3515E-03     9.13642E-03
             284            1050     11.2922E-03     11.3290E-03
             234            1050     11.2922E-03     11.3290E-03
             235            1050     11.2922E-03     11.3290E-03
             285            1050     11.2922E-03     11.3290E-03
             285            1051     9.70922E-03     12.5734E-03
             286            1051     9.70922E-03     12.5734E-03
             235            1051     9.70922E-03     12.5734E-03
             236            1051     9.70922E-03     12.5734E-03
             286            1052     11.6189E-03     11.4055E-03
             236            1052     11.6189E-03     11.4055E-03
             287            1052     11.6189E-03     11.4055E-03
             237            1052     11.6189E-03     11.4055E-03
             288            1053     13.1832E-03     13.2070E-03
             287            1053     13.1832E-03     13.2070E-03
             238            1053     13.1832E-03     13.2070E-03
             237            1053     13.1832E-03     13.2070E-03
             239            1054     14.4820E-03     15.3747E-03
             238            1054     14.4820E-03     15.3747E-03
             288            1054     14.4820E-03     15.3747E-03
             289            1054     14.4820E-03     15.3747E-03
             290            1055     17.0087E-03     17.2964E-03
             239            1055     17.0087E-03     17.2964E-03
             240            1055     17.0087E-03     17.2964E-03
             289            1055     17.0087E-03     17.2964E-03
             291            1056     19.0623E-03     19.9722E-03
             290            1056     19.0623E-03     19.9722E-03
             241            1056     19.0623E-03     19.9722E-03
             240            1056     19.0623E-03     19.9722E-03
             242            1057     21.7775E-03     22.4024E-03
             291            1057     21.7775E-03     22.4024E-03
             292            1057     21.7775E-03     22.4024E-03
             241            1057     21.7775E-03     22.4024E-03
             242            1058     24.4017E-03     24.5305E-03
             292            1058     24.4017E-03     24.5305E-03
             243            1058     24.4017E-03     24.5305E-03
             293            1058     24.4017E-03     24.5305E-03
             243            1059     25.8533E-03     28.7998E-03
             244            1059     25.8533E-03     28.7998E-03
             293            1059     25.8533E-03     28.7998E-03
             294            1059     25.8533E-03     28.7998E-03
             294            1060     32.1305E-03     29.5980E-03
             295            1060     32.1305E-03     29.5980E-03
             244            1060     32.1305E-03     29.5980E-03
             245            1060     32.1305E-03     29.5980E-03
             245            1061     32.5000E-03     32.2922E-03
             295            1061     32.5000E-03     32.2922E-03
             246            1061     32.5000E-03     32.2922E-03
             296            1061     32.5000E-03     32.2922E-03
             247            1062     27.1275E-03     35.0539E-03
             296            1062     27.1275E-03     35.0539E-03
             246            1062     27.1275E-03     35.0539E-03
             297            1062     27.1275E-03     35.0539E-03
             248            1063     31.6813E-03     31.2245E-03
             297            1063     31.6813E-03     31.2245E-03
             247            1063     31.6813E-03     31.2245E-03
             298            1063     31.6813E-03     31.2245E-03
             298            1064     33.8275E-03     32.7431E-03
             248            1064     33.8275E-03     32.7431E-03
             249            1064     33.8275E-03     32.7431E-03
             299            1064     33.8275E-03     32.7431E-03
             249            1065     33.0551E-03     35.6632E-03
             299            1065     33.0551E-03     35.6632E-03
             250            1065     33.0551E-03     35.6632E-03
             300            1065     33.0551E-03     35.6632E-03
             301            1066     36.2792E-03     36.7692E-03
             300            1066     36.2792E-03     36.7692E-03
             250            1066     36.2792E-03     36.7692E-03
             251            1066     36.2792E-03     36.7692E-03
             301            1067     38.2847E-03     39.9498E-03
             302            1067     38.2847E-03     39.9498E-03
             251            1067     38.2847E-03     39.9498E-03
             252            1067     38.2847E-03     39.9498E-03
             253            1068     41.2699E-03     42.6229E-03
             302            1068     41.2699E-03     42.6229E-03
             252            1068     41.2699E-03     42.6229E-03
             303            1068     41.2699E-03     42.6229E-03
             253            1069     44.4014E-03     44.7239E-03
             254            1069     44.4014E-03     44.7239E-03
             304            1069     44.4014E-03     44.7239E-03
             303            1069     44.4014E-03     44.7239E-03
             305            1070     45.5428E-03     50.4189E-03
             255            1070     45.5428E-03     50.4189E-03
             304            1070     45.5428E-03     50.4189E-03
             254            1070     45.5428E-03     50.4189E-03
             256            1071     54.5985E-03     50.7266E-03
             255            1071     54.5985E-03     50.7266E-03
             306            1071     54.5985E-03     50.7266E-03
             305            1071     54.5985E-03     50.7266E-03
             257            1072     54.5250E-03     54.0873E-03
             256            1072     54.5250E-03     54.0873E-03
             307            1072     54.5250E-03     54.0873E-03
             306            1072     54.5250E-03     54.0873E-03
             258            1073     45.7026E-03     59.1512E-03
             257            1073     45.7026E-03     59.1512E-03
             308            1073     45.7026E-03     59.1512E-03
             307            1073     45.7026E-03     59.1512E-03
             259            1074     53.6444E-03     52.9542E-03
             309            1074     53.6444E-03     52.9542E-03
             308            1074     53.6444E-03     52.9542E-03
             258            1074     53.6444E-03     52.9542E-03
             260            1075     56.4197E-03     54.1307E-03
             310            1075     56.4197E-03     54.1307E-03
             259            1075     56.4197E-03     54.1307E-03
             309            1075     56.4197E-03     54.1307E-03
             310            1076     53.3508E-03     57.8539E-03
             261            1076     53.3508E-03     57.8539E-03
             311            1076     53.3508E-03     57.8539E-03
             260            1076     53.3508E-03     57.8539E-03
             312            1077     57.3044E-03     58.0253E-03
             262            1077     57.3044E-03     58.0253E-03
             311            1077     57.3044E-03     58.0253E-03
             261            1077     57.3044E-03     58.0253E-03
             263            1078     59.2272E-03     61.7232E-03
             312            1078     59.2272E-03     61.7232E-03
             313            1078     59.2272E-03     61.7232E-03
             262            1078     59.2272E-03     61.7232E-03
             314            1079     62.4731E-03     64.6317E-03
             264            1079     62.4731E-03     64.6317E-03
             313            1079     62.4731E-03     64.6317E-03
             263            1079     62.4731E-03     64.6317E-03
             314            1080     66.1344E-03     66.6778E-03
             315            1080     66.1344E-03     66.6778E-03
             265            1080     66.1344E-03     66.6778E-03
             264            1080     66.1344E-03     66.6778E-03
             316            1081     66.9192E-03     73.8982E-03
             265            1081     66.9192E-03     73.8982E-03
             315            1081     66.9192E-03     73.8982E-03
             266            1081     66.9192E-03     73.8982E-03
             316            1082     78.9766E-03     73.6620E-03
             317            1082     78.9766E-03     73.6620E-03
             267            1082     78.9766E-03     73.6620E-03
             266            1082     78.9766E-03     73.6620E-03
             267            1083     78.4213E-03     77.7465E-03
             318            1083     78.4213E-03     77.7465E-03
             268            1083     78.4213E-03     77.7465E-03
             317            1083     78.4213E-03     77.7465E-03
             269            1084     65.7559E-03     85.1350E-03
             318            1084     65.7559E-03     85.1350E-03
             268            1084     65.7559E-03     85.1350E-03
             319            1084     65.7559E-03     85.1350E-03
             319            1085     77.1945E-03     76.2537E-03
             269            1085     77.1945E-03     76.2537E-03
             320            1085     77.1945E-03     76.2537E-03
             270            1085     77.1945E-03     76.2537E-03
             270            1086     80.7237E-03     77.1760E-03
             271            1086     80.7237E-03     77.1760E-03
             321            1086     80.7237E-03     77.1760E-03
             320            1086     80.7237E-03     77.1760E-03
             271            1087     75.4832E-03     81.5381E-03
             272            1087     75.4832E-03     81.5381E-03
             322            1087     75.4832E-03     81.5381E-03
             321            1087     75.4832E-03     81.5381E-03
             272            1088     79.5756E-03     81.4302E-03
             273            1088     79.5756E-03     81.4302E-03
             323            1088     79.5756E-03     81.4302E-03
             322            1088     79.5756E-03     81.4302E-03
             274            1089     82.9813E-03     85.3166E-03
             273            1089     82.9813E-03     85.3166E-03
             323            1089     82.9813E-03     85.3166E-03
             324            1089     82.9813E-03     85.3166E-03
             275            1090     86.2422E-03     87.5182E-03
             324            1090     86.2422E-03     87.5182E-03
             274            1090     86.2422E-03     87.5182E-03
             325            1090     86.2422E-03     87.5182E-03
             275            1091     87.1395E-03     95.8167E-03
             276            1091     87.1395E-03     95.8167E-03
             325            1091     87.1395E-03     95.8167E-03
             326            1091     87.1395E-03     95.8167E-03
             277            1092     101.966E-03     95.2921E-03
             276            1092     101.966E-03     95.2921E-03
             326            1092     101.966E-03     95.2921E-03
             327            1092     101.966E-03     95.2921E-03
             277            1093     100.993E-03     100.123E-03
             278            1093     100.993E-03     100.123E-03
             328            1093     100.993E-03     100.123E-03
             327            1093     100.993E-03     100.123E-03
             280            1094     3.96253E-03     4.51428E-03
             330            1094     3.96253E-03     4.51428E-03
             279            1094     3.96253E-03     4.51428E-03
             329            1094     3.96253E-03     4.51428E-03
             281            1095     5.10499E-03     5.29750E-03
             331            1095     5.10499E-03     5.29750E-03
             280            1095     5.10499E-03     5.29750E-03
             330            1095     5.10499E-03     5.29750E-03
             281            1096     7.04402E-03     6.84827E-03
             332            1096     7.04402E-03     6.84827E-03
             282            1096     7.04402E-03     6.84827E-03
             331            1096     7.04402E-03     6.84827E-03
             333            1097     8.65451E-03     9.63029E-03
             283            1097     8.65451E-03     9.63029E-03
             282            1097     8.65451E-03     9.63029E-03
             332            1097     8.65451E-03     9.63029E-03
             283            1098     12.3766E-03     11.5354E-03
             333            1098     12.3766E-03     11.5354E-03
             284            1098     12.3766E-03     11.5354E-03
             334            1098     12.3766E-03     11.5354E-03
             285            1099     14.3066E-03     14.1637E-03
             334            1099     14.3066E-03     14.1637E-03
             335            1099     14.3066E-03     14.1637E-03
             284            1099     14.3066E-03     14.1637E-03
             285            1100     10.9919E-03     13.1027E-03
             335            1100     10.9919E-03     13.1027E-03
             286            1100     10.9919E-03     13.1027E-03
             336            1100     10.9919E-03     13.1027E-03
             287            1101     10.5744E-03     10.4174E-03
             286            1101     10.5744E-03     10.4174E-03
             336            1101     10.5744E-03     10.4174E-03
             337            1101     10.5744E-03     10.4174E-03
             287            1102     13.1750E-03     13.1899E-03
             288            1102     13.1750E-03     13.1899E-03
             338            1102     13.1750E-03     13.1899E-03
             337            1102     13.1750E-03     13.1899E-03
             338            1103     15.5154E-03     16.0994E-03
             288            1103     15.5154E-03     16.0994E-03
             289            1103     15.5154E-03     16.0994E-03
             339            1103     15.5154E-03     16.0994E-03
             289            1104     18.3381E-03     18.5578E-03
             340            1104     18.3381E-03     18.5578E-03
             290            1104     18.3381E-03     18.5578E-03
             339            1104     18.3381E-03     18.5578E-03
             291            1105     20.8029E-03     21.2827E-03
             340            1105     20.8029E-03     21.2827E-03
             290            1105     20.8029E-03     21.2827E-03
             341            1105     20.8029E-03     21.2827E-03
             341            1106     23.4722E-03     23.9605E-03
             342            1106     23.4722E-03     23.9605E-03
             291            1106     23.4722E-03     23.9605E-03
             292            1106     23.4722E-03     23.9605E-03
             293            1107     26.4096E-03     26.1498E-03
             342            1107     26.4096E-03     26.1498E-03
             292            1107     26.4096E-03     26.1498E-03
             343            1107     26.4096E-03     26.1498E-03
             344            1108     28.0605E-03     30.2807E-03
             294            1108     28.0605E-03     30.2807E-03
             293            1108     28.0605E-03     30.2807E-03
             343            1108     28.0605E-03     30.2807E-03
             294            1109     34.0649E-03     32.1197E-03
             344            1109     34.0649E-03     32.1197E-03
             295            1109     34.0649E-03     32.1197E-03
             345            1109     34.0649E-03     32.1197E-03
             346            1110     36.2593E-03     35.5350E-03
             295            1110     36.2593E-03     35.5350E-03
             345            1110     36.2593E-03     35.5350E-03
             296            1110     36.2593E-03     35.5350E-03
             297            1111     29.9101E-03     35.7687E-03
             346            1111     29.9101E-03     35.7687E-03
             347            1111     29.9101E-03     35.7687E-03
             296            1111     29.9101E-03     35.7687E-03
             298            1112     31.1168E-03     30.3223E-03
             297            1112     31.1168E-03     30.3223E-03
             347            1112     31.1168E-03     30.3223E-03
             348            1112     31.1168E-03     30.3223E-03
             298            1113     33.8647E-03     32.8160E-03
             348            1113     33.8647E-03     32.8160E-03
             349            1113     33.8647E-03     32.8160E-03
             299            1113     33.8647E-03     32.8160E-03
             350            1114     34.7880E-03     36.5453E-03
             300            1114     34.7880E-03     36.5453E-03
             349            1114     34.7880E-03     36.5453E-03
             299            1114     34.7880E-03     36.5453E-03
             350            1115     38.4100E-03     38.6124E-03
             351            1115     38.4100E-03     38.6124E-03
             300            1115     38.4100E-03     38.6124E-03
             301            1115     38.4100E-03     38.6124E-03
             302            1116     40.9928E-03     41.9131E-03
             351            1116     40.9928E-03     41.9131E-03
             301            1116     40.9928E-03     41.9131E-03
             352            1116     40.9928E-03     41.9131E-03
             353            1117     43.9857E-03     44.9229E-03
             302            1117     43.9857E-03     44.9229E-03
             352            1117     43.9857E-03     44.9229E-03
             303            1117     43.9857E-03     44.9229E-03
             304            1118     47.4659E-03     47.1461E-03
             303            1118     47.4659E-03     47.1461E-03
             354            1118     47.4659E-03     47.1461E-03
             353            1118     47.4659E-03     47.1461E-03
             305            1119     48.8618E-03     52.4685E-03
             304            1119     48.8618E-03     52.4685E-03
             354            1119     48.8618E-03     52.4685E-03
             355            1119     48.8618E-03     52.4685E-03
             355            1120     57.1785E-03     54.0859E-03
             305            1120     57.1785E-03     54.0859E-03
             356            1120     57.1785E-03     54.0859E-03
             306            1120     57.1785E-03     54.0859E-03
             306            1121     59.6186E-03     58.3411E-03
             356            1121     59.6186E-03     58.3411E-03
             307            1121     59.6186E-03     58.3411E-03
             357            1121     59.6186E-03     58.3411E-03
             307            1122     50.4988E-03     60.4590E-03
             357            1122     50.4988E-03     60.4590E-03
             358            1122     50.4988E-03     60.4590E-03
             308            1122     50.4988E-03     60.4590E-03
             359            1123     53.9930E-03     52.5906E-03
             309            1123     53.9930E-03     52.5906E-03
             308            1123     53.9930E-03     52.5906E-03
             358            1123     53.9930E-03     52.5906E-03
             360            1124     56.9106E-03     54.7784E-03
             359            1124     56.9106E-03     54.7784E-03
             310            1124     56.9106E-03     54.7784E-03
             309            1124     56.9106E-03     54.7784E-03
             360            1125     56.1958E-03     59.2808E-03
             311            1125     56.1958E-03     59.2808E-03
             310            1125     56.1958E-03     59.2808E-03
             361            1125     56.1958E-03     59.2808E-03
             361            1126     60.6202E-03     60.8080E-03
             312            1126     60.6202E-03     60.8080E-03
             362            1126     60.6202E-03     60.8080E-03
             311            1126     60.6202E-03     60.8080E-03
             362            1127     63.2465E-03     64.6591E-03
             312            1127     63.2465E-03     64.6591E-03
             313            1127     63.2465E-03     64.6591E-03
             363            1127     63.2465E-03     64.6591E-03
             363            1128     66.5235E-03     67.9592E-03
             364            1128     66.5235E-03     67.9592E-03
             313            1128     66.5235E-03     67.9592E-03
             314            1128     66.5235E-03     67.9592E-03
             364            1129     70.5373E-03     70.1634E-03
             365            1129     70.5373E-03     70.1634E-03
             314            1129     70.5373E-03     70.1634E-03
             315            1129     70.5373E-03     70.1634E-03
             316            1130     71.6028E-03     76.7228E-03
             315            1130     71.6028E-03     76.7228E-03
             366            1130     71.6028E-03     76.7228E-03
             365            1130     71.6028E-03     76.7228E-03
             316            1131     82.3755E-03     78.0511E-03
             317            1131     82.3755E-03     78.0511E-03
             367            1131     82.3755E-03     78.0511E-03
             366            1131     82.3755E-03     78.0511E-03
             317            1132     85.0399E-03     83.1737E-03
             318            1132     85.0399E-03     83.1737E-03
             367            1132     85.0399E-03     83.1737E-03
             368            1132     85.0399E-03     83.1737E-03
             318            1133     72.8256E-03     87.2411E-03
             369            1133     72.8256E-03     87.2411E-03
             319            1133     72.8256E-03     87.2411E-03
             368            1133     72.8256E-03     87.2411E-03
             320            1134     78.7519E-03     76.7731E-03
             319            1134     78.7519E-03     76.7731E-03
             369            1134     78.7519E-03     76.7731E-03
             370            1134     78.7519E-03     76.7731E-03
             320            1135     81.9396E-03     78.6977E-03
             321            1135     81.9396E-03     78.6977E-03
             370            1135     81.9396E-03     78.6977E-03
             371            1135     81.9396E-03     78.6977E-03
             322            1136     79.6054E-03     83.9625E-03
             371            1136     79.6054E-03     83.9625E-03
             372            1136     79.6054E-03     83.9625E-03
             321            1136     79.6054E-03     83.9625E-03
             322            1137     84.6277E-03     85.1845E-03
             373            1137     84.6277E-03     85.1845E-03
             323            1137     84.6277E-03     85.1845E-03
             372            1137     84.6277E-03     85.1845E-03
             323            1138     87.8903E-03     89.7880E-03
             373            1138     87.8903E-03     89.7880E-03
             374            1138     87.8903E-03     89.7880E-03
             324            1138     87.8903E-03     89.7880E-03
             325            1139     92.1915E-03     92.0327E-03
             324            1139     92.1915E-03     92.0327E-03
             375            1139     92.1915E-03     92.0327E-03
             374            1139     92.1915E-03     92.0327E-03
             375            1140     93.2192E-03     99.6928E-03
             326            1140     93.2192E-03     99.6928E-03
             376            1140     93.2192E-03     99.6928E-03
             325            1140     93.2192E-03     99.6928E-03
             326            1141     106.384E-03     100.900E-03
             377            1141     106.384E-03     100.900E-03
             376            1141     106.384E-03     100.900E-03
             327            1141     106.384E-03     100.900E-03
             378            1142     109.347E-03     106.962E-03
             327            1142     109.347E-03     106.962E-03
             377            1142     109.347E-03     106.962E-03
             328            1142     109.347E-03     106.962E-03
             379            1143     47.2727E-03     56.9755E-03
             385            1143     47.2727E-03     56.9755E-03
             380            1143     47.2727E-03     56.9755E-03
             386            1143     47.2727E-03     56.9755E-03
             380            1144     55.9139E-03     56.4225E-03
             387            1144     55.9139E-03     56.4225E-03
             381            1144     55.9139E-03     56.4225E-03
             386            1144     55.9139E-03     56.4225E-03
             388            1145     53.9663E-03     51.2977E-03
             381            1145     53.9663E-03     51.2977E-03
             382            1145     53.9663E-03     51.2977E-03
             387            1145     53.9663E-03     51.2977E-03
             383            1146     44.8850E-03     48.8334E-03
             388            1146     44.8850E-03     48.8334E-03
             382            1146     44.8850E-03     48.8334E-03
             389            1146     44.8850E-03     48.8334E-03
             390            1147     44.2694E-03     47.3448E-03
             383            1147     44.2694E-03     47.3448E-03
             384            1147     44.2694E-03     47.3448E-03
             389            1147     44.2694E-03     47.3448E-03
             386            1148     51.1733E-03     62.1818E-03
             385            1148     51.1733E-03     62.1818E-03
             391            1148     51.1733E-03     62.1818E-03
             392            1148     51.1733E-03     62.1818E-03
             387            1149     58.6519E-03     60.4420E-03
             393            1149     58.6519E-03     60.4420E-03
             386            1149     58.6519E-03     60.4420E-03
             392            1149     58.6519E-03     60.4420E-03
             394            1150     57.7799E-03     53.1550E-03
             388            1150     57.7799E-03     53.1550E-03
             393            1150     57.7799E-03     53.1550E-03
             387            1150     57.7799E-03     53.1550E-03
             389            1151     44.6522E-03     49.6230E-03
             395            1151     44.6522E-03     49.6230E-03
             394            1151     44.6522E-03     49.6230E-03
             388            1151     44.6522E-03     49.6230E-03
             390            1152     40.6179E-03     40.5666E-03
             389            1152     40.6179E-03     40.5666E-03
             395            1152     40.6179E-03     40.5666E-03
             396            1152     40.6179E-03     40.5666E-03
             397            1153     61.8614E-03     73.5125E-03
             391            1153     61.8614E-03     73.5125E-03
             392            1153     61.8614E-03     73.5125E-03
             398            1153     61.8614E-03     73.5125E-03
             393            1154     69.1229E-03     69.3159E-03
             399            1154     69.1229E-03     69.3159E-03
             392            1154     69.1229E-03     69.3159E-03
             398            1154     69.1229E-03     69.3159E-03
             394            1155     70.0213E-03     64.6810E-03
             393            1155     70.0213E-03     64.6810E-03
             400            1155     70.0213E-03     64.6810E-03
             399            1155     70.0213E-03     64.6810E-03
             401            1156     58.7232E-03     61.5016E-03
             400            1156     58.7232E-03     61.5016E-03
             395            1156     58.7232E-03     61.5016E-03
             394            1156     58.7232E-03     61.5016E-03
             401            1157     52.0613E-03     49.0754E-03
             402            1157     52.0613E-03     49.0754E-03
             396            1157     52.0613E-03     49.0754E-03
             395            1157     52.0613E-03     49.0754E-03
             398            1158     73.1800E-03     86.3703E-03
             404            1158     73.1800E-03     86.3703E-03
             403            1158     73.1800E-03     86.3703E-03
             397            1158     73.1800E-03     86.3703E-03
             404            1159     81.0524E-03     80.0995E-03
             398            1159     81.0524E-03     80.0995E-03
             405            1159     81.0524E-03     80.0995E-03
             399            1159     81.0524E-03     80.0995E-03
             399            1160     83.4396E-03     76.7877E-03
             405            1160     83.4396E-03     76.7877E-03
             400            1160     83.4396E-03     76.7877E-03
             406            1160     83.4396E-03     76.7877E-03
             406            1161     75.7598E-03     74.5723E-03
             407            1161     75.7598E-03     74.5723E-03
             400            1161     75.7598E-03     74.5723E-03
             401            1161     75.7598E-03     74.5723E-03
             407            1162     69.1986E-03     65.2640E-03
             402            1162     69.1986E-03     65.2640E-03
             401            1162     69.1986E-03     65.2640E-03
             408            1162     69.1986E-03     65.2640E-03
             403            1163     82.6081E-03     96.3690E-03
             404            1163     82.6081E-03     96.3690E-03
             409            1163     82.6081E-03     96.3690E-03
             410            1163     82.6081E-03     96.3690E-03
             411            1164     90.4270E-03     89.0038E-03
             404            1164     90.4270E-03     89.0038E-03
             410            1164     90.4270E-03     89.0038E-03
             405            1164     90.4270E-03     89.0038E-03
             412            1165     91.7740E-03     87.6315E-03
             411            1165     91.7740E-03     87.6315E-03
             406            1165     91.7740E-03     87.6315E-03
             405            1165     91.7740E-03     87.6315E-03
             412            1166     88.3961E-03     86.5881E-03
             407            1166     88.3961E-03     86.5881E-03
             413            1166     88.3961E-03     86.5881E-03
             406            1166     88.3961E-03     86.5881E-03
             408            1167     84.6856E-03     81.7966E-03
             414            1167     84.6856E-03     81.7966E-03
             407            1167     84.6856E-03     81.7966E-03
             413            1167     84.6856E-03     81.7966E-03
             410            1168     89.7104E-03     99.0202E-03
             415            1168     89.7104E-03     99.0202E-03
             416            1168     89.7104E-03     99.0202E-03
             409            1168     89.7104E-03     99.0202E-03
             410            1169     94.8943E-03     90.9532E-03
             416            1169     94.8943E-03     90.9532E-03
             411            1169     94.8943E-03     90.9532E-03
             417            1169     94.8943E-03     90.9532E-03
             411            1170     95.0359E-03     92.7323E-03
             412            1170     95.0359E-03     92.7323E-03
             417            1170     95.0359E-03     92.7323E-03
             418            1170     95.0359E-03     92.7323E-03
             412            1171     96.3441E-03     94.3006E-03
             419            1171     96.3441E-03     94.3006E-03
             413            1171     96.3441E-03     94.3006E-03
             418            1171     96.3441E-03     94.3006E-03
             420            1172     97.7481E-03     95.1403E-03
             419            1172     97.7481E-03     95.1403E-03
             413            1172     97.7481E-03     95.1403E-03
             414            1172     97.7481E-03     95.1403E-03
             421            1173     21.4616E-03     19.6089E-03
             428            1173     21.4616E-03     19.6089E-03
             427            1173     21.4616E-03     19.6089E-03
             422            1173     21.4616E-03     19.6089E-03
             423            1174     21.9090E-03     21.5147E-03
             428            1174     21.9090E-03     21.5147E-03
             422            1174     21.9090E-03     21.5147E-03
             429            1174     21.9090E-03     21.5147E-03
             423            1175     20.9580E-03     21.7807E-03
             424            1175     20.9580E-03     21.7807E-03
             429            1175     20.9580E-03     21.7807E-03
             430            1175     20.9580E-03     21.7807E-03
             424            1176     21.7118E-03     20.8991E-03
             425            1176     21.7118E-03     20.8991E-03
             431            1176     21.7118E-03     20.8991E-03
             430            1176     21.7118E-03     20.8991E-03
             432            1177     21.3432E-03     22.2664E-03
             426            1177     21.3432E-03     22.2664E-03
             431            1177     21.3432E-03     22.2664E-03
             425            1177     21.3432E-03     22.2664E-03
             433            1178     33.8102E-03     32.1876E-03
             427            1178     33.8102E-03     32.1876E-03
             434            1178     33.8102E-03     32.1876E-03
             428            1178     33.8102E-03     32.1876E-03
             428            1179     35.4670E-03     34.2520E-03
             434            1179     35.4670E-03     34.2520E-03
             429            1179     35.4670E-03     34.2520E-03
             435            1179     35.4670E-03     34.2520E-03
             429            1180     33.0756E-03     36.0617E-03
             435            1180     33.0756E-03     36.0617E-03
             430            1180     33.0756E-03     36.0617E-03
             436            1180     33.0756E-03     36.0617E-03
             430            1181     35.2704E-03     33.2663E-03
             437            1181     35.2704E-03     33.2663E-03
             436            1181     35.2704E-03     33.2663E-03
             431            1181     35.2704E-03     33.2663E-03
             437            1182     33.6862E-03     33.1627E-03
             431            1182     33.6862E-03     33.1627E-03
             432            1182     33.6862E-03     33.1627E-03
             438            1182     33.6862E-03     33.1627E-03
             439            1183     51.9537E-03     49.4439E-03
             433            1183     51.9537E-03     49.4439E-03
             434            1183     51.9537E-03     49.4439E-03
             440            1183     51.9537E-03     49.4439E-03
             440            1184     54.9028E-03     50.5321E-03
             434            1184     54.9028E-03     50.5321E-03
             441            1184     54.9028E-03     50.5321E-03
             435            1184     54.9028E-03     50.5321E-03
             441            1185     49.2797E-03     53.8521E-03
             436            1185     49.2797E-03     53.8521E-03
             435            1185     49.2797E-03     53.8521E-03
             442            1185     49.2797E-03     53.8521E-03
             437            1186     52.2687E-03     48.8442E-03
             443            1186     52.2687E-03     48.8442E-03
             436            1186     52.2687E-03     48.8442E-03
             442            1186     52.2687E-03     48.8442E-03
             444            1187     48.6830E-03     47.2899E-03
             437            1187     48.6830E-03     47.2899E-03
             443            1187     48.6830E-03     47.2899E-03
             438            1187     48.6830E-03     47.2899E-03
             446            1188     68.6913E-03     65.8122E-03
             439            1188     68.6913E-03     65.8122E-03
             440            1188     68.6913E-03     65.8122E-03
             445            1188     68.6913E-03     65.8122E-03
             447            1189     71.8101E-03     63.5694E-03
             440            1189     71.8101E-03     63.5694E-03
             446            1189     71.8101E-03     63.5694E-03
             441            1189     71.8101E-03     63.5694E-03
             447            1190     62.2423E-03     68.6257E-03
             448            1190     62.2423E-03     68.6257E-03
             442            1190     62.2423E-03     68.6257E-03
             441            1190     62.2423E-03     68.6257E-03
             442            1191     67.2776E-03     61.9291E-03
             448            1191     67.2776E-03     61.9291E-03
             449            1191     67.2776E-03     61.9291E-03
             443            1191     67.2776E-03     61.9291E-03
             443            1192     62.8214E-03     61.5060E-03
             449            1192     62.8214E-03     61.5060E-03
             444            1192     62.8214E-03     61.5060E-03
             450            1192     62.8214E-03     61.5060E-03
             445            1193     82.1332E-03     81.2588E-03
             452            1193     82.1332E-03     81.2588E-03
             451            1193     82.1332E-03     81.2588E-03
             446            1193     82.1332E-03     81.2588E-03
             446            1194     84.1965E-03     75.9905E-03
             453            1194     84.1965E-03     75.9905E-03
             447            1194     84.1965E-03     75.9905E-03
             452            1194     84.1965E-03     75.9905E-03
             453            1195     70.4037E-03     80.6887E-03
             448            1195     70.4037E-03     80.6887E-03
             454            1195     70.4037E-03     80.6887E-03
             447            1195     70.4037E-03     80.6887E-03
             448            1196     77.8991E-03     72.4838E-03
             454            1196     77.8991E-03     72.4838E-03
             455            1196     77.8991E-03     72.4838E-03
             449            1196     77.8991E-03     72.4838E-03
             456            1197     74.5625E-03     73.6849E-03
             450            1197     74.5625E-03     73.6849E-03
             449            1197     74.5625E-03     73.6849E-03
             455            1197     74.5625E-03     73.6849E-03
             451            1198     94.4838E-03     93.4722E-03
             452            1198     94.4838E-03     93.4722E-03
             458            1198     94.4838E-03     93.4722E-03
             457            1198     94.4838E-03     93.4722E-03
             453            1199     92.7560E-03     85.8470E-03
             459            1199     92.7560E-03     85.8470E-03
             458            1199     92.7560E-03     85.8470E-03
             452            1199     92.7560E-03     85.8470E-03
             460            1200     78.7354E-03     87.4003E-03
             459            1200     78.7354E-03     87.4003E-03
             453            1200     78.7354E-03     87.4003E-03
             454            1200     78.7354E-03     87.4003E-03
             454            1201     83.6208E-03     78.3224E-03
             460            1201     83.6208E-03     78.3224E-03
             461            1201     83.6208E-03     78.3224E-03
             455            1201     83.6208E-03     78.3224E-03
             455            1202     80.5247E-03     78.1743E-03
             462            1202     80.5247E-03     78.1743E-03
             456            1202     80.5247E-03     78.1743E-03
             461            1202     80.5247E-03     78.1743E-03
             469            1203     648.901E-06     641.173E-06
             464            1203     648.901E-06     641.173E-06
             470            1203     648.901E-06     641.173E-06
             463            1203     648.901E-06     641.173E-06
             470            1204     652.196E-06     644.700E-06
             464            1204     652.196E-06     644.700E-06
             465            1204     652.196E-06     644.700E-06
             471            1204     652.196E-06     644.700E-06
             465            1205     648.899E-06     649.761E-06
             471            1205     648.899E-06     649.761E-06
             466            1205     648.899E-06     649.761E-06
             472            1205     648.899E-06     649.761E-06
             467            1206     659.003E-06     651.685E-06
             472            1206     659.003E-06     651.685E-06
             473            1206     659.003E-06     651.685E-06
             466            1206     659.003E-06     651.685E-06
             467            1207     658.520E-06     644.182E-06
             468            1207     658.520E-06     644.182E-06
             474            1207     658.520E-06     644.182E-06
             473            1207     658.520E-06     644.182E-06
             476            1208     592.650E-06     585.073E-06
             469            1208     592.650E-06     585.073E-06
             475            1208     592.650E-06     585.073E-06
             470            1208     592.650E-06     585.073E-06
             471            1209     598.553E-06     591.331E-06
             470            1209     598.553E-06     591.331E-06
             477            1209     598.553E-06     591.331E-06
             476            1209     598.553E-06     591.331E-06
             477            1210     600.697E-06     604.153E-06
             472            1210     600.697E-06     604.153E-06
             478            1210     600.697E-06     604.153E-06
             471            1210     600.697E-06     604.153E-06
             473            1211     624.852E-06     613.229E-06
             478            1211     624.852E-06     613.229E-06
             472            1211     624.852E-06     613.229E-06
             479            1211     624.852E-06     613.229E-06
             473            1212     626.578E-06     617.197E-06
             480            1212     626.578E-06     617.197E-06
             479            1212     626.578E-06     617.197E-06
             474            1212     626.578E-06     617.197E-06
             475            1213     499.926E-06     495.476E-06
             481            1213     499.926E-06     495.476E-06
             476            1213     499.926E-06     495.476E-06
             482            1213     499.926E-06     495.476E-06
             482            1214     507.694E-06     508.476E-06
             477            1214     507.694E-06     508.476E-06
             476            1214     507.694E-06     508.476E-06
             483            1214     507.694E-06     508.476E-06
             483            1215     521.338E-06     534.038E-06
             484            1215     521.338E-06     534.038E-06
             478            1215     521.338E-06     534.038E-06
             477            1215     521.338E-06     534.038E-06
             484            1216     574.452E-06     548.530E-06
             485            1216     574.452E-06     548.530E-06
             478            1216     574.452E-06     548.530E-06
             479            1216     574.452E-06     548.530E-06
             486            1217     585.636E-06     573.725E-06
             479            1217     585.636E-06     573.725E-06
             485            1217     585.636E-06     573.725E-06
             480            1217     585.636E-06     573.725E-06
             482            1218     369.735E-06     375.428E-06
             488            1218     369.735E-06     375.428E-06
             481            1218     369.735E-06     375.428E-06
             487            1218     369.735E-06     375.428E-06
             488            1219     389.341E-06     398.753E-06
             489            1219     389.341E-06     398.753E-06
             483            1219     389.341E-06     398.753E-06
             482            1219     389.341E-06     398.753E-06
             490            1220     420.350E-06     442.998E-06
             483            1220     420.350E-06     442.998E-06
             484            1220     420.350E-06     442.998E-06
             489            1220     420.350E-06     442.998E-06
             485            1221     510.868E-06     463.168E-06
             484            1221     510.868E-06     463.168E-06
             491            1221     510.868E-06     463.168E-06
             490            1221     510.868E-06     463.168E-06
             486            1222     530.996E-06     523.403E-06
             492            1222     530.996E-06     523.403E-06
             491            1222     530.996E-06     523.403E-06
             485            1222     530.996E-06     523.403E-06
             493            1223     216.252E-06     234.555E-06
             494            1223     216.252E-06     234.555E-06
             487            1223     216.252E-06     234.555E-06
             488            1223     216.252E-06     234.555E-06
             495            1224     248.301E-06     247.372E-06
             494            1224     248.301E-06     247.372E-06
             488            1224     248.301E-06     247.372E-06
             489            1224     248.301E-06     247.372E-06
             490            1225     310.268E-06     336.560E-06
             495            1225     310.268E-06     336.560E-06
             489            1225     310.268E-06     336.560E-06
             496            1225     310.268E-06     336.560E-06
             496            1226     463.353E-06     410.369E-06
             497            1226     463.353E-06     410.369E-06
             491            1226     463.353E-06     410.369E-06
             490            1226     463.353E-06     410.369E-06
             492            1227     505.050E-06     512.485E-06
             491            1227     505.050E-06     512.485E-06
             498            1227     505.050E-06     512.485E-06
             497            1227     505.050E-06     512.485E-06
             500            1228     157.504E-06     197.561E-06
             493            1228     157.504E-06     197.561E-06
             499            1228     157.504E-06     197.561E-06
             494            1228     157.504E-06     197.561E-06
             495            1229     195.969E-06     179.074E-06
             500            1229     195.969E-06     179.074E-06
             501            1229     195.969E-06     179.074E-06
             494            1229     195.969E-06     179.074E-06
             495            1230     283.655E-06     312.636E-06
             501            1230     283.655E-06     312.636E-06
             502            1230     283.655E-06     312.636E-06
             496            1230     283.655E-06     312.636E-06
             502            1231     486.570E-06     447.993E-06
             496            1231     486.570E-06     447.993E-06
             503            1231     486.570E-06     447.993E-06
             497            1231     486.570E-06     447.993E-06
             498            1232     607.351E-06     611.671E-06
             503            1232     607.351E-06     611.671E-06
             497            1232     607.351E-06     611.671E-06
             504            1232     607.351E-06     611.671E-06
             546            1233     20.2476E-03     19.8675E-03
             505            1233     20.2476E-03     19.8675E-03
             545            1233     20.2476E-03     19.8675E-03
             506            1233     20.2476E-03     19.8675E-03
             507            1234     23.9354E-03     22.5688E-03
             546            1234     23.9354E-03     22.5688E-03
             547            1234     23.9354E-03     22.5688E-03
             506            1234     23.9354E-03     22.5688E-03
             508            1235     24.1133E-03     24.2698E-03
             507            1235     24.1133E-03     24.2698E-03
             547            1235     24.1133E-03     24.2698E-03
             548            1235     24.1133E-03     24.2698E-03
             509            1236     23.1303E-03     24.3013E-03
             549            1236     23.1303E-03     24.3013E-03
             508            1236     23.1303E-03     24.3013E-03
             548            1236     23.1303E-03     24.3013E-03
             509            1237     23.6195E-03     23.8398E-03
             510            1237     23.6195E-03     23.8398E-03
             549            1237     23.6195E-03     23.8398E-03
             550            1237     23.6195E-03     23.8398E-03
             550            1238     23.6065E-03     23.7599E-03
             551            1238     23.6065E-03     23.7599E-03
             511            1238     23.6065E-03     23.7599E-03
             510            1238     23.6065E-03     23.7599E-03
             511            1239     23.4705E-03     23.3467E-03
             551            1239     23.4705E-03     23.3467E-03
             552            1239     23.4705E-03     23.3467E-03
             512            1239     23.4705E-03     23.3467E-03
             552            1240     23.3635E-03     22.9611E-03
             513            1240     23.3635E-03     22.9611E-03
             512            1240     23.3635E-03     22.9611E-03
             553            1240     23.3635E-03     22.9611E-03
             514            1241     23.3243E-03     22.6232E-03
             513            1241     23.3243E-03     22.6232E-03
             554            1241     23.3243E-03     22.6232E-03
             553            1241     23.3243E-03     22.6232E-03
             554            1242     22.9556E-03     22.0009E-03
             555            1242     22.9556E-03     22.0009E-03
             515            1242     22.9556E-03     22.0009E-03
             514            1242     22.9556E-03     22.0009E-03
             515            1243     22.4799E-03     22.5143E-03
             555            1243     22.4799E-03     22.5143E-03
             556            1243     22.4799E-03     22.5143E-03
             516            1243     22.4799E-03     22.5143E-03
             556            1244     21.2545E-03     21.3410E-03
             557            1244     21.2545E-03     21.3410E-03
             517            1244     21.2545E-03     21.3410E-03
             516            1244     21.2545E-03     21.3410E-03
             557            1245     21.2888E-03     20.2274E-03
             558            1245     21.2888E-03     20.2274E-03
             518            1245     21.2888E-03     20.2274E-03
             517            1245     21.2888E-03     20.2274E-03
             519            1246     21.3481E-03     21.4371E-03
             558            1246     21.3481E-03     21.4371E-03
             518            1246     21.3481E-03     21.4371E-03
             559            1246     21.3481E-03     21.4371E-03
             560            1247     20.6099E-03     21.3794E-03
             520            1247     20.6099E-03     21.3794E-03
             519            1247     20.6099E-03     21.3794E-03
             559            1247     20.6099E-03     21.3794E-03
             560            1248     20.8968E-03     21.0307E-03
             561            1248     20.8968E-03     21.0307E-03
             521            1248     20.8968E-03     21.0307E-03
             520            1248     20.8968E-03     21.0307E-03
             562            1249     20.8210E-03     20.9665E-03
             561            1249     20.8210E-03     20.9665E-03
             521            1249     20.8210E-03     20.9665E-03
             522            1249     20.8210E-03     20.9665E-03
             562            1250     20.7081E-03     20.7176E-03
             523            1250     20.7081E-03     20.7176E-03
             563            1250     20.7081E-03     20.7176E-03
             522            1250     20.7081E-03     20.7176E-03
             524            1251     20.6522E-03     20.4105E-03
             563            1251     20.6522E-03     20.4105E-03
             564            1251     20.6522E-03     20.4105E-03
             523            1251     20.6522E-03     20.4105E-03
             524            1252     20.5583E-03     20.2002E-03
             564            1252     20.5583E-03     20.2002E-03
             565            1252     20.5583E-03     20.2002E-03
             525            1252     20.5583E-03     20.2002E-03
             525            1253     20.5240E-03     19.9751E-03
             566            1253     20.5240E-03     19.9751E-03
             526            1253     20.5240E-03     19.9751E-03
             565            1253     20.5240E-03     19.9751E-03
             526            1254     20.3303E-03     19.6891E-03
             527            1254     20.3303E-03     19.6891E-03
             567            1254     20.3303E-03     19.6891E-03
             566            1254     20.3303E-03     19.6891E-03
             527            1255     20.0555E-03     19.9824E-03
             568            1255     20.0555E-03     19.9824E-03
             567            1255     20.0555E-03     19.9824E-03
             528            1255     20.0555E-03     19.9824E-03
             529            1256     19.1324E-03     18.9855E-03
             569            1256     19.1324E-03     18.9855E-03
             528            1256     19.1324E-03     18.9855E-03
             568            1256     19.1324E-03     18.9855E-03
             570            1257     18.8042E-03     18.1309E-03
             529            1257     18.8042E-03     18.1309E-03
             530            1257     18.8042E-03     18.1309E-03
             569            1257     18.8042E-03     18.1309E-03
             570            1258     18.8152E-03     18.8370E-03
             530            1258     18.8152E-03     18.8370E-03
             571            1258     18.8152E-03     18.8370E-03
             531            1258     18.8152E-03     18.8370E-03
             572            1259     18.4078E-03     18.7571E-03
             531            1259     18.4078E-03     18.7571E-03
             532            1259     18.4078E-03     18.7571E-03
             571            1259     18.4078E-03     18.7571E-03
             532            1260     18.5475E-03     18.5573E-03
             573            1260     18.5475E-03     18.5573E-03
             572            1260     18.5475E-03     18.5573E-03
             533            1260     18.5475E-03     18.5573E-03
             574            1261     18.4999E-03     18.5276E-03
             573            1261     18.4999E-03     18.5276E-03
             534            1261     18.4999E-03     18.5276E-03
             533            1261     18.4999E-03     18.5276E-03
             574            1262     18.4524E-03     18.3970E-03
             575            1262     18.4524E-03     18.3970E-03
             534            1262     18.4524E-03     18.3970E-03
             535            1262     18.4524E-03     18.3970E-03
             535            1263     18.4569E-03     18.2797E-03
             536            1263     18.4569E-03     18.2797E-03
             575            1263     18.4569E-03     18.2797E-03
             576            1263     18.4569E-03     18.2797E-03
             537            1264     18.4657E-03     18.2279E-03
             536            1264     18.4657E-03     18.2279E-03
             576            1264     18.4657E-03     18.2279E-03
             577            1264     18.4657E-03     18.2279E-03
             577            1265     18.4474E-03     18.1317E-03
             538            1265     18.4474E-03     18.1317E-03
             578            1265     18.4474E-03     18.1317E-03
             537            1265     18.4474E-03     18.1317E-03
             578            1266     18.3475E-03     18.1433E-03
             538            1266     18.3475E-03     18.1433E-03
             539            1266     18.3475E-03     18.1433E-03
             579            1266     18.3475E-03     18.1433E-03
             580            1267     17.2598E-03     17.0835E-03
             579            1267     17.2598E-03     17.0835E-03
             540            1267     17.2598E-03     17.0835E-03
             539            1267     17.2598E-03     17.0835E-03
             581            1268     16.4472E-03     16.1522E-03
             580            1268     16.4472E-03     16.1522E-03
             540            1268     16.4472E-03     16.1522E-03
             541            1268     16.4472E-03     16.1522E-03
             541            1269     16.4832E-03     16.4166E-03
             582            1269     16.4832E-03     16.4166E-03
             581            1269     16.4832E-03     16.4166E-03
             542            1269     16.4832E-03     16.4166E-03
             542            1270     16.4039E-03     16.3822E-03
             543            1270     16.4039E-03     16.3822E-03
             583            1270     16.4039E-03     16.3822E-03
             582            1270     16.4039E-03     16.3822E-03
             543            1271     16.4133E-03     16.2780E-03
             544            1271     16.4133E-03     16.2780E-03
             584            1271     16.4133E-03     16.2780E-03
             583            1271     16.4133E-03     16.2780E-03
             545            1272     29.4398E-03     30.9156E-03
             546            1272     29.4398E-03     30.9156E-03
             586            1272     29.4398E-03     30.9156E-03
             585            1272     29.4398E-03     30.9156E-03
             586            1273     33.8397E-03     31.8733E-03
             547            1273     33.8397E-03     31.8733E-03
             587            1273     33.8397E-03     31.8733E-03
             546            1273     33.8397E-03     31.8733E-03
             588            1274     34.9767E-03     33.0828E-03
             547            1274     34.9767E-03     33.0828E-03
             548            1274     34.9767E-03     33.0828E-03
             587            1274     34.9767E-03     33.0828E-03
             548            1275     32.3743E-03     33.5278E-03
             588            1275     32.3743E-03     33.5278E-03
             549            1275     32.3743E-03     33.5278E-03
             589            1275     32.3743E-03     33.5278E-03
             589            1276     32.4934E-03     31.8446E-03
             590            1276     32.4934E-03     31.8446E-03
             549            1276     32.4934E-03     31.8446E-03
             550            1276     32.4934E-03     31.8446E-03
             550            1277     31.6899E-03     31.4287E-03
             591            1277     31.6899E-03     31.4287E-03
             551            1277     31.6899E-03     31.4287E-03
             590            1277     31.6899E-03     31.4287E-03
             551            1278     30.6170E-03     30.6735E-03
             591            1278     30.6170E-03     30.6735E-03
             552            1278     30.6170E-03     30.6735E-03
             592            1278     30.6170E-03     30.6735E-03
             552            1279     29.7224E-03     29.7257E-03
             593            1279     29.7224E-03     29.7257E-03
             592            1279     29.7224E-03     29.7257E-03
             553            1279     29.7224E-03     29.7257E-03
             593            1280     28.5874E-03     29.1477E-03
             594            1280     28.5874E-03     29.1477E-03
             553            1280     28.5874E-03     29.1477E-03
             554            1280     28.5874E-03     29.1477E-03
             554            1281     28.2474E-03     27.4173E-03
             594            1281     28.2474E-03     27.4173E-03
             555            1281     28.2474E-03     27.4173E-03
             595            1281     28.2474E-03     27.4173E-03
             555            1282     26.8430E-03     26.6718E-03
             595            1282     26.8430E-03     26.6718E-03
             596            1282     26.8430E-03     26.6718E-03
             556            1282     26.8430E-03     26.6718E-03
             597            1283     24.7641E-03     26.5401E-03
             596            1283     24.7641E-03     26.5401E-03
             556            1283     24.7641E-03     26.5401E-03
             557            1283     24.7641E-03     26.5401E-03
             598            1284     26.7879E-03     25.3009E-03
             597            1284     26.7879E-03     25.3009E-03
             558            1284     26.7879E-03     25.3009E-03
             557            1284     26.7879E-03     25.3009E-03
             558            1285     27.3992E-03     26.0412E-03
             599            1285     27.3992E-03     26.0412E-03
             559            1285     27.3992E-03     26.0412E-03
             598            1285     27.3992E-03     26.0412E-03
             599            1286     25.4875E-03     26.0868E-03
             600            1286     25.4875E-03     26.0868E-03
             559            1286     25.4875E-03     26.0868E-03
             560            1286     25.4875E-03     26.0868E-03
             600            1287     25.4401E-03     24.8367E-03
             561            1287     25.4401E-03     24.8367E-03
             560            1287     25.4401E-03     24.8367E-03
             601            1287     25.4401E-03     24.8367E-03
             561            1288     24.8058E-03     24.4747E-03
             602            1288     24.8058E-03     24.4747E-03
             562            1288     24.8058E-03     24.4747E-03
             601            1288     24.8058E-03     24.4747E-03
             603            1289     23.9642E-03     23.9959E-03
             563            1289     23.9642E-03     23.9959E-03
             602            1289     23.9642E-03     23.9959E-03
             562            1289     23.9642E-03     23.9959E-03
             564            1290     23.3667E-03     23.3877E-03
             563            1290     23.3667E-03     23.3877E-03
             603            1290     23.3667E-03     23.3877E-03
             604            1290     23.3667E-03     23.3877E-03
             605            1291     22.6546E-03     22.8232E-03
             564            1291     22.6546E-03     22.8232E-03
             565            1291     22.6546E-03     22.8232E-03
             604            1291     22.6546E-03     22.8232E-03
             606            1292     21.9946E-03     22.2792E-03
             605            1292     21.9946E-03     22.2792E-03
             566            1292     21.9946E-03     22.2792E-03
             565            1292     21.9946E-03     22.2792E-03
             606            1293     21.5976E-03     21.3199E-03
             566            1293     21.5976E-03     21.3199E-03
             567            1293     21.5976E-03     21.3199E-03
             607            1293     21.5976E-03     21.3199E-03
             607            1294     20.9173E-03     20.9315E-03
             568            1294     20.9173E-03     20.9315E-03
             608            1294     20.9173E-03     20.9315E-03
             567            1294     20.9173E-03     20.9315E-03
             609            1295     19.8141E-03     20.3937E-03
             608            1295     19.8141E-03     20.3937E-03
             569            1295     19.8141E-03     20.3937E-03
             568            1295     19.8141E-03     20.3937E-03
             570            1296     20.4655E-03     19.5689E-03
             569            1296     20.4655E-03     19.5689E-03
             609            1296     20.4655E-03     19.5689E-03
             610            1296     20.4655E-03     19.5689E-03
             570            1297     20.6521E-03     20.0002E-03
             611            1297     20.6521E-03     20.0002E-03
             571            1297     20.6521E-03     20.0002E-03
             610            1297     20.6521E-03     20.0002E-03
             571            1298     19.6008E-03     19.8601E-03
             612            1298     19.6008E-03     19.8601E-03
             572            1298     19.6008E-03     19.8601E-03
             611            1298     19.6008E-03     19.8601E-03
             613            1299     19.4694E-03     19.2356E-03
             612            1299     19.4694E-03     19.2356E-03
             572            1299     19.4694E-03     19.2356E-03
             573            1299     19.4694E-03     19.2356E-03
             574            1300     19.0708E-03     19.0535E-03
             573            1300     19.0708E-03     19.0535E-03
             613            1300     19.0708E-03     19.0535E-03
             614            1300     19.0708E-03     19.0535E-03
             574            1301     18.6228E-03     18.7599E-03
             614            1301     18.6228E-03     18.7599E-03
             615            1301     18.6228E-03     18.7599E-03
             575            1301     18.6228E-03     18.7599E-03
             616            1302     18.3216E-03     18.4152E-03
             576            1302     18.3216E-03     18.4152E-03
             575            1302     18.3216E-03     18.4152E-03
             615            1302     18.3216E-03     18.4152E-03
             616            1303     18.0424E-03     18.0974E-03
             576            1303     18.0424E-03     18.0974E-03
             617            1303     18.0424E-03     18.0974E-03
             577            1303     18.0424E-03     18.0974E-03
             617            1304     17.8480E-03     17.7618E-03
             577            1304     17.8480E-03     17.7618E-03
             618            1304     17.8480E-03     17.7618E-03
             578            1304     17.8480E-03     17.7618E-03
             619            1305     17.6377E-03     17.5519E-03
             618            1305     17.6377E-03     17.5519E-03
             578            1305     17.6377E-03     17.5519E-03
             579            1305     17.6377E-03     17.5519E-03
             580            1306     16.7522E-03     16.7025E-03
             620            1306     16.7522E-03     16.7025E-03
             619            1306     16.7522E-03     16.7025E-03
             579            1306     16.7522E-03     16.7025E-03
             621            1307     16.2302E-03     15.9922E-03
             620            1307     16.2302E-03     15.9922E-03
             580            1307     16.2302E-03     15.9922E-03
             581            1307     16.2302E-03     15.9922E-03
             622            1308     16.2832E-03     16.1834E-03
             581            1308     16.2832E-03     16.1834E-03
             582            1308     16.2832E-03     16.1834E-03
             621            1308     16.2832E-03     16.1834E-03
             622            1309     16.1381E-03     16.1075E-03
             623            1309     16.1381E-03     16.1075E-03
             583            1309     16.1381E-03     16.1075E-03
             582            1309     16.1381E-03     16.1075E-03
             624            1310     16.1014E-03     15.9374E-03
             584            1310     16.1014E-03     15.9374E-03
             623            1310     16.1014E-03     15.9374E-03
             583            1310     16.1014E-03     15.9374E-03
             625            1311     42.1651E-03     46.8522E-03
             585            1311     42.1651E-03     46.8522E-03
             626            1311     42.1651E-03     46.8522E-03
             586            1311     42.1651E-03     46.8522E-03
             586            1312     48.6695E-03     46.4772E-03
             627            1312     48.6695E-03     46.4772E-03
             626            1312     48.6695E-03     46.4772E-03
             587            1312     48.6695E-03     46.4772E-03
             588            1313     50.2932E-03     45.8178E-03
             587            1313     50.2932E-03     45.8178E-03
             628            1313     50.2932E-03     45.8178E-03
             627            1313     50.2932E-03     45.8178E-03
             629            1314     44.3984E-03     46.0103E-03
             628            1314     44.3984E-03     46.0103E-03
             588            1314     44.3984E-03     46.0103E-03
             589            1314     44.3984E-03     46.0103E-03
             630            1315     43.6838E-03     42.3210E-03
             629            1315     43.6838E-03     42.3210E-03
             589            1315     43.6838E-03     42.3210E-03
             590            1315     43.6838E-03     42.3210E-03
             590            1316     41.9490E-03     41.2809E-03
             631            1316     41.9490E-03     41.2809E-03
             591            1316     41.9490E-03     41.2809E-03
             630            1316     41.9490E-03     41.2809E-03
             631            1317     40.1766E-03     40.0866E-03
             591            1317     40.1766E-03     40.0866E-03
             632            1317     40.1766E-03     40.0866E-03
             592            1317     40.1766E-03     40.0866E-03
             632            1318     38.8554E-03     38.7697E-03
             633            1318     38.8554E-03     38.7697E-03
             593            1318     38.8554E-03     38.7697E-03
             592            1318     38.8554E-03     38.7697E-03
             634            1319     37.0205E-03     38.8118E-03
             594            1319     37.0205E-03     38.8118E-03
             633            1319     37.0205E-03     38.8118E-03
             593            1319     37.0205E-03     38.8118E-03
             594            1320     37.4909E-03     36.5038E-03
             595            1320     37.4909E-03     36.5038E-03
             634            1320     37.4909E-03     36.5038E-03
             635            1320     37.4909E-03     36.5038E-03
             595            1321     35.0353E-03     34.9517E-03
             636            1321     35.0353E-03     34.9517E-03
             635            1321     35.0353E-03     34.9517E-03
             596            1321     35.0353E-03     34.9517E-03
             596            1322     31.0393E-03     36.4285E-03
             637            1322     31.0393E-03     36.4285E-03
             636            1322     31.0393E-03     36.4285E-03
             597            1322     31.0393E-03     36.4285E-03
             597            1323     35.7510E-03     34.1397E-03
             598            1323     35.7510E-03     34.1397E-03
             638            1323     35.7510E-03     34.1397E-03
             637            1323     35.7510E-03     34.1397E-03
             639            1324     36.5952E-03     33.4125E-03
             598            1324     36.5952E-03     33.4125E-03
             638            1324     36.5952E-03     33.4125E-03
             599            1324     36.5952E-03     33.4125E-03
             600            1325     32.2128E-03     33.2234E-03
             640            1325     32.2128E-03     33.2234E-03
             639            1325     32.2128E-03     33.2234E-03
             599            1325     32.2128E-03     33.2234E-03
             640            1326     31.4727E-03     30.4862E-03
             600            1326     31.4727E-03     30.4862E-03
             601            1326     31.4727E-03     30.4862E-03
             641            1326     31.4727E-03     30.4862E-03
             601            1327     30.0710E-03     29.4523E-03
             642            1327     30.0710E-03     29.4523E-03
             602            1327     30.0710E-03     29.4523E-03
             641            1327     30.0710E-03     29.4523E-03
             603            1328     28.4525E-03     28.4813E-03
             602            1328     28.4525E-03     28.4813E-03
             642            1328     28.4525E-03     28.4813E-03
             643            1328     28.4525E-03     28.4813E-03
             644            1329     27.3959E-03     27.3667E-03
             604            1329     27.3959E-03     27.3667E-03
             643            1329     27.3959E-03     27.3667E-03
             603            1329     27.3959E-03     27.3667E-03
             645            1330     26.2268E-03     26.5512E-03
             605            1330     26.2268E-03     26.5512E-03
             644            1330     26.2268E-03     26.5512E-03
             604            1330     26.2268E-03     26.5512E-03
             605            1331     24.9202E-03     26.1225E-03
             645            1331     24.9202E-03     26.1225E-03
             606            1331     24.9202E-03     26.1225E-03
             646            1331     24.9202E-03     26.1225E-03
             607            1332     24.5930E-03     24.6439E-03
             606            1332     24.5930E-03     24.6439E-03
             646            1332     24.5930E-03     24.6439E-03
             647            1332     24.5930E-03     24.6439E-03
             608            1333     23.2635E-03     23.5743E-03
             647            1333     23.2635E-03     23.5743E-03
             648            1333     23.2635E-03     23.5743E-03
             607            1333     23.2635E-03     23.5743E-03
             608            1334     21.3531E-03     23.7635E-03
             648            1334     21.3531E-03     23.7635E-03
             609            1334     21.3531E-03     23.7635E-03
             649            1334     21.3531E-03     23.7635E-03
             609            1335     23.4133E-03     22.3809E-03
             649            1335     23.4133E-03     22.3809E-03
             610            1335     23.4133E-03     22.3809E-03
             650            1335     23.4133E-03     22.3809E-03
             610            1336     23.5614E-03     21.8333E-03
             651            1336     23.5614E-03     21.8333E-03
             650            1336     23.5614E-03     21.8333E-03
             611            1336     23.5614E-03     21.8333E-03
             612            1337     21.0792E-03     21.4781E-03
             611            1337     21.0792E-03     21.4781E-03
             652            1337     21.0792E-03     21.4781E-03
             651            1337     21.0792E-03     21.4781E-03
             652            1338     20.5050E-03     20.0345E-03
             653            1338     20.5050E-03     20.0345E-03
             613            1338     20.5050E-03     20.0345E-03
             612            1338     20.5050E-03     20.0345E-03
             614            1339     19.6455E-03     19.4515E-03
             653            1339     19.6455E-03     19.4515E-03
             654            1339     19.6455E-03     19.4515E-03
             613            1339     19.6455E-03     19.4515E-03
             654            1340     18.7174E-03     18.8435E-03
             615            1340     18.7174E-03     18.8435E-03
             614            1340     18.7174E-03     18.8435E-03
             655            1340     18.7174E-03     18.8435E-03
             616            1341     17.9838E-03     18.2291E-03
             655            1341     17.9838E-03     18.2291E-03
             615            1341     17.9838E-03     18.2291E-03
             656            1341     17.9838E-03     18.2291E-03
             657            1342     17.2577E-03     17.7239E-03
             656            1342     17.2577E-03     17.7239E-03
             616            1342     17.2577E-03     17.7239E-03
             617            1342     17.2577E-03     17.7239E-03
             617            1343     16.6548E-03     17.0748E-03
             657            1343     16.6548E-03     17.0748E-03
             658            1343     16.6548E-03     17.0748E-03
             618            1343     16.6548E-03     17.0748E-03
             658            1344     16.2488E-03     16.5023E-03
             659            1344     16.2488E-03     16.5023E-03
             619            1344     16.2488E-03     16.5023E-03
             618            1344     16.2488E-03     16.5023E-03
             619            1345     15.6280E-03     15.8376E-03
             620            1345     15.6280E-03     15.8376E-03
             660            1345     15.6280E-03     15.8376E-03
             659            1345     15.6280E-03     15.8376E-03
             621            1346     15.5351E-03     15.2671E-03
             660            1346     15.5351E-03     15.2671E-03
             620            1346     15.5351E-03     15.2671E-03
             661            1346     15.5351E-03     15.2671E-03
             661            1347     15.4180E-03     15.2269E-03
             621            1347     15.4180E-03     15.2269E-03
             662            1347     15.4180E-03     15.2269E-03
             622            1347     15.4180E-03     15.2269E-03
             663            1348     14.9760E-03     15.0920E-03
             662            1348     14.9760E-03     15.0920E-03
             622            1348     14.9760E-03     15.0920E-03
             623            1348     14.9760E-03     15.0920E-03
             663            1349     14.9514E-03     14.8241E-03
             624            1349     14.9514E-03     14.8241E-03
             664            1349     14.9514E-03     14.8241E-03
             623            1349     14.9514E-03     14.8241E-03
             626            1350     54.2151E-03     63.0525E-03
             665            1350     54.2151E-03     63.0525E-03
             625            1350     54.2151E-03     63.0525E-03
             666            1350     54.2151E-03     63.0525E-03
             627            1351     62.9836E-03     61.5284E-03
             626            1351     62.9836E-03     61.5284E-03
             666            1351     62.9836E-03     61.5284E-03
             667            1351     62.9836E-03     61.5284E-03
             668            1352     64.1987E-03     58.0717E-03
             628            1352     64.1987E-03     58.0717E-03
             627            1352     64.1987E-03     58.0717E-03
             667            1352     64.1987E-03     58.0717E-03
             628            1353     54.5293E-03     58.4843E-03
             668            1353     54.5293E-03     58.4843E-03
             629            1353     54.5293E-03     58.4843E-03
             669            1353     54.5293E-03     58.4843E-03
             670            1354     53.2447E-03     52.7264E-03
             669            1354     53.2447E-03     52.7264E-03
             630            1354     53.2447E-03     52.7264E-03
             629            1354     53.2447E-03     52.7264E-03
             631            1355     50.6762E-03     51.0131E-03
             671            1355     50.6762E-03     51.0131E-03
             670            1355     50.6762E-03     51.0131E-03
             630            1355     50.6762E-03     51.0131E-03
             631            1356     48.2724E-03     49.0955E-03
             672            1356     48.2724E-03     49.0955E-03
             671            1356     48.2724E-03     49.0955E-03
             632            1356     48.2724E-03     49.0955E-03
             633            1357     46.9105E-03     46.9339E-03
             673            1357     46.9105E-03     46.9339E-03
             672            1357     46.9105E-03     46.9339E-03
             632            1357     46.9105E-03     46.9339E-03
             633            1358     44.8038E-03     47.6504E-03
             634            1358     44.8038E-03     47.6504E-03
             673            1358     44.8038E-03     47.6504E-03
             674            1358     44.8038E-03     47.6504E-03
             675            1359     47.2253E-03     45.3952E-03
             674            1359     47.2253E-03     45.3952E-03
             635            1359     47.2253E-03     45.3952E-03
             634            1359     47.2253E-03     45.3952E-03
             676            1360     44.5054E-03     44.9519E-03
             635            1360     44.5054E-03     44.9519E-03
             675            1360     44.5054E-03     44.9519E-03
             636            1360     44.5054E-03     44.9519E-03
             637            1361     38.0935E-03     48.7748E-03
             676            1361     38.0935E-03     48.7748E-03
             636            1361     38.0935E-03     48.7748E-03
             677            1361     38.0935E-03     48.7748E-03
             677            1362     44.7781E-03     43.7064E-03
             637            1362     44.7781E-03     43.7064E-03
             678            1362     44.7781E-03     43.7064E-03
             638            1362     44.7781E-03     43.7064E-03
             639            1363     45.3576E-03     41.0328E-03
             678            1363     45.3576E-03     41.0328E-03
             638            1363     45.3576E-03     41.0328E-03
             679            1363     45.3576E-03     41.0328E-03
             680            1364     38.2372E-03     41.0439E-03
             679            1364     38.2372E-03     41.0439E-03
             639            1364     38.2372E-03     41.0439E-03
             640            1364     38.2372E-03     41.0439E-03
             681            1365     36.9725E-03     36.7267E-03
             641            1365     36.9725E-03     36.7267E-03
             680            1365     36.9725E-03     36.7267E-03
             640            1365     36.9725E-03     36.7267E-03
             682            1366     34.8856E-03     34.9326E-03
             642            1366     34.8856E-03     34.9326E-03
             681            1366     34.8856E-03     34.9326E-03
             641            1366     34.8856E-03     34.9326E-03
             682            1367     32.4274E-03     33.2293E-03
             642            1367     32.4274E-03     33.2293E-03
             643            1367     32.4274E-03     33.2293E-03
             683            1367     32.4274E-03     33.2293E-03
             643            1368     31.0701E-03     31.3183E-03
             684            1368     31.0701E-03     31.3183E-03
             644            1368     31.0701E-03     31.3183E-03
             683            1368     31.0701E-03     31.3183E-03
             685            1369     29.6249E-03     29.9173E-03
             645            1369     29.6249E-03     29.9173E-03
             684            1369     29.6249E-03     29.9173E-03
             644            1369     29.6249E-03     29.9173E-03
             645            1370     27.9944E-03     29.6704E-03
             686            1370     27.9944E-03     29.6704E-03
             685            1370     27.9944E-03     29.6704E-03
             646            1370     27.9944E-03     29.6704E-03
             686            1371     28.5173E-03     28.2393E-03
             687            1371     28.5173E-03     28.2393E-03
             647            1371     28.5173E-03     28.2393E-03
             646            1371     28.5173E-03     28.2393E-03
             688            1372     26.8159E-03     27.5620E-03
             648            1372     26.8159E-03     27.5620E-03
             687            1372     26.8159E-03     27.5620E-03
             647            1372     26.8159E-03     27.5620E-03
             648            1373     23.4559E-03     28.8785E-03
             649            1373     23.4559E-03     28.8785E-03
             689            1373     23.4559E-03     28.8785E-03
             688            1373     23.4559E-03     28.8785E-03
             690            1374     26.5542E-03     25.8321E-03
             650            1374     26.5542E-03     25.8321E-03
             689            1374     26.5542E-03     25.8321E-03
             649            1374     26.5542E-03     25.8321E-03
             650            1375     26.5000E-03     24.0512E-03
             690            1375     26.5000E-03     24.0512E-03
             691            1375     26.5000E-03     24.0512E-03
             651            1375     26.5000E-03     24.0512E-03
             652            1376     22.3113E-03     23.7057E-03
             691            1376     22.3113E-03     23.7057E-03
             692            1376     22.3113E-03     23.7057E-03
             651            1376     22.3113E-03     23.7057E-03
             692            1377     21.3065E-03     21.0268E-03
             652            1377     21.3065E-03     21.0268E-03
             693            1377     21.3065E-03     21.0268E-03
             653            1377     21.3065E-03     21.0268E-03
             693            1378     19.8655E-03     19.7324E-03
             654            1378     19.8655E-03     19.7324E-03
             653            1378     19.8655E-03     19.7324E-03
             694            1378     19.8655E-03     19.7324E-03
             654            1379     18.3334E-03     18.5064E-03
             655            1379     18.3334E-03     18.5064E-03
             694            1379     18.3334E-03     18.5064E-03
             695            1379     18.3334E-03     18.5064E-03
             696            1380     17.2987E-03     17.3426E-03
             695            1380     17.2987E-03     17.3426E-03
             656            1380     17.2987E-03     17.3426E-03
             655            1380     17.2987E-03     17.3426E-03
             697            1381     16.2131E-03     16.7505E-03
             696            1381     16.2131E-03     16.7505E-03
             657            1381     16.2131E-03     16.7505E-03
             656            1381     16.2131E-03     16.7505E-03
             658            1382     15.4402E-03     16.1346E-03
             698            1382     15.4402E-03     16.1346E-03
             657            1382     15.4402E-03     16.1346E-03
             697            1382     15.4402E-03     16.1346E-03
             659            1383     14.7537E-03     15.4303E-03
             658            1383     14.7537E-03     15.4303E-03
             699            1383     14.7537E-03     15.4303E-03
             698            1383     14.7537E-03     15.4303E-03
             659            1384     13.9264E-03     14.7540E-03
             700            1384     13.9264E-03     14.7540E-03
             699            1384     13.9264E-03     14.7540E-03
             660            1384     13.9264E-03     14.7540E-03
             700            1385     14.1070E-03     13.7931E-03
             701            1385     14.1070E-03     13.7931E-03
             661            1385     14.1070E-03     13.7931E-03
             660            1385     14.1070E-03     13.7931E-03
             661            1386     13.9185E-03     13.5546E-03
             702            1386     13.9185E-03     13.5546E-03
             662            1386     13.9185E-03     13.5546E-03
             701            1386     13.9185E-03     13.5546E-03
             663            1387     13.0603E-03     13.5045E-03
             702            1387     13.0603E-03     13.5045E-03
             662            1387     13.0603E-03     13.5045E-03
             703            1387     13.0603E-03     13.5045E-03
             703            1388     12.8974E-03     12.9085E-03
             663            1388     12.8974E-03     12.9085E-03
             664            1388     12.8974E-03     12.9085E-03
             704            1388     12.8974E-03     12.9085E-03
             706            1389     64.0004E-03     75.9653E-03
             705            1389     64.0004E-03     75.9653E-03
             666            1389     64.0004E-03     75.9653E-03
             665            1389     64.0004E-03     75.9653E-03
             666            1390     74.7923E-03     74.7310E-03
             667            1390     74.7923E-03     74.7310E-03
             707            1390     74.7923E-03     74.7310E-03
             706            1390     74.7923E-03     74.7310E-03
             707            1391     75.1770E-03     69.9191E-03
             667            1391     75.1770E-03     69.9191E-03
             708            1391     75.1770E-03     69.9191E-03
             668            1391     75.1770E-03     69.9191E-03
             669            1392     62.7764E-03     69.9718E-03
             668            1392     62.7764E-03     69.9718E-03
             708            1392     62.7764E-03     69.9718E-03
             709            1392     62.7764E-03     69.9718E-03
             669            1393     61.7078E-03     62.7425E-03
             710            1393     61.7078E-03     62.7425E-03
             670            1393     61.7078E-03     62.7425E-03
             709            1393     61.7078E-03     62.7425E-03
             670            1394     58.1434E-03     60.5752E-03
             671            1394     58.1434E-03     60.5752E-03
             711            1394     58.1434E-03     60.5752E-03
             710            1394     58.1434E-03     60.5752E-03
             671            1395     55.0797E-03     57.8014E-03
             672            1395     55.0797E-03     57.8014E-03
             712            1395     55.0797E-03     57.8014E-03
             711            1395     55.0797E-03     57.8014E-03
             672            1396     53.4602E-03     54.4944E-03
             712            1396     53.4602E-03     54.4944E-03
             673            1396     53.4602E-03     54.4944E-03
             713            1396     53.4602E-03     54.4944E-03
             713            1397     50.3346E-03     54.7281E-03
             674            1397     50.3346E-03     54.7281E-03
             714            1397     50.3346E-03     54.7281E-03
             673            1397     50.3346E-03     54.7281E-03
             675            1398     54.1119E-03     52.1751E-03
             714            1398     54.1119E-03     52.1751E-03
             715            1398     54.1119E-03     52.1751E-03
             674            1398     54.1119E-03     52.1751E-03
             716            1399     52.5898E-03     52.8513E-03
             676            1399     52.5898E-03     52.8513E-03
             715            1399     52.5898E-03     52.8513E-03
             675            1399     52.5898E-03     52.8513E-03
             677            1400     44.7011E-03     58.7389E-03
             717            1400     44.7011E-03     58.7389E-03
             676            1400     44.7011E-03     58.7389E-03
             716            1400     44.7011E-03     58.7389E-03
             718            1401     52.4692E-03     52.4175E-03
             717            1401     52.4692E-03     52.4175E-03
             678            1401     52.4692E-03     52.4175E-03
             677            1401     52.4692E-03     52.4175E-03
             719            1402     52.6106E-03     48.8266E-03
             718            1402     52.6106E-03     48.8266E-03
             679            1402     52.6106E-03     48.8266E-03
             678            1402     52.6106E-03     48.8266E-03
             679            1403     43.4617E-03     48.4797E-03
             719            1403     43.4617E-03     48.4797E-03
             720            1403     43.4617E-03     48.4797E-03
             680            1403     43.4617E-03     48.4797E-03
             681            1404     42.1536E-03     42.9077E-03
             721            1404     42.1536E-03     42.9077E-03
             720            1404     42.1536E-03     42.9077E-03
             680            1404     42.1536E-03     42.9077E-03
             722            1405     39.2546E-03     40.6246E-03
             721            1405     39.2546E-03     40.6246E-03
             682            1405     39.2546E-03     40.6246E-03
             681            1405     39.2546E-03     40.6246E-03
             683            1406     36.1295E-03     38.0981E-03
             682            1406     36.1295E-03     38.0981E-03
             723            1406     36.1295E-03     38.0981E-03
             722            1406     36.1295E-03     38.0981E-03
             723            1407     34.2487E-03     35.4411E-03
             724            1407     34.2487E-03     35.4411E-03
             683            1407     34.2487E-03     35.4411E-03
             684            1407     34.2487E-03     35.4411E-03
             684            1408     32.2939E-03     33.0903E-03
             725            1408     32.2939E-03     33.0903E-03
             724            1408     32.2939E-03     33.0903E-03
             685            1408     32.2939E-03     33.0903E-03
             685            1409     30.0853E-03     32.2448E-03
             726            1409     30.0853E-03     32.2448E-03
             725            1409     30.0853E-03     32.2448E-03
             686            1409     30.0853E-03     32.2448E-03
             687            1410     31.2617E-03     30.6422E-03
             726            1410     31.2617E-03     30.6422E-03
             686            1410     31.2617E-03     30.6422E-03
             727            1410     31.2617E-03     30.6422E-03
             687            1411     30.3496E-03     30.6522E-03
             727            1411     30.3496E-03     30.6522E-03
             728            1411     30.3496E-03     30.6522E-03
             688            1411     30.3496E-03     30.6522E-03
             688            1412     25.9410E-03     33.3510E-03
             689            1412     25.9410E-03     33.3510E-03
             728            1412     25.9410E-03     33.3510E-03
             729            1412     25.9410E-03     33.3510E-03
             689            1413     29.6531E-03     29.6509E-03
             729            1413     29.6531E-03     29.6509E-03
             690            1413     29.6531E-03     29.6509E-03
             730            1413     29.6531E-03     29.6509E-03
             691            1414     29.4133E-03     27.1746E-03
             731            1414     29.4133E-03     27.1746E-03
             690            1414     29.4133E-03     27.1746E-03
             730            1414     29.4133E-03     27.1746E-03
             732            1415     23.6434E-03     26.3112E-03
             731            1415     23.6434E-03     26.3112E-03
             691            1415     23.6434E-03     26.3112E-03
             692            1415     23.6434E-03     26.3112E-03
             692            1416     22.2184E-03     22.3952E-03
             733            1416     22.2184E-03     22.3952E-03
             732            1416     22.2184E-03     22.3952E-03
             693            1416     22.2184E-03     22.3952E-03
             734            1417     19.9120E-03     20.3597E-03
             693            1417     19.9120E-03     20.3597E-03
             694            1417     19.9120E-03     20.3597E-03
             733            1417     19.9120E-03     20.3597E-03
             694            1418     17.6471E-03     18.2830E-03
             735            1418     17.6471E-03     18.2830E-03
             734            1418     17.6471E-03     18.2830E-03
             695            1418     17.6471E-03     18.2830E-03
             735            1419     16.1576E-03     16.2631E-03
             695            1419     16.1576E-03     16.2631E-03
             696            1419     16.1576E-03     16.2631E-03
             736            1419     16.1576E-03     16.2631E-03
             697            1420     14.6817E-03     15.0223E-03
             696            1420     14.6817E-03     15.0223E-03
             737            1420     14.6817E-03     15.0223E-03
             736            1420     14.6817E-03     15.0223E-03
             738            1421     14.0756E-03     14.3807E-03
             697            1421     14.0756E-03     14.3807E-03
             737            1421     14.0756E-03     14.3807E-03
             698            1421     14.0756E-03     14.3807E-03
             699            1422     13.7738E-03     14.0410E-03
             698            1422     13.7738E-03     14.0410E-03
             738            1422     13.7738E-03     14.0410E-03
             739            1422     13.7738E-03     14.0410E-03
             699            1423     12.1746E-03     13.6687E-03
             740            1423     12.1746E-03     13.6687E-03
             739            1423     12.1746E-03     13.6687E-03
             700            1423     12.1746E-03     13.6687E-03
             700            1424     12.1275E-03     12.1472E-03
             740            1424     12.1275E-03     12.1472E-03
             701            1424     12.1275E-03     12.1472E-03
             741            1424     12.1275E-03     12.1472E-03
             701            1425     11.7993E-03     10.9945E-03
             742            1425     11.7993E-03     10.9945E-03
             702            1425     11.7993E-03     10.9945E-03
             741            1425     11.7993E-03     10.9945E-03
             702            1426     10.3192E-03     10.7390E-03
             743            1426     10.3192E-03     10.7390E-03
             742            1426     10.3192E-03     10.7390E-03
             703            1426     10.3192E-03     10.7390E-03
             704            1427     10.1938E-03     10.2026E-03
             703            1427     10.1938E-03     10.2026E-03
             744            1427     10.1938E-03     10.2026E-03
             743            1427     10.1938E-03     10.2026E-03
             705            1428     74.0950E-03     84.0629E-03
             746            1428     74.0950E-03     84.0629E-03
             745            1428     74.0950E-03     84.0629E-03
             706            1428     74.0950E-03     84.0629E-03
             747            1429     85.1815E-03     84.0891E-03
             746            1429     85.1815E-03     84.0891E-03
             706            1429     85.1815E-03     84.0891E-03
             707            1429     85.1815E-03     84.0891E-03
             747            1430     82.5741E-03     78.1159E-03
             748            1430     82.5741E-03     78.1159E-03
             708            1430     82.5741E-03     78.1159E-03
             707            1430     82.5741E-03     78.1159E-03
             708            1431     71.1786E-03     76.6999E-03
             748            1431     71.1786E-03     76.6999E-03
             749            1431     71.1786E-03     76.6999E-03
             709            1431     71.1786E-03     76.6999E-03
             710            1432     69.7150E-03     69.7274E-03
             749            1432     69.7150E-03     69.7274E-03
             750            1432     69.7150E-03     69.7274E-03
             709            1432     69.7150E-03     69.7274E-03
             750            1433     65.5139E-03     67.1748E-03
             711            1433     65.5139E-03     67.1748E-03
             751            1433     65.5139E-03     67.1748E-03
             710            1433     65.5139E-03     67.1748E-03
             752            1434     62.1259E-03     63.6865E-03
             711            1434     62.1259E-03     63.6865E-03
             751            1434     62.1259E-03     63.6865E-03
             712            1434     62.1259E-03     63.6865E-03
             753            1435     59.5106E-03     59.7940E-03
             713            1435     59.5106E-03     59.7940E-03
             712            1435     59.5106E-03     59.7940E-03
             752            1435     59.5106E-03     59.7940E-03
             714            1436     55.4483E-03     58.3228E-03
             754            1436     55.4483E-03     58.3228E-03
             713            1436     55.4483E-03     58.3228E-03
             753            1436     55.4483E-03     58.3228E-03
             754            1437     56.9969E-03     54.5994E-03
             714            1437     56.9969E-03     54.5994E-03
             755            1437     56.9969E-03     54.5994E-03
             715            1437     56.9969E-03     54.5994E-03
             756            1438     55.7443E-03     53.7714E-03
             715            1438     55.7443E-03     53.7714E-03
             716            1438     55.7443E-03     53.7714E-03
             755            1438     55.7443E-03     53.7714E-03
             756            1439     51.8227E-03     62.1381E-03
             716            1439     51.8227E-03     62.1381E-03
             757            1439     51.8227E-03     62.1381E-03
             717            1439     51.8227E-03     62.1381E-03
             717            1440     59.8379E-03     59.2393E-03
             718            1440     59.8379E-03     59.2393E-03
             758            1440     59.8379E-03     59.2393E-03
             757            1440     59.8379E-03     59.2393E-03
             718            1441     57.6393E-03     54.4479E-03
             758            1441     57.6393E-03     54.4479E-03
             759            1441     57.6393E-03     54.4479E-03
             719            1441     57.6393E-03     54.4479E-03
             719            1442     48.9199E-03     52.8270E-03
             759            1442     48.9199E-03     52.8270E-03
             720            1442     48.9199E-03     52.8270E-03
             760            1442     48.9199E-03     52.8270E-03
             721            1443     47.2092E-03     47.2064E-03
             761            1443     47.2092E-03     47.2064E-03
             720            1443     47.2092E-03     47.2064E-03
             760            1443     47.2092E-03     47.2064E-03
             721            1444     43.6466E-03     44.6350E-03
             762            1444     43.6466E-03     44.6350E-03
             761            1444     43.6466E-03     44.6350E-03
             722            1444     43.6466E-03     44.6350E-03
             762            1445     40.4266E-03     41.4679E-03
             723            1445     40.4266E-03     41.4679E-03
             722            1445     40.4266E-03     41.4679E-03
             763            1445     40.4266E-03     41.4679E-03
             764            1446     37.6977E-03     38.3980E-03
             723            1446     37.6977E-03     38.3980E-03
             763            1446     37.6977E-03     38.3980E-03
             724            1446     37.6977E-03     38.3980E-03
             765            1447     35.0428E-03     35.2718E-03
             724            1447     35.0428E-03     35.2718E-03
             764            1447     35.0428E-03     35.2718E-03
             725            1447     35.0428E-03     35.2718E-03
             725            1448     31.9405E-03     33.1808E-03
             765            1448     31.9405E-03     33.1808E-03
             766            1448     31.9405E-03     33.1808E-03
             726            1448     31.9405E-03     33.1808E-03
             767            1449     31.6597E-03     30.3971E-03
             766            1449     31.6597E-03     30.3971E-03
             726            1449     31.6597E-03     30.3971E-03
             727            1449     31.6597E-03     30.3971E-03
             728            1450     30.6556E-03     29.2366E-03
             768            1450     30.6556E-03     29.2366E-03
             767            1450     30.6556E-03     29.2366E-03
             727            1450     30.6556E-03     29.2366E-03
             769            1451     29.1614E-03     34.5886E-03
             728            1451     29.1614E-03     34.5886E-03
             768            1451     29.1614E-03     34.5886E-03
             729            1451     29.1614E-03     34.5886E-03
             770            1452     33.7842E-03     33.6885E-03
             729            1452     33.7842E-03     33.6885E-03
             769            1452     33.7842E-03     33.6885E-03
             730            1452     33.7842E-03     33.6885E-03
             770            1453     31.7824E-03     29.8880E-03
             730            1453     31.7824E-03     29.8880E-03
             771            1453     31.7824E-03     29.8880E-03
             731            1453     31.7824E-03     29.8880E-03
             731            1454     25.6939E-03     27.9105E-03
             772            1454     25.6939E-03     27.9105E-03
             732            1454     25.6939E-03     27.9105E-03
             771            1454     25.6939E-03     27.9105E-03
             732            1455     23.6486E-03     23.5509E-03
             772            1455     23.6486E-03     23.5509E-03
             773            1455     23.6486E-03     23.5509E-03
             733            1455     23.6486E-03     23.5509E-03
             773            1456     20.5718E-03     21.0238E-03
             774            1456     20.5718E-03     21.0238E-03
             734            1456     20.5718E-03     21.0238E-03
             733            1456     20.5718E-03     21.0238E-03
             734            1457     17.8082E-03     18.1605E-03
             775            1457     17.8082E-03     18.1605E-03
             735            1457     17.8082E-03     18.1605E-03
             774            1457     17.8082E-03     18.1605E-03
             735            1458     15.3689E-03     15.4374E-03
             776            1458     15.3689E-03     15.4374E-03
             736            1458     15.3689E-03     15.4374E-03
             775            1458     15.3689E-03     15.4374E-03
             777            1459     13.0974E-03     12.9801E-03
             776            1459     13.0974E-03     12.9801E-03
             737            1459     13.0974E-03     12.9801E-03
             736            1459     13.0974E-03     12.9801E-03
             737            1460     11.6155E-03     11.2172E-03
             777            1460     11.6155E-03     11.2172E-03
             738            1460     11.6155E-03     11.2172E-03
             778            1460     11.6155E-03     11.2172E-03
             779            1461     11.2156E-03     10.5219E-03
             778            1461     11.2156E-03     10.5219E-03
             738            1461     11.2156E-03     10.5219E-03
             739            1461     11.2156E-03     10.5219E-03
             779            1462     10.9116E-03     12.3450E-03
             780            1462     10.9116E-03     12.3450E-03
             739            1462     10.9116E-03     12.3450E-03
             740            1462     10.9116E-03     12.3450E-03
             741            1463     11.1944E-03     11.5556E-03
             780            1463     11.1944E-03     11.5556E-03
             740            1463     11.1944E-03     11.5556E-03
             781            1463     11.1944E-03     11.5556E-03
             781            1464     9.21267E-03     7.97594E-03
             782            1464     9.21267E-03     7.97594E-03
             742            1464     9.21267E-03     7.97594E-03
             741            1464     9.21267E-03     7.97594E-03
             782            1465     6.09657E-03     6.39390E-03
             743            1465     6.09657E-03     6.39390E-03
             742            1465     6.09657E-03     6.39390E-03
             783            1465     6.09657E-03     6.39390E-03
             743            1466     6.04196E-03     6.52953E-03
             744            1466     6.04196E-03     6.52953E-03
             783            1466     6.04196E-03     6.52953E-03
             784            1466     6.04196E-03     6.52953E-03
            1761            2351     632.547E-06     621.633E-06
            1757            2351     632.547E-06     621.633E-06
            1762            2351     632.547E-06     621.633E-06
            1758            2351     632.547E-06     621.633E-06
            1759            2352     636.364E-06     627.315E-06
            1758            2352     636.364E-06     627.315E-06
            1763            2352     636.364E-06     627.315E-06
            1762            2352     636.364E-06     627.315E-06
            1760            2353     628.174E-06     624.082E-06
            1759            2353     628.174E-06     624.082E-06
            1763            2353     628.174E-06     624.082E-06
            1764            2353     628.174E-06     624.082E-06
            1765            2354     583.486E-06     576.813E-06
            1762            2354     583.486E-06     576.813E-06
            1766            2354     583.486E-06     576.813E-06
            1761            2354     583.486E-06     576.813E-06
            1766            2355     587.965E-06     577.850E-06
            1767            2355     587.965E-06     577.850E-06
            1762            2355     587.965E-06     577.850E-06
            1763            2355     587.965E-06     577.850E-06
            1767            2356     575.512E-06     572.367E-06
            1768            2356     575.512E-06     572.367E-06
            1763            2356     575.512E-06     572.367E-06
            1764            2356     575.512E-06     572.367E-06
            1769            2357     510.864E-06     507.907E-06
            1765            2357     510.864E-06     507.907E-06
            1770            2357     510.864E-06     507.907E-06
            1766            2357     510.864E-06     507.907E-06
            1766            2358     510.541E-06     496.016E-06
            1770            2358     510.541E-06     496.016E-06
            1771            2358     510.541E-06     496.016E-06
            1767            2358     510.541E-06     496.016E-06
            1771            2359     491.464E-06     490.046E-06
            1767            2359     491.464E-06     490.046E-06
            1772            2359     491.464E-06     490.046E-06
            1768            2359     491.464E-06     490.046E-06
            1773            2360     415.038E-06     418.698E-06
            1769            2360     415.038E-06     418.698E-06
            1770            2360     415.038E-06     418.698E-06
            1774            2360     415.038E-06     418.698E-06
            1770            2361     410.253E-06     396.137E-06
            1775            2361     410.253E-06     396.137E-06
            1774            2361     410.253E-06     396.137E-06
            1771            2361     410.253E-06     396.137E-06
            1772            2362     377.804E-06     385.431E-06
            1775            2362     377.804E-06     385.431E-06
            1771            2362     377.804E-06     385.431E-06
            1776            2362     377.804E-06     385.431E-06
            1773            2363     316.487E-06     324.635E-06
            1777            2363     316.487E-06     324.635E-06
            1774            2363     316.487E-06     324.635E-06
            1778            2363     316.487E-06     324.635E-06
            1775            2364     302.739E-06     275.460E-06
            1774            2364     302.739E-06     275.460E-06
            1779            2364     302.739E-06     275.460E-06
            1778            2364     302.739E-06     275.460E-06
            1779            2365     241.323E-06     259.563E-06
            1775            2365     241.323E-06     259.563E-06
            1776            2365     241.323E-06     259.563E-06
            1780            2365     241.323E-06     259.563E-06
            1782            2366     346.807E-06     356.476E-06
            1781            2366     346.807E-06     356.476E-06
            1777            2366     346.807E-06     356.476E-06
            1778            2366     346.807E-06     356.476E-06
            1778            2367     267.231E-06     227.605E-06
            1782            2367     267.231E-06     227.605E-06
            1783            2367     267.231E-06     227.605E-06
            1779            2367     267.231E-06     227.605E-06
            1780            2368     163.797E-06     216.392E-06
            1779            2368     163.797E-06     216.392E-06
            1783            2368     163.797E-06     216.392E-06
            1784            2368     163.797E-06     216.392E-06
            2349            2836     88.0758E-03     93.1997E-03
            2344            2836     88.0758E-03     93.1997E-03
            2343            2836     88.0758E-03     93.1997E-03
            2350            2836     88.0758E-03     93.1997E-03
            2351            2837     86.7919E-03     86.1695E-03
            2344            2837     86.7919E-03     86.1695E-03
            2350            2837     86.7919E-03     86.1695E-03
            2345            2837     86.7919E-03     86.1695E-03
            2351            2838     81.8352E-03     85.2850E-03
            2345            2838     81.8352E-03     85.2850E-03
            2352            2838     81.8352E-03     85.2850E-03
            2346            2838     81.8352E-03     85.2850E-03
            2347            2839     81.2084E-03     81.0347E-03
            2346            2839     81.2084E-03     81.0347E-03
            2353            2839     81.2084E-03     81.0347E-03
            2352            2839     81.2084E-03     81.0347E-03
            2353            2840     68.3165E-03     65.1175E-03
            2347            2840     68.3165E-03     65.1175E-03
            2354            2840     68.3165E-03     65.1175E-03
            2348            2840     68.3165E-03     65.1175E-03
            2356            2841     115.697E-03     119.128E-03
            2355            2841     115.697E-03     119.128E-03
            2349            2841     115.697E-03     119.128E-03
            2350            2841     115.697E-03     119.128E-03
            2351            2842     114.250E-03     112.228E-03
            2356            2842     114.250E-03     112.228E-03
            2357            2842     114.250E-03     112.228E-03
            2350            2842     114.250E-03     112.228E-03
            2351            2843     107.411E-03     110.966E-03
            2352            2843     107.411E-03     110.966E-03
            2357            2843     107.411E-03     110.966E-03
            2358            2843     107.411E-03     110.966E-03
            2353            2844     105.509E-03     105.126E-03
            2358            2844     105.509E-03     105.126E-03
            2359            2844     105.509E-03     105.126E-03
            2352            2844     105.509E-03     105.126E-03
            2359            2845     86.0563E-03     85.0984E-03
            2360            2845     86.0563E-03     85.0984E-03
            2354            2845     86.0563E-03     85.0984E-03
            2353            2845     86.0563E-03     85.0984E-03
            2361            2846     140.513E-03     143.232E-03
            2355            2846     140.513E-03     143.232E-03
            2356            2846     140.513E-03     143.232E-03
            2362            2846     140.513E-03     143.232E-03
            2362            2847     140.632E-03     137.696E-03
            2357            2847     140.632E-03     137.696E-03
            2356            2847     140.632E-03     137.696E-03
            2363            2847     140.632E-03     137.696E-03
            2358            2848     134.468E-03     137.133E-03
            2357            2848     134.468E-03     137.133E-03
            2363            2848     134.468E-03     137.133E-03
            2364            2848     134.468E-03     137.133E-03
            2364            2849     131.104E-03     129.375E-03
            2365            2849     131.104E-03     129.375E-03
            2359            2849     131.104E-03     129.375E-03
            2358            2849     131.104E-03     129.375E-03
            2360            2850     105.325E-03     104.608E-03
            2365            2850     105.325E-03     104.608E-03
            2359            2850     105.325E-03     104.608E-03
            2366            2850     105.325E-03     104.608E-03
            2367            2851     162.366E-03     166.623E-03
            2368            2851     162.366E-03     166.623E-03
            2362            2851     162.366E-03     166.623E-03
            2361            2851     162.366E-03     166.623E-03
            2368            2852     163.334E-03     160.440E-03
            2363            2852     163.334E-03     160.440E-03
            2369            2852     163.334E-03     160.440E-03
            2362            2852     163.334E-03     160.440E-03
            2370            2853     158.137E-03     158.636E-03
            2363            2853     158.137E-03     158.636E-03
            2364            2853     158.137E-03     158.636E-03
            2369            2853     158.137E-03     158.636E-03
            2371            2854     154.555E-03     149.678E-03
            2365            2854     154.555E-03     149.678E-03
            2370            2854     154.555E-03     149.678E-03
            2364            2854     154.555E-03     149.678E-03
            2365            2855     122.898E-03     122.035E-03
            2371            2855     122.898E-03     122.035E-03
            2366            2855     122.898E-03     122.035E-03
            2372            2855     122.898E-03     122.035E-03
            2374            2856     186.235E-03     188.093E-03
            2367            2856     186.235E-03     188.093E-03
            2373            2856     186.235E-03     188.093E-03
            2368            2856     186.235E-03     188.093E-03
            2374            2857     182.652E-03     181.224E-03
            2375            2857     182.652E-03     181.224E-03
            2368            2857     182.652E-03     181.224E-03
            2369            2857     182.652E-03     181.224E-03
            2369            2858     173.704E-03     176.049E-03
            2375            2858     173.704E-03     176.049E-03
            2376            2858     173.704E-03     176.049E-03
            2370            2858     173.704E-03     176.049E-03
            2371            2859     168.974E-03     165.598E-03
            2370            2859     168.974E-03     165.598E-03
            2376            2859     168.974E-03     165.598E-03
            2377            2859     168.974E-03     165.598E-03
            2377            2860     134.637E-03     136.345E-03
            2372            2860     134.637E-03     136.345E-03
            2378            2860     134.637E-03     136.345E-03
            2371            2860     134.637E-03     136.345E-03
            2373            2861     210.543E-03     206.602E-03
            2379            2861     210.543E-03     206.602E-03
            2380            2861     210.543E-03     206.602E-03
            2374            2861     210.543E-03     206.602E-03
            2375            2862     200.177E-03     198.230E-03
            2381            2862     200.177E-03     198.230E-03
            2374            2862     200.177E-03     198.230E-03
            2380            2862     200.177E-03     198.230E-03
            2382            2863     184.009E-03     188.232E-03
            2381            2863     184.009E-03     188.232E-03
            2376            2863     184.009E-03     188.232E-03
            2375            2863     184.009E-03     188.232E-03
            2383            2864     173.179E-03     175.984E-03
            2377            2864     173.179E-03     175.984E-03
            2382            2864     173.179E-03     175.984E-03
            2376            2864     173.179E-03     175.984E-03
            2377            2865     138.023E-03     144.012E-03
            2383            2865     138.023E-03     144.012E-03
            2378            2865     138.023E-03     144.012E-03
            2384            2865     138.023E-03     144.012E-03
            3502            3869     21.2047E-03     19.9500E-03
            3551            3869     21.2047E-03     19.9500E-03
            3552            3869     21.2047E-03     19.9500E-03
            3501            3869     21.2047E-03     19.9500E-03
            3502            3870     21.2752E-03     21.5287E-03
            3553            3870     21.2752E-03     21.5287E-03
            3552            3870     21.2752E-03     21.5287E-03
            3503            3870     21.2752E-03     21.5287E-03
            3503            3871     20.2659E-03     21.4040E-03
            3554            3871     20.2659E-03     21.4040E-03
            3504            3871     20.2659E-03     21.4040E-03
            3553            3871     20.2659E-03     21.4040E-03
            3504            3872     20.7897E-03     20.8657E-03
            3554            3872     20.7897E-03     20.8657E-03
            3555            3872     20.7897E-03     20.8657E-03
            3505            3872     20.7897E-03     20.8657E-03
            3555            3873     20.7173E-03     20.6763E-03
            3556            3873     20.7173E-03     20.6763E-03
            3506            3873     20.7173E-03     20.6763E-03
            3505            3873     20.7173E-03     20.6763E-03
            3557            3874     20.6036E-03     20.3741E-03
            3507            3874     20.6036E-03     20.3741E-03
            3506            3874     20.6036E-03     20.3741E-03
            3556            3874     20.6036E-03     20.3741E-03
            3558            3875     20.7299E-03     20.0408E-03
            3507            3875     20.7299E-03     20.0408E-03
            3557            3875     20.7299E-03     20.0408E-03
            3508            3875     20.7299E-03     20.0408E-03
            3509            3876     20.4697E-03     19.5017E-03
            3559            3876     20.4697E-03     19.5017E-03
            3558            3876     20.4697E-03     19.5017E-03
            3508            3876     20.4697E-03     19.5017E-03
            3510            3877     20.0244E-03     20.2667E-03
            3559            3877     20.0244E-03     20.2667E-03
            3560            3877     20.0244E-03     20.2667E-03
            3509            3877     20.0244E-03     20.2667E-03
            3511            3878     18.9554E-03     19.2417E-03
            3561            3878     18.9554E-03     19.2417E-03
            3510            3878     18.9554E-03     19.2417E-03
            3560            3878     18.9554E-03     19.2417E-03
            3511            3879     19.1193E-03     18.0762E-03
            3561            3879     19.1193E-03     18.0762E-03
            3562            3879     19.1193E-03     18.0762E-03
            3512            3879     19.1193E-03     18.0762E-03
            3562            3880     19.1123E-03     19.3251E-03
            3563            3880     19.1123E-03     19.3251E-03
            3513            3880     19.1123E-03     19.3251E-03
            3512            3880     19.1123E-03     19.3251E-03
            3513            3881     18.2833E-03     19.1773E-03
            3563            3881     18.2833E-03     19.1773E-03
            3564            3881     18.2833E-03     19.1773E-03
            3514            3881     18.2833E-03     19.1773E-03
            3514            3882     18.6033E-03     18.7321E-03
            3565            3882     18.6033E-03     18.7321E-03
            3515            3882     18.6033E-03     18.7321E-03
            3564            3882     18.6033E-03     18.7321E-03
            3516            3883     18.5227E-03     18.6183E-03
            3565            3883     18.5227E-03     18.6183E-03
            3515            3883     18.5227E-03     18.6183E-03
            3566            3883     18.5227E-03     18.6183E-03
            3516            3884     18.4162E-03     18.2759E-03
            3517            3884     18.4162E-03     18.2759E-03
            3567            3884     18.4162E-03     18.2759E-03
            3566            3884     18.4162E-03     18.2759E-03
            3568            3885     18.3769E-03     18.0256E-03
            3517            3885     18.3769E-03     18.0256E-03
            3518            3885     18.3769E-03     18.0256E-03
            3567            3885     18.3769E-03     18.0256E-03
            3518            3886     18.4490E-03     17.8245E-03
            3569            3886     18.4490E-03     17.8245E-03
            3568            3886     18.4490E-03     17.8245E-03
            3519            3886     18.4490E-03     17.8245E-03
            3570            3887     18.2073E-03     17.4447E-03
            3519            3887     18.2073E-03     17.4447E-03
            3520            3887     18.2073E-03     17.4447E-03
            3569            3887     18.2073E-03     17.4447E-03
            3520            3888     17.9296E-03     18.0170E-03
            3571            3888     17.9296E-03     18.0170E-03
            3570            3888     17.9296E-03     18.0170E-03
            3521            3888     17.9296E-03     18.0170E-03
            3522            3889     17.0322E-03     17.1262E-03
            3571            3889     17.0322E-03     17.1262E-03
            3521            3889     17.0322E-03     17.1262E-03
            3572            3889     17.0322E-03     17.1262E-03
            3572            3890     16.9777E-03     16.1980E-03
            3523            3890     16.9777E-03     16.1980E-03
            3522            3890     16.9777E-03     16.1980E-03
            3573            3890     16.9777E-03     16.1980E-03
            3574            3891     16.9481E-03     17.0798E-03
            3573            3891     16.9481E-03     17.0798E-03
            3523            3891     16.9481E-03     17.0798E-03
            3524            3891     16.9481E-03     17.0798E-03
            3524            3892     16.3371E-03     16.9328E-03
            3574            3892     16.3371E-03     16.9328E-03
            3575            3892     16.3371E-03     16.9328E-03
            3525            3892     16.3371E-03     16.9328E-03
            3525            3893     16.5339E-03     16.6041E-03
            3526            3893     16.5339E-03     16.6041E-03
            3576            3893     16.5339E-03     16.6041E-03
            3575            3893     16.5339E-03     16.6041E-03
            3526            3894     16.4556E-03     16.5192E-03
            3576            3894     16.4556E-03     16.5192E-03
            3527            3894     16.4556E-03     16.5192E-03
            3577            3894     16.4556E-03     16.5192E-03
            3528            3895     16.3779E-03     16.2837E-03
            3578            3895     16.3779E-03     16.2837E-03
            3527            3895     16.3779E-03     16.2837E-03
            3577            3895     16.3779E-03     16.2837E-03
            3528            3896     16.3645E-03     16.1122E-03
            3529            3896     16.3645E-03     16.1122E-03
            3578            3896     16.3645E-03     16.1122E-03
            3579            3896     16.3645E-03     16.1122E-03
            3529            3897     16.4185E-03     15.9849E-03
            3530            3897     16.4185E-03     15.9849E-03
            3580            3897     16.4185E-03     15.9849E-03
            3579            3897     16.4185E-03     15.9849E-03
            3530            3898     16.2768E-03     15.7709E-03
            3531            3898     16.2768E-03     15.7709E-03
            3580            3898     16.2768E-03     15.7709E-03
            3581            3898     16.2768E-03     15.7709E-03
            3532            3899     16.1097E-03     16.0863E-03
            3582            3899     16.1097E-03     16.0863E-03
            3581            3899     16.1097E-03     16.0863E-03
            3531            3899     16.1097E-03     16.0863E-03
            3532            3900     15.3251E-03     15.2712E-03
            3533            3900     15.3251E-03     15.2712E-03
            3582            3900     15.3251E-03     15.2712E-03
            3583            3900     15.3251E-03     15.2712E-03
            3584            3901     15.0375E-03     14.5018E-03
            3534            3901     15.0375E-03     14.5018E-03
            3583            3901     15.0375E-03     14.5018E-03
            3533            3901     15.0375E-03     14.5018E-03
            3534            3902     15.0108E-03     15.0455E-03
            3535            3902     15.0108E-03     15.0455E-03
            3584            3902     15.0108E-03     15.0455E-03
            3585            3902     15.0108E-03     15.0455E-03
            3586            3903     14.6138E-03     14.9325E-03
            3535            3903     14.6138E-03     14.9325E-03
            3536            3903     14.6138E-03     14.9325E-03
            3585            3903     14.6138E-03     14.9325E-03
            3586            3904     14.7126E-03     14.7251E-03
            3587            3904     14.7126E-03     14.7251E-03
            3537            3904     14.7126E-03     14.7251E-03
            3536            3904     14.7126E-03     14.7251E-03
            3587            3905     14.6479E-03     14.6808E-03
            3538            3905     14.6479E-03     14.6808E-03
            3588            3905     14.6479E-03     14.6808E-03
            3537            3905     14.6479E-03     14.6808E-03
            3538            3906     14.6021E-03     14.5529E-03
            3589            3906     14.6021E-03     14.5529E-03
            3588            3906     14.6021E-03     14.5529E-03
            3539            3906     14.6021E-03     14.5529E-03
            3590            3907     14.6091E-03     14.4526E-03
            3540            3907     14.6091E-03     14.4526E-03
            3589            3907     14.6091E-03     14.4526E-03
            3539            3907     14.6091E-03     14.4526E-03
            3591            3908     14.6306E-03     14.4031E-03
            3541            3908     14.6306E-03     14.4031E-03
            3540            3908     14.6306E-03     14.4031E-03
            3590            3908     14.6306E-03     14.4031E-03
            3541            3909     14.6061E-03     14.3210E-03
            3542            3909     14.6061E-03     14.3210E-03
            3592            3909     14.6061E-03     14.3210E-03
            3591            3909     14.6061E-03     14.3210E-03
            3593            3910     14.5259E-03     14.3805E-03
            3592            3910     14.5259E-03     14.3805E-03
            3543            3910     14.5259E-03     14.3805E-03
            3542            3910     14.5259E-03     14.3805E-03
            3543            3911     13.6764E-03     13.5635E-03
            3544            3911     13.6764E-03     13.5635E-03
            3594            3911     13.6764E-03     13.5635E-03
            3593            3911     13.6764E-03     13.5635E-03
            3594            3912     13.0786E-03     12.8257E-03
            3595            3912     13.0786E-03     12.8257E-03
            3544            3912     13.0786E-03     12.8257E-03
            3545            3912     13.0786E-03     12.8257E-03
            3546            3913     13.0977E-03     13.0347E-03
            3595            3913     13.0977E-03     13.0347E-03
            3596            3913     13.0977E-03     13.0347E-03
            3545            3913     13.0977E-03     13.0347E-03
            3597            3914     12.9608E-03     12.9813E-03
            3547            3914     12.9608E-03     12.9813E-03
            3546            3914     12.9608E-03     12.9813E-03
            3596            3914     12.9608E-03     12.9813E-03
            3548            3915     13.0073E-03     12.9392E-03
            3547            3915     13.0073E-03     12.9392E-03
            3597            3915     13.0073E-03     12.9392E-03
            3598            3915     13.0073E-03     12.9392E-03
            3599            3916     13.0418E-03     12.9513E-03
            3548            3916     13.0418E-03     12.9513E-03
            3549            3916     13.0418E-03     12.9513E-03
            3598            3916     13.0418E-03     12.9513E-03
            3550            3917     12.9991E-03     12.8902E-03
            3600            3917     12.9991E-03     12.8902E-03
            3549            3917     12.9991E-03     12.8902E-03
            3599            3917     12.9991E-03     12.8902E-03
            3551            3918     27.8602E-03     25.9168E-03
            3552            3918     27.8602E-03     25.9168E-03
            3601            3918     27.8602E-03     25.9168E-03
            3602            3918     27.8602E-03     25.9168E-03
            3552            3919     28.7129E-03     27.5377E-03
            3602            3919     28.7129E-03     27.5377E-03
            3603            3919     28.7129E-03     27.5377E-03
            3553            3919     28.7129E-03     27.5377E-03
            3604            3920     26.8565E-03     27.7949E-03
            3554            3920     26.8565E-03     27.7949E-03
            3603            3920     26.8565E-03     27.7949E-03
            3553            3920     26.8565E-03     27.7949E-03
            3604            3921     27.0650E-03     26.6123E-03
            3605            3921     27.0650E-03     26.6123E-03
            3554            3921     27.0650E-03     26.6123E-03
            3555            3921     27.0650E-03     26.6123E-03
            3556            3922     26.4765E-03     26.2594E-03
            3605            3922     26.4765E-03     26.2594E-03
            3606            3922     26.4765E-03     26.2594E-03
            3555            3922     26.4765E-03     26.2594E-03
            3557            3923     25.5250E-03     25.6465E-03
            3556            3923     25.5250E-03     25.6465E-03
            3607            3923     25.5250E-03     25.6465E-03
            3606            3923     25.5250E-03     25.6465E-03
            3608            3924     24.8340E-03     25.1003E-03
            3558            3924     24.8340E-03     25.1003E-03
            3607            3924     24.8340E-03     25.1003E-03
            3557            3924     24.8340E-03     25.1003E-03
            3559            3925     24.4469E-03     23.6607E-03
            3608            3925     24.4469E-03     23.6607E-03
            3609            3925     24.4469E-03     23.6607E-03
            3558            3925     24.4469E-03     23.6607E-03
            3609            3926     23.2966E-03     23.4368E-03
            3560            3926     23.2966E-03     23.4368E-03
            3610            3926     23.2966E-03     23.4368E-03
            3559            3926     23.2966E-03     23.4368E-03
            3561            3927     21.6987E-03     22.9145E-03
            3610            3927     21.6987E-03     22.9145E-03
            3560            3927     21.6987E-03     22.9145E-03
            3611            3927     21.6987E-03     22.9145E-03
            3562            3928     23.3234E-03     21.6843E-03
            3612            3928     23.3234E-03     21.6843E-03
            3611            3928     23.3234E-03     21.6843E-03
            3561            3928     23.3234E-03     21.6843E-03
            3562            3929     23.8779E-03     22.8901E-03
            3612            3929     23.8779E-03     22.8901E-03
            3563            3929     23.8779E-03     22.8901E-03
            3613            3929     23.8779E-03     22.8901E-03
            3563            3930     22.4266E-03     22.9032E-03
            3613            3930     22.4266E-03     22.9032E-03
            3614            3930     22.4266E-03     22.9032E-03
            3564            3930     22.4266E-03     22.9032E-03
            3564            3931     22.5458E-03     21.9634E-03
            3615            3931     22.5458E-03     21.9634E-03
            3614            3931     22.5458E-03     21.9634E-03
            3565            3931     22.5458E-03     21.9634E-03
            3565            3932     22.0241E-03     21.7976E-03
            3615            3932     22.0241E-03     21.7976E-03
            3616            3932     22.0241E-03     21.7976E-03
            3566            3932     22.0241E-03     21.7976E-03
            3566            3933     21.3571E-03     21.3653E-03
            3617            3933     21.3571E-03     21.3653E-03
            3567            3933     21.3571E-03     21.3653E-03
            3616            3933     21.3571E-03     21.3653E-03
            3618            3934     20.8277E-03     20.9037E-03
            3568            3934     20.8277E-03     20.9037E-03
            3617            3934     20.8277E-03     20.9037E-03
            3567            3934     20.8277E-03     20.9037E-03
            3569            3935     20.2841E-03     20.5173E-03
            3619            3935     20.2841E-03     20.5173E-03
            3618            3935     20.2841E-03     20.5173E-03
            3568            3935     20.2841E-03     20.5173E-03
            3619            3936     19.9518E-03     19.5482E-03
            3620            3936     19.9518E-03     19.5482E-03
            3569            3936     19.9518E-03     19.5482E-03
            3570            3936     19.9518E-03     19.5482E-03
            3620            3937     19.2703E-03     19.5057E-03
            3570            3937     19.2703E-03     19.5057E-03
            3621            3937     19.2703E-03     19.5057E-03
            3571            3937     19.2703E-03     19.5057E-03
            3572            3938     18.2496E-03     18.8499E-03
            3621            3938     18.2496E-03     18.8499E-03
            3571            3938     18.2496E-03     18.8499E-03
            3622            3938     18.2496E-03     18.8499E-03
            3573            3939     19.0901E-03     17.8742E-03
            3572            3939     19.0901E-03     17.8742E-03
            3623            3939     19.0901E-03     17.8742E-03
            3622            3939     19.0901E-03     17.8742E-03
            3574            3940     19.3805E-03     18.7390E-03
            3573            3940     19.3805E-03     18.7390E-03
            3623            3940     19.3805E-03     18.7390E-03
            3624            3940     19.3805E-03     18.7390E-03
            3625            3941     18.3891E-03     18.6267E-03
            3574            3941     18.3891E-03     18.6267E-03
            3575            3941     18.3891E-03     18.6267E-03
            3624            3941     18.3891E-03     18.6267E-03
            3575            3942     18.4161E-03     18.0169E-03
            3576            3942     18.4161E-03     18.0169E-03
            3625            3942     18.4161E-03     18.0169E-03
            3626            3942     18.4161E-03     18.0169E-03
            3627            3943     18.0311E-03     17.9180E-03
            3576            3943     18.0311E-03     17.9180E-03
            3577            3943     18.0311E-03     17.9180E-03
            3626            3943     18.0311E-03     17.9180E-03
            3578            3944     17.5661E-03     17.6335E-03
            3577            3944     17.5661E-03     17.6335E-03
            3627            3944     17.5661E-03     17.6335E-03
            3628            3944     17.5661E-03     17.6335E-03
            3579            3945     17.2212E-03     17.3373E-03
            3578            3945     17.2212E-03     17.3373E-03
            3629            3945     17.2212E-03     17.3373E-03
            3628            3945     17.2212E-03     17.3373E-03
            3580            3946     16.9111E-03     17.0353E-03
            3579            3946     16.9111E-03     17.0353E-03
            3630            3946     16.9111E-03     17.0353E-03
            3629            3946     16.9111E-03     17.0353E-03
            3581            3947     16.6563E-03     16.4875E-03
            3580            3947     16.6563E-03     16.4875E-03
            3631            3947     16.6563E-03     16.4875E-03
            3630            3947     16.6563E-03     16.4875E-03
            3582            3948     16.3171E-03     16.4931E-03
            3631            3948     16.3171E-03     16.4931E-03
            3632            3948     16.3171E-03     16.4931E-03
            3581            3948     16.3171E-03     16.4931E-03
            3583            3949     15.6134E-03     15.7427E-03
            3633            3949     15.6134E-03     15.7427E-03
            3582            3949     15.6134E-03     15.7427E-03
            3632            3949     15.6134E-03     15.7427E-03
            3583            3950     15.7858E-03     14.9860E-03
            3633            3950     15.7858E-03     14.9860E-03
            3634            3950     15.7858E-03     14.9860E-03
            3584            3950     15.7858E-03     14.9860E-03
            3634            3951     15.8999E-03     15.5432E-03
            3584            3951     15.8999E-03     15.5432E-03
            3635            3951     15.8999E-03     15.5432E-03
            3585            3951     15.8999E-03     15.5432E-03
            3635            3952     15.3294E-03     15.4094E-03
            3586            3952     15.3294E-03     15.4094E-03
            3585            3952     15.3294E-03     15.4094E-03
            3636            3952     15.3294E-03     15.4094E-03
            3587            3953     15.3205E-03     15.1084E-03
            3636            3953     15.3205E-03     15.1084E-03
            3637            3953     15.3205E-03     15.1084E-03
            3586            3953     15.3205E-03     15.1084E-03
            3587            3954     15.0946E-03     15.0868E-03
            3637            3954     15.0946E-03     15.0868E-03
            3588            3954     15.0946E-03     15.0868E-03
            3638            3954     15.0946E-03     15.0868E-03
            3588            3955     14.8494E-03     14.9467E-03
            3589            3955     14.8494E-03     14.9467E-03
            3639            3955     14.8494E-03     14.9467E-03
            3638            3955     14.8494E-03     14.9467E-03
            3590            3956     14.6930E-03     14.7859E-03
            3639            3956     14.6930E-03     14.7859E-03
            3589            3956     14.6930E-03     14.7859E-03
            3640            3956     14.6930E-03     14.7859E-03
            3591            3957     14.5644E-03     14.6142E-03
            3640            3957     14.5644E-03     14.6142E-03
            3641            3957     14.5644E-03     14.6142E-03
            3590            3957     14.5644E-03     14.6142E-03
            3641            3958     14.4771E-03     14.4011E-03
            3591            3958     14.4771E-03     14.4011E-03
            3642            3958     14.4771E-03     14.4011E-03
            3592            3958     14.4771E-03     14.4011E-03
            3642            3959     14.3581E-03     14.3500E-03
            3593            3959     14.3581E-03     14.3500E-03
            3592            3959     14.3581E-03     14.3500E-03
            3643            3959     14.3581E-03     14.3500E-03
            3593            3960     13.7175E-03     13.6335E-03
            3594            3960     13.7175E-03     13.6335E-03
            3644            3960     13.7175E-03     13.6335E-03
            3643            3960     13.7175E-03     13.6335E-03
            3644            3961     13.3554E-03     13.0721E-03
            3645            3961     13.3554E-03     13.0721E-03
            3595            3961     13.3554E-03     13.0721E-03
            3594            3961     13.3554E-03     13.0721E-03
            3645            3962     13.3837E-03     13.3431E-03
            3646            3962     13.3837E-03     13.3431E-03
            3595            3962     13.3837E-03     13.3431E-03
            3596            3962     13.3837E-03     13.3431E-03
            3597            3963     13.1998E-03     13.2504E-03
            3596            3963     13.1998E-03     13.2504E-03
            3647            3963     13.1998E-03     13.2504E-03
            3646            3963     13.1998E-03     13.2504E-03
            3648            3964     13.2186E-03     13.1671E-03
            3597            3964     13.2186E-03     13.1671E-03
            3647            3964     13.2186E-03     13.1671E-03
            3598            3964     13.2186E-03     13.1671E-03
            3649            3965     13.2609E-03     13.1744E-03
            3599            3965     13.2609E-03     13.1744E-03
            3598            3965     13.2609E-03     13.1744E-03
            3648            3965     13.2609E-03     13.1744E-03
            3650            3966     13.2026E-03     13.0607E-03
            3649            3966     13.2026E-03     13.0607E-03
            3599            3966     13.2026E-03     13.0607E-03
            3600            3966     13.2026E-03     13.0607E-03
            3652            3967     43.2065E-03     40.9031E-03
            3601            3967     43.2065E-03     40.9031E-03
            3602            3967     43.2065E-03     40.9031E-03
            3651            3967     43.2065E-03     40.9031E-03
            3653            3968     44.6376E-03     40.6654E-03
            3652            3968     44.6376E-03     40.6654E-03
            3602            3968     44.6376E-03     40.6654E-03
            3603            3968     44.6376E-03     40.6654E-03
            3654            3969     39.6157E-03     40.7552E-03
            3653            3969     39.6157E-03     40.7552E-03
            3603            3969     39.6157E-03     40.7552E-03
            3604            3969     39.6157E-03     40.7552E-03
            3655            3970     39.0912E-03     37.8467E-03
            3604            3970     39.0912E-03     37.8467E-03
            3605            3970     39.0912E-03     37.8467E-03
            3654            3970     39.0912E-03     37.8467E-03
            3656            3971     37.8914E-03     37.0724E-03
            3655            3971     37.8914E-03     37.0724E-03
            3605            3971     37.8914E-03     37.0724E-03
            3606            3971     37.8914E-03     37.0724E-03
            3657            3972     36.3036E-03     36.2874E-03
            3656            3972     36.3036E-03     36.2874E-03
            3606            3972     36.3036E-03     36.2874E-03
            3607            3972     36.3036E-03     36.2874E-03
            3658            3973     34.8576E-03     36.3959E-03
            3657            3973     34.8576E-03     36.3959E-03
            3607            3973     34.8576E-03     36.3959E-03
            3608            3973     34.8576E-03     36.3959E-03
            3659            3974     35.5619E-03     34.4565E-03
            3608            3974     35.5619E-03     34.4565E-03
            3609            3974     35.5619E-03     34.4565E-03
            3658            3974     35.5619E-03     34.4565E-03
            3660            3975     33.2797E-03     33.4166E-03
            3659            3975     33.2797E-03     33.4166E-03
            3609            3975     33.2797E-03     33.4166E-03
            3610            3975     33.2797E-03     33.4166E-03
            3660            3976     29.5096E-03     34.6108E-03
            3610            3976     29.5096E-03     34.6108E-03
            3611            3976     29.5096E-03     34.6108E-03
            3661            3976     29.5096E-03     34.6108E-03
            3662            3977     34.1349E-03     32.2366E-03
            3661            3977     34.1349E-03     32.2366E-03
            3611            3977     34.1349E-03     32.2366E-03
            3612            3977     34.1349E-03     32.2366E-03
            3663            3978     35.0091E-03     31.9279E-03
            3662            3978     35.0091E-03     31.9279E-03
            3612            3978     35.0091E-03     31.9279E-03
            3613            3978     35.0091E-03     31.9279E-03
            3664            3979     31.0308E-03     31.7664E-03
            3663            3979     31.0308E-03     31.7664E-03
            3613            3979     31.0308E-03     31.7664E-03
            3614            3979     31.0308E-03     31.7664E-03
            3665            3980     30.5256E-03     29.3206E-03
            3614            3980     30.5256E-03     29.3206E-03
            3615            3980     30.5256E-03     29.3206E-03
            3664            3980     30.5256E-03     29.3206E-03
            3666            3981     29.2736E-03     28.7236E-03
            3665            3981     29.2736E-03     28.7236E-03
            3615            3981     29.2736E-03     28.7236E-03
            3616            3981     29.2736E-03     28.7236E-03
            3667            3982     28.0605E-03     27.9892E-03
            3616            3982     28.0605E-03     27.9892E-03
            3617            3982     28.0605E-03     27.9892E-03
            3666            3982     28.0605E-03     27.9892E-03
            3668            3983     27.1792E-03     27.2600E-03
            3667            3983     27.1792E-03     27.2600E-03
            3617            3983     27.1792E-03     27.2600E-03
            3618            3983     27.1792E-03     27.2600E-03
            3669            3984     26.0311E-03     27.3408E-03
            3668            3984     26.0311E-03     27.3408E-03
            3618            3984     26.0311E-03     27.3408E-03
            3619            3984     26.0311E-03     27.3408E-03
            3670            3985     26.2070E-03     25.9253E-03
            3619            3985     26.2070E-03     25.9253E-03
            3620            3985     26.2070E-03     25.9253E-03
            3669            3985     26.2070E-03     25.9253E-03
            3670            3986     24.7692E-03     25.1924E-03
            3620            3986     24.7692E-03     25.1924E-03
            3671            3986     24.7692E-03     25.1924E-03
            3621            3986     24.7692E-03     25.1924E-03
            3622            3987     22.4086E-03     25.5829E-03
            3671            3987     22.4086E-03     25.5829E-03
            3672            3987     22.4086E-03     25.5829E-03
            3621            3987     22.4086E-03     25.5829E-03
            3672            3988     25.2378E-03     23.7706E-03
            3623            3988     25.2378E-03     23.7706E-03
            3622            3988     25.2378E-03     23.7706E-03
            3673            3988     25.2378E-03     23.7706E-03
            3624            3989     25.6522E-03     23.5316E-03
            3674            3989     25.6522E-03     23.5316E-03
            3623            3989     25.6522E-03     23.5316E-03
            3673            3989     25.6522E-03     23.5316E-03
            3625            3990     22.8998E-03     23.2520E-03
            3624            3990     22.8998E-03     23.2520E-03
            3674            3990     22.8998E-03     23.2520E-03
            3675            3990     22.8998E-03     23.2520E-03
            3676            3991     22.4590E-03     21.6249E-03
            3625            3991     22.4590E-03     21.6249E-03
            3675            3991     22.4590E-03     21.6249E-03
            3626            3991     22.4590E-03     21.6249E-03
            3677            3992     21.5403E-03     21.1826E-03
            3676            3992     21.5403E-03     21.1826E-03
            3626            3992     21.5403E-03     21.1826E-03
            3627            3992     21.5403E-03     21.1826E-03
            3628            3993     20.6145E-03     20.6419E-03
            3627            3993     20.6145E-03     20.6419E-03
            3678            3993     20.6145E-03     20.6419E-03
            3677            3993     20.6145E-03     20.6419E-03
            3628            3994     19.9040E-03     20.1225E-03
            3629            3994     19.9040E-03     20.1225E-03
            3678            3994     19.9040E-03     20.1225E-03
            3679            3994     19.9040E-03     20.1225E-03
            3629            3995     19.0990E-03     19.9499E-03
            3680            3995     19.0990E-03     19.9499E-03
            3630            3995     19.0990E-03     19.9499E-03
            3679            3995     19.0990E-03     19.9499E-03
            3631            3996     18.8240E-03     19.0430E-03
            3630            3996     18.8240E-03     19.0430E-03
            3681            3996     18.8240E-03     19.0430E-03
            3680            3996     18.8240E-03     19.0430E-03
            3631            3997     18.0327E-03     18.5331E-03
            3632            3997     18.0327E-03     18.5331E-03
            3681            3997     18.0327E-03     18.5331E-03
            3682            3997     18.0327E-03     18.5331E-03
            3682            3998     16.8384E-03     18.2799E-03
            3683            3998     16.8384E-03     18.2799E-03
            3632            3998     16.8384E-03     18.2799E-03
            3633            3998     16.8384E-03     18.2799E-03
            3684            3999     18.1036E-03     17.1128E-03
            3683            3999     18.1036E-03     17.1128E-03
            3633            3999     18.1036E-03     17.1128E-03
            3634            3999     18.1036E-03     17.1128E-03
            3635            4000     18.1837E-03     16.9870E-03
            3634            4000     18.1837E-03     16.9870E-03
            3684            4000     18.1837E-03     16.9870E-03
            3685            4000     18.1837E-03     16.9870E-03
            3635            4001     16.6168E-03     16.7180E-03
            3686            4001     16.6168E-03     16.7180E-03
            3636            4001     16.6168E-03     16.7180E-03
            3685            4001     16.6168E-03     16.7180E-03
            3637            4002     16.3284E-03     15.8808E-03
            3636            4002     16.3284E-03     15.8808E-03
            3687            4002     16.3284E-03     15.8808E-03
            3686            4002     16.3284E-03     15.8808E-03
            3637            4003     15.8039E-03     15.6329E-03
            3638            4003     15.8039E-03     15.6329E-03
            3687            4003     15.8039E-03     15.6329E-03
            3688            4003     15.8039E-03     15.6329E-03
            3638            4004     15.2557E-03     15.3269E-03
            3689            4004     15.2557E-03     15.3269E-03
            3639            4004     15.2557E-03     15.3269E-03
            3688            4004     15.2557E-03     15.3269E-03
            3689            4005     14.8137E-03     15.0404E-03
            3690            4005     14.8137E-03     15.0404E-03
            3639            4005     14.8137E-03     15.0404E-03
            3640            4005     14.8137E-03     15.0404E-03
            3691            4006     14.3734E-03     14.8068E-03
            3690            4006     14.3734E-03     14.8068E-03
            3641            4006     14.3734E-03     14.8068E-03
            3640            4006     14.3734E-03     14.8068E-03
            3642            4007     14.0160E-03     14.3875E-03
            3641            4007     14.0160E-03     14.3875E-03
            3691            4007     14.0160E-03     14.3875E-03
            3692            4007     14.0160E-03     14.3875E-03
            3693            4008     13.7590E-03     14.0838E-03
            3642            4008     13.7590E-03     14.0838E-03
            3643            4008     13.7590E-03     14.0838E-03
            3692            4008     13.7590E-03     14.0838E-03
            3694            4009     13.3082E-03     13.4659E-03
            3643            4009     13.3082E-03     13.4659E-03
            3644            4009     13.3082E-03     13.4659E-03
            3693            4009     13.3082E-03     13.4659E-03
            3644            4010     13.3403E-03     12.9194E-03
            3695            4010     13.3403E-03     12.9194E-03
            3694            4010     13.3403E-03     12.9194E-03
            3645            4010     13.3403E-03     12.9194E-03
            3646            4011     13.2891E-03     13.0417E-03
            3696            4011     13.2891E-03     13.0417E-03
            3645            4011     13.2891E-03     13.0417E-03
            3695            4011     13.2891E-03     13.0417E-03
            3697            4012     12.8454E-03     12.9840E-03
            3647            4012     12.8454E-03     12.9840E-03
            3696            4012     12.8454E-03     12.9840E-03
            3646            4012     12.8454E-03     12.9840E-03
            3647            4013     12.7555E-03     12.8291E-03
            3698            4013     12.7555E-03     12.8291E-03
            3648            4013     12.7555E-03     12.8291E-03
            3697            4013     12.7555E-03     12.8291E-03
            3648            4014     12.7092E-03     12.7326E-03
            3649            4014     12.7092E-03     12.7326E-03
            3699            4014     12.7092E-03     12.7326E-03
            3698            4014     12.7092E-03     12.7326E-03
            3700            4015     12.6453E-03     12.5456E-03
            3650            4015     12.6453E-03     12.5456E-03
            3649            4015     12.6453E-03     12.5456E-03
            3699            4015     12.6453E-03     12.5456E-03
            3702            4016     58.8633E-03     57.3115E-03
            3651            4016     58.8633E-03     57.3115E-03
            3652            4016     58.8633E-03     57.3115E-03
            3701            4016     58.8633E-03     57.3115E-03
            3702            4017     59.8141E-03     54.1124E-03
            3652            4017     59.8141E-03     54.1124E-03
            3653            4017     59.8141E-03     54.1124E-03
            3703            4017     59.8141E-03     54.1124E-03
            3654            4018     50.8999E-03     54.2934E-03
            3653            4018     50.8999E-03     54.2934E-03
            3703            4018     50.8999E-03     54.2934E-03
            3704            4018     50.8999E-03     54.2934E-03
            3655            4019     49.8253E-03     49.3865E-03
            3654            4019     49.8253E-03     49.3865E-03
            3704            4019     49.8253E-03     49.3865E-03
            3705            4019     49.8253E-03     49.3865E-03
            3655            4020     48.1724E-03     48.0648E-03
            3705            4020     48.1724E-03     48.0648E-03
            3706            4020     48.1724E-03     48.0648E-03
            3656            4020     48.1724E-03     48.0648E-03
            3657            4021     46.2252E-03     46.5902E-03
            3656            4021     46.2252E-03     46.5902E-03
            3706            4021     46.2252E-03     46.5902E-03
            3707            4021     46.2252E-03     46.5902E-03
            3708            4022     44.6806E-03     47.3851E-03
            3658            4022     44.6806E-03     47.3851E-03
            3657            4022     44.6806E-03     47.3851E-03
            3707            4022     44.6806E-03     47.3851E-03
            3658            4023     47.7225E-03     45.6566E-03
            3659            4023     47.7225E-03     45.6566E-03
            3708            4023     47.7225E-03     45.6566E-03
            3709            4023     47.7225E-03     45.6566E-03
            3710            4024     45.2292E-03     45.9098E-03
            3659            4024     45.2292E-03     45.9098E-03
            3660            4024     45.2292E-03     45.9098E-03
            3709            4024     45.2292E-03     45.9098E-03
            3661            4025     38.7657E-03     49.9092E-03
            3710            4025     38.7657E-03     49.9092E-03
            3711            4025     38.7657E-03     49.9092E-03
            3660            4025     38.7657E-03     49.9092E-03
            3661            4026     45.6511E-03     44.3888E-03
            3662            4026     45.6511E-03     44.3888E-03
            3712            4026     45.6511E-03     44.3888E-03
            3711            4026     45.6511E-03     44.3888E-03
            3663            4027     46.1447E-03     41.8110E-03
            3662            4027     46.1447E-03     41.8110E-03
            3713            4027     46.1447E-03     41.8110E-03
            3712            4027     46.1447E-03     41.8110E-03
            3663            4028     39.0722E-03     41.8311E-03
            3713            4028     39.0722E-03     41.8311E-03
            3664            4028     39.0722E-03     41.8311E-03
            3714            4028     39.0722E-03     41.8311E-03
            3714            4029     38.1538E-03     37.6367E-03
            3715            4029     38.1538E-03     37.6367E-03
            3665            4029     38.1538E-03     37.6367E-03
            3664            4029     38.1538E-03     37.6367E-03
            3715            4030     36.2041E-03     36.4789E-03
            3666            4030     36.2041E-03     36.4789E-03
            3665            4030     36.2041E-03     36.4789E-03
            3716            4030     36.2041E-03     36.4789E-03
            3667            4031     34.4942E-03     35.1316E-03
            3716            4031     34.4942E-03     35.1316E-03
            3666            4031     34.4942E-03     35.1316E-03
            3717            4031     34.4942E-03     35.1316E-03
            3668            4032     33.6233E-03     33.6958E-03
            3667            4032     33.6233E-03     33.6958E-03
            3717            4032     33.6233E-03     33.6958E-03
            3718            4032     33.6233E-03     33.6958E-03
            3668            4033     32.2155E-03     34.3417E-03
            3719            4033     32.2155E-03     34.3417E-03
            3669            4033     32.2155E-03     34.3417E-03
            3718            4033     32.2155E-03     34.3417E-03
            3670            4034     33.9216E-03     33.0318E-03
            3719            4034     33.9216E-03     33.0318E-03
            3720            4034     33.9216E-03     33.0318E-03
            3669            4034     33.9216E-03     33.0318E-03
            3671            4035     32.2461E-03     33.0932E-03
            3670            4035     32.2461E-03     33.0932E-03
            3721            4035     32.2461E-03     33.0932E-03
            3720            4035     32.2461E-03     33.0932E-03
            3721            4036     27.8367E-03     35.2721E-03
            3722            4036     27.8367E-03     35.2721E-03
            3672            4036     27.8367E-03     35.2721E-03
            3671            4036     27.8367E-03     35.2721E-03
            3722            4037     32.1890E-03     31.1609E-03
            3723            4037     32.1890E-03     31.1609E-03
            3672            4037     32.1890E-03     31.1609E-03
            3673            4037     32.1890E-03     31.1609E-03
            3674            4038     32.3322E-03     29.3023E-03
            3723            4038     32.3322E-03     29.3023E-03
            3724            4038     32.3322E-03     29.3023E-03
            3673            4038     32.3322E-03     29.3023E-03
            3725            4039     27.3530E-03     29.1435E-03
            3724            4039     27.3530E-03     29.1435E-03
            3675            4039     27.3530E-03     29.1435E-03
            3674            4039     27.3530E-03     29.1435E-03
            3676            4040     26.5564E-03     26.1440E-03
            3725            4040     26.5564E-03     26.1440E-03
            3726            4040     26.5564E-03     26.1440E-03
            3675            4040     26.5564E-03     26.1440E-03
            3727            4041     25.0670E-03     25.1421E-03
            3677            4041     25.0670E-03     25.1421E-03
            3726            4041     25.0670E-03     25.1421E-03
            3676            4041     25.0670E-03     25.1421E-03
            3678            4042     23.6644E-03     24.0430E-03
            3677            4042     23.6644E-03     24.0430E-03
            3728            4042     23.6644E-03     24.0430E-03
            3727            4042     23.6644E-03     24.0430E-03
            3729            4043     22.8482E-03     22.9433E-03
            3679            4043     22.8482E-03     22.9433E-03
            3678            4043     22.8482E-03     22.9433E-03
            3728            4043     22.8482E-03     22.9433E-03
            3680            4044     21.7592E-03     23.0091E-03
            3730            4044     21.7592E-03     23.0091E-03
            3729            4044     21.7592E-03     23.0091E-03
            3679            4044     21.7592E-03     23.0091E-03
            3731            4045     22.1590E-03     22.1738E-03
            3681            4045     22.1590E-03     22.1738E-03
            3730            4045     22.1590E-03     22.1738E-03
            3680            4045     22.1590E-03     22.1738E-03
            3732            4046     21.0890E-03     21.9718E-03
            3681            4046     21.0890E-03     21.9718E-03
            3682            4046     21.0890E-03     21.9718E-03
            3731            4046     21.0890E-03     21.9718E-03
            3683            4047     18.7049E-03     22.6372E-03
            3733            4047     18.7049E-03     22.6372E-03
            3682            4047     18.7049E-03     22.6372E-03
            3732            4047     18.7049E-03     22.6372E-03
            3734            4048     20.8600E-03     20.1295E-03
            3683            4048     20.8600E-03     20.1295E-03
            3733            4048     20.8600E-03     20.1295E-03
            3684            4048     20.8600E-03     20.1295E-03
            3684            4049     20.7623E-03     19.0160E-03
            3734            4049     20.7623E-03     19.0160E-03
            3735            4049     20.7623E-03     19.0160E-03
            3685            4049     20.7623E-03     19.0160E-03
            3686            4050     17.8154E-03     18.7581E-03
            3735            4050     17.8154E-03     18.7581E-03
            3736            4050     17.8154E-03     18.7581E-03
            3685            4050     17.8154E-03     18.7581E-03
            3736            4051     17.2364E-03     16.9343E-03
            3737            4051     17.2364E-03     16.9343E-03
            3686            4051     17.2364E-03     16.9343E-03
            3687            4051     17.2364E-03     16.9343E-03
            3738            4052     16.2858E-03     16.1768E-03
            3688            4052     16.2858E-03     16.1768E-03
            3687            4052     16.2858E-03     16.1768E-03
            3737            4052     16.2858E-03     16.1768E-03
            3689            4053     15.3340E-03     15.4300E-03
            3688            4053     15.3340E-03     15.4300E-03
            3739            4053     15.3340E-03     15.4300E-03
            3738            4053     15.3340E-03     15.4300E-03
            3689            4054     14.7338E-03     14.7734E-03
            3740            4054     14.7338E-03     14.7734E-03
            3739            4054     14.7338E-03     14.7734E-03
            3690            4054     14.7338E-03     14.7734E-03
            3691            4055     14.0679E-03     14.5647E-03
            3740            4055     14.0679E-03     14.5647E-03
            3741            4055     14.0679E-03     14.5647E-03
            3690            4055     14.0679E-03     14.5647E-03
            3742            4056     13.6723E-03     14.2408E-03
            3691            4056     13.6723E-03     14.2408E-03
            3741            4056     13.6723E-03     14.2408E-03
            3692            4056     13.6723E-03     14.2408E-03
            3743            4057     13.2091E-03     13.9170E-03
            3742            4057     13.2091E-03     13.9170E-03
            3693            4057     13.2091E-03     13.9170E-03
            3692            4057     13.2091E-03     13.9170E-03
            3743            4058     12.4662E-03     13.3232E-03
            3744            4058     12.4662E-03     13.3232E-03
            3693            4058     12.4662E-03     13.3232E-03
            3694            4058     12.4662E-03     13.3232E-03
            3695            4059     12.7110E-03     12.3211E-03
            3745            4059     12.7110E-03     12.3211E-03
            3694            4059     12.7110E-03     12.3211E-03
            3744            4059     12.7110E-03     12.3211E-03
            3745            4060     12.6286E-03     12.1363E-03
            3696            4060     12.6286E-03     12.1363E-03
            3695            4060     12.6286E-03     12.1363E-03
            3746            4060     12.6286E-03     12.1363E-03
            3747            4061     11.8658E-03     12.0484E-03
            3746            4061     11.8658E-03     12.0484E-03
            3696            4061     11.8658E-03     12.0484E-03
            3697            4061     11.8658E-03     12.0484E-03
            3698            4062     11.6991E-03     11.7210E-03
            3697            4062     11.6991E-03     11.7210E-03
            3748            4062     11.6991E-03     11.7210E-03
            3747            4062     11.6991E-03     11.7210E-03
            3698            4063     11.4822E-03     11.6477E-03
            3748            4063     11.4822E-03     11.6477E-03
            3749            4063     11.4822E-03     11.6477E-03
            3699            4063     11.4822E-03     11.6477E-03
            3700            4064     11.2781E-03     11.3907E-03
            3699            4064     11.2781E-03     11.3907E-03
            3750            4064     11.2781E-03     11.3907E-03
            3749            4064     11.2781E-03     11.3907E-03
            3701            4065     72.0343E-03     72.0588E-03
            3751            4065     72.0343E-03     72.0588E-03
            3752            4065     72.0343E-03     72.0588E-03
            3702            4065     72.0343E-03     72.0588E-03
            3702            4066     71.9603E-03     67.3650E-03
            3753            4066     71.9603E-03     67.3650E-03
            3752            4066     71.9603E-03     67.3650E-03
            3703            4066     71.9603E-03     67.3650E-03
            3753            4067     60.2974E-03     67.1637E-03
            3704            4067     60.2974E-03     67.1637E-03
            3703            4067     60.2974E-03     67.1637E-03
            3754            4067     60.2974E-03     67.1637E-03
            3755            4068     59.4101E-03     60.7647E-03
            3704            4068     59.4101E-03     60.7647E-03
            3705            4068     59.4101E-03     60.7647E-03
            3754            4068     59.4101E-03     60.7647E-03
            3756            4069     56.8542E-03     59.1210E-03
            3705            4069     56.8542E-03     59.1210E-03
            3755            4069     56.8542E-03     59.1210E-03
            3706            4069     56.8542E-03     59.1210E-03
            3756            4070     54.6370E-03     56.3745E-03
            3757            4070     54.6370E-03     56.3745E-03
            3706            4070     54.6370E-03     56.3745E-03
            3707            4070     54.6370E-03     56.3745E-03
            3707            4071     52.2916E-03     56.7995E-03
            3757            4071     52.2916E-03     56.7995E-03
            3758            4071     52.2916E-03     56.7995E-03
            3708            4071     52.2916E-03     56.7995E-03
            3708            4072     56.8299E-03     54.8633E-03
            3758            4072     56.8299E-03     54.8633E-03
            3709            4072     56.8299E-03     54.8633E-03
            3759            4072     56.8299E-03     54.8633E-03
            3710            4073     55.8231E-03     56.2738E-03
            3759            4073     55.8231E-03     56.2738E-03
            3760            4073     55.8231E-03     56.2738E-03
            3709            4073     55.8231E-03     56.2738E-03
            3711            4074     47.4865E-03     62.5874E-03
            3760            4074     47.4865E-03     62.5874E-03
            3710            4074     47.4865E-03     62.5874E-03
            3761            4074     47.4865E-03     62.5874E-03
            3762            4075     55.4588E-03     55.4677E-03
            3711            4075     55.4588E-03     55.4677E-03
            3761            4075     55.4588E-03     55.4677E-03
            3712            4075     55.4588E-03     55.4677E-03
            3763            4076     55.3339E-03     51.7636E-03
            3762            4076     55.3339E-03     51.7636E-03
            3713            4076     55.3339E-03     51.7636E-03
            3712            4076     55.3339E-03     51.7636E-03
            3763            4077     46.0352E-03     51.5067E-03
            3714            4077     46.0352E-03     51.5067E-03
            3764            4077     46.0352E-03     51.5067E-03
            3713            4077     46.0352E-03     51.5067E-03
            3764            4078     45.2822E-03     46.0632E-03
            3714            4078     45.2822E-03     46.0632E-03
            3765            4078     45.2822E-03     46.0632E-03
            3715            4078     45.2822E-03     46.0632E-03
            3715            4079     42.5047E-03     44.4857E-03
            3716            4079     42.5047E-03     44.4857E-03
            3766            4079     42.5047E-03     44.4857E-03
            3765            4079     42.5047E-03     44.4857E-03
            3716            4080     40.2666E-03     42.4005E-03
            3766            4080     40.2666E-03     42.4005E-03
            3717            4080     40.2666E-03     42.4005E-03
            3767            4080     40.2666E-03     42.4005E-03
            3718            4081     39.1998E-03     39.9826E-03
            3768            4081     39.1998E-03     39.9826E-03
            3767            4081     39.1998E-03     39.9826E-03
            3717            4081     39.1998E-03     39.9826E-03
            3719            4082     37.0132E-03     40.2217E-03
            3768            4082     37.0132E-03     40.2217E-03
            3718            4082     37.0132E-03     40.2217E-03
            3769            4082     37.0132E-03     40.2217E-03
            3719            4083     39.8823E-03     38.7380E-03
            3770            4083     39.8823E-03     38.7380E-03
            3720            4083     39.8823E-03     38.7380E-03
            3769            4083     39.8823E-03     38.7380E-03
            3721            4084     39.2504E-03     39.6885E-03
            3770            4084     39.2504E-03     39.6885E-03
            3720            4084     39.2504E-03     39.6885E-03
            3771            4084     39.2504E-03     39.6885E-03
            3771            4085     33.3514E-03     43.5482E-03
            3772            4085     33.3514E-03     43.5482E-03
            3721            4085     33.3514E-03     43.5482E-03
            3722            4085     33.3514E-03     43.5482E-03
            3723            4086     38.3664E-03     38.3517E-03
            3772            4086     38.3664E-03     38.3517E-03
            3722            4086     38.3664E-03     38.3517E-03
            3773            4086     38.3664E-03     38.3517E-03
            3774            4087     38.1688E-03     35.6500E-03
            3723            4087     38.1688E-03     35.6500E-03
            3724            4087     38.1688E-03     35.6500E-03
            3773            4087     38.1688E-03     35.6500E-03
            3774            4088     31.4634E-03     35.1783E-03
            3724            4088     31.4634E-03     35.1783E-03
            3775            4088     31.4634E-03     35.1783E-03
            3725            4088     31.4634E-03     35.1783E-03
            3775            4089     30.6043E-03     31.0597E-03
            3776            4089     30.6043E-03     31.0597E-03
            3726            4089     30.6043E-03     31.0597E-03
            3725            4089     30.6043E-03     31.0597E-03
            3727            4090     28.3776E-03     29.5568E-03
            3776            4090     28.3776E-03     29.5568E-03
            3726            4090     28.3776E-03     29.5568E-03
            3777            4090     28.3776E-03     29.5568E-03
            3778            4091     26.4572E-03     27.7567E-03
            3728            4091     26.4572E-03     27.7567E-03
            3777            4091     26.4572E-03     27.7567E-03
            3727            4091     26.4572E-03     27.7567E-03
            3779            4092     25.3912E-03     25.8238E-03
            3729            4092     25.3912E-03     25.8238E-03
            3728            4092     25.3912E-03     25.8238E-03
            3778            4092     25.3912E-03     25.8238E-03
            3729            4093     23.7820E-03     25.4464E-03
            3779            4093     23.7820E-03     25.4464E-03
            3780            4093     23.7820E-03     25.4464E-03
            3730            4093     23.7820E-03     25.4464E-03
            3780            4094     24.8872E-03     24.5196E-03
            3781            4094     24.8872E-03     24.5196E-03
            3731            4094     24.8872E-03     24.5196E-03
            3730            4094     24.8872E-03     24.5196E-03
            3781            4095     24.5278E-03     24.9053E-03
            3732            4095     24.5278E-03     24.9053E-03
            3782            4095     24.5278E-03     24.9053E-03
            3731            4095     24.5278E-03     24.9053E-03
            3732            4096     21.0700E-03     26.6881E-03
            3783            4096     21.0700E-03     26.6881E-03
            3733            4096     21.0700E-03     26.6881E-03
            3782            4096     21.0700E-03     26.6881E-03
            3733            4097     23.5820E-03     23.5570E-03
            3734            4097     23.5820E-03     23.5570E-03
            3783            4097     23.5820E-03     23.5570E-03
            3784            4097     23.5820E-03     23.5570E-03
            3785            4098     23.3431E-03     21.8142E-03
            3734            4098     23.3431E-03     21.8142E-03
            3784            4098     23.3431E-03     21.8142E-03
            3735            4098     23.3431E-03     21.8142E-03
            3736            4099     19.0815E-03     21.1565E-03
            3735            4099     19.0815E-03     21.1565E-03
            3786            4099     19.0815E-03     21.1565E-03
            3785            4099     19.0815E-03     21.1565E-03
            3786            4100     18.1919E-03     18.3254E-03
            3736            4100     18.1919E-03     18.3254E-03
            3787            4100     18.1919E-03     18.3254E-03
            3737            4100     18.1919E-03     18.3254E-03
            3737            4101     16.5693E-03     16.9893E-03
            3787            4101     16.5693E-03     16.9893E-03
            3738            4101     16.5693E-03     16.9893E-03
            3788            4101     16.5693E-03     16.9893E-03
            3789            4102     15.1001E-03     15.5929E-03
            3738            4102     15.1001E-03     15.5929E-03
            3788            4102     15.1001E-03     15.5929E-03
            3739            4102     15.1001E-03     15.5929E-03
            3739            4103     14.2243E-03     14.2897E-03
            3789            4103     14.2243E-03     14.2897E-03
            3790            4103     14.2243E-03     14.2897E-03
            3740            4103     14.2243E-03     14.2897E-03
            3740            4104     13.3432E-03     13.6559E-03
            3790            4104     13.3432E-03     13.6559E-03
            3791            4104     13.3432E-03     13.6559E-03
            3741            4104     13.3432E-03     13.6559E-03
            3742            4105     13.2463E-03     13.4239E-03
            3791            4105     13.2463E-03     13.4239E-03
            3741            4105     13.2463E-03     13.4239E-03
            3792            4105     13.2463E-03     13.4239E-03
            3792            4106     13.2078E-03     13.4749E-03
            3793            4106     13.2078E-03     13.4749E-03
            3742            4106     13.2078E-03     13.4749E-03
            3743            4106     13.2078E-03     13.4749E-03
            3743            4107     11.7882E-03     13.2339E-03
            3794            4107     11.7882E-03     13.2339E-03
            3744            4107     11.7882E-03     13.2339E-03
            3793            4107     11.7882E-03     13.2339E-03
            3744            4108     11.8204E-03     11.7908E-03
            3795            4108     11.8204E-03     11.7908E-03
            3794            4108     11.8204E-03     11.7908E-03
            3745            4108     11.8204E-03     11.7908E-03
            3745            4109     11.5461E-03     10.9663E-03
            3746            4109     11.5461E-03     10.9663E-03
            3796            4109     11.5461E-03     10.9663E-03
            3795            4109     11.5461E-03     10.9663E-03
            3797            4110     10.0730E-03     10.3605E-03
            3746            4110     10.0730E-03     10.3605E-03
            3747            4110     10.0730E-03     10.3605E-03
            3796            4110     10.0730E-03     10.3605E-03
            3748            4111     9.77037E-03     9.53602E-03
            3797            4111     9.77037E-03     9.53602E-03
            3798            4111     9.77037E-03     9.53602E-03
            3747            4111     9.77037E-03     9.53602E-03
            3748            4112     9.61574E-03     9.64833E-03
            3798            4112     9.61574E-03     9.64833E-03
            3749            4112     9.61574E-03     9.64833E-03
            3799            4112     9.61574E-03     9.64833E-03
            3799            4113     9.64623E-03     9.72808E-03
            3749            4113     9.64623E-03     9.72808E-03
            3750            4113     9.64623E-03     9.72808E-03
            3800            4113     9.64623E-03     9.72808E-03
            3801            4114     83.3733E-03     82.3676E-03
            3751            4114     83.3733E-03     82.3676E-03
            3752            4114     83.3733E-03     82.3676E-03
            3802            4114     83.3733E-03     82.3676E-03
            3803            4115     80.6898E-03     76.7077E-03
            3802            4115     80.6898E-03     76.7077E-03
            3753            4115     80.6898E-03     76.7077E-03
            3752            4115     80.6898E-03     76.7077E-03
            3803            4116     70.0228E-03     75.3985E-03
            3754            4116     70.0228E-03     75.3985E-03
            3804            4116     70.0228E-03     75.3985E-03
            3753            4116     70.0228E-03     75.3985E-03
            3754            4117     68.8827E-03     69.1046E-03
            3755            4117     68.8827E-03     69.1046E-03
            3804            4117     68.8827E-03     69.1046E-03
            3805            4117     68.8827E-03     69.1046E-03
            3806            4118     65.3475E-03     67.1206E-03
            3805            4118     65.3475E-03     67.1206E-03
            3756            4118     65.3475E-03     67.1206E-03
            3755            4118     65.3475E-03     67.1206E-03
            3756            4119     62.9026E-03     63.4504E-03
            3807            4119     62.9026E-03     63.4504E-03
            3757            4119     62.9026E-03     63.4504E-03
            3806            4119     62.9026E-03     63.4504E-03
            3757            4120     59.3522E-03     62.4914E-03
            3808            4120     59.3522E-03     62.4914E-03
            3807            4120     59.3522E-03     62.4914E-03
            3758            4120     59.3522E-03     62.4914E-03
            3808            4121     61.8493E-03     59.3426E-03
            3809            4121     61.8493E-03     59.3426E-03
            3759            4121     61.8493E-03     59.3426E-03
            3758            4121     61.8493E-03     59.3426E-03
            3759            4122     61.3273E-03     59.3034E-03
            3810            4122     61.3273E-03     59.3034E-03
            3760            4122     61.3273E-03     59.3034E-03
            3809            4122     61.3273E-03     59.3034E-03
            3760            4123     56.4982E-03     67.5718E-03
            3810            4123     56.4982E-03     67.5718E-03
            3811            4123     56.4982E-03     67.5718E-03
            3761            4123     56.4982E-03     67.5718E-03
            3761            4124     64.1813E-03     63.5088E-03
            3812            4124     64.1813E-03     63.5088E-03
            3762            4124     64.1813E-03     63.5088E-03
            3811            4124     64.1813E-03     63.5088E-03
            3813            4125     61.9513E-03     58.8658E-03
            3812            4125     61.9513E-03     58.8658E-03
            3763            4125     61.9513E-03     58.8658E-03
            3762            4125     61.9513E-03     58.8658E-03
            3763            4126     53.3453E-03     57.5839E-03
            3814            4126     53.3453E-03     57.5839E-03
            3813            4126     53.3453E-03     57.5839E-03
            3764            4126     53.3453E-03     57.5839E-03
            3765            4127     52.2122E-03     52.2433E-03
            3815            4127     52.2122E-03     52.2433E-03
            3814            4127     52.2122E-03     52.2433E-03
            3764            4127     52.2122E-03     52.2433E-03
            3766            4128     48.9241E-03     50.2822E-03
            3815            4128     48.9241E-03     50.2822E-03
            3816            4128     48.9241E-03     50.2822E-03
            3765            4128     48.9241E-03     50.2822E-03
            3766            4129     46.3642E-03     47.5804E-03
            3817            4129     46.3642E-03     47.5804E-03
            3767            4129     46.3642E-03     47.5804E-03
            3816            4129     46.3642E-03     47.5804E-03
            3818            4130     44.4476E-03     44.6302E-03
            3768            4130     44.4476E-03     44.6302E-03
            3767            4130     44.4476E-03     44.6302E-03
            3817            4130     44.4476E-03     44.6302E-03
            3818            4131     41.4832E-03     43.5064E-03
            3768            4131     41.4832E-03     43.5064E-03
            3769            4131     41.4832E-03     43.5064E-03
            3819            4131     41.4832E-03     43.5064E-03
            3769            4132     42.7621E-03     41.0235E-03
            3770            4132     42.7621E-03     41.0235E-03
            3820            4132     42.7621E-03     41.0235E-03
            3819            4132     42.7621E-03     41.0235E-03
            3770            4133     42.3984E-03     40.7401E-03
            3820            4133     42.3984E-03     40.7401E-03
            3821            4133     42.3984E-03     40.7401E-03
            3771            4133     42.3984E-03     40.7401E-03
            3822            4134     39.2383E-03     46.6798E-03
            3821            4134     39.2383E-03     46.6798E-03
            3771            4134     39.2383E-03     46.6798E-03
            3772            4134     39.2383E-03     46.6798E-03
            3772            4135     44.3959E-03     44.1024E-03
            3822            4135     44.3959E-03     44.1024E-03
            3823            4135     44.3959E-03     44.1024E-03
            3773            4135     44.3959E-03     44.1024E-03
            3823            4136     42.5670E-03     40.4061E-03
            3824            4136     42.5670E-03     40.4061E-03
            3774            4136     42.5670E-03     40.4061E-03
            3773            4136     42.5670E-03     40.4061E-03
            3824            4137     36.0786E-03     39.0385E-03
            3825            4137     36.0786E-03     39.0385E-03
            3774            4137     36.0786E-03     39.0385E-03
            3775            4137     36.0786E-03     39.0385E-03
            3775            4138     34.7797E-03     34.7790E-03
            3825            4138     34.7797E-03     34.7790E-03
            3776            4138     34.7797E-03     34.7790E-03
            3826            4138     34.7797E-03     34.7790E-03
            3776            4139     32.0112E-03     32.8835E-03
            3827            4139     32.0112E-03     32.8835E-03
            3777            4139     32.0112E-03     32.8835E-03
            3826            4139     32.0112E-03     32.8835E-03
            3777            4140     29.7464E-03     30.4817E-03
            3827            4140     29.7464E-03     30.4817E-03
            3828            4140     29.7464E-03     30.4817E-03
            3778            4140     29.7464E-03     30.4817E-03
            3778            4141     27.9174E-03     28.0218E-03
            3779            4141     27.9174E-03     28.0218E-03
            3828            4141     27.9174E-03     28.0218E-03
            3829            4141     27.9174E-03     28.0218E-03
            3780            4142     25.6395E-03     26.5521E-03
            3830            4142     25.6395E-03     26.5521E-03
            3829            4142     25.6395E-03     26.5521E-03
            3779            4142     25.6395E-03     26.5521E-03
            3780            4143     25.7140E-03     24.7065E-03
            3831            4143     25.7140E-03     24.7065E-03
            3830            4143     25.7140E-03     24.7065E-03
            3781            4143     25.7140E-03     24.7065E-03
            3782            4144     25.4387E-03     24.1849E-03
            3831            4144     25.4387E-03     24.1849E-03
            3832            4144     25.4387E-03     24.1849E-03
            3781            4144     25.4387E-03     24.1849E-03
            3832            4145     23.9382E-03     28.0592E-03
            3782            4145     23.9382E-03     28.0592E-03
            3833            4145     23.9382E-03     28.0592E-03
            3783            4145     23.9382E-03     28.0592E-03
            3834            4146     26.9326E-03     26.9439E-03
            3783            4146     26.9326E-03     26.9439E-03
            3784            4146     26.9326E-03     26.9439E-03
            3833            4146     26.9326E-03     26.9439E-03
            3784            4147     25.4504E-03     24.1095E-03
            3785            4147     25.4504E-03     24.1095E-03
            3835            4147     25.4504E-03     24.1095E-03
            3834            4147     25.4504E-03     24.1095E-03
            3785            4148     20.9107E-03     22.6722E-03
            3835            4148     20.9107E-03     22.6722E-03
            3786            4148     20.9107E-03     22.6722E-03
            3836            4148     20.9107E-03     22.6722E-03
            3837            4149     19.4853E-03     19.4460E-03
            3836            4149     19.4853E-03     19.4460E-03
            3787            4149     19.4853E-03     19.4460E-03
            3786            4149     19.4853E-03     19.4460E-03
            3837            4150     17.2535E-03     17.6686E-03
            3787            4150     17.2535E-03     17.6686E-03
            3838            4150     17.2535E-03     17.6686E-03
            3788            4150     17.2535E-03     17.6686E-03
            3789            4151     15.3499E-03     15.6330E-03
            3788            4151     15.3499E-03     15.6330E-03
            3838            4151     15.3499E-03     15.6330E-03
            3839            4151     15.3499E-03     15.6330E-03
            3840            4152     13.7451E-03     13.7547E-03
            3790            4152     13.7451E-03     13.7547E-03
            3839            4152     13.7451E-03     13.7547E-03
            3789            4152     13.7451E-03     13.7547E-03
            3841            4153     12.3037E-03     12.2073E-03
            3790            4153     12.3037E-03     12.2073E-03
            3840            4153     12.3037E-03     12.2073E-03
            3791            4153     12.3037E-03     12.2073E-03
            3791            4154     11.7345E-03     11.2508E-03
            3842            4154     11.7345E-03     11.2508E-03
            3841            4154     11.7345E-03     11.2508E-03
            3792            4154     11.7345E-03     11.2508E-03
            3792            4155     11.8621E-03     11.1176E-03
            3842            4155     11.8621E-03     11.1176E-03
            3793            4155     11.8621E-03     11.1176E-03
            3843            4155     11.8621E-03     11.1176E-03
            3843            4156     11.3739E-03     12.6131E-03
            3844            4156     11.3739E-03     12.6131E-03
            3794            4156     11.3739E-03     12.6131E-03
            3793            4156     11.3739E-03     12.6131E-03
            3794            4157     11.6146E-03     11.8551E-03
            3844            4157     11.6146E-03     11.8551E-03
            3845            4157     11.6146E-03     11.8551E-03
            3795            4157     11.6146E-03     11.8551E-03
            3796            4158     10.2532E-03     9.56300E-03
            3846            4158     10.2532E-03     9.56300E-03
            3845            4158     10.2532E-03     9.56300E-03
            3795            4158     10.2532E-03     9.56300E-03
            3797            4159     7.73844E-03     8.21008E-03
            3847            4159     7.73844E-03     8.21008E-03
            3846            4159     7.73844E-03     8.21008E-03
            3796            4159     7.73844E-03     8.21008E-03
            3798            4160     6.86793E-03     6.49753E-03
            3847            4160     6.86793E-03     6.49753E-03
            3797            4160     6.86793E-03     6.49753E-03
            3848            4160     6.86793E-03     6.49753E-03
            3798            4161     6.66427E-03     6.28952E-03
            3799            4161     6.66427E-03     6.28952E-03
            3849            4161     6.66427E-03     6.28952E-03
            3848            4161     6.66427E-03     6.28952E-03
            3850            4162     7.27079E-03     7.36383E-03
            3800            4162     7.27079E-03     7.36383E-03
            3799            4162     7.27079E-03     7.36383E-03
            3849            4162     7.27079E-03     7.36383E-03
            4107            4328     14.6139E-03     14.5164E-03
            4108            4328     14.6139E-03     14.5164E-03
            4068            4328     14.6139E-03     14.5164E-03
            4067            4328     14.6139E-03     14.5164E-03
            4108            4329     14.6476E-03     14.6824E-03
            4068            4329     14.6476E-03     14.6824E-03
            4069            4329     14.6476E-03     14.6824E-03
            4109            4329     14.6476E-03     14.6824E-03
            4070            4330     14.9561E-03     14.7699E-03
            4110            4330     14.9561E-03     14.7699E-03
            4069            4330     14.9561E-03     14.7699E-03
            4109            4330     14.9561E-03     14.7699E-03
            4111            4331     14.9823E-03     14.7903E-03
            4071            4331     14.9823E-03     14.7903E-03
            4110            4331     14.9823E-03     14.7903E-03
            4070            4331     14.9823E-03     14.7903E-03
            4072            4332     15.7435E-03     15.7576E-03
            4111            4332     15.7435E-03     15.7576E-03
            4112            4332     15.7435E-03     15.7576E-03
            4071            4332     15.7435E-03     15.7576E-03
            4112            4333     16.9427E-03     16.7181E-03
            4073            4333     16.9427E-03     16.7181E-03
            4072            4333     16.9427E-03     16.7181E-03
            4113            4333     16.9427E-03     16.7181E-03
            4113            4334     17.2284E-03     16.9813E-03
            4114            4334     17.2284E-03     16.9813E-03
            4073            4334     17.2284E-03     16.9813E-03
            4074            4334     17.2284E-03     16.9813E-03
            4074            4335     17.5719E-03     17.3667E-03
            4114            4335     17.5719E-03     17.3667E-03
            4075            4335     17.5719E-03     17.3667E-03
            4115            4335     17.5719E-03     17.3667E-03
            4075            4336     17.9438E-03     17.7830E-03
            4076            4336     17.9438E-03     17.7830E-03
            4115            4336     17.9438E-03     17.7830E-03
            4116            4336     17.9438E-03     17.7830E-03
            4076            4337     18.3311E-03     18.3412E-03
            4077            4337     18.3311E-03     18.3412E-03
            4117            4337     18.3311E-03     18.3412E-03
            4116            4337     18.3311E-03     18.3412E-03
            4118            4338     18.8721E-03     18.8790E-03
            4117            4338     18.8721E-03     18.8790E-03
            4078            4338     18.8721E-03     18.8790E-03
            4077            4338     18.8721E-03     18.8790E-03
            4078            4339     19.3417E-03     19.3278E-03
            4118            4339     19.3417E-03     19.3278E-03
            4079            4339     19.3417E-03     19.3278E-03
            4119            4339     19.3417E-03     19.3278E-03
            4079            4340     19.5133E-03     20.2452E-03
            4080            4340     19.5133E-03     20.2452E-03
            4120            4340     19.5133E-03     20.2452E-03
            4119            4340     19.5133E-03     20.2452E-03
            4080            4341     20.9741E-03     20.3650E-03
            4120            4341     20.9741E-03     20.3650E-03
            4081            4341     20.9741E-03     20.3650E-03
            4121            4341     20.9741E-03     20.3650E-03
            4122            4342     20.8658E-03     20.2802E-03
            4121            4342     20.8658E-03     20.2802E-03
            4082            4342     20.8658E-03     20.2802E-03
            4081            4342     20.8658E-03     20.2802E-03
            4083            4343     19.9982E-03     20.9443E-03
            4123            4343     19.9982E-03     20.9443E-03
            4082            4343     19.9982E-03     20.9443E-03
            4122            4343     19.9982E-03     20.9443E-03
            4084            4344     21.4869E-03     21.0203E-03
            4123            4344     21.4869E-03     21.0203E-03
            4124            4344     21.4869E-03     21.0203E-03
            4083            4344     21.4869E-03     21.0203E-03
            4084            4345     22.4381E-03     21.7018E-03
            4125            4345     22.4381E-03     21.7018E-03
            4124            4345     22.4381E-03     21.7018E-03
            4085            4345     22.4381E-03     21.7018E-03
            4085            4346     22.9784E-03     22.7989E-03
            4126            4346     22.9784E-03     22.7989E-03
            4125            4346     22.9784E-03     22.7989E-03
            4086            4346     22.9784E-03     22.7989E-03
            4126            4347     23.8614E-03     23.5372E-03
            4086            4347     23.8614E-03     23.5372E-03
            4127            4347     23.8614E-03     23.5372E-03
            4087            4347     23.8614E-03     23.5372E-03
            4087            4348     24.6494E-03     24.4626E-03
            4127            4348     24.6494E-03     24.4626E-03
            4088            4348     24.6494E-03     24.4626E-03
            4128            4348     24.6494E-03     24.4626E-03
            4088            4349     25.3071E-03     25.4701E-03
            4129            4349     25.3071E-03     25.4701E-03
            4089            4349     25.3071E-03     25.4701E-03
            4128            4349     25.3071E-03     25.4701E-03
            4129            4350     26.1893E-03     26.2588E-03
            4089            4350     26.1893E-03     26.2588E-03
            4130            4350     26.1893E-03     26.2588E-03
            4090            4350     26.1893E-03     26.2588E-03
            4130            4351     26.8106E-03     26.8318E-03
            4090            4351     26.8106E-03     26.8318E-03
            4091            4351     26.8106E-03     26.8318E-03
            4131            4351     26.8106E-03     26.8318E-03
            4132            4352     26.7999E-03     28.2717E-03
            4092            4352     26.7999E-03     28.2717E-03
            4131            4352     26.7999E-03     28.2717E-03
            4091            4352     26.7999E-03     28.2717E-03
            4133            4353     29.2184E-03     28.0380E-03
            4093            4353     29.2184E-03     28.0380E-03
            4132            4353     29.2184E-03     28.0380E-03
            4092            4353     29.2184E-03     28.0380E-03
            4133            4354     28.6265E-03     27.5907E-03
            4134            4354     28.6265E-03     27.5907E-03
            4093            4354     28.6265E-03     27.5907E-03
            4094            4354     28.6265E-03     27.5907E-03
            4094            4355     26.1677E-03     28.5814E-03
            4095            4355     26.1677E-03     28.5814E-03
            4134            4355     26.1677E-03     28.5814E-03
            4135            4355     26.1677E-03     28.5814E-03
            4136            4356     28.9041E-03     28.1104E-03
            4095            4356     28.9041E-03     28.1104E-03
            4096            4356     28.9041E-03     28.1104E-03
            4135            4356     28.9041E-03     28.1104E-03
            4097            4357     30.6175E-03     29.2966E-03
            4096            4357     30.6175E-03     29.2966E-03
            4137            4357     30.6175E-03     29.2966E-03
            4136            4357     30.6175E-03     29.2966E-03
            4137            4358     30.9856E-03     31.2218E-03
            4098            4358     30.9856E-03     31.2218E-03
            4138            4358     30.9856E-03     31.2218E-03
            4097            4358     30.9856E-03     31.2218E-03
            4139            4359     32.3093E-03     31.9851E-03
            4138            4359     32.3093E-03     31.9851E-03
            4098            4359     32.3093E-03     31.9851E-03
            4099            4359     32.3093E-03     31.9851E-03
            4099            4360     33.1904E-03     33.3910E-03
            4140            4360     33.1904E-03     33.3910E-03
            4100            4360     33.1904E-03     33.3910E-03
            4139            4360     33.1904E-03     33.3910E-03
            4140            4361     34.1878E-03     34.4412E-03
            4141            4361     34.1878E-03     34.4412E-03
            4101            4361     34.1878E-03     34.4412E-03
            4100            4361     34.1878E-03     34.4412E-03
            4142            4362     34.8822E-03     34.9532E-03
            4101            4362     34.8822E-03     34.9532E-03
            4141            4362     34.8822E-03     34.9532E-03
            4102            4362     34.8822E-03     34.9532E-03
            4142            4363     34.5869E-03     36.7431E-03
            4103            4363     34.5869E-03     36.7431E-03
            4143            4363     34.5869E-03     36.7431E-03
            4102            4363     34.5869E-03     36.7431E-03
            4144            4364     37.6996E-03     36.0339E-03
            4104            4364     37.6996E-03     36.0339E-03
            4103            4364     37.6996E-03     36.0339E-03
            4143            4364     37.6996E-03     36.0339E-03
            4104            4365     36.5382E-03     35.1170E-03
            4144            4365     36.5382E-03     35.1170E-03
            4105            4365     36.5382E-03     35.1170E-03
            4145            4365     36.5382E-03     35.1170E-03
            4106            4366     31.7802E-03     34.1599E-03
            4105            4366     31.7802E-03     34.1599E-03
            4145            4366     31.7802E-03     34.1599E-03
            4146            4366     31.7802E-03     34.1599E-03
            4147            4367     12.6051E-03     12.5164E-03
            4148            4367     12.6051E-03     12.5164E-03
            4108            4367     12.6051E-03     12.5164E-03
            4107            4367     12.6051E-03     12.5164E-03
            4148            4368     12.7446E-03     12.8377E-03
            4108            4368     12.7446E-03     12.8377E-03
            4149            4368     12.7446E-03     12.8377E-03
            4109            4368     12.7446E-03     12.8377E-03
            4150            4369     13.3778E-03     13.0322E-03
            4149            4369     13.3778E-03     13.0322E-03
            4110            4369     13.3778E-03     13.0322E-03
            4109            4369     13.3778E-03     13.0322E-03
            4110            4370     13.4553E-03     13.4149E-03
            4111            4370     13.4553E-03     13.4149E-03
            4151            4370     13.4553E-03     13.4149E-03
            4150            4370     13.4553E-03     13.4149E-03
            4112            4371     13.9169E-03     14.2275E-03
            4152            4371     13.9169E-03     14.2275E-03
            4151            4371     13.9169E-03     14.2275E-03
            4111            4371     13.9169E-03     14.2275E-03
            4113            4372     15.1203E-03     14.9322E-03
            4153            4372     15.1203E-03     14.9322E-03
            4112            4372     15.1203E-03     14.9322E-03
            4152            4372     15.1203E-03     14.9322E-03
            4113            4373     15.7275E-03     15.7311E-03
            4153            4373     15.7275E-03     15.7311E-03
            4154            4373     15.7275E-03     15.7311E-03
            4114            4373     15.7275E-03     15.7311E-03
            4154            4374     16.5471E-03     16.6280E-03
            4114            4374     16.5471E-03     16.6280E-03
            4115            4374     16.5471E-03     16.6280E-03
            4155            4374     16.5471E-03     16.6280E-03
            4155            4375     17.5304E-03     17.5842E-03
            4156            4375     17.5304E-03     17.5842E-03
            4116            4375     17.5304E-03     17.5842E-03
            4115            4375     17.5304E-03     17.5842E-03
            4117            4376     18.5006E-03     18.6961E-03
            4157            4376     18.5006E-03     18.6961E-03
            4156            4376     18.5006E-03     18.6961E-03
            4116            4376     18.5006E-03     18.6961E-03
            4157            4377     19.7801E-03     19.6917E-03
            4158            4377     19.7801E-03     19.6917E-03
            4118            4377     19.7801E-03     19.6917E-03
            4117            4377     19.7801E-03     19.6917E-03
            4118            4378     20.9033E-03     20.6344E-03
            4158            4378     20.9033E-03     20.6344E-03
            4119            4378     20.9033E-03     20.6344E-03
            4159            4378     20.9033E-03     20.6344E-03
            4119            4379     21.5742E-03     22.5235E-03
            4159            4379     21.5742E-03     22.5235E-03
            4120            4379     21.5742E-03     22.5235E-03
            4160            4379     21.5742E-03     22.5235E-03
            4121            4380     24.3169E-03     22.7513E-03
            4120            4380     24.3169E-03     22.7513E-03
            4161            4380     24.3169E-03     22.7513E-03
            4160            4380     24.3169E-03     22.7513E-03
            4122            4381     24.0190E-03     23.3208E-03
            4161            4381     24.0190E-03     23.3208E-03
            4162            4381     24.0190E-03     23.3208E-03
            4121            4381     24.0190E-03     23.3208E-03
            4162            4382     21.6218E-03     23.9852E-03
            4122            4382     21.6218E-03     23.9852E-03
            4123            4382     21.6218E-03     23.9852E-03
            4163            4382     21.6218E-03     23.9852E-03
            4163            4383     23.8336E-03     23.1224E-03
            4164            4383     23.8336E-03     23.1224E-03
            4123            4383     23.8336E-03     23.1224E-03
            4124            4383     23.8336E-03     23.1224E-03
            4164            4384     25.6240E-03     24.9898E-03
            4165            4384     25.6240E-03     24.9898E-03
            4124            4384     25.6240E-03     24.9898E-03
            4125            4384     25.6240E-03     24.9898E-03
            4125            4385     26.4206E-03     27.1000E-03
            4165            4385     26.4206E-03     27.1000E-03
            4166            4385     26.4206E-03     27.1000E-03
            4126            4385     26.4206E-03     27.1000E-03
            4167            4386     28.2645E-03     28.2583E-03
            4127            4386     28.2645E-03     28.2583E-03
            4166            4386     28.2645E-03     28.2583E-03
            4126            4386     28.2645E-03     28.2583E-03
            4127            4387     29.8420E-03     29.7786E-03
            4128            4387     29.8420E-03     29.7786E-03
            4167            4387     29.8420E-03     29.7786E-03
            4168            4387     29.8420E-03     29.7786E-03
            4169            4388     31.1874E-03     31.3825E-03
            4128            4388     31.1874E-03     31.3825E-03
            4129            4388     31.1874E-03     31.3825E-03
            4168            4388     31.1874E-03     31.3825E-03
            4170            4389     33.0467E-03     32.6678E-03
            4169            4389     33.0467E-03     32.6678E-03
            4130            4389     33.0467E-03     32.6678E-03
            4129            4389     33.0467E-03     32.6678E-03
            4131            4390     34.4507E-03     33.8578E-03
            4171            4390     34.4507E-03     33.8578E-03
            4170            4390     34.4507E-03     33.8578E-03
            4130            4390     34.4507E-03     33.8578E-03
            4131            4391     34.8993E-03     36.7172E-03
            4132            4391     34.8993E-03     36.7172E-03
            4171            4391     34.8993E-03     36.7172E-03
            4172            4391     34.8993E-03     36.7172E-03
            4132            4392     39.1184E-03     36.3133E-03
            4172            4392     39.1184E-03     36.3133E-03
            4173            4392     39.1184E-03     36.3133E-03
            4133            4392     39.1184E-03     36.3133E-03
            4174            4393     37.9111E-03     36.5479E-03
            4133            4393     37.9111E-03     36.5479E-03
            4173            4393     37.9111E-03     36.5479E-03
            4134            4393     37.9111E-03     36.5479E-03
            4135            4394     32.8248E-03     37.8119E-03
            4175            4394     32.8248E-03     37.8119E-03
            4174            4394     32.8248E-03     37.8119E-03
            4134            4394     32.8248E-03     37.8119E-03
            4175            4395     37.2298E-03     35.8620E-03
            4135            4395     37.2298E-03     35.8620E-03
            4136            4395     37.2298E-03     35.8620E-03
            4176            4395     37.2298E-03     35.8620E-03
            4137            4396     40.2942E-03     38.6555E-03
            4177            4396     40.2942E-03     38.6555E-03
            4136            4396     40.2942E-03     38.6555E-03
            4176            4396     40.2942E-03     38.6555E-03
            4137            4397     40.4740E-03     41.9475E-03
            4177            4397     40.4740E-03     41.9475E-03
            4178            4397     40.4740E-03     41.9475E-03
            4138            4397     40.4740E-03     41.9475E-03
            4179            4398     43.0620E-03     42.8396E-03
            4178            4398     43.0620E-03     42.8396E-03
            4138            4398     43.0620E-03     42.8396E-03
            4139            4398     43.0620E-03     42.8396E-03
            4180            4399     44.7439E-03     44.9747E-03
            4139            4399     44.7439E-03     44.9747E-03
            4140            4399     44.7439E-03     44.9747E-03
            4179            4399     44.7439E-03     44.9747E-03
            4181            4400     46.7285E-03     46.5418E-03
            4180            4400     46.7285E-03     46.5418E-03
            4140            4400     46.7285E-03     46.5418E-03
            4141            4400     46.7285E-03     46.5418E-03
            4182            4401     48.3346E-03     47.6397E-03
            4181            4401     48.3346E-03     47.6397E-03
            4141            4401     48.3346E-03     47.6397E-03
            4142            4401     48.3346E-03     47.6397E-03
            4183            4402     48.4359E-03     51.1545E-03
            4142            4402     48.4359E-03     51.1545E-03
            4143            4402     48.4359E-03     51.1545E-03
            4182            4402     48.4359E-03     51.1545E-03
            4184            4403     53.7730E-03     49.9696E-03
            4183            4403     53.7730E-03     49.9696E-03
            4143            4403     53.7730E-03     49.9696E-03
            4144            4403     53.7730E-03     49.9696E-03
            4185            4404     51.6171E-03     49.6464E-03
            4184            4404     51.6171E-03     49.6464E-03
            4144            4404     51.6171E-03     49.6464E-03
            4145            4404     51.6171E-03     49.6464E-03
            4186            4405     45.3066E-03     50.1460E-03
            4185            4405     45.3066E-03     50.1460E-03
            4145            4405     45.3066E-03     50.1460E-03
            4146            4405     45.3066E-03     50.1460E-03
            4188            4406     9.96792E-03     9.95484E-03
            4147            4406     9.96792E-03     9.95484E-03
            4148            4406     9.96792E-03     9.95484E-03
            4187            4406     9.96792E-03     9.95484E-03
            4149            4407     10.1965E-03     10.5279E-03
            4188            4407     10.1965E-03     10.5279E-03
            4148            4407     10.1965E-03     10.5279E-03
            4189            4407     10.1965E-03     10.5279E-03
            4149            4408     11.4817E-03     10.8692E-03
            4189            4408     11.4817E-03     10.8692E-03
            4190            4408     11.4817E-03     10.8692E-03
            4150            4408     11.4817E-03     10.8692E-03
            4191            4409     11.7945E-03     11.7947E-03
            4150            4409     11.7945E-03     11.7947E-03
            4151            4409     11.7945E-03     11.7947E-03
            4190            4409     11.7945E-03     11.7947E-03
            4192            4410     11.8576E-03     12.6145E-03
            4191            4410     11.8576E-03     12.6145E-03
            4151            4410     11.8576E-03     12.6145E-03
            4152            4410     11.8576E-03     12.6145E-03
            4193            4411     13.2000E-03     13.1380E-03
            4192            4411     13.2000E-03     13.1380E-03
            4152            4411     13.2000E-03     13.1380E-03
            4153            4411     13.2000E-03     13.1380E-03
            4194            4412     14.2549E-03     14.6349E-03
            4153            4412     14.2549E-03     14.6349E-03
            4154            4412     14.2549E-03     14.6349E-03
            4193            4412     14.2549E-03     14.6349E-03
            4195            4413     15.6364E-03     16.0446E-03
            4194            4413     15.6364E-03     16.0446E-03
            4154            4413     15.6364E-03     16.0446E-03
            4155            4413     15.6364E-03     16.0446E-03
            4196            4414     17.2470E-03     17.3639E-03
            4156            4414     17.2470E-03     17.3639E-03
            4155            4414     17.2470E-03     17.3639E-03
            4195            4414     17.2470E-03     17.3639E-03
            4197            4415     18.7806E-03     18.9898E-03
            4156            4415     18.7806E-03     18.9898E-03
            4196            4415     18.7806E-03     18.9898E-03
            4157            4415     18.7806E-03     18.9898E-03
            4198            4416     20.7134E-03     20.5005E-03
            4157            4416     20.7134E-03     20.5005E-03
            4158            4416     20.7134E-03     20.5005E-03
            4197            4416     20.7134E-03     20.5005E-03
            4198            4417     22.4668E-03     22.0111E-03
            4158            4417     22.4668E-03     22.0111E-03
            4159            4417     22.4668E-03     22.0111E-03
            4199            4417     22.4668E-03     22.0111E-03
            4160            4418     23.7048E-03     24.9508E-03
            4199            4418     23.7048E-03     24.9508E-03
            4159            4418     23.7048E-03     24.9508E-03
            4200            4418     23.7048E-03     24.9508E-03
            4201            4419     28.0817E-03     25.4934E-03
            4160            4419     28.0817E-03     25.4934E-03
            4161            4419     28.0817E-03     25.4934E-03
            4200            4419     28.0817E-03     25.4934E-03
            4202            4420     27.8058E-03     27.0922E-03
            4201            4420     27.8058E-03     27.0922E-03
            4161            4420     27.8058E-03     27.0922E-03
            4162            4420     27.8058E-03     27.0922E-03
            4203            4421     24.0215E-03     28.4265E-03
            4163            4421     24.0215E-03     28.4265E-03
            4162            4421     24.0215E-03     28.4265E-03
            4202            4421     24.0215E-03     28.4265E-03
            4204            4422     27.4626E-03     26.7768E-03
            4203            4422     27.4626E-03     26.7768E-03
            4163            4422     27.4626E-03     26.7768E-03
            4164            4422     27.4626E-03     26.7768E-03
            4164            4423     29.9905E-03     29.3006E-03
            4204            4423     29.9905E-03     29.3006E-03
            4165            4423     29.9905E-03     29.3006E-03
            4205            4423     29.9905E-03     29.3006E-03
            4205            4424     30.5114E-03     31.9000E-03
            4165            4424     30.5114E-03     31.9000E-03
            4206            4424     30.5114E-03     31.9000E-03
            4166            4424     30.5114E-03     31.9000E-03
            4207            4425     32.8976E-03     32.8841E-03
            4206            4425     32.8976E-03     32.8841E-03
            4166            4425     32.8976E-03     32.8841E-03
            4167            4425     32.8976E-03     32.8841E-03
            4167            4426     34.8481E-03     34.7152E-03
            4208            4426     34.8481E-03     34.7152E-03
            4168            4426     34.8481E-03     34.7152E-03
            4207            4426     34.8481E-03     34.7152E-03
            4208            4427     36.6037E-03     36.8750E-03
            4169            4427     36.6037E-03     36.8750E-03
            4168            4427     36.6037E-03     36.8750E-03
            4209            4427     36.6037E-03     36.8750E-03
            4209            4428     39.2335E-03     38.6913E-03
            4169            4428     39.2335E-03     38.6913E-03
            4210            4428     39.2335E-03     38.6913E-03
            4170            4428     39.2335E-03     38.6913E-03
            4210            4429     41.4163E-03     40.5692E-03
            4211            4429     41.4163E-03     40.5692E-03
            4170            4429     41.4163E-03     40.5692E-03
            4171            4429     41.4163E-03     40.5692E-03
            4211            4430     42.5593E-03     44.9265E-03
            4212            4430     42.5593E-03     44.9265E-03
            4171            4430     42.5593E-03     44.9265E-03
            4172            4430     42.5593E-03     44.9265E-03
            4212            4431     49.1816E-03     44.8575E-03
            4173            4431     49.1816E-03     44.8575E-03
            4213            4431     49.1816E-03     44.8575E-03
            4172            4431     49.1816E-03     44.8575E-03
            4213            4432     47.7654E-03     46.3793E-03
            4173            4432     47.7654E-03     46.3793E-03
            4214            4432     47.7654E-03     46.3793E-03
            4174            4432     47.7654E-03     46.3793E-03
            4175            4433     40.3693E-03     48.8454E-03
            4215            4433     40.3693E-03     48.8454E-03
            4214            4433     40.3693E-03     48.8454E-03
            4174            4433     40.3693E-03     48.8454E-03
            4216            4434     46.9009E-03     45.4730E-03
            4176            4434     46.9009E-03     45.4730E-03
            4215            4434     46.9009E-03     45.4730E-03
            4175            4434     46.9009E-03     45.4730E-03
            4217            4435     50.9161E-03     48.7326E-03
            4177            4435     50.9161E-03     48.7326E-03
            4216            4435     50.9161E-03     48.7326E-03
            4176            4435     50.9161E-03     48.7326E-03
            4177            4436     50.0611E-03     52.4021E-03
            4218            4436     50.0611E-03     52.4021E-03
            4217            4436     50.0611E-03     52.4021E-03
            4178            4436     50.0611E-03     52.4021E-03
            4179            4437     53.0952E-03     52.5998E-03
            4219            4437     53.0952E-03     52.5998E-03
            4178            4437     53.0952E-03     52.5998E-03
            4218            4437     53.0952E-03     52.5998E-03
            4219            4438     55.0399E-03     55.0843E-03
            4220            4438     55.0399E-03     55.0843E-03
            4180            4438     55.0399E-03     55.0843E-03
            4179            4438     55.0399E-03     55.0843E-03
            4181            4439     57.6269E-03     57.1136E-03
            4220            4439     57.6269E-03     57.1136E-03
            4180            4439     57.6269E-03     57.1136E-03
            4221            4439     57.6269E-03     57.1136E-03
            4222            4440     60.1112E-03     58.8420E-03
            4182            4440     60.1112E-03     58.8420E-03
            4181            4440     60.1112E-03     58.8420E-03
            4221            4440     60.1112E-03     58.8420E-03
            4182            4441     61.0030E-03     64.3233E-03
            4223            4441     61.0030E-03     64.3233E-03
            4222            4441     61.0030E-03     64.3233E-03
            4183            4441     61.0030E-03     64.3233E-03
            4224            4442     69.4737E-03     63.5554E-03
            4184            4442     69.4737E-03     63.5554E-03
            4183            4442     69.4737E-03     63.5554E-03
            4223            4442     69.4737E-03     63.5554E-03
            4184            4443     66.9238E-03     64.8295E-03
            4225            4443     66.9238E-03     64.8295E-03
            4185            4443     66.9238E-03     64.8295E-03
            4224            4443     66.9238E-03     64.8295E-03
            4186            4444     58.3237E-03     66.0636E-03
            4226            4444     58.3237E-03     66.0636E-03
            4185            4444     58.3237E-03     66.0636E-03
            4225            4444     58.3237E-03     66.0636E-03
            4227            4445     6.79654E-03     6.97259E-03
            4228            4445     6.79654E-03     6.97259E-03
            4188            4445     6.79654E-03     6.97259E-03
            4187            4445     6.79654E-03     6.97259E-03
            4228            4446     7.32174E-03     8.15335E-03
            4229            4446     7.32174E-03     8.15335E-03
            4189            4446     7.32174E-03     8.15335E-03
            4188            4446     7.32174E-03     8.15335E-03
            4229            4447     9.52869E-03     8.46310E-03
            4190            4447     9.52869E-03     8.46310E-03
            4230            4447     9.52869E-03     8.46310E-03
            4189            4447     9.52869E-03     8.46310E-03
            4190            4448     10.0858E-03     10.0766E-03
            4231            4448     10.0858E-03     10.0766E-03
            4191            4448     10.0858E-03     10.0766E-03
            4230            4448     10.0858E-03     10.0766E-03
            4192            4449     9.88951E-03     11.5732E-03
            4231            4449     9.88951E-03     11.5732E-03
            4232            4449     9.88951E-03     11.5732E-03
            4191            4449     9.88951E-03     11.5732E-03
            4233            4450     11.8613E-03     11.9197E-03
            4192            4450     11.8613E-03     11.9197E-03
            4193            4450     11.8613E-03     11.9197E-03
            4232            4450     11.8613E-03     11.9197E-03
            4193            4451     13.3123E-03     13.7584E-03
            4194            4451     13.3123E-03     13.7584E-03
            4234            4451     13.3123E-03     13.7584E-03
            4233            4451     13.3123E-03     13.7584E-03
            4234            4452     14.8658E-03     15.3911E-03
            4194            4452     14.8658E-03     15.3911E-03
            4195            4452     14.8658E-03     15.3911E-03
            4235            4452     14.8658E-03     15.3911E-03
            4236            4453     16.9826E-03     17.0107E-03
            4196            4453     16.9826E-03     17.0107E-03
            4235            4453     16.9826E-03     17.0107E-03
            4195            4453     16.9826E-03     17.0107E-03
            4237            4454     18.9302E-03     19.3581E-03
            4197            4454     18.9302E-03     19.3581E-03
            4236            4454     18.9302E-03     19.3581E-03
            4196            4454     18.9302E-03     19.3581E-03
            4198            4455     21.5399E-03     21.5334E-03
            4197            4455     21.5399E-03     21.5334E-03
            4237            4455     21.5399E-03     21.5334E-03
            4238            4455     21.5399E-03     21.5334E-03
            4238            4456     23.8878E-03     23.7100E-03
            4239            4456     23.8878E-03     23.7100E-03
            4199            4456     23.8878E-03     23.7100E-03
            4198            4456     23.8878E-03     23.7100E-03
            4240            4457     25.5664E-03     27.7309E-03
            4199            4457     25.5664E-03     27.7309E-03
            4239            4457     25.5664E-03     27.7309E-03
            4200            4457     25.5664E-03     27.7309E-03
            4200            4458     31.5168E-03     28.2487E-03
            4241            4458     31.5168E-03     28.2487E-03
            4240            4458     31.5168E-03     28.2487E-03
            4201            4458     31.5168E-03     28.2487E-03
            4202            4459     31.4905E-03     31.0383E-03
            4201            4459     31.4905E-03     31.0383E-03
            4242            4459     31.4905E-03     31.0383E-03
            4241            4459     31.4905E-03     31.0383E-03
            4203            4460     26.7864E-03     34.0158E-03
            4202            4460     26.7864E-03     34.0158E-03
            4243            4460     26.7864E-03     34.0158E-03
            4242            4460     26.7864E-03     34.0158E-03
            4243            4461     31.5887E-03     31.1759E-03
            4204            4461     31.5887E-03     31.1759E-03
            4244            4461     31.5887E-03     31.1759E-03
            4203            4461     31.5887E-03     31.1759E-03
            4245            4462     34.3474E-03     33.1547E-03
            4205            4462     34.3474E-03     33.1547E-03
            4204            4462     34.3474E-03     33.1547E-03
            4244            4462     34.3474E-03     33.1547E-03
            4205            4463     33.8594E-03     35.8113E-03
            4206            4463     33.8594E-03     35.8113E-03
            4245            4463     33.8594E-03     35.8113E-03
            4246            4463     33.8594E-03     35.8113E-03
            4206            4464     36.5271E-03     36.6785E-03
            4207            4464     36.5271E-03     36.6785E-03
            4246            4464     36.5271E-03     36.6785E-03
            4247            4464     36.5271E-03     36.6785E-03
            4248            4465     38.7401E-03     39.0606E-03
            4208            4465     38.7401E-03     39.0606E-03
            4247            4465     38.7401E-03     39.0606E-03
            4207            4465     38.7401E-03     39.0606E-03
            4209            4466     40.7743E-03     41.9199E-03
            4208            4466     40.7743E-03     41.9199E-03
            4249            4466     40.7743E-03     41.9199E-03
            4248            4466     40.7743E-03     41.9199E-03
            4209            4467     44.1697E-03     44.3312E-03
            4210            4467     44.1697E-03     44.3312E-03
            4249            4467     44.1697E-03     44.3312E-03
            4250            4467     44.1697E-03     44.3312E-03
            4210            4468     46.9487E-03     46.8024E-03
            4211            4468     46.9487E-03     46.8024E-03
            4250            4468     46.9487E-03     46.8024E-03
            4251            4468     46.9487E-03     46.8024E-03
            4252            4469     48.5694E-03     52.4689E-03
            4211            4469     48.5694E-03     52.4689E-03
            4212            4469     48.5694E-03     52.4689E-03
            4251            4469     48.5694E-03     52.4689E-03
            4212            4470     57.6404E-03     52.2512E-03
            4213            4470     57.6404E-03     52.2512E-03
            4253            4470     57.6404E-03     52.2512E-03
            4252            4470     57.6404E-03     52.2512E-03
            4214            4471     56.5497E-03     55.6184E-03
            4213            4471     56.5497E-03     55.6184E-03
            4253            4471     56.5497E-03     55.6184E-03
            4254            4471     56.5497E-03     55.6184E-03
            4255            4472     47.4768E-03     60.8143E-03
            4214            4472     47.4768E-03     60.8143E-03
            4215            4472     47.4768E-03     60.8143E-03
            4254            4472     47.4768E-03     60.8143E-03
            4255            4473     56.1609E-03     55.1636E-03
            4256            4473     56.1609E-03     55.1636E-03
            4216            4473     56.1609E-03     55.1636E-03
            4215            4473     56.1609E-03     55.1636E-03
            4256            4474     60.2089E-03     57.0899E-03
            4216            4474     60.2089E-03     57.0899E-03
            4257            4474     60.2089E-03     57.0899E-03
            4217            4474     60.2089E-03     57.0899E-03
            4257            4475     57.3709E-03     60.7984E-03
            4258            4475     57.3709E-03     60.7984E-03
            4217            4475     57.3709E-03     60.7984E-03
            4218            4475     57.3709E-03     60.7984E-03
            4219            4476     60.6023E-03     60.4082E-03
            4258            4476     60.6023E-03     60.4082E-03
            4218            4476     60.6023E-03     60.4082E-03
            4259            4476     60.6023E-03     60.4082E-03
            4219            4477     62.6057E-03     63.6677E-03
            4259            4477     62.6057E-03     63.6677E-03
            4220            4477     62.6057E-03     63.6677E-03
            4260            4477     62.6057E-03     63.6677E-03
            4260            4478     65.7864E-03     66.3168E-03
            4221            4478     65.7864E-03     66.3168E-03
            4220            4478     65.7864E-03     66.3168E-03
            4261            4478     65.7864E-03     66.3168E-03
            4222            4479     69.0380E-03     68.5825E-03
            4221            4479     69.0380E-03     68.5825E-03
            4261            4479     69.0380E-03     68.5825E-03
            4262            4479     69.0380E-03     68.5825E-03
            4262            4480     70.4815E-03     75.8506E-03
            4222            4480     70.4815E-03     75.8506E-03
            4263            4480     70.4815E-03     75.8506E-03
            4223            4480     70.4815E-03     75.8506E-03
            4263            4481     82.3915E-03     74.9377E-03
            4224            4481     82.3915E-03     74.9377E-03
            4264            4481     82.3915E-03     74.9377E-03
            4223            4481     82.3915E-03     74.9377E-03
            4264            4482     80.3312E-03     78.8720E-03
            4225            4482     80.3312E-03     78.8720E-03
            4224            4482     80.3312E-03     78.8720E-03
            4265            4482     80.3312E-03     78.8720E-03
            4265            4483     69.4748E-03     80.9025E-03
            4225            4483     69.4748E-03     80.9025E-03
            4226            4483     69.4748E-03     80.9025E-03
            4266            4483     69.4748E-03     80.9025E-03
            4227            4484     3.45819E-03     3.82995E-03
            4228            4484     3.45819E-03     3.82995E-03
            4268            4484     3.45819E-03     3.82995E-03
            4267            4484     3.45819E-03     3.82995E-03
            4229            4485     4.52779E-03     5.79144E-03
            4268            4485     4.52779E-03     5.79144E-03
            4269            4485     4.52779E-03     5.79144E-03
            4228            4485     4.52779E-03     5.79144E-03
            4229            4486     8.32926E-03     6.94299E-03
            4270            4486     8.32926E-03     6.94299E-03
            4269            4486     8.32926E-03     6.94299E-03
            4230            4486     8.32926E-03     6.94299E-03
            4271            4487     9.34295E-03     9.52616E-03
            4230            4487     9.34295E-03     9.52616E-03
            4270            4487     9.34295E-03     9.52616E-03
            4231            4487     9.34295E-03     9.52616E-03
            4231            4488     8.70460E-03     11.2825E-03
            4272            4488     8.70460E-03     11.2825E-03
            4271            4488     8.70460E-03     11.2825E-03
            4232            4488     8.70460E-03     11.2825E-03
            4272            4489     10.9050E-03     10.8828E-03
            4233            4489     10.9050E-03     10.8828E-03
            4273            4489     10.9050E-03     10.8828E-03
            4232            4489     10.9050E-03     10.8828E-03
            4234            4490     12.3846E-03     12.6898E-03
            4273            4490     12.3846E-03     12.6898E-03
            4233            4490     12.3846E-03     12.6898E-03
            4274            4490     12.3846E-03     12.6898E-03
            4234            4491     14.1419E-03     14.8631E-03
            4235            4491     14.1419E-03     14.8631E-03
            4275            4491     14.1419E-03     14.8631E-03
            4274            4491     14.1419E-03     14.8631E-03
            4236            4492     16.9120E-03     17.2178E-03
            4276            4492     16.9120E-03     17.2178E-03
            4235            4492     16.9120E-03     17.2178E-03
            4275            4492     16.9120E-03     17.2178E-03
            4276            4493     19.3538E-03     20.3090E-03
            4236            4493     19.3538E-03     20.3090E-03
            4237            4493     19.3538E-03     20.3090E-03
            4277            4493     19.3538E-03     20.3090E-03
            4278            4494     22.5852E-03     23.1819E-03
            4237            4494     22.5852E-03     23.1819E-03
            4277            4494     22.5852E-03     23.1819E-03
            4238            4494     22.5852E-03     23.1819E-03
            4239            4495     25.6327E-03     25.8429E-03
            4279            4495     25.6327E-03     25.8429E-03
            4238            4495     25.6327E-03     25.8429E-03
            4278            4495     25.6327E-03     25.8429E-03
            4280            4496     27.5232E-03     30.7858E-03
            4239            4496     27.5232E-03     30.7858E-03
            4279            4496     27.5232E-03     30.7858E-03
            4240            4496     27.5232E-03     30.7858E-03
            4281            4497     34.7209E-03     31.7635E-03
            4240            4497     34.7209E-03     31.7635E-03
            4280            4497     34.7209E-03     31.7635E-03
            4241            4497     34.7209E-03     31.7635E-03
            4281            4498     35.0751E-03     34.9784E-03
            4242            4498     35.0751E-03     34.9784E-03
            4282            4498     35.0751E-03     34.9784E-03
            4241            4498     35.0751E-03     34.9784E-03
            4282            4499     29.3720E-03     38.3483E-03
            4243            4499     29.3720E-03     38.3483E-03
            4242            4499     29.3720E-03     38.3483E-03
            4283            4499     29.3720E-03     38.3483E-03
            4243            4500     34.4275E-03     34.1656E-03
            4283            4500     34.4275E-03     34.1656E-03
            4244            4500     34.4275E-03     34.1656E-03
            4284            4500     34.4275E-03     34.1656E-03
            4285            4501     36.6403E-03     35.5234E-03
            4284            4501     36.6403E-03     35.5234E-03
            4245            4501     36.6403E-03     35.5234E-03
            4244            4501     36.6403E-03     35.5234E-03
            4286            4502     35.7784E-03     38.5700E-03
            4285            4502     35.7784E-03     38.5700E-03
            4245            4502     35.7784E-03     38.5700E-03
            4246            4502     35.7784E-03     38.5700E-03
            4246            4503     39.1207E-03     40.0388E-03
            4247            4503     39.1207E-03     40.0388E-03
            4286            4503     39.1207E-03     40.0388E-03
            4287            4503     39.1207E-03     40.0388E-03
            4247            4504     41.8635E-03     43.1883E-03
            4248            4504     41.8635E-03     43.1883E-03
            4287            4504     41.8635E-03     43.1883E-03
            4288            4504     41.8635E-03     43.1883E-03
            4249            4505     44.3342E-03     46.5797E-03
            4288            4505     44.3342E-03     46.5797E-03
            4289            4505     44.3342E-03     46.5797E-03
            4248            4505     44.3342E-03     46.5797E-03
            4290            4506     48.2433E-03     49.6328E-03
            4250            4506     48.2433E-03     49.6328E-03
            4289            4506     48.2433E-03     49.6328E-03
            4249            4506     48.2433E-03     49.6328E-03
            4251            4507     51.6865E-03     52.3727E-03
            4250            4507     51.6865E-03     52.3727E-03
            4291            4507     51.6865E-03     52.3727E-03
            4290            4507     51.6865E-03     52.3727E-03
            4251            4508     53.2150E-03     59.0177E-03
            4252            4508     53.2150E-03     59.0177E-03
            4292            4508     53.2150E-03     59.0177E-03
            4291            4508     53.2150E-03     59.0177E-03
            4293            4509     64.0279E-03     59.2343E-03
            4292            4509     64.0279E-03     59.2343E-03
            4252            4509     64.0279E-03     59.2343E-03
            4253            4509     64.0279E-03     59.2343E-03
            4294            4510     63.6705E-03     63.3418E-03
            4254            4510     63.6705E-03     63.3418E-03
            4253            4510     63.6705E-03     63.3418E-03
            4293            4510     63.6705E-03     63.3418E-03
            4294            4511     53.2164E-03     69.5736E-03
            4254            4511     53.2164E-03     69.5736E-03
            4295            4511     53.2164E-03     69.5736E-03
            4255            4511     53.2164E-03     69.5736E-03
            4295            4512     62.5335E-03     62.0021E-03
            4255            4512     62.5335E-03     62.0021E-03
            4256            4512     62.5335E-03     62.0021E-03
            4296            4512     62.5335E-03     62.0021E-03
            4296            4513     65.6026E-03     62.8174E-03
            4257            4513     65.6026E-03     62.8174E-03
            4297            4513     65.6026E-03     62.8174E-03
            4256            4513     65.6026E-03     62.8174E-03
            4257            4514     61.6917E-03     66.9760E-03
            4297            4514     61.6917E-03     66.9760E-03
            4258            4514     61.6917E-03     66.9760E-03
            4298            4514     61.6917E-03     66.9760E-03
            4298            4515     66.0385E-03     67.0515E-03
            4259            4515     66.0385E-03     67.0515E-03
            4299            4515     66.0385E-03     67.0515E-03
            4258            4515     66.0385E-03     67.0515E-03
            4299            4516     68.2876E-03     71.2526E-03
            4259            4516     68.2876E-03     71.2526E-03
            4300            4516     68.2876E-03     71.2526E-03
            4260            4516     68.2876E-03     71.2526E-03
            4301            4517     72.0703E-03     74.6102E-03
            4300            4517     72.0703E-03     74.6102E-03
            4261            4517     72.0703E-03     74.6102E-03
            4260            4517     72.0703E-03     74.6102E-03
            4261            4518     76.2379E-03     77.1397E-03
            4301            4518     76.2379E-03     77.1397E-03
            4262            4518     76.2379E-03     77.1397E-03
            4302            4518     76.2379E-03     77.1397E-03
            4303            4519     77.3715E-03     85.6222E-03
            4263            4519     77.3715E-03     85.6222E-03
            4262            4519     77.3715E-03     85.6222E-03
            4302            4519     77.3715E-03     85.6222E-03
            4263            4520     91.7431E-03     85.1991E-03
            4303            4520     91.7431E-03     85.1991E-03
            4304            4520     91.7431E-03     85.1991E-03
            4264            4520     91.7431E-03     85.1991E-03
            4305            4521     90.8449E-03     90.3278E-03
            4265            4521     90.8449E-03     90.3278E-03
            4264            4521     90.8449E-03     90.3278E-03
            4304            4521     90.8449E-03     90.3278E-03
            4306            4522     78.0077E-03     91.8096E-03
            4266            4522     78.0077E-03     91.8096E-03
            4305            4522     78.0077E-03     91.8096E-03
            4265            4522     78.0077E-03     91.8096E-03
            4268            4523     3.73319E-03     4.30758E-03
            4307            4523     3.73319E-03     4.30758E-03
            4267            4523     3.73319E-03     4.30758E-03
            4308            4523     3.73319E-03     4.30758E-03
            4308            4524     5.04903E-03     6.14266E-03
            4268            4524     5.04903E-03     6.14266E-03
            4269            4524     5.04903E-03     6.14266E-03
            4309            4524     5.04903E-03     6.14266E-03
            4309            4525     9.51197E-03     8.42587E-03
            4269            4525     9.51197E-03     8.42587E-03
            4310            4525     9.51197E-03     8.42587E-03
            4270            4525     9.51197E-03     8.42587E-03
            4310            4526     12.0051E-03     12.1817E-03
            4270            4526     12.0051E-03     12.1817E-03
            4271            4526     12.0051E-03     12.1817E-03
            4311            4526     12.0051E-03     12.1817E-03
            4312            4527     9.17946E-03     11.1580E-03
            4272            4527     9.17946E-03     11.1580E-03
            4271            4527     9.17946E-03     11.1580E-03
            4311            4527     9.17946E-03     11.1580E-03
            4312            4528     8.76801E-03     8.51477E-03
            4272            4528     8.76801E-03     8.51477E-03
            4273            4528     8.76801E-03     8.51477E-03
            4313            4528     8.76801E-03     8.51477E-03
            4314            4529     11.5811E-03     11.7354E-03
            4273            4529     11.5811E-03     11.7354E-03
            4313            4529     11.5811E-03     11.7354E-03
            4274            4529     11.5811E-03     11.7354E-03
            4314            4530     14.6387E-03     15.0472E-03
            4315            4530     14.6387E-03     15.0472E-03
            4275            4530     14.6387E-03     15.0472E-03
            4274            4530     14.6387E-03     15.0472E-03
            4316            4531     17.9656E-03     18.2197E-03
            4315            4531     17.9656E-03     18.2197E-03
            4275            4531     17.9656E-03     18.2197E-03
            4276            4531     17.9656E-03     18.2197E-03
            4277            4532     21.0476E-03     21.5535E-03
            4276            4532     21.0476E-03     21.5535E-03
            4317            4532     21.0476E-03     21.5535E-03
            4316            4532     21.0476E-03     21.5535E-03
            4318            4533     24.3663E-03     24.8696E-03
            4317            4533     24.3663E-03     24.8696E-03
            4278            4533     24.3663E-03     24.8696E-03
            4277            4533     24.3663E-03     24.8696E-03
            4279            4534     27.9315E-03     27.6970E-03
            4278            4534     27.9315E-03     27.6970E-03
            4319            4534     27.9315E-03     27.6970E-03
            4318            4534     27.9315E-03     27.6970E-03
            4320            4535     30.1493E-03     32.6785E-03
            4280            4535     30.1493E-03     32.6785E-03
            4319            4535     30.1493E-03     32.6785E-03
            4279            4535     30.1493E-03     32.6785E-03
            4280            4536     37.2453E-03     34.9411E-03
            4281            4536     37.2453E-03     34.9411E-03
            4320            4536     37.2453E-03     34.9411E-03
            4321            4536     37.2453E-03     34.9411E-03
            4321            4537     39.7425E-03     39.1460E-03
            4282            4537     39.7425E-03     39.1460E-03
            4322            4537     39.7425E-03     39.1460E-03
            4281            4537     39.7425E-03     39.1460E-03
            4282            4538     32.6710E-03     39.2864E-03
            4323            4538     32.6710E-03     39.2864E-03
            4322            4538     32.6710E-03     39.2864E-03
            4283            4538     32.6710E-03     39.2864E-03
            4283            4539     33.8180E-03     32.7951E-03
            4323            4539     33.8180E-03     32.7951E-03
            4284            4539     33.8180E-03     32.7951E-03
            4324            4539     33.8180E-03     32.7951E-03
            4324            4540     36.6649E-03     35.4237E-03
            4325            4540     36.6649E-03     35.4237E-03
            4284            4540     36.6649E-03     35.4237E-03
            4285            4540     36.6649E-03     35.4237E-03
            4325            4541     37.7570E-03     39.5955E-03
            4286            4541     37.7570E-03     39.5955E-03
            4285            4541     37.7570E-03     39.5955E-03
            4326            4541     37.7570E-03     39.5955E-03
            4327            4542     41.8141E-03     42.1822E-03
            4286            4542     41.8141E-03     42.1822E-03
            4287            4542     41.8141E-03     42.1822E-03
            4326            4542     41.8141E-03     42.1822E-03
            4288            4543     45.0848E-03     45.8783E-03
            4328            4543     45.0848E-03     45.8783E-03
            4327            4543     45.0848E-03     45.8783E-03
            4287            4543     45.0848E-03     45.8783E-03
            4288            4544     48.2571E-03     49.3943E-03
            4289            4544     48.2571E-03     49.3943E-03
            4329            4544     48.2571E-03     49.3943E-03
            4328            4544     48.2571E-03     49.3943E-03
            4290            4545     51.9593E-03     52.9364E-03
            4329            4545     51.9593E-03     52.9364E-03
            4289            4545     51.9593E-03     52.9364E-03
            4330            4545     51.9593E-03     52.9364E-03
            4331            4546     55.9604E-03     55.7447E-03
            4291            4546     55.9604E-03     55.7447E-03
            4330            4546     55.9604E-03     55.7447E-03
            4290            4546     55.9604E-03     55.7447E-03
            4331            4547     57.7511E-03     62.1007E-03
            4292            4547     57.7511E-03     62.1007E-03
            4291            4547     57.7511E-03     62.1007E-03
            4332            4547     57.7511E-03     62.1007E-03
            4293            4548     67.7719E-03     63.8948E-03
            4333            4548     67.7719E-03     63.8948E-03
            4292            4548     67.7719E-03     63.8948E-03
            4332            4548     67.7719E-03     63.8948E-03
            4333            4549     70.3996E-03     69.1078E-03
            4293            4549     70.3996E-03     69.1078E-03
            4334            4549     70.3996E-03     69.1078E-03
            4294            4549     70.3996E-03     69.1078E-03
            4334            4550     59.5775E-03     71.6957E-03
            4335            4550     59.5775E-03     71.6957E-03
            4294            4550     59.5775E-03     71.6957E-03
            4295            4550     59.5775E-03     71.6957E-03
            4295            4551     63.7209E-03     61.9567E-03
            4335            4551     63.7209E-03     61.9567E-03
            4336            4551     63.7209E-03     61.9567E-03
            4296            4551     63.7209E-03     61.9567E-03
            4337            4552     66.8148E-03     64.1188E-03
            4297            4552     66.8148E-03     64.1188E-03
            4296            4552     66.8148E-03     64.1188E-03
            4336            4552     66.8148E-03     64.1188E-03
            4297            4553     65.6770E-03     69.2940E-03
            4337            4553     65.6770E-03     69.2940E-03
            4338            4553     65.6770E-03     69.2940E-03
            4298            4553     65.6770E-03     69.2940E-03
            4338            4554     70.7586E-03     71.0636E-03
            4298            4554     70.7586E-03     71.0636E-03
            4339            4554     70.7586E-03     71.0636E-03
            4299            4554     70.7586E-03     71.0636E-03
            4300            4555     73.8923E-03     75.5883E-03
            4339            4555     73.8923E-03     75.5883E-03
            4340            4555     73.8923E-03     75.5883E-03
            4299            4555     73.8923E-03     75.5883E-03
            4301            4556     77.8004E-03     79.5037E-03
            4340            4556     77.8004E-03     79.5037E-03
            4300            4556     77.8004E-03     79.5037E-03
            4341            4556     77.8004E-03     79.5037E-03
            4302            4557     82.5086E-03     82.2506E-03
            4342            4557     82.5086E-03     82.2506E-03
            4301            4557     82.5086E-03     82.2506E-03
            4341            4557     82.5086E-03     82.2506E-03
            4343            4558     83.9558E-03     90.0962E-03
            4342            4558     83.9558E-03     90.0962E-03
            4303            4558     83.9558E-03     90.0962E-03
            4302            4558     83.9558E-03     90.0962E-03
            4304            4559     96.9176E-03     91.5439E-03
            4303            4559     96.9176E-03     91.5439E-03
            4344            4559     96.9176E-03     91.5439E-03
            4343            4559     96.9176E-03     91.5439E-03
            4344            4560     99.8258E-03     97.8835E-03
            4304            4560     99.8258E-03     97.8835E-03
            4345            4560     99.8258E-03     97.8835E-03
            4305            4560     99.8258E-03     97.8835E-03
            4345            4561     86.8497E-03     97.6980E-03
            4305            4561     86.8497E-03     97.6980E-03
            4306            4561     86.8497E-03     97.6980E-03
            4346            4561     86.8497E-03     97.6980E-03
            5283            5395     34.8034E-03     33.7866E-03
            5290            5395     34.8034E-03     33.7866E-03
            5289            5395     34.8034E-03     33.7866E-03
            5284            5395     34.8034E-03     33.7866E-03
            5290            5396     37.3485E-03     35.7381E-03
            5284            5396     37.3485E-03     35.7381E-03
            5291            5396     37.3485E-03     35.7381E-03
            5285            5396     37.3485E-03     35.7381E-03
            5292            5397     36.2534E-03     40.1358E-03
            5291            5397     36.2534E-03     40.1358E-03
            5286            5397     36.2534E-03     40.1358E-03
            5285            5397     36.2534E-03     40.1358E-03
            5287            5398     42.0679E-03     38.8287E-03
            5292            5398     42.0679E-03     38.8287E-03
            5286            5398     42.0679E-03     38.8287E-03
            5293            5398     42.0679E-03     38.8287E-03
            5288            5399     40.7399E-03     39.7104E-03
            5287            5399     40.7399E-03     39.7104E-03
            5293            5399     40.7399E-03     39.7104E-03
            5294            5399     40.7399E-03     39.7104E-03
            5295            5400     51.5492E-03     49.0082E-03
            5290            5400     51.5492E-03     49.0082E-03
            5296            5400     51.5492E-03     49.0082E-03
            5289            5400     51.5492E-03     49.0082E-03
            5296            5401     55.9312E-03     53.0896E-03
            5297            5401     55.9312E-03     53.0896E-03
            5291            5401     55.9312E-03     53.0896E-03
            5290            5401     55.9312E-03     53.0896E-03
            5297            5402     53.7289E-03     60.1700E-03
            5292            5402     53.7289E-03     60.1700E-03
            5291            5402     53.7289E-03     60.1700E-03
            5298            5402     53.7289E-03     60.1700E-03
            5298            5403     62.0652E-03     57.1371E-03
            5293            5403     62.0652E-03     57.1371E-03
            5292            5403     62.0652E-03     57.1371E-03
            5299            5403     62.0652E-03     57.1371E-03
            5293            5404     59.3715E-03     58.0368E-03
            5300            5404     59.3715E-03     58.0368E-03
            5294            5404     59.3715E-03     58.0368E-03
            5299            5404     59.3715E-03     58.0368E-03
            5301            5405     67.5110E-03     63.9219E-03
            5296            5405     67.5110E-03     63.9219E-03
            5295            5405     67.5110E-03     63.9219E-03
            5302            5405     67.5110E-03     63.9219E-03
            5296            5406     73.5977E-03     68.8987E-03
            5297            5406     73.5977E-03     68.8987E-03
            5302            5406     73.5977E-03     68.8987E-03
            5303            5406     73.5977E-03     68.8987E-03
            5298            5407     70.2745E-03     77.8201E-03
            5304            5407     70.2745E-03     77.8201E-03
            5303            5407     70.2745E-03     77.8201E-03
            5297            5407     70.2745E-03     77.8201E-03
            5299            5408     81.0441E-03     73.4011E-03
            5298            5408     81.0441E-03     73.4011E-03
            5305            5408     81.0441E-03     73.4011E-03
            5304            5408     81.0441E-03     73.4011E-03
            5300            5409     76.9070E-03     74.7917E-03
            5305            5409     76.9070E-03     74.7917E-03
            5306            5409     76.9070E-03     74.7917E-03
            5299            5409     76.9070E-03     74.7917E-03
            5301            5410     81.4301E-03     77.4566E-03
            5302            5410     81.4301E-03     77.4566E-03
            5308            5410     81.4301E-03     77.4566E-03
            5307            5410     81.4301E-03     77.4566E-03
            5302            5411     87.8746E-03     80.7453E-03
            5308            5411     87.8746E-03     80.7453E-03
            5303            5411     87.8746E-03     80.7453E-03
            5309            5411     87.8746E-03     80.7453E-03
            5303            5412     82.2204E-03     91.2158E-03
            5310            5412     82.2204E-03     91.2158E-03
            5304            5412     82.2204E-03     91.2158E-03
            5309            5412     82.2204E-03     91.2158E-03
            5304            5413     96.1899E-03     85.4189E-03
            5311            5413     96.1899E-03     85.4189E-03
            5310            5413     96.1899E-03     85.4189E-03
            5305            5413     96.1899E-03     85.4189E-03
            5311            5414     91.9957E-03     89.9626E-03
            5306            5414     91.9957E-03     89.9626E-03
            5305            5414     91.9957E-03     89.9626E-03
            5312            5414     91.9957E-03     89.9626E-03
            5313            5415     90.6733E-03     88.2322E-03
            5314            5415     90.6733E-03     88.2322E-03
            5308            5415     90.6733E-03     88.2322E-03
            5307            5415     90.6733E-03     88.2322E-03
            5308            5416     96.5047E-03     89.6158E-03
            5315            5416     96.5047E-03     89.6158E-03
            5314            5416     96.5047E-03     89.6158E-03
            5309            5416     96.5047E-03     89.6158E-03
            5315            5417     88.8469E-03     101.666E-03
            5309            5417     88.8469E-03     101.666E-03
            5310            5417     88.8469E-03     101.666E-03
            5316            5417     88.8469E-03     101.666E-03
            5317            5418     106.956E-03     96.7397E-03
            5316            5418     106.956E-03     96.7397E-03
            5311            5418     106.956E-03     96.7397E-03
            5310            5418     106.956E-03     96.7397E-03
            5312            5419     104.805E-03     103.828E-03
            5317            5419     104.805E-03     103.828E-03
            5311            5419     104.805E-03     103.828E-03
            5318            5419     104.805E-03     103.828E-03
            5314            5420     93.0616E-03     91.3604E-03
            5320            5420     93.0616E-03     91.3604E-03
            5313            5420     93.0616E-03     91.3604E-03
            5319            5420     93.0616E-03     91.3604E-03
            5314            5421     99.8580E-03     93.6460E-03
            5315            5421     99.8580E-03     93.6460E-03
            5320            5421     99.8580E-03     93.6460E-03
            5321            5421     99.8580E-03     93.6460E-03
            5316            5422     95.8147E-03     106.206E-03
            5321            5422     95.8147E-03     106.206E-03
            5315            5422     95.8147E-03     106.206E-03
            5322            5422     95.8147E-03     106.206E-03
            5323            5423     113.797E-03     105.465E-03
            5316            5423     113.797E-03     105.465E-03
            5322            5423     113.797E-03     105.465E-03
            5317            5423     113.797E-03     105.465E-03
            5323            5424     117.265E-03     114.637E-03
            5317            5424     117.265E-03     114.637E-03
            5318            5424     117.265E-03     114.637E-03
            5324            5424     117.265E-03     114.637E-03
            6568            6525     658.520E-06     644.182E-06
            6574            6525     658.520E-06     644.182E-06
            6573            6525     658.520E-06     644.182E-06
            6567            6525     658.520E-06     644.182E-06
            6569            6526     659.003E-06     651.685E-06
            6574            6526     659.003E-06     651.685E-06
            6575            6526     659.003E-06     651.685E-06
            6568            6526     659.003E-06     651.685E-06
            6576            6527     648.899E-06     649.761E-06
            6575            6527     648.899E-06     649.761E-06
            6570            6527     648.899E-06     649.761E-06
            6569            6527     648.899E-06     649.761E-06
            6571            6528     652.196E-06     644.700E-06
            6576            6528     652.196E-06     644.700E-06
            6577            6528     652.196E-06     644.700E-06
            6570            6528     652.196E-06     644.700E-06
            6577            6529     648.901E-06     641.173E-06
            6578            6529     648.901E-06     641.173E-06
            6572            6529     648.901E-06     641.173E-06
            6571            6529     648.901E-06     641.173E-06
            6574            6530     626.578E-06     617.197E-06
            6579            6530     626.578E-06     617.197E-06
            6580            6530     626.578E-06     617.197E-06
            6573            6530     626.578E-06     617.197E-06
            6574            6531     624.852E-06     613.229E-06
            6581            6531     624.852E-06     613.229E-06
            6575            6531     624.852E-06     613.229E-06
            6580            6531     624.852E-06     613.229E-06
            6576            6532     600.697E-06     604.153E-06
            6575            6532     600.697E-06     604.153E-06
            6582            6532     600.697E-06     604.153E-06
            6581            6532     600.697E-06     604.153E-06
            6576            6533     598.553E-06     591.331E-06
            6577            6533     598.553E-06     591.331E-06
            6582            6533     598.553E-06     591.331E-06
            6583            6533     598.553E-06     591.331E-06
            6578            6534     592.650E-06     585.073E-06
            6577            6534     592.650E-06     585.073E-06
            6584            6534     592.650E-06     585.073E-06
            6583            6534     592.650E-06     585.073E-06
            6585            6535     585.636E-06     573.725E-06
            6580            6535     585.636E-06     573.725E-06
            6586            6535     585.636E-06     573.725E-06
            6579            6535     585.636E-06     573.725E-06
            6586            6536     574.452E-06     548.530E-06
            6580            6536     574.452E-06     548.530E-06
            6581            6536     574.452E-06     548.530E-06
            6587            6536     574.452E-06     548.530E-06
            6588            6537     521.338E-06     534.038E-06
            6581            6537     521.338E-06     534.038E-06
            6587            6537     521.338E-06     534.038E-06
            6582            6537     521.338E-06     534.038E-06
            6583            6538     507.694E-06     508.476E-06
            6582            6538     507.694E-06     508.476E-06
            6588            6538     507.694E-06     508.476E-06
            6589            6538     507.694E-06     508.476E-06
            6589            6539     499.926E-06     495.476E-06
            6590            6539     499.926E-06     495.476E-06
            6583            6539     499.926E-06     495.476E-06
            6584            6539     499.926E-06     495.476E-06
            6591            6540     530.996E-06     523.403E-06
            6586            6540     530.996E-06     523.403E-06
            6592            6540     530.996E-06     523.403E-06
            6585            6540     530.996E-06     523.403E-06
            6592            6541     510.868E-06     463.168E-06
            6587            6541     510.868E-06     463.168E-06
            6586            6541     510.868E-06     463.168E-06
            6593            6541     510.868E-06     463.168E-06
            6594            6542     420.350E-06     442.998E-06
            6588            6542     420.350E-06     442.998E-06
            6593            6542     420.350E-06     442.998E-06
            6587            6542     420.350E-06     442.998E-06
            6589            6543     389.341E-06     398.753E-06
            6594            6543     389.341E-06     398.753E-06
            6595            6543     389.341E-06     398.753E-06
            6588            6543     389.341E-06     398.753E-06
            6595            6544     369.735E-06     375.428E-06
            6596            6544     369.735E-06     375.428E-06
            6589            6544     369.735E-06     375.428E-06
            6590            6544     369.735E-06     375.428E-06
            6598            6545     505.050E-06     512.485E-06
            6597            6545     505.050E-06     512.485E-06
            6592            6545     505.050E-06     512.485E-06
            6591            6545     505.050E-06     512.485E-06
            6593            6546     463.353E-06     410.369E-06
            6599            6546     463.353E-06     410.369E-06
            6592            6546     463.353E-06     410.369E-06
            6598            6546     463.353E-06     410.369E-06
            6599            6547     310.268E-06     336.560E-06
            6593            6547     310.268E-06     336.560E-06
            6594            6547     310.268E-06     336.560E-06
            6600            6547     310.268E-06     336.560E-06
            6600            6548     248.301E-06     247.372E-06
            6594            6548     248.301E-06     247.372E-06
            6601            6548     248.301E-06     247.372E-06
            6595            6548     248.301E-06     247.372E-06
            6595            6549     216.252E-06     234.555E-06
            6601            6549     216.252E-06     234.555E-06
            6596            6549     216.252E-06     234.555E-06
            6602            6549     216.252E-06     234.555E-06
            6597            6550     607.351E-06     611.671E-06
            6603            6550     607.351E-06     611.671E-06
            6598            6550     607.351E-06     611.671E-06
            6604            6550     607.351E-06     611.671E-06
            6605            6551     486.570E-06     447.993E-06
            6599            6551     486.570E-06     447.993E-06
            6598            6551     486.570E-06     447.993E-06
            6604            6551     486.570E-06     447.993E-06
            6600            6552     283.655E-06     312.636E-06
            6605            6552     283.655E-06     312.636E-06
            6599            6552     283.655E-06     312.636E-06
            6606            6552     283.655E-06     312.636E-06
            6600            6553     195.969E-06     179.074E-06
            6601            6553     195.969E-06     179.074E-06
            6607            6553     195.969E-06     179.074E-06
            6606            6553     195.969E-06     179.074E-06
            6607            6554     157.504E-06     197.561E-06
            6602            6554     157.504E-06     197.561E-06
            6601            6554     157.504E-06     197.561E-06
            6608            6554     157.504E-06     197.561E-06


  Minimum                            152.641E-06     179.074E-06
      At Element                            1784            6607
            Node                              18            6553

  Maximum                            221.670E-03     215.455E-03
      At Element                            2380            2380
            Node                             524             524

           Total                         219.573         222.586


Field Output reported at element nodes for region: A320-1.Region_4
   Computation algorithm: EXTRAPOLATE_COMPUTE_AVERAGE
   Averaged at nodes
   Averaging regions: ODB_REGIONS

   Element Label      Node Label         S.Mises         S.Mises
                                          @Loc 1          @Loc 2
-----------------------------------------------------------------
            5049              13     1.85215E-03     2.48134E-03
            5739              13     1.85215E-03     2.48134E-03
            5829              14     112.100E-06     214.044E-06
            2510              16     1.32945E-03     2.44646E-03
             785              16     1.32945E-03     2.44646E-03
            2493              17     3.88979E-03     4.48972E-03
             802              17     3.88979E-03     4.48972E-03
             856              18     84.3043E-06     183.631E-06
             839              19     251.216E-06     296.436E-06
            3392              20     62.3936E-03     63.1355E-03
            2402              20     62.3936E-03     63.1355E-03
            3375              21     95.5086E-03     98.4754E-03
            2385              21     95.5086E-03     98.4754E-03
            5175              22     156.922E-03     160.911E-03
            2475              22     156.922E-03     160.911E-03
            5192              23     89.7829E-03     82.9192E-03
            2492              23     89.7829E-03     82.9192E-03
            4364              24     16.1997E-03     19.7161E-03
            5282              24     16.1997E-03     19.7161E-03
            5265              25     84.1009E-03     85.2362E-03
            4347              25     84.1009E-03     85.2362E-03
            5066              26     3.49169E-03     3.49466E-03
            5756              26     3.49169E-03     3.49466E-03
            5846              28     268.471E-06     327.164E-06
            5739             194     572.569E-06     602.467E-06
            5757             194     572.569E-06     602.467E-06
            5775             195     426.628E-06     421.158E-06
            5757             195     426.628E-06     421.158E-06
            5793             196     277.204E-06     279.645E-06
            5775             196     277.204E-06     279.645E-06
            5811             197     154.056E-06     137.597E-06
            5793             197     154.056E-06     137.597E-06
            5829             198     96.2626E-06     150.545E-06
            5811             198     96.2626E-06     150.545E-06
            2510             289     973.759E-06     1.48363E-03
             786             289     973.759E-06     1.48363E-03
             785             289     973.759E-06     1.48363E-03
            2509             289     973.759E-06     1.48363E-03
             786             290     866.857E-06     569.482E-06
            2508             290     866.857E-06     569.482E-06
             787             290     866.857E-06     569.482E-06
            2509             290     866.857E-06     569.482E-06
            2508             291     1.32978E-03     852.299E-06
            2507             291     1.32978E-03     852.299E-06
             788             291     1.32978E-03     852.299E-06
             787             291     1.32978E-03     852.299E-06
             788             292     1.66619E-03     1.22619E-03
             789             292     1.66619E-03     1.22619E-03
            2507             292     1.66619E-03     1.22619E-03
            2506             292     1.66619E-03     1.22619E-03
            2505             293     1.87444E-03     1.45033E-03
             790             293     1.87444E-03     1.45033E-03
             789             293     1.87444E-03     1.45033E-03
            2506             293     1.87444E-03     1.45033E-03
             791             294     2.02738E-03     1.60976E-03
            2505             294     2.02738E-03     1.60976E-03
             790             294     2.02738E-03     1.60976E-03
            2504             294     2.02738E-03     1.60976E-03
             792             295     2.14029E-03     1.72874E-03
             791             295     2.14029E-03     1.72874E-03
            2503             295     2.14029E-03     1.72874E-03
            2504             295     2.14029E-03     1.72874E-03
            2502             296     2.23430E-03     1.82461E-03
            2503             296     2.23430E-03     1.82461E-03
             792             296     2.23430E-03     1.82461E-03
             793             296     2.23430E-03     1.82461E-03
            2501             297     2.32045E-03     1.91501E-03
             793             297     2.32045E-03     1.91501E-03
             794             297     2.32045E-03     1.91501E-03
            2502             297     2.32045E-03     1.91501E-03
             795             298     2.40595E-03     2.00253E-03
            2500             298     2.40595E-03     2.00253E-03
             794             298     2.40595E-03     2.00253E-03
            2501             298     2.40595E-03     2.00253E-03
            2499             299     2.49253E-03     2.09538E-03
             795             299     2.49253E-03     2.09538E-03
             796             299     2.49253E-03     2.09538E-03
            2500             299     2.49253E-03     2.09538E-03
             796             300     2.58620E-03     2.19687E-03
             797             300     2.58620E-03     2.19687E-03
            2499             300     2.58620E-03     2.19687E-03
            2498             300     2.58620E-03     2.19687E-03
             797             301     2.67862E-03     2.30571E-03
             798             301     2.67862E-03     2.30571E-03
            2497             301     2.67862E-03     2.30571E-03
            2498             301     2.67862E-03     2.30571E-03
             798             302     2.76689E-03     2.42480E-03
            2497             302     2.76689E-03     2.42480E-03
            2496             302     2.76689E-03     2.42480E-03
             799             302     2.76689E-03     2.42480E-03
            2496             303     2.84792E-03     2.56005E-03
            2495             303     2.84792E-03     2.56005E-03
             800             303     2.84792E-03     2.56005E-03
             799             303     2.84792E-03     2.56005E-03
            2494             304     2.85167E-03     2.73190E-03
             800             304     2.85167E-03     2.73190E-03
             801             304     2.85167E-03     2.73190E-03
            2495             304     2.85167E-03     2.73190E-03
            2493             305     3.35728E-03     3.66308E-03
             801             305     3.35728E-03     3.66308E-03
             802             305     3.35728E-03     3.66308E-03
            2494             305     3.35728E-03     3.66308E-03
             820             306     319.364E-06     353.735E-06
             802             306     319.364E-06     353.735E-06
             838             307     151.911E-06     156.375E-06
             820             307     151.911E-06     156.375E-06
             838             308     59.9919E-06     139.587E-06
             856             308     59.9919E-06     139.587E-06
             856             309     179.240E-06     200.698E-06
             855             309     179.240E-06     200.698E-06
             855             310     279.983E-06     236.389E-06
             854             310     279.983E-06     236.389E-06
             853             311     308.555E-06     269.467E-06
             854             311     308.555E-06     269.467E-06
             852             312     319.877E-06     277.651E-06
             853             312     319.877E-06     277.651E-06
             852             313     312.786E-06     275.739E-06
             851             313     312.786E-06     275.739E-06
             850             314     312.141E-06     276.255E-06
             851             314     312.141E-06     276.255E-06
             849             315     307.707E-06     274.001E-06
             850             315     307.707E-06     274.001E-06
             849             316     305.339E-06     273.851E-06
             848             316     305.339E-06     273.851E-06
             848             317     301.687E-06     272.639E-06
             847             317     301.687E-06     272.639E-06
             846             318     298.896E-06     272.446E-06
             847             318     298.896E-06     272.446E-06
             845             319     295.690E-06     272.114E-06
             846             319     295.690E-06     272.114E-06
             845             320     292.899E-06     272.376E-06
             844             320     292.899E-06     272.376E-06
             843             321     290.307E-06     272.575E-06
             844             321     290.307E-06     272.575E-06
             843             322     287.160E-06     274.277E-06
             842             322     287.160E-06     274.277E-06
             842             323     285.861E-06     274.323E-06
             841             323     285.861E-06     274.323E-06
             840             324     283.009E-06     274.139E-06
             841             324     283.009E-06     274.139E-06
             839             325     265.233E-06     285.861E-06
             840             325     265.233E-06     285.861E-06
             821             326     274.951E-06     275.731E-06
             839             326     274.951E-06     275.731E-06
             803             327     296.404E-06     250.080E-06
             821             327     296.404E-06     250.080E-06
             803             328     265.711E-06     264.344E-06
             785             328     265.711E-06     264.344E-06
            3374             363     37.6947E-03     39.5369E-03
            3392             363     37.6947E-03     39.5369E-03
            3356             364     32.1830E-03     34.5704E-03
            3374             364     32.1830E-03     34.5704E-03
            3356             365     30.0295E-03     31.9888E-03
            3338             365     30.0295E-03     31.9888E-03
            3320             366     28.6329E-03     30.7246E-03
            3338             366     28.6329E-03     30.7246E-03
            3320             367     27.8759E-03     29.6568E-03
            3302             367     27.8759E-03     29.6568E-03
            3284             368     27.1616E-03     29.2697E-03
            3302             368     27.1616E-03     29.2697E-03
            3266             369     27.1949E-03     28.6295E-03
            3284             369     27.1949E-03     28.6295E-03
            3266             370     27.1905E-03     29.8415E-03
            3248             370     27.1905E-03     29.8415E-03
            3230             371     30.3286E-03     31.7853E-03
            3248             371     30.3286E-03     31.7853E-03
            3212             372     33.9466E-03     33.2725E-03
            3230             372     33.9466E-03     33.2725E-03
            3194             373     30.6290E-03     32.0157E-03
            3212             373     30.6290E-03     32.0157E-03
            3194             374     26.1180E-03     27.8005E-03
            3176             374     26.1180E-03     27.8005E-03
            3176             375     24.1424E-03     25.5865E-03
            3158             375     24.1424E-03     25.5865E-03
            3140             376     22.9284E-03     24.3495E-03
            3158             376     22.9284E-03     24.3495E-03
            3140             377     21.9755E-03     23.3773E-03
            3122             377     21.9755E-03     23.3773E-03
            3122             378     21.3761E-03     22.5657E-03
            3104             378     21.3761E-03     22.5657E-03
            3086             379     20.6712E-03     22.1571E-03
            3104             379     20.6712E-03     22.1571E-03
            3068             380     20.5510E-03     21.4685E-03
            3086             380     20.5510E-03     21.4685E-03
            3068             381     20.2710E-03     22.2050E-03
            3050             381     20.2710E-03     22.2050E-03
            3032             382     22.2730E-03     23.3942E-03
            3050             382     22.2730E-03     23.3942E-03
            3014             383     24.8025E-03     24.5673E-03
            3032             383     24.8025E-03     24.5673E-03
            3014             384     22.5862E-03     23.6423E-03
            2996             384     22.5862E-03     23.6423E-03
            2978             385     19.1468E-03     20.1471E-03
            2996             385     19.1468E-03     20.1471E-03
            2978             386     17.3680E-03     18.3270E-03
            2960             386     17.3680E-03     18.3270E-03
            2960             387     16.2792E-03     17.1360E-03
            2942             387     16.2792E-03     17.1360E-03
            2924             388     15.3216E-03     16.1943E-03
            2942             388     15.3216E-03     16.1943E-03
            2906             389     14.6643E-03     15.3474E-03
            2924             389     14.6643E-03     15.3474E-03
            2906             390     13.8947E-03     14.7998E-03
            2888             390     13.8947E-03     14.7998E-03
            2870             391     13.5296E-03     14.0098E-03
            2888             391     13.5296E-03     14.0098E-03
            2870             392     13.0180E-03     14.2068E-03
            2852             392     13.0180E-03     14.2068E-03
            2834             393     13.7808E-03     14.6442E-03
            2852             393     13.7808E-03     14.6442E-03
            2816             394     15.5342E-03     15.8489E-03
            2834             394     15.5342E-03     15.8489E-03
            2816             395     14.7077E-03     15.5027E-03
            2798             395     14.7077E-03     15.5027E-03
            2780             396     12.3117E-03     12.6902E-03
            2798             396     12.3117E-03     12.6902E-03
            2762             397     10.7292E-03     11.2318E-03
            2780             397     10.7292E-03     11.2318E-03
            2744             398     9.77075E-03     10.0971E-03
            2762             398     9.77075E-03     10.0971E-03
            2726             399     8.83674E-03     9.19875E-03
            2744             399     8.83674E-03     9.19875E-03
            2726             400     8.16351E-03     8.35217E-03
            2708             400     8.16351E-03     8.35217E-03
            2690             401     7.40739E-03     7.73456E-03
            2708             401     7.40739E-03     7.73456E-03
            2672             402     6.89358E-03     6.94730E-03
            2690             402     6.89358E-03     6.94730E-03
            2654             403     6.41790E-03     6.77524E-03
            2672             403     6.41790E-03     6.77524E-03
            2636             404     6.00752E-03     6.97595E-03
            2654             404     6.00752E-03     6.97595E-03
            2636             405     6.60764E-03     7.85613E-03
            2618             405     6.60764E-03     7.85613E-03
            2618             406     6.61250E-03     7.27690E-03
            2600             406     6.61250E-03     7.27690E-03
            2582             407     4.99988E-03     4.83853E-03
            2600             407     4.99988E-03     4.83853E-03
            2582             408     3.53250E-03     3.59134E-03
            2564             408     3.53250E-03     3.59134E-03
            2546             409     2.79413E-03     2.46232E-03
            2564             409     2.79413E-03     2.46232E-03
            2528             410     2.71548E-03     2.20203E-03
            2546             410     2.71548E-03     2.20203E-03
            2510             411     2.67383E-03     3.58388E-03
            2528             411     2.67383E-03     3.58388E-03
            3357             440     81.5822E-03     82.3180E-03
            3375             440     81.5822E-03     82.3180E-03
            3339             441     79.5958E-03     79.8114E-03
            3357             441     79.5958E-03     79.8114E-03
            3321             442     76.9286E-03     78.5960E-03
            3339             442     76.9286E-03     78.5960E-03
            3303             443     74.9954E-03     75.6204E-03
            3321             443     74.9954E-03     75.6204E-03
            3285             444     72.3966E-03     73.5271E-03
            3303             444     72.3966E-03     73.5271E-03
            3267             445     70.2251E-03     70.7003E-03
            3285             445     70.2251E-03     70.7003E-03
            3249             446     67.4774E-03     68.2424E-03
            3267             446     67.4774E-03     68.2424E-03
            3231             447     64.4926E-03     64.5438E-03
            3249             447     64.4926E-03     64.5438E-03
            3231             448     60.8675E-03     59.6124E-03
            3213             448     60.8675E-03     59.6124E-03
            3195             449     60.5863E-03     61.9727E-03
            3213             449     60.5863E-03     61.9727E-03
            3195             450     62.7005E-03     63.4415E-03
            3177             450     62.7005E-03     63.4415E-03
            3159             451     60.8713E-03     61.0379E-03
            3177             451     60.8713E-03     61.0379E-03
            3141             452     58.4879E-03     59.7585E-03
            3159             452     58.4879E-03     59.7585E-03
            3123             453     56.6806E-03     57.1989E-03
            3141             453     56.6806E-03     57.1989E-03
            3105             454     54.4845E-03     55.2582E-03
            3123             454     54.4845E-03     55.2582E-03
            3087             455     52.5367E-03     52.9966E-03
            3105             455     52.5367E-03     52.9966E-03
            3087             456     50.3122E-03     50.7091E-03
            3069             456     50.3122E-03     50.7091E-03
            3069             457     48.1027E-03     48.3598E-03
            3051             457     48.1027E-03     48.3598E-03
            3051             458     45.4368E-03     45.4216E-03
            3033             458     45.4368E-03     45.4216E-03
            3015             459     42.3487E-03     41.2205E-03
            3033             459     42.3487E-03     41.2205E-03
            2997             460     42.0464E-03     43.0596E-03
            3015             460     42.0464E-03     43.0596E-03
            2979             461     43.5971E-03     44.3569E-03
            2997             461     43.5971E-03     44.3569E-03
            2961             462     41.9379E-03     42.0159E-03
            2979             462     41.9379E-03     42.0159E-03
            2943             463     39.8180E-03     40.7296E-03
            2961             463     39.8180E-03     40.7296E-03
            2943             464     38.2040E-03     38.5211E-03
            2925             464     38.2040E-03     38.5211E-03
            2925             465     36.2822E-03     36.7856E-03
            2907             465     36.2822E-03     36.7856E-03
            2889             466     34.5956E-03     34.8132E-03
            2907             466     34.5956E-03     34.8132E-03
            2889             467     32.6794E-03     32.8707E-03
            2871             467     32.6794E-03     32.8707E-03
            2853             468     30.8297E-03     30.8021E-03
            2871             468     30.8297E-03     30.8021E-03
            2853             469     28.6026E-03     28.4629E-03
            2835             469     28.6026E-03     28.4629E-03
            2817             470     25.9725E-03     25.0887E-03
            2835             470     25.9725E-03     25.0887E-03
            2817             471     25.6495E-03     26.4307E-03
            2799             471     25.6495E-03     26.4307E-03
            2781             472     26.7765E-03     27.5394E-03
            2799             472     26.7765E-03     27.5394E-03
            2763             473     25.4165E-03     25.3723E-03
            2781             473     25.4165E-03     25.3723E-03
            2745             474     23.6459E-03     24.1896E-03
            2763             474     23.6459E-03     24.1896E-03
            2745             475     22.3183E-03     22.4243E-03
            2727             475     22.3183E-03     22.4243E-03
            2709             476     20.7746E-03     21.0009E-03
            2727             476     20.7746E-03     21.0009E-03
            2709             477     19.4614E-03     19.4440E-03
            2691             477     19.4614E-03     19.4440E-03
            2691             478     18.0116E-03     17.9859E-03
            2673             478     18.0116E-03     17.9859E-03
            2655             479     16.6775E-03     16.4042E-03
            2673             479     16.6775E-03     16.4042E-03
            2637             480     15.1794E-03     14.8434E-03
            2655             480     15.1794E-03     14.8434E-03
            2619             481     13.2009E-03     12.8674E-03
            2637             481     13.2009E-03     12.8674E-03
            2601             482     12.0188E-03     12.9066E-03
            2619             482     12.0188E-03     12.9066E-03
            2601             483     12.0252E-03     12.7114E-03
            2583             483     12.0252E-03     12.7114E-03
            2583             484     11.3039E-03     10.9902E-03
            2565             484     11.3039E-03     10.9902E-03
            2565             485     10.2441E-03     10.2299E-03
            2547             485     10.2441E-03     10.2299E-03
            2547             486     9.58554E-03     9.27077E-03
            2529             486     9.58554E-03     9.27077E-03
            2511             487     8.96538E-03     8.58507E-03
            2529             487     8.96538E-03     8.58507E-03
            2493             488     8.07595E-03     8.42342E-03
            2511             488     8.07595E-03     8.42342E-03
            2403             520     138.733E-03     143.643E-03
            2385             520     138.733E-03     143.643E-03
            2421             521     176.294E-03     180.926E-03
            2403             521     176.294E-03     180.926E-03
            2421             522     187.109E-03     188.544E-03
            2439             522     187.109E-03     188.544E-03
            2457             523     196.711E-03     197.605E-03
            2439             523     196.711E-03     197.605E-03
            2457             524     203.890E-03     204.663E-03
            2475             524     203.890E-03     204.663E-03
            3375             531     91.9255E-03     94.2304E-03
            2386             531     91.9255E-03     94.2304E-03
            2385             531     91.9255E-03     94.2304E-03
            3376             531     91.9255E-03     94.2304E-03
            3376             532     86.7971E-03     88.1461E-03
            2387             532     86.7971E-03     88.1461E-03
            2386             532     86.7971E-03     88.1461E-03
            3377             532     86.7971E-03     88.1461E-03
            2388             533     83.6518E-03     84.8570E-03
            3377             533     83.6518E-03     84.8570E-03
            2387             533     83.6518E-03     84.8570E-03
            3378             533     83.6518E-03     84.8570E-03
            2388             534     80.8967E-03     82.1988E-03
            3378             534     80.8967E-03     82.1988E-03
            2389             534     80.8967E-03     82.1988E-03
            3379             534     80.8967E-03     82.1988E-03
            2389             535     78.5416E-03     79.9173E-03
            2390             535     78.5416E-03     79.9173E-03
            3379             535     78.5416E-03     79.9173E-03
            3380             535     78.5416E-03     79.9173E-03
            2391             536     76.3198E-03     77.8227E-03
            2390             536     76.3198E-03     77.8227E-03
            3381             536     76.3198E-03     77.8227E-03
            3380             536     76.3198E-03     77.8227E-03
            3382             537     74.2519E-03     75.8253E-03
            2391             537     74.2519E-03     75.8253E-03
            2392             537     74.2519E-03     75.8253E-03
            3381             537     74.2519E-03     75.8253E-03
            3383             538     72.2416E-03     73.8893E-03
            2393             538     72.2416E-03     73.8893E-03
            2392             538     72.2416E-03     73.8893E-03
            3382             538     72.2416E-03     73.8893E-03
            2394             539     70.3081E-03     71.9892E-03
            2393             539     70.3081E-03     71.9892E-03
            3383             539     70.3081E-03     71.9892E-03
            3384             539     70.3081E-03     71.9892E-03
            3384             540     68.4153E-03     70.1232E-03
            2394             540     68.4153E-03     70.1232E-03
            3385             540     68.4153E-03     70.1232E-03
            2395             540     68.4153E-03     70.1232E-03
            3385             541     66.5886E-03     68.2947E-03
            3386             541     66.5886E-03     68.2947E-03
            2396             541     66.5886E-03     68.2947E-03
            2395             541     66.5886E-03     68.2947E-03
            3387             542     64.8270E-03     66.5186E-03
            2396             542     64.8270E-03     66.5186E-03
            3386             542     64.8270E-03     66.5186E-03
            2397             542     64.8270E-03     66.5186E-03
            2398             543     63.1766E-03     64.8249E-03
            3387             543     63.1766E-03     64.8249E-03
            3388             543     63.1766E-03     64.8249E-03
            2397             543     63.1766E-03     64.8249E-03
            3388             544     61.6868E-03     63.2653E-03
            2398             544     61.6868E-03     63.2653E-03
            3389             544     61.6868E-03     63.2653E-03
            2399             544     61.6868E-03     63.2653E-03
            3389             545     60.4867E-03     61.9528E-03
            3390             545     60.4867E-03     61.9528E-03
            2400             545     60.4867E-03     61.9528E-03
            2399             545     60.4867E-03     61.9528E-03
            3391             546     59.7938E-03     61.0843E-03
            3390             546     59.7938E-03     61.0843E-03
            2401             546     59.7938E-03     61.0843E-03
            2400             546     59.7938E-03     61.0843E-03
            2401             547     60.9983E-03     61.9621E-03
            3392             547     60.9983E-03     61.9621E-03
            2402             547     60.9983E-03     61.9621E-03
            3391             547     60.9983E-03     61.9621E-03
            2420             548     118.938E-03     115.987E-03
            2402             548     118.938E-03     115.987E-03
            2438             549     139.869E-03     139.941E-03
            2420             549     139.869E-03     139.941E-03
            2456             550     122.598E-03     115.697E-03
            2438             550     122.598E-03     115.697E-03
            2456             551     119.709E-03     111.186E-03
            2474             551     119.709E-03     111.186E-03
            2474             552     132.068E-03     128.645E-03
            2492             552     132.068E-03     128.645E-03
            2491             553     89.1087E-03     85.4215E-03
            5192             553     89.1087E-03     85.4215E-03
            5191             553     89.1087E-03     85.4215E-03
            2492             553     89.1087E-03     85.4215E-03
            2491             554     87.7780E-03     87.6913E-03
            2490             554     87.7780E-03     87.6913E-03
            5190             554     87.7780E-03     87.6913E-03
            5191             554     87.7780E-03     87.6913E-03
            5189             555     88.7685E-03     90.1820E-03
            2490             555     88.7685E-03     90.1820E-03
            2489             555     88.7685E-03     90.1820E-03
            5190             555     88.7685E-03     90.1820E-03
            2488             556     91.0413E-03     94.1907E-03
            5189             556     91.0413E-03     94.1907E-03
            5188             556     91.0413E-03     94.1907E-03
            2489             556     91.0413E-03     94.1907E-03
            2487             557     92.9561E-03     97.0352E-03
            5188             557     92.9561E-03     97.0352E-03
            5187             557     92.9561E-03     97.0352E-03
            2488             557     92.9561E-03     97.0352E-03
            2487             558     95.7227E-03     100.237E-03
            2486             558     95.7227E-03     100.237E-03
            5187             558     95.7227E-03     100.237E-03
            5186             558     95.7227E-03     100.237E-03
            5186             559     98.9184E-03     103.656E-03
            2486             559     98.9184E-03     103.656E-03
            2485             559     98.9184E-03     103.656E-03
            5185             559     98.9184E-03     103.656E-03
            5185             560     102.542E-03     107.352E-03
            5184             560     102.542E-03     107.352E-03
            2485             560     102.542E-03     107.352E-03
            2484             560     102.542E-03     107.352E-03
            2483             561     106.459E-03     111.238E-03
            2484             561     106.459E-03     111.238E-03
            5183             561     106.459E-03     111.238E-03
            5184             561     106.459E-03     111.238E-03
            2482             562     110.664E-03     115.334E-03
            2483             562     110.664E-03     115.334E-03
            5183             562     110.664E-03     115.334E-03
            5182             562     110.664E-03     115.334E-03
            2482             563     115.082E-03     119.559E-03
            5182             563     115.082E-03     119.559E-03
            2481             563     115.082E-03     119.559E-03
            5181             563     115.082E-03     119.559E-03
            2480             564     119.815E-03     124.019E-03
            5180             564     119.815E-03     124.019E-03
            5181             564     119.815E-03     124.019E-03
            2481             564     119.815E-03     124.019E-03
            2480             565     124.748E-03     128.629E-03
            5179             565     124.748E-03     128.629E-03
            2479             565     124.748E-03     128.629E-03
            5180             565     124.748E-03     128.629E-03
            2479             566     130.249E-03     133.638E-03
            5179             566     130.249E-03     133.638E-03
            2478             566     130.249E-03     133.638E-03
            5178             566     130.249E-03     133.638E-03
            2477             567     135.999E-03     138.937E-03
            2478             567     135.999E-03     138.937E-03
            5177             567     135.999E-03     138.937E-03
            5178             567     135.999E-03     138.937E-03
            2477             568     143.273E-03     145.366E-03
            2476             568     143.273E-03     145.366E-03
            5177             568     143.273E-03     145.366E-03
            5176             568     143.273E-03     145.366E-03
            2476             569     152.398E-03     155.085E-03
            5175             569     152.398E-03     155.085E-03
            2475             569     152.398E-03     155.085E-03
            5176             569     152.398E-03     155.085E-03
            5264             604     21.7843E-03     24.5330E-03
            5282             604     21.7843E-03     24.5330E-03
            5264             605     24.3530E-03     21.9043E-03
            5246             605     24.3530E-03     21.9043E-03
            5246             606     24.0872E-03     21.4298E-03
            5228             606     24.0872E-03     21.4298E-03
            5210             607     26.1000E-03     23.0442E-03
            5228             607     26.1000E-03     23.0442E-03
            5210             608     30.8470E-03     27.6620E-03
            5192             608     30.8470E-03     27.6620E-03
            5265             625     88.3860E-03     88.1043E-03
            5247             625     88.3860E-03     88.1043E-03
            5247             626     94.9237E-03     94.7607E-03
            5229             626     94.9237E-03     94.7607E-03
            5229             627     99.9326E-03     102.377E-03
            5211             627     99.9326E-03     102.377E-03
            5193             628     105.892E-03     105.397E-03
            5211             628     105.892E-03     105.397E-03
            5175             629     109.979E-03     110.689E-03
            5193             629     109.979E-03     110.689E-03
            4365             636     87.3256E-03     90.6707E-03
            4347             636     87.3256E-03     90.6707E-03
            4365             637     91.4293E-03     91.9870E-03
            4383             637     91.4293E-03     91.9870E-03
            4401             638     88.4994E-03     88.2914E-03
            4383             638     88.4994E-03     88.2914E-03
            4401             639     84.7752E-03     86.2303E-03
            4419             639     84.7752E-03     86.2303E-03
            4419             640     81.9755E-03     82.4316E-03
            4437             640     81.9755E-03     82.4316E-03
            4437             641     78.6730E-03     79.5666E-03
            4455             641     78.6730E-03     79.5666E-03
            4455             642     75.6152E-03     76.2001E-03
            4473             642     75.6152E-03     76.2001E-03
            4491             643     72.1592E-03     72.6666E-03
            4473             643     72.1592E-03     72.6666E-03
            4509             644     68.4557E-03     69.0641E-03
            4491             644     68.4557E-03     69.0641E-03
            4509             645     64.0685E-03     64.1241E-03
            4527             645     64.0685E-03     64.1241E-03
            4545             646     59.2604E-03     58.1004E-03
            4527             646     59.2604E-03     58.1004E-03
            4545             647     60.3505E-03     62.2024E-03
            4563             647     60.3505E-03     62.2024E-03
            4563             648     64.0846E-03     64.7044E-03
            4581             648     64.0846E-03     64.7044E-03
            4599             649     61.1443E-03     60.9625E-03
            4581             649     61.1443E-03     60.9625E-03
            4617             650     57.6141E-03     58.6977E-03
            4599             650     57.6141E-03     58.6977E-03
            4635             651     54.9400E-03     55.2175E-03
            4617             651     54.9400E-03     55.2175E-03
            4635             652     51.8764E-03     52.5440E-03
            4653             652     51.8764E-03     52.5440E-03
            4671             653     49.1813E-03     49.4864E-03
            4653             653     49.1813E-03     49.4864E-03
            4671             654     46.1033E-03     46.5384E-03
            4689             654     46.1033E-03     46.5384E-03
            4689             655     43.0705E-03     43.2574E-03
            4707             655     43.0705E-03     43.2574E-03
            4707             656     39.6938E-03     39.9786E-03
            4725             656     39.6938E-03     39.9786E-03
            4743             657     35.7812E-03     35.7958E-03
            4725             657     35.7812E-03     35.7958E-03
            4743             658     31.5913E-03     30.6253E-03
            4761             658     31.5913E-03     30.6253E-03
            4761             659     33.0600E-03     34.0248E-03
            4779             659     33.0600E-03     34.0248E-03
            4779             660     36.0233E-03     36.6648E-03
            4797             660     36.0233E-03     36.6648E-03
            4797             661     32.9858E-03     32.8411E-03
            4815             661     32.9858E-03     32.8411E-03
            4815             662     29.6042E-03     30.2529E-03
            4833             662     29.6042E-03     30.2529E-03
            4851             663     26.9494E-03     27.0537E-03
            4833             663     26.9494E-03     27.0537E-03
            4869             664     24.0753E-03     24.4100E-03
            4851             664     24.0753E-03     24.4100E-03
            4869             665     21.4517E-03     21.5238E-03
            4887             665     21.4517E-03     21.5238E-03
            4887             666     18.5306E-03     18.6799E-03
            4905             666     18.5306E-03     18.6799E-03
            4905             667     15.5971E-03     15.5273E-03
            4923             667     15.5971E-03     15.5273E-03
            4923             668     12.0107E-03     12.1034E-03
            4941             668     12.0107E-03     12.1034E-03
            4941             669     8.35539E-03     7.60644E-03
            4959             669     8.35539E-03     7.60644E-03
            4977             670     9.65242E-03     9.79351E-03
            4959             670     9.65242E-03     9.79351E-03
            4977             671     11.1415E-03     11.8451E-03
            4995             671     11.1415E-03     11.8451E-03
            4995             672     7.63007E-03     7.44328E-03
            5013             672     7.63007E-03     7.44328E-03
            5031             673     3.74518E-03     4.33050E-03
            5013             673     3.74518E-03     4.33050E-03
            5049             674     2.54799E-03     3.50749E-03
            5031             674     2.54799E-03     3.50749E-03
            5266             675     82.3880E-03     83.0140E-03
            4347             675     82.3880E-03     83.0140E-03
            4348             675     82.3880E-03     83.0140E-03
            5265             675     82.3880E-03     83.0140E-03
            5266             676     78.9739E-03     78.9003E-03
            5267             676     78.9739E-03     78.9003E-03
            4348             676     78.9739E-03     78.9003E-03
            4349             676     78.9739E-03     78.9003E-03
            4349             677     74.8515E-03     74.7796E-03
            4350             677     74.8515E-03     74.7796E-03
            5268             677     74.8515E-03     74.7796E-03
            5267             677     74.8515E-03     74.7796E-03
            4351             678     69.9830E-03     70.0235E-03
            5269             678     69.9830E-03     70.0235E-03
            4350             678     69.9830E-03     70.0235E-03
            5268             678     69.9830E-03     70.0235E-03
            5270             679     64.8802E-03     64.9274E-03
            4351             679     64.8802E-03     64.9274E-03
            4352             679     64.8802E-03     64.9274E-03
            5269             679     64.8802E-03     64.9274E-03
            4353             680     59.5345E-03     59.5861E-03
            5271             680     59.5345E-03     59.5861E-03
            5270             680     59.5345E-03     59.5861E-03
            4352             680     59.5345E-03     59.5861E-03
            5272             681     54.1208E-03     54.1444E-03
            5271             681     54.1208E-03     54.1444E-03
            4353             681     54.1208E-03     54.1444E-03
            4354             681     54.1208E-03     54.1444E-03
            4354             682     48.6922E-03     48.7042E-03
            5273             682     48.6922E-03     48.7042E-03
            5272             682     48.6922E-03     48.7042E-03
            4355             682     48.6922E-03     48.7042E-03
            4355             683     43.2965E-03     43.2801E-03
            5273             683     43.2965E-03     43.2801E-03
            5274             683     43.2965E-03     43.2801E-03
            4356             683     43.2965E-03     43.2801E-03
            5275             684     37.9970E-03     37.9927E-03
            5274             684     37.9970E-03     37.9927E-03
            4356             684     37.9970E-03     37.9927E-03
            4357             684     37.9970E-03     37.9927E-03
            5276             685     32.8237E-03     32.8360E-03
            5275             685     32.8237E-03     32.8360E-03
            4358             685     32.8237E-03     32.8360E-03
            4357             685     32.8237E-03     32.8360E-03
            4358             686     27.8722E-03     27.9578E-03
            5277             686     27.8722E-03     27.9578E-03
            4359             686     27.8722E-03     27.9578E-03
            5276             686     27.8722E-03     27.9578E-03
            4360             687     23.1496E-03     23.3258E-03
            5278             687     23.1496E-03     23.3258E-03
            5277             687     23.1496E-03     23.3258E-03
            4359             687     23.1496E-03     23.3258E-03
            5278             688     18.8356E-03     19.1528E-03
            4360             688     18.8356E-03     19.1528E-03
            5279             688     18.8356E-03     19.1528E-03
            4361             688     18.8356E-03     19.1528E-03
            5279             689     16.0569E-03     16.1721E-03
            5280             689     16.0569E-03     16.1721E-03
            4362             689     16.0569E-03     16.1721E-03
            4361             689     16.0569E-03     16.1721E-03
            4362             690     15.8456E-03     16.0204E-03
            5280             690     15.8456E-03     16.0204E-03
            5281             690     15.8456E-03     16.0204E-03
            4363             690     15.8456E-03     16.0204E-03
            5281             691     16.3172E-03     18.3345E-03
            5282             691     16.3172E-03     18.3345E-03
            4364             691     16.3172E-03     18.3345E-03
            4363             691     16.3172E-03     18.3345E-03
            4382             692     17.1697E-03     16.7440E-03
            4364             692     17.1697E-03     16.7440E-03
            4400             693     19.1668E-03     17.7925E-03
            4382             693     19.1668E-03     17.7925E-03
            4418             694     17.0154E-03     14.7956E-03
            4400             694     17.0154E-03     14.7956E-03
            4436             695     15.5894E-03     13.7885E-03
            4418             695     15.5894E-03     13.7885E-03
            4436             696     15.2025E-03     13.2129E-03
            4454             696     15.2025E-03     13.2129E-03
            4472             697     15.0779E-03     13.2832E-03
            4454             697     15.0779E-03     13.2832E-03
            4490             698     15.3382E-03     13.6000E-03
            4472             698     15.3382E-03     13.6000E-03
            4508             699     15.9785E-03     14.4415E-03
            4490             699     15.9785E-03     14.4415E-03
            4526             700     16.5343E-03     15.4386E-03
            4508             700     16.5343E-03     15.4386E-03
            4544             701     18.1205E-03     16.9075E-03
            4526             701     18.1205E-03     16.9075E-03
            4562             702     16.7906E-03     19.7398E-03
            4544             702     16.7906E-03     19.7398E-03
            4580             703     15.0436E-03     18.4855E-03
            4562             703     15.0436E-03     18.4855E-03
            4598             704     15.0419E-03     13.8943E-03
            4580             704     15.0419E-03     13.8943E-03
            4598             705     12.9807E-03     11.6461E-03
            4616             705     12.9807E-03     11.6461E-03
            4616             706     11.9364E-03     10.7245E-03
            4634             706     11.9364E-03     10.7245E-03
            4652             707     11.5276E-03     10.2872E-03
            4634             707     11.5276E-03     10.2872E-03
            4670             708     11.3349E-03     10.1489E-03
            4652             708     11.3349E-03     10.1489E-03
            4670             709     11.4062E-03     10.2950E-03
            4688             709     11.4062E-03     10.2950E-03
            4688             710     11.5899E-03     10.5570E-03
            4706             710     11.5899E-03     10.5570E-03
            4724             711     12.0221E-03     11.1558E-03
            4706             711     12.0221E-03     11.1558E-03
            4742             712     12.3803E-03     11.7782E-03
            4724             712     12.3803E-03     11.7782E-03
            4742             713     13.3829E-03     12.8602E-03
            4760             713     13.3829E-03     12.8602E-03
            4778             714     12.5580E-03     14.7959E-03
            4760             714     12.5580E-03     14.7959E-03
            4778             715     11.4754E-03     13.3604E-03
            4796             715     11.4754E-03     13.3604E-03
            4796             716     10.7542E-03     10.0550E-03
            4814             716     10.7542E-03     10.0550E-03
            4814             717     8.99173E-03     8.42361E-03
            4832             717     8.99173E-03     8.42361E-03
            4832             718     8.32264E-03     7.62002E-03
            4850             718     8.32264E-03     7.62002E-03
            4850             719     7.97607E-03     7.29739E-03
            4868             719     7.97607E-03     7.29739E-03
            4868             720     7.86124E-03     7.20162E-03
            4886             720     7.86124E-03     7.20162E-03
            4904             721     7.89358E-03     7.25756E-03
            4886             721     7.89358E-03     7.25756E-03
            4904             722     8.07298E-03     7.59076E-03
            4922             722     8.07298E-03     7.59076E-03
            4940             723     8.31875E-03     7.93390E-03
            4922             723     8.31875E-03     7.93390E-03
            4958             724     8.85993E-03     8.76502E-03
            4940             724     8.85993E-03     8.76502E-03
            4958             725     8.94889E-03     10.0519E-03
            4976             725     8.94889E-03     10.0519E-03
            4976             726     8.23787E-03     8.76065E-03
            4994             726     8.23787E-03     8.76065E-03
            4994             727     7.00591E-03     6.66029E-03
            5012             727     7.00591E-03     6.66029E-03
            5012             728     6.12237E-03     5.56212E-03
            5030             728     6.12237E-03     5.56212E-03
            5030             729     6.05829E-03     5.49636E-03
            5048             729     6.05829E-03     5.49636E-03
            5066             730     6.41637E-03     6.42620E-03
            5048             730     6.41637E-03     6.42620E-03
            5066             731     3.75415E-03     3.79158E-03
            5065             731     3.75415E-03     3.79158E-03
            5755             731     3.75415E-03     3.79158E-03
            5756             731     3.75415E-03     3.79158E-03
            5754             732     4.11472E-03     4.14155E-03
            5065             732     4.11472E-03     4.14155E-03
            5064             732     4.11472E-03     4.14155E-03
            5755             732     4.11472E-03     4.14155E-03
            5063             733     4.31027E-03     4.29637E-03
            5064             733     4.31027E-03     4.29637E-03
            5753             733     4.31027E-03     4.29637E-03
            5754             733     4.31027E-03     4.29637E-03
            5753             734     4.46376E-03     4.43942E-03
            5063             734     4.46376E-03     4.43942E-03
            5062             734     4.46376E-03     4.43942E-03
            5752             734     4.46376E-03     4.43942E-03
            5061             735     4.54615E-03     4.49541E-03
            5751             735     4.54615E-03     4.49541E-03
            5752             735     4.54615E-03     4.49541E-03
            5062             735     4.54615E-03     4.49541E-03
            5060             736     4.60484E-03     4.52560E-03
            5751             736     4.60484E-03     4.52560E-03
            5750             736     4.60484E-03     4.52560E-03
            5061             736     4.60484E-03     4.52560E-03
            5749             737     4.65882E-03     4.55255E-03
            5059             737     4.65882E-03     4.55255E-03
            5060             737     4.65882E-03     4.55255E-03
            5750             737     4.65882E-03     4.55255E-03
            5748             738     4.71040E-03     4.57504E-03
            5749             738     4.71040E-03     4.57504E-03
            5058             738     4.71040E-03     4.57504E-03
            5059             738     4.71040E-03     4.57504E-03
            5747             739     4.76460E-03     4.60458E-03
            5748             739     4.76460E-03     4.60458E-03
            5058             739     4.76460E-03     4.60458E-03
            5057             739     4.76460E-03     4.60458E-03
            5747             740     4.81995E-03     4.63041E-03
            5056             740     4.81995E-03     4.63041E-03
            5057             740     4.81995E-03     4.63041E-03
            5746             740     4.81995E-03     4.63041E-03
            5746             741     4.87461E-03     4.66233E-03
            5745             741     4.87461E-03     4.66233E-03
            5055             741     4.87461E-03     4.66233E-03
            5056             741     4.87461E-03     4.66233E-03
            5744             742     4.91920E-03     4.67613E-03
            5055             742     4.91920E-03     4.67613E-03
            5054             742     4.91920E-03     4.67613E-03
            5745             742     4.91920E-03     4.67613E-03
            5053             743     4.93924E-03     4.66970E-03
            5743             743     4.93924E-03     4.66970E-03
            5054             743     4.93924E-03     4.66970E-03
            5744             743     4.93924E-03     4.66970E-03
            5053             744     4.88201E-03     4.59158E-03
            5052             744     4.88201E-03     4.59158E-03
            5742             744     4.88201E-03     4.59158E-03
            5743             744     4.88201E-03     4.59158E-03
            5741             745     4.59100E-03     4.28204E-03
            5742             745     4.59100E-03     4.28204E-03
            5051             745     4.59100E-03     4.28204E-03
            5052             745     4.59100E-03     4.28204E-03
            5050             746     4.11143E-03     3.71908E-03
            5051             746     4.11143E-03     3.71908E-03
            5741             746     4.11143E-03     3.71908E-03
            5740             746     4.11143E-03     3.71908E-03
            5739             747     2.85940E-03     2.93228E-03
            5049             747     2.85940E-03     2.93228E-03
            5740             747     2.85940E-03     2.93228E-03
            5050             747     2.85940E-03     2.93228E-03
            5846             787     290.143E-06     312.655E-06
            5828             787     290.143E-06     312.655E-06
            5810             788     305.308E-06     279.228E-06
            5828             788     305.308E-06     279.228E-06
            5792             789     293.707E-06     258.452E-06
            5810             789     293.707E-06     258.452E-06
            5774             790     286.352E-06     258.619E-06
            5792             790     286.352E-06     258.619E-06
            5774             791     254.996E-06     269.744E-06
            5756             791     254.996E-06     269.744E-06
            5846             808     284.429E-06     317.194E-06
            5845             808     284.429E-06     317.194E-06
            5844             809     304.738E-06     303.698E-06
            5845             809     304.738E-06     303.698E-06
            5843             810     310.642E-06     300.804E-06
            5844             810     310.642E-06     300.804E-06
            5842             811     315.566E-06     301.527E-06
            5843             811     315.566E-06     301.527E-06
            5841             812     320.426E-06     302.338E-06
            5842             812     320.426E-06     302.338E-06
            5840             813     325.100E-06     304.446E-06
            5841             813     325.100E-06     304.446E-06
            5840             814     330.098E-06     306.332E-06
            5839             814     330.098E-06     306.332E-06
            5838             815     335.491E-06     309.228E-06
            5839             815     335.491E-06     309.228E-06
            5838             816     340.329E-06     311.607E-06
            5837             816     340.329E-06     311.607E-06
            5836             817     345.677E-06     314.653E-06
            5837             817     345.677E-06     314.653E-06
            5835             818     348.597E-06     315.617E-06
            5836             818     348.597E-06     315.617E-06
            5834             819     351.126E-06     315.333E-06
            5835             819     351.126E-06     315.333E-06
            5834             820     345.131E-06     308.487E-06
            5833             820     345.131E-06     308.487E-06
            5832             821     332.530E-06     291.313E-06
            5833             821     332.530E-06     291.313E-06
            5831             822     294.836E-06     251.946E-06
            5832             822     294.836E-06     251.946E-06
            5830             823     235.216E-06     185.307E-06
            5831             823     235.216E-06     185.307E-06
            5829             824     161.242E-06     181.783E-06
            5830             824     161.242E-06     181.783E-06
             786            1467     264.008E-06     266.891E-06
             804            1467     264.008E-06     266.891E-06
             785            1467     264.008E-06     266.891E-06
             803            1467     264.008E-06     266.891E-06
             804            1468     261.364E-06     269.868E-06
             787            1468     261.364E-06     269.868E-06
             805            1468     261.364E-06     269.868E-06
             786            1468     261.364E-06     269.868E-06
             788            1469     259.799E-06     270.860E-06
             806            1469     259.799E-06     270.860E-06
             805            1469     259.799E-06     270.860E-06
             787            1469     259.799E-06     270.860E-06
             788            1470     258.975E-06     272.583E-06
             806            1470     258.975E-06     272.583E-06
             807            1470     258.975E-06     272.583E-06
             789            1470     258.975E-06     272.583E-06
             790            1471     258.718E-06     274.834E-06
             789            1471     258.718E-06     274.834E-06
             808            1471     258.718E-06     274.834E-06
             807            1471     258.718E-06     274.834E-06
             808            1472     258.916E-06     277.335E-06
             790            1472     258.916E-06     277.335E-06
             809            1472     258.916E-06     277.335E-06
             791            1472     258.916E-06     277.335E-06
             792            1473     259.408E-06     280.038E-06
             791            1473     259.408E-06     280.038E-06
             809            1473     259.408E-06     280.038E-06
             810            1473     259.408E-06     280.038E-06
             811            1474     260.358E-06     283.046E-06
             792            1474     260.358E-06     283.046E-06
             810            1474     260.358E-06     283.046E-06
             793            1474     260.358E-06     283.046E-06
             794            1475     261.517E-06     286.101E-06
             812            1475     261.517E-06     286.101E-06
             793            1475     261.517E-06     286.101E-06
             811            1475     261.517E-06     286.101E-06
             813            1476     263.362E-06     289.653E-06
             794            1476     263.362E-06     289.653E-06
             795            1476     263.362E-06     289.653E-06
             812            1476     263.362E-06     289.653E-06
             796            1477     265.160E-06     293.078E-06
             813            1477     265.160E-06     293.078E-06
             814            1477     265.160E-06     293.078E-06
             795            1477     265.160E-06     293.078E-06
             797            1478     268.363E-06     297.443E-06
             814            1478     268.363E-06     297.443E-06
             815            1478     268.363E-06     297.443E-06
             796            1478     268.363E-06     297.443E-06
             815            1479     270.926E-06     301.531E-06
             797            1479     270.926E-06     301.531E-06
             816            1479     270.926E-06     301.531E-06
             798            1479     270.926E-06     301.531E-06
             799            1480     277.396E-06     307.628E-06
             816            1480     277.396E-06     307.628E-06
             817            1480     277.396E-06     307.628E-06
             798            1480     277.396E-06     307.628E-06
             818            1481     280.035E-06     311.667E-06
             817            1481     280.035E-06     311.667E-06
             800            1481     280.035E-06     311.667E-06
             799            1481     280.035E-06     311.667E-06
             800            1482     279.324E-06     315.912E-06
             801            1482     279.324E-06     315.912E-06
             818            1482     279.324E-06     315.912E-06
             819            1482     279.324E-06     315.912E-06
             819            1483     301.024E-06     337.510E-06
             801            1483     301.024E-06     337.510E-06
             820            1483     301.024E-06     337.510E-06
             802            1483     301.024E-06     337.510E-06
             804            1484     282.360E-06     261.689E-06
             822            1484     282.360E-06     261.689E-06
             821            1484     282.360E-06     261.689E-06
             803            1484     282.360E-06     261.689E-06
             805            1485     265.174E-06     272.345E-06
             804            1485     265.174E-06     272.345E-06
             823            1485     265.174E-06     272.345E-06
             822            1485     265.174E-06     272.345E-06
             823            1486     264.298E-06     269.208E-06
             824            1486     264.298E-06     269.208E-06
             805            1486     264.298E-06     269.208E-06
             806            1486     264.298E-06     269.208E-06
             806            1487     266.050E-06     268.526E-06
             807            1487     266.050E-06     268.526E-06
             824            1487     266.050E-06     268.526E-06
             825            1487     266.050E-06     268.526E-06
             825            1488     266.477E-06     270.568E-06
             826            1488     266.477E-06     270.568E-06
             807            1488     266.477E-06     270.568E-06
             808            1488     266.477E-06     270.568E-06
             809            1489     268.130E-06     271.831E-06
             827            1489     268.130E-06     271.831E-06
             808            1489     268.130E-06     271.831E-06
             826            1489     268.130E-06     271.831E-06
             827            1490     269.900E-06     273.670E-06
             828            1490     269.900E-06     273.670E-06
             809            1490     269.900E-06     273.670E-06
             810            1490     269.900E-06     273.670E-06
             810            1491     271.796E-06     275.685E-06
             829            1491     271.796E-06     275.685E-06
             828            1491     271.796E-06     275.685E-06
             811            1491     271.796E-06     275.685E-06
             830            1492     274.187E-06     278.059E-06
             811            1492     274.187E-06     278.059E-06
             829            1492     274.187E-06     278.059E-06
             812            1492     274.187E-06     278.059E-06
             831            1493     276.502E-06     280.446E-06
             830            1493     276.502E-06     280.446E-06
             813            1493     276.502E-06     280.446E-06
             812            1493     276.502E-06     280.446E-06
             813            1494     279.528E-06     283.485E-06
             832            1494     279.528E-06     283.485E-06
             814            1494     279.528E-06     283.485E-06
             831            1494     279.528E-06     283.485E-06
             815            1495     282.080E-06     286.121E-06
             833            1495     282.080E-06     286.121E-06
             832            1495     282.080E-06     286.121E-06
             814            1495     282.080E-06     286.121E-06
             815            1496     286.734E-06     290.197E-06
             816            1496     286.734E-06     290.197E-06
             834            1496     286.734E-06     290.197E-06
             833            1496     286.734E-06     290.197E-06
             835            1497     290.372E-06     295.773E-06
             816            1497     290.372E-06     295.773E-06
             834            1497     290.372E-06     295.773E-06
             817            1497     290.372E-06     295.773E-06
             835            1498     305.289E-06     305.071E-06
             817            1498     305.289E-06     305.071E-06
             818            1498     305.289E-06     305.071E-06
             836            1498     305.289E-06     305.071E-06
             837            1499     303.588E-06     309.056E-06
             836            1499     303.588E-06     309.056E-06
             819            1499     303.588E-06     309.056E-06
             818            1499     303.588E-06     309.056E-06
             819            1500     219.076E-06     231.065E-06
             838            1500     219.076E-06     231.065E-06
             837            1500     219.076E-06     231.065E-06
             820            1500     219.076E-06     231.065E-06
             821            1501     275.173E-06     275.245E-06
             839            1501     275.173E-06     275.245E-06
             840            1501     275.173E-06     275.245E-06
             822            1501     275.173E-06     275.245E-06
             840            1502     275.959E-06     273.601E-06
             822            1502     275.959E-06     273.601E-06
             841            1502     275.959E-06     273.601E-06
             823            1502     275.959E-06     273.601E-06
             842            1503     277.297E-06     271.937E-06
             841            1503     277.297E-06     271.937E-06
             824            1503     277.297E-06     271.937E-06
             823            1503     277.297E-06     271.937E-06
             842            1504     279.162E-06     271.247E-06
             824            1504     279.162E-06     271.247E-06
             843            1504     279.162E-06     271.247E-06
             825            1504     279.162E-06     271.247E-06
             844            1505     281.283E-06     271.086E-06
             826            1505     281.283E-06     271.086E-06
             825            1505     281.283E-06     271.086E-06
             843            1505     281.283E-06     271.086E-06
             844            1506     283.650E-06     271.346E-06
             826            1506     283.650E-06     271.346E-06
             827            1506     283.650E-06     271.346E-06
             845            1506     283.650E-06     271.346E-06
             846            1507     286.197E-06     271.875E-06
             845            1507     286.197E-06     271.875E-06
             828            1507     286.197E-06     271.875E-06
             827            1507     286.197E-06     271.875E-06
             829            1508     288.970E-06     272.739E-06
             846            1508     288.970E-06     272.739E-06
             847            1508     288.970E-06     272.739E-06
             828            1508     288.970E-06     272.739E-06
             829            1509     291.778E-06     273.830E-06
             847            1509     291.778E-06     273.830E-06
             848            1509     291.778E-06     273.830E-06
             830            1509     291.778E-06     273.830E-06
             830            1510     294.878E-06     275.269E-06
             831            1510     294.878E-06     275.269E-06
             849            1510     294.878E-06     275.269E-06
             848            1510     294.878E-06     275.269E-06
             849            1511     297.781E-06     276.739E-06
             850            1511     297.781E-06     276.739E-06
             832            1511     297.781E-06     276.739E-06
             831            1511     297.781E-06     276.739E-06
             833            1512     301.098E-06     278.672E-06
             850            1512     301.098E-06     278.672E-06
             851            1512     301.098E-06     278.672E-06
             832            1512     301.098E-06     278.672E-06
             834            1513     304.189E-06     280.342E-06
             852            1513     304.189E-06     280.342E-06
             851            1513     304.189E-06     280.342E-06
             833            1513     304.189E-06     280.342E-06
             853            1514     308.478E-06     283.565E-06
             852            1514     308.478E-06     283.565E-06
             834            1514     308.478E-06     283.565E-06
             835            1514     308.478E-06     283.565E-06
             835            1515     311.925E-06     284.519E-06
             854            1515     311.925E-06     284.519E-06
             853            1515     311.925E-06     284.519E-06
             836            1515     311.925E-06     284.519E-06
             836            1516     293.417E-06     266.337E-06
             854            1516     293.417E-06     266.337E-06
             855            1516     293.417E-06     266.337E-06
             837            1516     293.417E-06     266.337E-06
             837            1517     167.460E-06     194.862E-06
             855            1517     167.460E-06     194.862E-06
             838            1517     167.460E-06     194.862E-06
             856            1517     167.460E-06     194.862E-06
            2386            2866     141.407E-03     144.331E-03
            2403            2866     141.407E-03     144.331E-03
            2385            2866     141.407E-03     144.331E-03
            2404            2866     141.407E-03     144.331E-03
            2404            2867     145.108E-03     145.739E-03
            2386            2867     145.108E-03     145.739E-03
            2387            2867     145.108E-03     145.739E-03
            2405            2867     145.108E-03     145.739E-03
            2406            2868     146.083E-03     146.616E-03
            2387            2868     146.083E-03     146.616E-03
            2388            2868     146.083E-03     146.616E-03
            2405            2868     146.083E-03     146.616E-03
            2406            2869     146.055E-03     146.448E-03
            2389            2869     146.055E-03     146.448E-03
            2407            2869     146.055E-03     146.448E-03
            2388            2869     146.055E-03     146.448E-03
            2408            2870     145.428E-03     145.407E-03
            2390            2870     145.428E-03     145.407E-03
            2389            2870     145.428E-03     145.407E-03
            2407            2870     145.428E-03     145.407E-03
            2409            2871     144.317E-03     144.118E-03
            2391            2871     144.317E-03     144.118E-03
            2408            2871     144.317E-03     144.118E-03
            2390            2871     144.317E-03     144.118E-03
            2409            2872     143.141E-03     142.727E-03
            2410            2872     143.141E-03     142.727E-03
            2392            2872     143.141E-03     142.727E-03
            2391            2872     143.141E-03     142.727E-03
            2393            2873     141.817E-03     141.254E-03
            2410            2873     141.817E-03     141.254E-03
            2411            2873     141.817E-03     141.254E-03
            2392            2873     141.817E-03     141.254E-03
            2411            2874     140.522E-03     139.864E-03
            2393            2874     140.522E-03     139.864E-03
            2412            2874     140.522E-03     139.864E-03
            2394            2874     140.522E-03     139.864E-03
            2394            2875     139.204E-03     138.501E-03
            2413            2875     139.204E-03     138.501E-03
            2395            2875     139.204E-03     138.501E-03
            2412            2875     139.204E-03     138.501E-03
            2413            2876     137.950E-03     137.266E-03
            2396            2876     137.950E-03     137.266E-03
            2395            2876     137.950E-03     137.266E-03
            2414            2876     137.950E-03     137.266E-03
            2396            2877     136.679E-03     136.070E-03
            2414            2877     136.679E-03     136.070E-03
            2415            2877     136.679E-03     136.070E-03
            2397            2877     136.679E-03     136.070E-03
            2397            2878     135.316E-03     134.851E-03
            2415            2878     135.316E-03     134.851E-03
            2416            2878     135.316E-03     134.851E-03
            2398            2878     135.316E-03     134.851E-03
            2417            2879     133.685E-03     133.399E-03
            2398            2879     133.685E-03     133.399E-03
            2416            2879     133.685E-03     133.399E-03
            2399            2879     133.685E-03     133.399E-03
            2417            2880     130.608E-03     130.217E-03
            2399            2880     130.608E-03     130.217E-03
            2400            2880     130.608E-03     130.217E-03
            2418            2880     130.608E-03     130.217E-03
            2418            2881     127.139E-03     127.116E-03
            2400            2881     127.139E-03     127.116E-03
            2419            2881     127.139E-03     127.116E-03
            2401            2881     127.139E-03     127.116E-03
            2420            2882     122.387E-03     121.182E-03
            2402            2882     122.387E-03     121.182E-03
            2401            2882     122.387E-03     121.182E-03
            2419            2882     122.387E-03     121.182E-03
            2403            2883     179.627E-03     183.356E-03
            2404            2883     179.627E-03     183.356E-03
            2421            2883     179.627E-03     183.356E-03
            2422            2883     179.627E-03     183.356E-03
            2405            2884     185.095E-03     187.302E-03
            2422            2884     185.095E-03     187.302E-03
            2404            2884     185.095E-03     187.302E-03
            2423            2884     185.095E-03     187.302E-03
            2406            2885     188.085E-03     189.399E-03
            2405            2885     188.085E-03     189.399E-03
            2424            2885     188.085E-03     189.399E-03
            2423            2885     188.085E-03     189.399E-03
            2406            2886     188.898E-03     189.719E-03
            2424            2886     188.898E-03     189.719E-03
            2407            2886     188.898E-03     189.719E-03
            2425            2886     188.898E-03     189.719E-03
            2425            2887     188.565E-03     189.022E-03
            2407            2887     188.565E-03     189.022E-03
            2408            2887     188.565E-03     189.022E-03
            2426            2887     188.565E-03     189.022E-03
            2408            2888     187.874E-03     187.983E-03
            2427            2888     187.874E-03     187.983E-03
            2426            2888     187.874E-03     187.983E-03
            2409            2888     187.874E-03     187.983E-03
            2409            2889     186.918E-03     186.748E-03
            2427            2889     186.918E-03     186.748E-03
            2428            2889     186.918E-03     186.748E-03
            2410            2889     186.918E-03     186.748E-03
            2411            2890     185.842E-03     185.469E-03
            2410            2890     185.842E-03     185.469E-03
            2428            2890     185.842E-03     185.469E-03
            2429            2890     185.842E-03     185.469E-03
            2429            2891     184.739E-03     184.229E-03
            2430            2891     184.739E-03     184.229E-03
            2412            2891     184.739E-03     184.229E-03
            2411            2891     184.739E-03     184.229E-03
            2431            2892     183.634E-03     183.082E-03
            2413            2892     183.634E-03     183.082E-03
            2412            2892     183.634E-03     183.082E-03
            2430            2892     183.634E-03     183.082E-03
            2414            2893     182.586E-03     182.071E-03
            2413            2893     182.586E-03     182.071E-03
            2432            2893     182.586E-03     182.071E-03
            2431            2893     182.586E-03     182.071E-03
            2433            2894     181.623E-03     181.237E-03
            2432            2894     181.623E-03     181.237E-03
            2414            2894     181.623E-03     181.237E-03
            2415            2894     181.623E-03     181.237E-03
            2415            2895     180.515E-03     180.366E-03
            2416            2895     180.515E-03     180.366E-03
            2434            2895     180.515E-03     180.366E-03
            2433            2895     180.515E-03     180.366E-03
            2417            2896     179.460E-03     179.614E-03
            2416            2896     179.460E-03     179.614E-03
            2434            2896     179.460E-03     179.614E-03
            2435            2896     179.460E-03     179.614E-03
            2417            2897     175.976E-03     176.226E-03
            2418            2897     175.976E-03     176.226E-03
            2435            2897     175.976E-03     176.226E-03
            2436            2897     175.976E-03     176.226E-03
            2418            2898     170.318E-03     171.167E-03
            2419            2898     170.318E-03     171.167E-03
            2437            2898     170.318E-03     171.167E-03
            2436            2898     170.318E-03     171.167E-03
            2438            2899     153.813E-03     154.588E-03
            2419            2899     153.813E-03     154.588E-03
            2420            2899     153.813E-03     154.588E-03
            2437            2899     153.813E-03     154.588E-03
            2439            2900     188.529E-03     191.801E-03
            2422            2900     188.529E-03     191.801E-03
            2421            2900     188.529E-03     191.801E-03
            2440            2900     188.529E-03     191.801E-03
            2423            2901     190.242E-03     194.781E-03
            2422            2901     190.242E-03     194.781E-03
            2440            2901     190.242E-03     194.781E-03
            2441            2901     190.242E-03     194.781E-03
            2424            2902     189.958E-03     193.266E-03
            2441            2902     189.958E-03     193.266E-03
            2423            2902     189.958E-03     193.266E-03
            2442            2902     189.958E-03     193.266E-03
            2424            2903     188.322E-03     191.211E-03
            2443            2903     188.322E-03     191.211E-03
            2442            2903     188.322E-03     191.211E-03
            2425            2903     188.322E-03     191.211E-03
            2426            2904     186.518E-03     189.458E-03
            2444            2904     186.518E-03     189.458E-03
            2443            2904     186.518E-03     189.458E-03
            2425            2904     186.518E-03     189.458E-03
            2444            2905     184.892E-03     187.644E-03
            2427            2905     184.892E-03     187.644E-03
            2445            2905     184.892E-03     187.644E-03
            2426            2905     184.892E-03     187.644E-03
            2428            2906     183.290E-03     185.976E-03
            2445            2906     183.290E-03     185.976E-03
            2446            2906     183.290E-03     185.976E-03
            2427            2906     183.290E-03     185.976E-03
            2446            2907     181.810E-03     184.414E-03
            2429            2907     181.810E-03     184.414E-03
            2447            2907     181.810E-03     184.414E-03
            2428            2907     181.810E-03     184.414E-03
            2430            2908     180.404E-03     182.963E-03
            2448            2908     180.404E-03     182.963E-03
            2447            2908     180.404E-03     182.963E-03
            2429            2908     180.404E-03     182.963E-03
            2431            2909     179.140E-03     181.674E-03
            2448            2909     179.140E-03     181.674E-03
            2430            2909     179.140E-03     181.674E-03
            2449            2909     179.140E-03     181.674E-03
            2450            2910     178.033E-03     180.576E-03
            2449            2910     178.033E-03     180.576E-03
            2432            2910     178.033E-03     180.576E-03
            2431            2910     178.033E-03     180.576E-03
            2451            2911     177.189E-03     179.747E-03
            2433            2911     177.189E-03     179.747E-03
            2432            2911     177.189E-03     179.747E-03
            2450            2911     177.189E-03     179.747E-03
            2433            2912     176.808E-03     179.425E-03
            2452            2912     176.808E-03     179.425E-03
            2451            2912     176.808E-03     179.425E-03
            2434            2912     176.808E-03     179.425E-03
            2434            2913     176.657E-03     179.377E-03
            2453            2913     176.657E-03     179.377E-03
            2452            2913     176.657E-03     179.377E-03
            2435            2913     176.657E-03     179.377E-03
            2454            2914     176.294E-03     179.693E-03
            2436            2914     176.294E-03     179.693E-03
            2435            2914     176.294E-03     179.693E-03
            2453            2914     176.294E-03     179.693E-03
            2436            2915     169.716E-03     171.934E-03
            2454            2915     169.716E-03     171.934E-03
            2455            2915     169.716E-03     171.934E-03
            2437            2915     169.716E-03     171.934E-03
            2438            2916     142.987E-03     139.743E-03
            2456            2916     142.987E-03     139.743E-03
            2437            2916     142.987E-03     139.743E-03
            2455            2916     142.987E-03     139.743E-03
            2457            2917     196.990E-03     199.609E-03
            2439            2917     196.990E-03     199.609E-03
            2458            2917     196.990E-03     199.609E-03
            2440            2917     196.990E-03     199.609E-03
            2441            2918     195.576E-03     199.488E-03
            2440            2918     195.576E-03     199.488E-03
            2458            2918     195.576E-03     199.488E-03
            2459            2918     195.576E-03     199.488E-03
            2441            2919     191.480E-03     195.426E-03
            2460            2919     191.480E-03     195.426E-03
            2442            2919     191.480E-03     195.426E-03
            2459            2919     191.480E-03     195.426E-03
            2443            2920     187.792E-03     192.027E-03
            2442            2920     187.792E-03     192.027E-03
            2460            2920     187.792E-03     192.027E-03
            2461            2920     187.792E-03     192.027E-03
            2444            2921     184.979E-03     189.189E-03
            2443            2921     184.979E-03     189.189E-03
            2462            2921     184.979E-03     189.189E-03
            2461            2921     184.979E-03     189.189E-03
            2444            2922     182.382E-03     186.765E-03
            2462            2922     182.382E-03     186.765E-03
            2463            2922     182.382E-03     186.765E-03
            2445            2922     182.382E-03     186.765E-03
            2464            2923     180.244E-03     184.684E-03
            2446            2923     180.244E-03     184.684E-03
            2463            2923     180.244E-03     184.684E-03
            2445            2923     180.244E-03     184.684E-03
            2464            2924     178.315E-03     182.822E-03
            2446            2924     178.315E-03     182.822E-03
            2447            2924     178.315E-03     182.822E-03
            2465            2924     178.315E-03     182.822E-03
            2466            2925     176.657E-03     181.194E-03
            2448            2925     176.657E-03     181.194E-03
            2465            2925     176.657E-03     181.194E-03
            2447            2925     176.657E-03     181.194E-03
            2466            2926     175.214E-03     179.746E-03
            2448            2926     175.214E-03     179.746E-03
            2449            2926     175.214E-03     179.746E-03
            2467            2926     175.214E-03     179.746E-03
            2467            2927     174.046E-03     178.544E-03
            2468            2927     174.046E-03     178.544E-03
            2450            2927     174.046E-03     178.544E-03
            2449            2927     174.046E-03     178.544E-03
            2450            2928     173.186E-03     177.616E-03
            2451            2928     173.186E-03     177.616E-03
            2468            2928     173.186E-03     177.616E-03
            2469            2928     173.186E-03     177.616E-03
            2469            2929     172.928E-03     177.227E-03
            2451            2929     172.928E-03     177.227E-03
            2470            2929     172.928E-03     177.227E-03
            2452            2929     172.928E-03     177.227E-03
            2471            2930     172.862E-03     177.053E-03
            2470            2930     172.862E-03     177.053E-03
            2453            2930     172.862E-03     177.053E-03
            2452            2930     172.862E-03     177.053E-03
            2472            2931     172.768E-03     177.259E-03
            2453            2931     172.768E-03     177.259E-03
            2454            2931     172.768E-03     177.259E-03
            2471            2931     172.768E-03     177.259E-03
            2454            2932     166.450E-03     168.701E-03
            2473            2932     166.450E-03     168.701E-03
            2472            2932     166.450E-03     168.701E-03
            2455            2932     166.450E-03     168.701E-03
            2456            2933     139.895E-03     135.483E-03
            2473            2933     139.895E-03     135.483E-03
            2474            2933     139.895E-03     135.483E-03
            2455            2933     139.895E-03     135.483E-03
            2476            2934     202.626E-03     203.770E-03
            2458            2934     202.626E-03     203.770E-03
            2475            2934     202.626E-03     203.770E-03
            2457            2934     202.626E-03     203.770E-03
            2458            2935     197.320E-03     199.567E-03
            2476            2935     197.320E-03     199.567E-03
            2477            2935     197.320E-03     199.567E-03
            2459            2935     197.320E-03     199.567E-03
            2460            2936     191.195E-03     194.709E-03
            2459            2936     191.195E-03     194.709E-03
            2477            2936     191.195E-03     194.709E-03
            2478            2936     191.195E-03     194.709E-03
            2479            2937     186.901E-03     191.016E-03
            2460            2937     186.901E-03     191.016E-03
            2461            2937     186.901E-03     191.016E-03
            2478            2937     186.901E-03     191.016E-03
            2462            2938     183.116E-03     187.581E-03
            2480            2938     183.116E-03     187.581E-03
            2461            2938     183.116E-03     187.581E-03
            2479            2938     183.116E-03     187.581E-03
            2480            2939     180.071E-03     184.916E-03
            2463            2939     180.071E-03     184.916E-03
            2481            2939     180.071E-03     184.916E-03
            2462            2939     180.071E-03     184.916E-03
            2463            2940     177.425E-03     182.538E-03
            2482            2940     177.425E-03     182.538E-03
            2481            2940     177.425E-03     182.538E-03
            2464            2940     177.425E-03     182.538E-03
            2483            2941     175.226E-03     180.547E-03
            2465            2941     175.226E-03     180.547E-03
            2482            2941     175.226E-03     180.547E-03
            2464            2941     175.226E-03     180.547E-03
            2465            2942     173.355E-03     178.776E-03
            2466            2942     173.355E-03     178.776E-03
            2484            2942     173.355E-03     178.776E-03
            2483            2942     173.355E-03     178.776E-03
            2466            2943     171.809E-03     177.246E-03
            2467            2943     171.809E-03     177.246E-03
            2485            2943     171.809E-03     177.246E-03
            2484            2943     171.809E-03     177.246E-03
            2467            2944     170.552E-03     175.903E-03
            2486            2944     170.552E-03     175.903E-03
            2468            2944     170.552E-03     175.903E-03
            2485            2944     170.552E-03     175.903E-03
            2487            2945     169.604E-03     174.790E-03
            2486            2945     169.604E-03     174.790E-03
            2468            2945     169.604E-03     174.790E-03
            2469            2945     169.604E-03     174.790E-03
            2488            2946     168.709E-03     173.645E-03
            2470            2946     168.709E-03     173.645E-03
            2469            2946     168.709E-03     173.645E-03
            2487            2946     168.709E-03     173.645E-03
            2470            2947     168.004E-03     172.547E-03
            2489            2947     168.004E-03     172.547E-03
            2488            2947     168.004E-03     172.547E-03
            2471            2947     168.004E-03     172.547E-03
            2489            2948     164.970E-03     168.553E-03
            2490            2948     164.970E-03     168.553E-03
            2471            2948     164.970E-03     168.553E-03
            2472            2948     164.970E-03     168.553E-03
            2472            2949     159.846E-03     162.030E-03
            2491            2949     159.846E-03     162.030E-03
            2490            2949     159.846E-03     162.030E-03
            2473            2949     159.846E-03     162.030E-03
            2473            2950     144.811E-03     143.837E-03
            2474            2950     144.811E-03     143.837E-03
            2492            2950     144.811E-03     143.837E-03
            2491            2950     144.811E-03     143.837E-03
            2493            2951     6.60255E-03     6.81339E-03
            2512            2951     6.60255E-03     6.81339E-03
            2494            2951     6.60255E-03     6.81339E-03
            2511            2951     6.60255E-03     6.81339E-03
            2512            2952     5.29368E-03     5.10682E-03
            2494            2952     5.29368E-03     5.10682E-03
            2495            2952     5.29368E-03     5.10682E-03
            2513            2952     5.29368E-03     5.10682E-03
            2496            2953     5.35510E-03     4.85207E-03
            2513            2953     5.35510E-03     4.85207E-03
            2495            2953     5.35510E-03     4.85207E-03
            2514            2953     5.35510E-03     4.85207E-03
            2497            2954     5.20351E-03     4.60670E-03
            2496            2954     5.20351E-03     4.60670E-03
            2515            2954     5.20351E-03     4.60670E-03
            2514            2954     5.20351E-03     4.60670E-03
            2498            2955     5.05669E-03     4.39946E-03
            2515            2955     5.05669E-03     4.39946E-03
            2516            2955     5.05669E-03     4.39946E-03
            2497            2955     5.05669E-03     4.39946E-03
            2498            2956     4.86351E-03     4.18657E-03
            2499            2956     4.86351E-03     4.18657E-03
            2517            2956     4.86351E-03     4.18657E-03
            2516            2956     4.86351E-03     4.18657E-03
            2499            2957     4.68571E-03     3.99887E-03
            2518            2957     4.68571E-03     3.99887E-03
            2517            2957     4.68571E-03     3.99887E-03
            2500            2957     4.68571E-03     3.99887E-03
            2519            2958     4.51618E-03     3.82329E-03
            2518            2958     4.51618E-03     3.82329E-03
            2501            2958     4.51618E-03     3.82329E-03
            2500            2958     4.51618E-03     3.82329E-03
            2502            2959     4.35382E-03     3.66050E-03
            2520            2959     4.35382E-03     3.66050E-03
            2501            2959     4.35382E-03     3.66050E-03
            2519            2959     4.35382E-03     3.66050E-03
            2520            2960     4.19544E-03     3.49990E-03
            2503            2960     4.19544E-03     3.49990E-03
            2521            2960     4.19544E-03     3.49990E-03
            2502            2960     4.19544E-03     3.49990E-03
            2521            2961     4.02653E-03     3.33098E-03
            2522            2961     4.02653E-03     3.33098E-03
            2503            2961     4.02653E-03     3.33098E-03
            2504            2961     4.02653E-03     3.33098E-03
            2504            2962     3.83302E-03     3.13309E-03
            2523            2962     3.83302E-03     3.13309E-03
            2522            2962     3.83302E-03     3.13309E-03
            2505            2962     3.83302E-03     3.13309E-03
            2524            2963     3.57865E-03     2.87086E-03
            2506            2963     3.57865E-03     2.87086E-03
            2523            2963     3.57865E-03     2.87086E-03
            2505            2963     3.57865E-03     2.87086E-03
            2507            2964     3.20013E-03     2.47810E-03
            2506            2964     3.20013E-03     2.47810E-03
            2524            2964     3.20013E-03     2.47810E-03
            2525            2964     3.20013E-03     2.47810E-03
            2526            2965     2.61364E-03     1.84899E-03
            2508            2965     2.61364E-03     1.84899E-03
            2507            2965     2.61364E-03     1.84899E-03
            2525            2965     2.61364E-03     1.84899E-03
            2508            2966     1.58911E-03     1.03697E-03
            2527            2966     1.58911E-03     1.03697E-03
            2526            2966     1.58911E-03     1.03697E-03
            2509            2966     1.58911E-03     1.03697E-03
            2527            2967     1.79679E-03     2.09997E-03
            2528            2967     1.79679E-03     2.09997E-03
            2510            2967     1.79679E-03     2.09997E-03
            2509            2967     1.79679E-03     2.09997E-03
            2530            2968     7.32847E-03     7.08669E-03
            2511            2968     7.32847E-03     7.08669E-03
            2512            2968     7.32847E-03     7.08669E-03
            2529            2968     7.32847E-03     7.08669E-03
            2530            2969     5.43651E-03     5.30971E-03
            2512            2969     5.43651E-03     5.30971E-03
            2513            2969     5.43651E-03     5.30971E-03
            2531            2969     5.43651E-03     5.30971E-03
            2531            2970     5.16651E-03     4.92738E-03
            2513            2970     5.16651E-03     4.92738E-03
            2514            2970     5.16651E-03     4.92738E-03
            2532            2970     5.16651E-03     4.92738E-03
            2515            2971     5.06369E-03     4.71561E-03
            2533            2971     5.06369E-03     4.71561E-03
            2532            2971     5.06369E-03     4.71561E-03
            2514            2971     5.06369E-03     4.71561E-03
            2516            2972     4.88825E-03     4.51659E-03
            2534            2972     4.88825E-03     4.51659E-03
            2533            2972     4.88825E-03     4.51659E-03
            2515            2972     4.88825E-03     4.51659E-03
            2516            2973     4.72166E-03     4.33761E-03
            2535            2973     4.72166E-03     4.33761E-03
            2517            2973     4.72166E-03     4.33761E-03
            2534            2973     4.72166E-03     4.33761E-03
            2517            2974     4.56202E-03     4.17284E-03
            2518            2974     4.56202E-03     4.17284E-03
            2536            2974     4.56202E-03     4.17284E-03
            2535            2974     4.56202E-03     4.17284E-03
            2518            2975     4.41331E-03     4.02378E-03
            2519            2975     4.41331E-03     4.02378E-03
            2536            2975     4.41331E-03     4.02378E-03
            2537            2975     4.41331E-03     4.02378E-03
            2519            2976     4.27537E-03     3.88555E-03
            2520            2976     4.27537E-03     3.88555E-03
            2537            2976     4.27537E-03     3.88555E-03
            2538            2976     4.27537E-03     3.88555E-03
            2539            2977     4.14401E-03     3.75618E-03
            2520            2977     4.14401E-03     3.75618E-03
            2521            2977     4.14401E-03     3.75618E-03
            2538            2977     4.14401E-03     3.75618E-03
            2522            2978     4.01736E-03     3.63018E-03
            2539            2978     4.01736E-03     3.63018E-03
            2521            2978     4.01736E-03     3.63018E-03
            2540            2978     4.01736E-03     3.63018E-03
            2522            2979     3.87952E-03     3.49303E-03
            2540            2979     3.87952E-03     3.49303E-03
            2541            2979     3.87952E-03     3.49303E-03
            2523            2979     3.87952E-03     3.49303E-03
            2524            2980     3.71553E-03     3.32519E-03
            2523            2980     3.71553E-03     3.32519E-03
            2542            2980     3.71553E-03     3.32519E-03
            2541            2980     3.71553E-03     3.32519E-03
            2525            2981     3.42862E-03     3.04244E-03
            2524            2981     3.42862E-03     3.04244E-03
            2543            2981     3.42862E-03     3.04244E-03
            2542            2981     3.42862E-03     3.04244E-03
            2543            2982     2.92141E-03     2.54684E-03
            2544            2982     2.92141E-03     2.54684E-03
            2526            2982     2.92141E-03     2.54684E-03
            2525            2982     2.92141E-03     2.54684E-03
            2526            2983     1.86670E-03     1.62608E-03
            2545            2983     1.86670E-03     1.62608E-03
            2544            2983     1.86670E-03     1.62608E-03
            2527            2983     1.86670E-03     1.62608E-03
            2528            2984     1.91952E-03     1.60672E-03
            2546            2984     1.91952E-03     1.60672E-03
            2545            2984     1.91952E-03     1.60672E-03
            2527            2984     1.91952E-03     1.60672E-03
            2530            2985     8.16295E-03     7.91137E-03
            2548            2985     8.16295E-03     7.91137E-03
            2547            2985     8.16295E-03     7.91137E-03
            2529            2985     8.16295E-03     7.91137E-03
            2548            2986     6.03075E-03     5.90775E-03
            2549            2986     6.03075E-03     5.90775E-03
            2531            2986     6.03075E-03     5.90775E-03
            2530            2986     6.03075E-03     5.90775E-03
            2549            2987     5.14153E-03     5.07657E-03
            2531            2987     5.14153E-03     5.07657E-03
            2550            2987     5.14153E-03     5.07657E-03
            2532            2987     5.14153E-03     5.07657E-03
            2533            2988     4.82667E-03     4.76291E-03
            2551            2988     4.82667E-03     4.76291E-03
            2532            2988     4.82667E-03     4.76291E-03
            2550            2988     4.82667E-03     4.76291E-03
            2551            2989     4.63012E-03     4.56224E-03
            2534            2989     4.63012E-03     4.56224E-03
            2552            2989     4.63012E-03     4.56224E-03
            2533            2989     4.63012E-03     4.56224E-03
            2534            2990     4.50018E-03     4.42058E-03
            2535            2990     4.50018E-03     4.42058E-03
            2552            2990     4.50018E-03     4.42058E-03
            2553            2990     4.50018E-03     4.42058E-03
            2553            2991     4.37853E-03     4.29501E-03
            2554            2991     4.37853E-03     4.29501E-03
            2535            2991     4.37853E-03     4.29501E-03
            2536            2991     4.37853E-03     4.29501E-03
            2537            2992     4.26820E-03     4.18120E-03
            2555            2992     4.26820E-03     4.18120E-03
            2536            2992     4.26820E-03     4.18120E-03
            2554            2992     4.26820E-03     4.18120E-03
            2556            2993     4.16131E-03     4.07380E-03
            2538            2993     4.16131E-03     4.07380E-03
            2537            2993     4.16131E-03     4.07380E-03
            2555            2993     4.16131E-03     4.07380E-03
            2556            2994     4.06087E-03     3.97245E-03
            2539            2994     4.06087E-03     3.97245E-03
            2538            2994     4.06087E-03     3.97245E-03
            2557            2994     4.06087E-03     3.97245E-03
            2558            2995     3.96583E-03     3.87734E-03
            2557            2995     3.96583E-03     3.87734E-03
            2539            2995     3.96583E-03     3.87734E-03
            2540            2995     3.96583E-03     3.87734E-03
            2558            2996     3.87601E-03     3.78537E-03
            2559            2996     3.87601E-03     3.78537E-03
            2541            2996     3.87601E-03     3.78537E-03
            2540            2996     3.87601E-03     3.78537E-03
            2559            2997     3.75803E-03     3.67019E-03
            2542            2997     3.75803E-03     3.67019E-03
            2560            2997     3.75803E-03     3.67019E-03
            2541            2997     3.75803E-03     3.67019E-03
            2543            2998     3.58850E-03     3.49854E-03
            2560            2998     3.58850E-03     3.49854E-03
            2561            2998     3.58850E-03     3.49854E-03
            2542            2998     3.58850E-03     3.49854E-03
            2543            2999     3.12270E-03     3.09757E-03
            2544            2999     3.12270E-03     3.09757E-03
            2562            2999     3.12270E-03     3.09757E-03
            2561            2999     3.12270E-03     3.09757E-03
            2544            3000     2.31456E-03     2.41638E-03
            2563            3000     2.31456E-03     2.41638E-03
            2545            3000     2.31456E-03     2.41638E-03
            2562            3000     2.31456E-03     2.41638E-03
            2546            3001     2.33457E-03     2.24765E-03
            2564            3001     2.33457E-03     2.24765E-03
            2545            3001     2.33457E-03     2.24765E-03
            2563            3001     2.33457E-03     2.24765E-03
            2547            3002     8.84580E-03     8.76371E-03
            2566            3002     8.84580E-03     8.76371E-03
            2548            3002     8.84580E-03     8.76371E-03
            2565            3002     8.84580E-03     8.76371E-03
            2567            3003     6.55697E-03     6.49578E-03
            2566            3003     6.55697E-03     6.49578E-03
            2548            3003     6.55697E-03     6.49578E-03
            2549            3003     6.55697E-03     6.49578E-03
            2567            3004     5.18232E-03     5.33058E-03
            2550            3004     5.18232E-03     5.33058E-03
            2568            3004     5.18232E-03     5.33058E-03
            2549            3004     5.18232E-03     5.33058E-03
            2568            3005     4.59228E-03     4.83945E-03
            2551            3005     4.59228E-03     4.83945E-03
            2550            3005     4.59228E-03     4.83945E-03
            2569            3005     4.59228E-03     4.83945E-03
            2570            3006     4.39783E-03     4.63036E-03
            2552            3006     4.39783E-03     4.63036E-03
            2551            3006     4.39783E-03     4.63036E-03
            2569            3006     4.39783E-03     4.63036E-03
            2570            3007     4.27155E-03     4.50135E-03
            2552            3007     4.27155E-03     4.50135E-03
            2571            3007     4.27155E-03     4.50135E-03
            2553            3007     4.27155E-03     4.50135E-03
            2572            3008     4.18983E-03     4.40876E-03
            2554            3008     4.18983E-03     4.40876E-03
            2571            3008     4.18983E-03     4.40876E-03
            2553            3008     4.18983E-03     4.40876E-03
            2554            3009     4.10798E-03     4.32207E-03
            2572            3009     4.10798E-03     4.32207E-03
            2555            3009     4.10798E-03     4.32207E-03
            2573            3009     4.10798E-03     4.32207E-03
            2556            3010     4.02762E-03     4.23580E-03
            2574            3010     4.02762E-03     4.23580E-03
            2555            3010     4.02762E-03     4.23580E-03
            2573            3010     4.02762E-03     4.23580E-03
            2556            3011     3.94750E-03     4.15101E-03
            2557            3011     3.94750E-03     4.15101E-03
            2574            3011     3.94750E-03     4.15101E-03
            2575            3011     3.94750E-03     4.15101E-03
            2575            3012     3.87099E-03     4.06852E-03
            2557            3012     3.87099E-03     4.06852E-03
            2576            3012     3.87099E-03     4.06852E-03
            2558            3012     3.87099E-03     4.06852E-03
            2577            3013     3.79904E-03     3.99141E-03
            2558            3013     3.79904E-03     3.99141E-03
            2559            3013     3.79904E-03     3.99141E-03
            2576            3013     3.79904E-03     3.99141E-03
            2560            3014     3.72227E-03     3.91112E-03
            2578            3014     3.72227E-03     3.91112E-03
            2559            3014     3.72227E-03     3.91112E-03
            2577            3014     3.72227E-03     3.91112E-03
            2561            3015     3.59862E-03     3.79635E-03
            2560            3015     3.59862E-03     3.79635E-03
            2579            3015     3.59862E-03     3.79635E-03
            2578            3015     3.59862E-03     3.79635E-03
            2579            3016     3.38589E-03     3.61542E-03
            2580            3016     3.38589E-03     3.61542E-03
            2562            3016     3.38589E-03     3.61542E-03
            2561            3016     3.38589E-03     3.61542E-03
            2581            3017     3.05795E-03     3.25525E-03
            2580            3017     3.05795E-03     3.25525E-03
            2563            3017     3.05795E-03     3.25525E-03
            2562            3017     3.05795E-03     3.25525E-03
            2582            3018     3.19767E-03     3.29900E-03
            2563            3018     3.19767E-03     3.29900E-03
            2581            3018     3.19767E-03     3.29900E-03
            2564            3018     3.19767E-03     3.29900E-03
            2583            3019     9.55570E-03     9.45641E-03
            2565            3019     9.55570E-03     9.45641E-03
            2566            3019     9.55570E-03     9.45641E-03
            2584            3019     9.55570E-03     9.45641E-03
            2584            3020     6.63254E-03     6.96270E-03
            2567            3020     6.63254E-03     6.96270E-03
            2566            3020     6.63254E-03     6.96270E-03
            2585            3020     6.63254E-03     6.96270E-03
            2585            3021     5.09441E-03     5.61946E-03
            2586            3021     5.09441E-03     5.61946E-03
            2568            3021     5.09441E-03     5.61946E-03
            2567            3021     5.09441E-03     5.61946E-03
            2569            3022     4.52356E-03     5.04774E-03
            2568            3022     4.52356E-03     5.04774E-03
            2587            3022     4.52356E-03     5.04774E-03
            2586            3022     4.52356E-03     5.04774E-03
            2569            3023     4.24382E-03     4.77685E-03
            2570            3023     4.24382E-03     4.77685E-03
            2588            3023     4.24382E-03     4.77685E-03
            2587            3023     4.24382E-03     4.77685E-03
            2571            3024     4.12109E-03     4.64164E-03
            2588            3024     4.12109E-03     4.64164E-03
            2570            3024     4.12109E-03     4.64164E-03
            2589            3024     4.12109E-03     4.64164E-03
            2571            3025     4.03594E-03     4.55081E-03
            2590            3025     4.03594E-03     4.55081E-03
            2572            3025     4.03594E-03     4.55081E-03
            2589            3025     4.03594E-03     4.55081E-03
            2591            3026     3.96614E-03     4.47202E-03
            2572            3026     3.96614E-03     4.47202E-03
            2590            3026     3.96614E-03     4.47202E-03
            2573            3026     3.96614E-03     4.47202E-03
            2573            3027     3.89506E-03     4.39235E-03
            2592            3027     3.89506E-03     4.39235E-03
            2574            3027     3.89506E-03     4.39235E-03
            2591            3027     3.89506E-03     4.39235E-03
            2574            3028     3.82145E-03     4.30807E-03
            2593            3028     3.82145E-03     4.30807E-03
            2592            3028     3.82145E-03     4.30807E-03
            2575            3028     3.82145E-03     4.30807E-03
            2576            3029     3.74871E-03     4.22428E-03
            2575            3029     3.74871E-03     4.22428E-03
            2594            3029     3.74871E-03     4.22428E-03
            2593            3029     3.74871E-03     4.22428E-03
            2576            3030     3.67356E-03     4.13880E-03
            2594            3030     3.67356E-03     4.13880E-03
            2595            3030     3.67356E-03     4.13880E-03
            2577            3030     3.67356E-03     4.13880E-03
            2596            3031     3.60798E-03     4.06543E-03
            2577            3031     3.60798E-03     4.06543E-03
            2578            3031     3.60798E-03     4.06543E-03
            2595            3031     3.60798E-03     4.06543E-03
            2597            3032     3.52065E-03     3.99229E-03
            2596            3032     3.52065E-03     3.99229E-03
            2579            3032     3.52065E-03     3.99229E-03
            2578            3032     3.52065E-03     3.99229E-03
            2580            3033     3.50047E-03     3.96820E-03
            2579            3033     3.50047E-03     3.96820E-03
            2597            3033     3.50047E-03     3.96820E-03
            2598            3033     3.50047E-03     3.96820E-03
            2599            3034     3.76671E-03     4.15724E-03
            2598            3034     3.76671E-03     4.15724E-03
            2580            3034     3.76671E-03     4.15724E-03
            2581            3034     3.76671E-03     4.15724E-03
            2581            3035     4.49548E-03     4.58103E-03
            2599            3035     4.49548E-03     4.58103E-03
            2582            3035     4.49548E-03     4.58103E-03
            2600            3035     4.49548E-03     4.58103E-03
            2584            3036     9.61623E-03     10.4925E-03
            2601            3036     9.61623E-03     10.4925E-03
            2602            3036     9.61623E-03     10.4925E-03
            2583            3036     9.61623E-03     10.4925E-03
            2602            3037     6.41300E-03     7.37349E-03
            2603            3037     6.41300E-03     7.37349E-03
            2584            3037     6.41300E-03     7.37349E-03
            2585            3037     6.41300E-03     7.37349E-03
            2585            3038     5.20714E-03     6.03807E-03
            2603            3038     5.20714E-03     6.03807E-03
            2586            3038     5.20714E-03     6.03807E-03
            2604            3038     5.20714E-03     6.03807E-03
            2587            3039     4.57099E-03     5.37723E-03
            2604            3039     4.57099E-03     5.37723E-03
            2605            3039     4.57099E-03     5.37723E-03
            2586            3039     4.57099E-03     5.37723E-03
            2605            3040     4.23286E-03     5.03457E-03
            2587            3040     4.23286E-03     5.03457E-03
            2588            3040     4.23286E-03     5.03457E-03
            2606            3040     4.23286E-03     5.03457E-03
            2607            3041     4.04900E-03     4.85101E-03
            2606            3041     4.04900E-03     4.85101E-03
            2589            3041     4.04900E-03     4.85101E-03
            2588            3041     4.04900E-03     4.85101E-03
            2589            3042     3.93578E-03     4.73409E-03
            2590            3042     3.93578E-03     4.73409E-03
            2608            3042     3.93578E-03     4.73409E-03
            2607            3042     3.93578E-03     4.73409E-03
            2608            3043     3.85257E-03     4.64227E-03
            2609            3043     3.85257E-03     4.64227E-03
            2590            3043     3.85257E-03     4.64227E-03
            2591            3043     3.85257E-03     4.64227E-03
            2609            3044     3.77754E-03     4.55496E-03
            2591            3044     3.77754E-03     4.55496E-03
            2592            3044     3.77754E-03     4.55496E-03
            2610            3044     3.77754E-03     4.55496E-03
            2593            3045     3.70388E-03     4.46668E-03
            2610            3045     3.70388E-03     4.46668E-03
            2592            3045     3.70388E-03     4.46668E-03
            2611            3045     3.70388E-03     4.46668E-03
            2594            3046     3.62494E-03     4.37254E-03
            2611            3046     3.62494E-03     4.37254E-03
            2593            3046     3.62494E-03     4.37254E-03
            2612            3046     3.62494E-03     4.37254E-03
            2595            3047     3.54594E-03     4.28021E-03
            2613            3047     3.54594E-03     4.28021E-03
            2612            3047     3.54594E-03     4.28021E-03
            2594            3047     3.54594E-03     4.28021E-03
            2595            3048     3.45553E-03     4.18751E-03
            2613            3048     3.45553E-03     4.18751E-03
            2614            3048     3.45553E-03     4.18751E-03
            2596            3048     3.45553E-03     4.18751E-03
            2597            3049     3.40712E-03     4.14694E-03
            2596            3049     3.40712E-03     4.14694E-03
            2614            3049     3.40712E-03     4.14694E-03
            2615            3049     3.40712E-03     4.14694E-03
            2598            3050     3.40798E-03     4.18937E-03
            2597            3050     3.40798E-03     4.18937E-03
            2615            3050     3.40798E-03     4.18937E-03
            2616            3050     3.40798E-03     4.18937E-03
            2598            3051     3.86952E-03     4.68724E-03
            2617            3051     3.86952E-03     4.68724E-03
            2616            3051     3.86952E-03     4.68724E-03
            2599            3051     3.86952E-03     4.68724E-03
            2617            3052     5.47287E-03     6.21566E-03
            2618            3052     5.47287E-03     6.21566E-03
            2600            3052     5.47287E-03     6.21566E-03
            2599            3052     5.47287E-03     6.21566E-03
            2620            3053     10.8987E-03     11.5137E-03
            2619            3053     10.8987E-03     11.5137E-03
            2601            3053     10.8987E-03     11.5137E-03
            2602            3053     10.8987E-03     11.5137E-03
            2621            3054     9.71935E-03     9.85655E-03
            2603            3054     9.71935E-03     9.85655E-03
            2620            3054     9.71935E-03     9.85655E-03
            2602            3054     9.71935E-03     9.85655E-03
            2621            3055     9.39809E-03     9.40320E-03
            2603            3055     9.39809E-03     9.40320E-03
            2604            3055     9.39809E-03     9.40320E-03
            2622            3055     9.39809E-03     9.40320E-03
            2605            3056     9.04006E-03     9.08648E-03
            2604            3056     9.04006E-03     9.08648E-03
            2622            3056     9.04006E-03     9.08648E-03
            2623            3056     9.04006E-03     9.08648E-03
            2605            3057     8.80371E-03     8.86285E-03
            2606            3057     8.80371E-03     8.86285E-03
            2624            3057     8.80371E-03     8.86285E-03
            2623            3057     8.80371E-03     8.86285E-03
            2607            3058     8.55569E-03     8.65422E-03
            2624            3058     8.55569E-03     8.65422E-03
            2606            3058     8.55569E-03     8.65422E-03
            2625            3058     8.55569E-03     8.65422E-03
            2608            3059     8.32186E-03     8.43434E-03
            2625            3059     8.32186E-03     8.43434E-03
            2626            3059     8.32186E-03     8.43434E-03
            2607            3059     8.32186E-03     8.43434E-03
            2627            3060     8.06953E-03     8.19601E-03
            2609            3060     8.06953E-03     8.19601E-03
            2626            3060     8.06953E-03     8.19601E-03
            2608            3060     8.06953E-03     8.19601E-03
            2610            3061     7.80001E-03     7.92808E-03
            2627            3061     7.80001E-03     7.92808E-03
            2628            3061     7.80001E-03     7.92808E-03
            2609            3061     7.80001E-03     7.92808E-03
            2610            3062     7.50921E-03     7.63701E-03
            2628            3062     7.50921E-03     7.63701E-03
            2629            3062     7.50921E-03     7.63701E-03
            2611            3062     7.50921E-03     7.63701E-03
            2611            3063     7.19270E-03     7.31422E-03
            2629            3063     7.19270E-03     7.31422E-03
            2630            3063     7.19270E-03     7.31422E-03
            2612            3063     7.19270E-03     7.31422E-03
            2613            3064     6.85355E-03     6.96679E-03
            2630            3064     6.85355E-03     6.96679E-03
            2631            3064     6.85355E-03     6.96679E-03
            2612            3064     6.85355E-03     6.96679E-03
            2613            3065     6.48449E-03     6.58772E-03
            2614            3065     6.48449E-03     6.58772E-03
            2631            3065     6.48449E-03     6.58772E-03
            2632            3065     6.48449E-03     6.58772E-03
            2633            3066     6.11246E-03     6.20596E-03
            2614            3066     6.11246E-03     6.20596E-03
            2632            3066     6.11246E-03     6.20596E-03
            2615            3066     6.11246E-03     6.20596E-03
            2615            3067     5.76761E-03     5.86171E-03
            2633            3067     5.76761E-03     5.86171E-03
            2634            3067     5.76761E-03     5.86171E-03
            2616            3067     5.76761E-03     5.86171E-03
            2617            3068     5.57970E-03     5.74500E-03
            2634            3068     5.57970E-03     5.74500E-03
            2635            3068     5.57970E-03     5.74500E-03
            2616            3068     5.57970E-03     5.74500E-03
            2635            3069     6.08561E-03     6.82358E-03
            2636            3069     6.08561E-03     6.82358E-03
            2618            3069     6.08561E-03     6.82358E-03
            2617            3069     6.08561E-03     6.82358E-03
            2638            3070     12.9252E-03     12.5350E-03
            2637            3070     12.9252E-03     12.5350E-03
            2619            3070     12.9252E-03     12.5350E-03
            2620            3070     12.9252E-03     12.5350E-03
            2639            3071     13.1098E-03     12.5589E-03
            2620            3071     13.1098E-03     12.5589E-03
            2621            3071     13.1098E-03     12.5589E-03
            2638            3071     13.1098E-03     12.5589E-03
            2621            3072     13.6395E-03     12.9886E-03
            2640            3072     13.6395E-03     12.9886E-03
            2622            3072     13.6395E-03     12.9886E-03
            2639            3072     13.6395E-03     12.9886E-03
            2640            3073     13.7231E-03     13.0737E-03
            2641            3073     13.7231E-03     13.0737E-03
            2622            3073     13.7231E-03     13.0737E-03
            2623            3073     13.7231E-03     13.0737E-03
            2624            3074     13.6244E-03     12.9855E-03
            2641            3074     13.6244E-03     12.9855E-03
            2642            3074     13.6244E-03     12.9855E-03
            2623            3074     13.6244E-03     12.9855E-03
            2642            3075     13.3588E-03     12.7458E-03
            2625            3075     13.3588E-03     12.7458E-03
            2624            3075     13.3588E-03     12.7458E-03
            2643            3075     13.3588E-03     12.7458E-03
            2644            3076     13.0042E-03     12.4117E-03
            2626            3076     13.0042E-03     12.4117E-03
            2625            3076     13.0042E-03     12.4117E-03
            2643            3076     13.0042E-03     12.4117E-03
            2645            3077     12.5764E-03     12.0017E-03
            2626            3077     12.5764E-03     12.0017E-03
            2644            3077     12.5764E-03     12.0017E-03
            2627            3077     12.5764E-03     12.0017E-03
            2645            3078     12.1001E-03     11.5389E-03
            2628            3078     12.1001E-03     11.5389E-03
            2627            3078     12.1001E-03     11.5389E-03
            2646            3078     12.1001E-03     11.5389E-03
            2646            3079     11.5814E-03     11.0272E-03
            2647            3079     11.5814E-03     11.0272E-03
            2629            3079     11.5814E-03     11.0272E-03
            2628            3079     11.5814E-03     11.0272E-03
            2630            3080     11.0233E-03     10.4715E-03
            2648            3080     11.0233E-03     10.4715E-03
            2647            3080     11.0233E-03     10.4715E-03
            2629            3080     11.0233E-03     10.4715E-03
            2631            3081     10.4206E-03     9.86321E-03
            2630            3081     10.4206E-03     9.86321E-03
            2649            3081     10.4206E-03     9.86321E-03
            2648            3081     10.4206E-03     9.86321E-03
            2650            3082     9.76782E-03     9.19766E-03
            2649            3082     9.76782E-03     9.19766E-03
            2632            3082     9.76782E-03     9.19766E-03
            2631            3082     9.76782E-03     9.19766E-03
            2651            3083     9.04680E-03     8.46019E-03
            2650            3083     9.04680E-03     8.46019E-03
            2633            3083     9.04680E-03     8.46019E-03
            2632            3083     9.04680E-03     8.46019E-03
            2651            3084     8.24935E-03     7.66284E-03
            2652            3084     8.24935E-03     7.66284E-03
            2633            3084     8.24935E-03     7.66284E-03
            2634            3084     8.24935E-03     7.66284E-03
            2634            3085     7.30633E-03     6.88314E-03
            2653            3085     7.30633E-03     6.88314E-03
            2635            3085     7.30633E-03     6.88314E-03
            2652            3085     7.30633E-03     6.88314E-03
            2636            3086     6.39346E-03     6.74364E-03
            2635            3086     6.39346E-03     6.74364E-03
            2653            3086     6.39346E-03     6.74364E-03
            2654            3086     6.39346E-03     6.74364E-03
            2638            3087     14.2631E-03     14.1142E-03
            2656            3087     14.2631E-03     14.1142E-03
            2655            3087     14.2631E-03     14.1142E-03
            2637            3087     14.2631E-03     14.1142E-03
            2638            3088     13.6069E-03     13.5843E-03
            2656            3088     13.6069E-03     13.5843E-03
            2639            3088     13.6069E-03     13.5843E-03
            2657            3088     13.6069E-03     13.5843E-03
            2640            3089     14.0392E-03     13.8792E-03
            2658            3089     14.0392E-03     13.8792E-03
            2657            3089     14.0392E-03     13.8792E-03
            2639            3089     14.0392E-03     13.8792E-03
            2659            3090     14.2059E-03     13.9391E-03
            2640            3090     14.2059E-03     13.9391E-03
            2641            3090     14.2059E-03     13.9391E-03
            2658            3090     14.2059E-03     13.9391E-03
            2642            3091     14.1041E-03     13.7878E-03
            2641            3091     14.1041E-03     13.7878E-03
            2659            3091     14.1041E-03     13.7878E-03
            2660            3091     14.1041E-03     13.7878E-03
            2642            3092     13.8335E-03     13.4875E-03
            2661            3092     13.8335E-03     13.4875E-03
            2660            3092     13.8335E-03     13.4875E-03
            2643            3092     13.8335E-03     13.4875E-03
            2644            3093     13.4445E-03     13.0878E-03
            2662            3093     13.4445E-03     13.0878E-03
            2661            3093     13.4445E-03     13.0878E-03
            2643            3093     13.4445E-03     13.0878E-03
            2662            3094     12.9885E-03     12.6271E-03
            2663            3094     12.9885E-03     12.6271E-03
            2644            3094     12.9885E-03     12.6271E-03
            2645            3094     12.9885E-03     12.6271E-03
            2663            3095     12.4876E-03     12.1233E-03
            2664            3095     12.4876E-03     12.1233E-03
            2646            3095     12.4876E-03     12.1233E-03
            2645            3095     12.4876E-03     12.1233E-03
            2665            3096     11.9530E-03     11.5871E-03
            2646            3096     11.9530E-03     11.5871E-03
            2664            3096     11.9530E-03     11.5871E-03
            2647            3096     11.9530E-03     11.5871E-03
            2647            3097     11.3852E-03     11.0164E-03
            2666            3097     11.3852E-03     11.0164E-03
            2665            3097     11.3852E-03     11.0164E-03
            2648            3097     11.3852E-03     11.0164E-03
            2667            3098     10.7745E-03     10.4033E-03
            2666            3098     10.7745E-03     10.4033E-03
            2649            3098     10.7745E-03     10.4033E-03
            2648            3098     10.7745E-03     10.4033E-03
            2668            3099     10.0959E-03     9.73039E-03
            2649            3099     10.0959E-03     9.73039E-03
            2667            3099     10.0959E-03     9.73039E-03
            2650            3099     10.0959E-03     9.73039E-03
            2650            3100     9.32133E-03     8.98389E-03
            2668            3100     9.32133E-03     8.98389E-03
            2669            3100     9.32133E-03     8.98389E-03
            2651            3100     9.32133E-03     8.98389E-03
            2669            3101     8.38650E-03     8.15311E-03
            2670            3101     8.38650E-03     8.15311E-03
            2651            3101     8.38650E-03     8.15311E-03
            2652            3101     8.38650E-03     8.15311E-03
            2652            3102     7.22747E-03     7.35480E-03
            2670            3102     7.22747E-03     7.35480E-03
            2653            3102     7.22747E-03     7.35480E-03
            2671            3102     7.22747E-03     7.35480E-03
            2653            3103     6.50374E-03     6.88418E-03
            2654            3103     6.50374E-03     6.88418E-03
            2671            3103     6.50374E-03     6.88418E-03
            2672            3103     6.50374E-03     6.88418E-03
            2674            3104     15.8169E-03     15.7158E-03
            2655            3104     15.8169E-03     15.7158E-03
            2656            3104     15.8169E-03     15.7158E-03
            2673            3104     15.8169E-03     15.7158E-03
            2675            3105     14.7418E-03     14.8620E-03
            2657            3105     14.7418E-03     14.8620E-03
            2656            3105     14.7418E-03     14.8620E-03
            2674            3105     14.7418E-03     14.8620E-03
            2676            3106     14.5955E-03     14.7201E-03
            2657            3106     14.5955E-03     14.7201E-03
            2658            3106     14.5955E-03     14.7201E-03
            2675            3106     14.5955E-03     14.7201E-03
            2659            3107     14.6209E-03     14.6574E-03
            2677            3107     14.6209E-03     14.6574E-03
            2676            3107     14.6209E-03     14.6574E-03
            2658            3107     14.6209E-03     14.6574E-03
            2659            3108     14.4574E-03     14.4145E-03
            2678            3108     14.4574E-03     14.4145E-03
            2677            3108     14.4574E-03     14.4145E-03
            2660            3108     14.4574E-03     14.4145E-03
            2678            3109     14.1430E-03     14.0492E-03
            2679            3109     14.1430E-03     14.0492E-03
            2660            3109     14.1430E-03     14.0492E-03
            2661            3109     14.1430E-03     14.0492E-03
            2680            3110     13.7253E-03     13.5987E-03
            2662            3110     13.7253E-03     13.5987E-03
            2679            3110     13.7253E-03     13.5987E-03
            2661            3110     13.7253E-03     13.5987E-03
            2663            3111     13.2492E-03     13.1005E-03
            2662            3111     13.2492E-03     13.1005E-03
            2680            3111     13.2492E-03     13.1005E-03
            2681            3111     13.2492E-03     13.1005E-03
            2663            3112     12.7353E-03     12.5743E-03
            2664            3112     12.7353E-03     12.5743E-03
            2681            3112     12.7353E-03     12.5743E-03
            2682            3112     12.7353E-03     12.5743E-03
            2664            3113     12.1991E-03     12.0289E-03
            2665            3113     12.1991E-03     12.0289E-03
            2683            3113     12.1991E-03     12.0289E-03
            2682            3113     12.1991E-03     12.0289E-03
            2684            3114     11.6329E-03     11.4606E-03
            2683            3114     11.6329E-03     11.4606E-03
            2666            3114     11.6329E-03     11.4606E-03
            2665            3114     11.6329E-03     11.4606E-03
            2684            3115     11.0256E-03     10.8587E-03
            2667            3115     11.0256E-03     10.8587E-03
            2666            3115     11.0256E-03     10.8587E-03
            2685            3115     11.0256E-03     10.8587E-03
            2685            3116     10.3453E-03     10.2056E-03
            2667            3116     10.3453E-03     10.2056E-03
            2686            3116     10.3453E-03     10.2056E-03
            2668            3116     10.3453E-03     10.2056E-03
            2668            3117     9.54985E-03     9.47272E-03
            2669            3117     9.54985E-03     9.47272E-03
            2686            3117     9.54985E-03     9.47272E-03
            2687            3117     9.54985E-03     9.47272E-03
            2669            3118     8.57995E-03     8.67187E-03
            2670            3118     8.57995E-03     8.67187E-03
            2688            3118     8.57995E-03     8.67187E-03
            2687            3118     8.57995E-03     8.67187E-03
            2688            3119     7.55092E-03     7.84014E-03
            2670            3119     7.55092E-03     7.84014E-03
            2689            3119     7.55092E-03     7.84014E-03
            2671            3119     7.55092E-03     7.84014E-03
            2690            3120     6.97744E-03     7.18393E-03
            2672            3120     6.97744E-03     7.18393E-03
            2671            3120     6.97744E-03     7.18393E-03
            2689            3120     6.97744E-03     7.18393E-03
            2691            3121     17.2015E-03     17.2213E-03
            2674            3121     17.2015E-03     17.2213E-03
            2673            3121     17.2015E-03     17.2213E-03
            2692            3121     17.2015E-03     17.2213E-03
            2693            3122     15.9701E-03     16.1189E-03
            2674            3122     15.9701E-03     16.1189E-03
            2675            3122     15.9701E-03     16.1189E-03
            2692            3122     15.9701E-03     16.1189E-03
            2694            3123     15.3506E-03     15.5996E-03
            2676            3123     15.3506E-03     15.5996E-03
            2693            3123     15.3506E-03     15.5996E-03
            2675            3123     15.3506E-03     15.5996E-03
            2695            3124     15.0302E-03     15.2569E-03
            2694            3124     15.0302E-03     15.2569E-03
            2676            3124     15.0302E-03     15.2569E-03
            2677            3124     15.0302E-03     15.2569E-03
            2696            3125     14.7100E-03     14.8817E-03
            2678            3125     14.7100E-03     14.8817E-03
            2695            3125     14.7100E-03     14.8817E-03
            2677            3125     14.7100E-03     14.8817E-03
            2678            3126     14.3028E-03     14.4264E-03
            2697            3126     14.3028E-03     14.4264E-03
            2696            3126     14.3028E-03     14.4264E-03
            2679            3126     14.3028E-03     14.4264E-03
            2680            3127     13.8424E-03     13.9246E-03
            2698            3127     13.8424E-03     13.9246E-03
            2697            3127     13.8424E-03     13.9246E-03
            2679            3127     13.8424E-03     13.9246E-03
            2680            3128     13.3406E-03     13.3976E-03
            2699            3128     13.3406E-03     13.3976E-03
            2681            3128     13.3406E-03     13.3976E-03
            2698            3128     13.3406E-03     13.3976E-03
            2700            3129     12.8268E-03     12.8628E-03
            2681            3129     12.8268E-03     12.8628E-03
            2682            3129     12.8268E-03     12.8628E-03
            2699            3129     12.8268E-03     12.8628E-03
            2701            3130     12.2947E-03     12.3212E-03
            2683            3130     12.2947E-03     12.3212E-03
            2700            3130     12.2947E-03     12.3212E-03
            2682            3130     12.2947E-03     12.3212E-03
            2701            3131     11.7502E-03     11.7729E-03
            2702            3131     11.7502E-03     11.7729E-03
            2683            3131     11.7502E-03     11.7729E-03
            2684            3131     11.7502E-03     11.7729E-03
            2702            3132     11.1656E-03     11.2023E-03
            2685            3132     11.1656E-03     11.2023E-03
            2703            3132     11.1656E-03     11.2023E-03
            2684            3132     11.1656E-03     11.2023E-03
            2704            3133     10.5215E-03     10.5902E-03
            2703            3133     10.5215E-03     10.5902E-03
            2686            3133     10.5215E-03     10.5902E-03
            2685            3133     10.5215E-03     10.5902E-03
            2705            3134     9.76780E-03     9.91589E-03
            2687            3134     9.76780E-03     9.91589E-03
            2704            3134     9.76780E-03     9.91589E-03
            2686            3134     9.76780E-03     9.91589E-03
            2706            3135     8.90212E-03     9.16228E-03
            2688            3135     8.90212E-03     9.16228E-03
            2705            3135     8.90212E-03     9.16228E-03
            2687            3135     8.90212E-03     9.16228E-03
            2688            3136     8.07275E-03     8.35970E-03
            2707            3136     8.07275E-03     8.35970E-03
            2689            3136     8.07275E-03     8.35970E-03
            2706            3136     8.07275E-03     8.35970E-03
            2707            3137     7.54906E-03     7.84360E-03
            2689            3137     7.54906E-03     7.84360E-03
            2708            3137     7.54906E-03     7.84360E-03
            2690            3137     7.54906E-03     7.84360E-03
            2709            3138     18.5508E-03     18.6391E-03
            2691            3138     18.5508E-03     18.6391E-03
            2692            3138     18.5508E-03     18.6391E-03
            2710            3138     18.5508E-03     18.6391E-03
            2692            3139     17.0708E-03     17.3030E-03
            2711            3139     17.0708E-03     17.3030E-03
            2693            3139     17.0708E-03     17.3030E-03
            2710            3139     17.0708E-03     17.3030E-03
            2711            3140     16.1240E-03     16.4248E-03
            2694            3140     16.1240E-03     16.4248E-03
            2693            3140     16.1240E-03     16.4248E-03
            2712            3140     16.1240E-03     16.4248E-03
            2695            3141     15.4323E-03     15.7811E-03
            2712            3141     15.4323E-03     15.7811E-03
            2694            3141     15.4323E-03     15.7811E-03
            2713            3141     15.4323E-03     15.7811E-03
            2714            3142     14.8693E-03     15.2041E-03
            2695            3142     14.8693E-03     15.2041E-03
            2696            3142     14.8693E-03     15.2041E-03
            2713            3142     14.8693E-03     15.2041E-03
            2715            3143     14.3387E-03     14.6381E-03
            2697            3143     14.3387E-03     14.6381E-03
            2696            3143     14.3387E-03     14.6381E-03
            2714            3143     14.3387E-03     14.6381E-03
            2698            3144     13.8042E-03     14.0775E-03
            2716            3144     13.8042E-03     14.0775E-03
            2715            3144     13.8042E-03     14.0775E-03
            2697            3144     13.8042E-03     14.0775E-03
            2698            3145     13.2862E-03     13.5300E-03
            2717            3145     13.2862E-03     13.5300E-03
            2716            3145     13.2862E-03     13.5300E-03
            2699            3145     13.2862E-03     13.5300E-03
            2700            3146     12.7664E-03     12.9927E-03
            2699            3146     12.7664E-03     12.9927E-03
            2718            3146     12.7664E-03     12.9927E-03
            2717            3146     12.7664E-03     12.9927E-03
            2700            3147     12.2573E-03     12.4700E-03
            2718            3147     12.2573E-03     12.4700E-03
            2701            3147     12.2573E-03     12.4700E-03
            2719            3147     12.2573E-03     12.4700E-03
            2719            3148     11.7385E-03     11.9509E-03
            2701            3148     11.7385E-03     11.9509E-03
            2702            3148     11.7385E-03     11.9509E-03
            2720            3148     11.7385E-03     11.9509E-03
            2702            3149     11.2119E-03     11.4329E-03
            2703            3149     11.2119E-03     11.4329E-03
            2721            3149     11.2119E-03     11.4329E-03
            2720            3149     11.2119E-03     11.4329E-03
            2704            3150     10.6359E-03     10.8898E-03
            2721            3150     10.6359E-03     10.8898E-03
            2722            3150     10.6359E-03     10.8898E-03
            2703            3150     10.6359E-03     10.8898E-03
            2705            3151     9.99792E-03     10.3047E-03
            2722            3151     9.99792E-03     10.3047E-03
            2704            3151     9.99792E-03     10.3047E-03
            2723            3151     9.99792E-03     10.3047E-03
            2706            3152     9.30928E-03     9.65092E-03
            2705            3152     9.30928E-03     9.65092E-03
            2724            3152     9.30928E-03     9.65092E-03
            2723            3152     9.30928E-03     9.65092E-03
            2724            3153     8.62794E-03     9.00462E-03
            2706            3153     8.62794E-03     9.00462E-03
            2707            3153     8.62794E-03     9.00462E-03
            2725            3153     8.62794E-03     9.00462E-03
            2708            3154     8.23730E-03     8.53277E-03
            2707            3154     8.23730E-03     8.53277E-03
            2726            3154     8.23730E-03     8.53277E-03
            2725            3154     8.23730E-03     8.53277E-03
            2710            3155     19.8235E-03     20.0312E-03
            2727            3155     19.8235E-03     20.0312E-03
            2728            3155     19.8235E-03     20.0312E-03
            2709            3155     19.8235E-03     20.0312E-03
            2729            3156     18.1159E-03     18.3767E-03
            2711            3156     18.1159E-03     18.3767E-03
            2710            3156     18.1159E-03     18.3767E-03
            2728            3156     18.1159E-03     18.3767E-03
            2712            3157     16.7675E-03     17.1571E-03
            2730            3157     16.7675E-03     17.1571E-03
            2711            3157     16.7675E-03     17.1571E-03
            2729            3157     16.7675E-03     17.1571E-03
            2731            3158     15.7507E-03     16.1917E-03
            2713            3158     15.7507E-03     16.1917E-03
            2712            3158     15.7507E-03     16.1917E-03
            2730            3158     15.7507E-03     16.1917E-03
            2731            3159     14.9330E-03     15.3908E-03
            2732            3159     14.9330E-03     15.3908E-03
            2713            3159     14.9330E-03     15.3908E-03
            2714            3159     14.9330E-03     15.3908E-03
            2732            3160     14.2437E-03     14.7049E-03
            2733            3160     14.2437E-03     14.7049E-03
            2714            3160     14.2437E-03     14.7049E-03
            2715            3160     14.2437E-03     14.7049E-03
            2715            3161     13.6554E-03     14.0927E-03
            2734            3161     13.6554E-03     14.0927E-03
            2716            3161     13.6554E-03     14.0927E-03
            2733            3161     13.6554E-03     14.0927E-03
            2716            3162     13.1063E-03     13.5264E-03
            2735            3162     13.1063E-03     13.5264E-03
            2734            3162     13.1063E-03     13.5264E-03
            2717            3162     13.1063E-03     13.5264E-03
            2717            3163     12.5975E-03     12.9992E-03
            2718            3163     12.5975E-03     12.9992E-03
            2735            3163     12.5975E-03     12.9992E-03
            2736            3163     12.5975E-03     12.9992E-03
            2737            3164     12.1051E-03     12.4971E-03
            2736            3164     12.1051E-03     12.4971E-03
            2718            3164     12.1051E-03     12.4971E-03
            2719            3164     12.1051E-03     12.4971E-03
            2738            3165     11.6343E-03     12.0217E-03
            2737            3165     11.6343E-03     12.0217E-03
            2719            3165     11.6343E-03     12.0217E-03
            2720            3165     11.6343E-03     12.0217E-03
            2720            3166     11.1634E-03     11.5579E-03
            2721            3166     11.1634E-03     11.5579E-03
            2739            3166     11.1634E-03     11.5579E-03
            2738            3166     11.1634E-03     11.5579E-03
            2721            3167     10.7062E-03     11.1147E-03
            2740            3167     10.7062E-03     11.1147E-03
            2722            3167     10.7062E-03     11.1147E-03
            2739            3167     10.7062E-03     11.1147E-03
            2740            3168     10.2249E-03     10.6503E-03
            2723            3168     10.2249E-03     10.6503E-03
            2722            3168     10.2249E-03     10.6503E-03
            2741            3168     10.2249E-03     10.6503E-03
            2723            3169     9.72024E-03     10.1683E-03
            2741            3169     9.72024E-03     10.1683E-03
            2742            3169     9.72024E-03     10.1683E-03
            2724            3169     9.72024E-03     10.1683E-03
            2724            3170     9.27187E-03     9.68665E-03
            2742            3170     9.27187E-03     9.68665E-03
            2743            3170     9.27187E-03     9.68665E-03
            2725            3170     9.27187E-03     9.68665E-03
            2744            3171     8.94988E-03     9.31589E-03
            2726            3171     8.94988E-03     9.31589E-03
            2725            3171     8.94988E-03     9.31589E-03
            2743            3171     8.94988E-03     9.31589E-03
            2728            3172     21.1345E-03     21.3643E-03
            2745            3172     21.1345E-03     21.3643E-03
            2746            3172     21.1345E-03     21.3643E-03
            2727            3172     21.1345E-03     21.3643E-03
            2746            3173     18.9863E-03     19.3776E-03
            2747            3173     18.9863E-03     19.3776E-03
            2728            3173     18.9863E-03     19.3776E-03
            2729            3173     18.9863E-03     19.3776E-03
            2748            3174     17.2758E-03     17.7245E-03
            2747            3174     17.2758E-03     17.7245E-03
            2730            3174     17.2758E-03     17.7245E-03
            2729            3174     17.2758E-03     17.7245E-03
            2730            3175     15.8946E-03     16.4289E-03
            2748            3175     15.8946E-03     16.4289E-03
            2749            3175     15.8946E-03     16.4289E-03
            2731            3175     15.8946E-03     16.4289E-03
            2731            3176     14.8418E-03     15.4392E-03
            2750            3176     14.8418E-03     15.4392E-03
            2749            3176     14.8418E-03     15.4392E-03
            2732            3176     14.8418E-03     15.4392E-03
            2751            3177     14.0629E-03     14.6612E-03
            2750            3177     14.0629E-03     14.6612E-03
            2732            3177     14.0629E-03     14.6612E-03
            2733            3177     14.0629E-03     14.6612E-03
            2751            3178     13.4131E-03     14.0071E-03
            2733            3178     13.4131E-03     14.0071E-03
            2752            3178     13.4131E-03     14.0071E-03
            2734            3178     13.4131E-03     14.0071E-03
            2752            3179     12.8584E-03     13.4385E-03
            2753            3179     12.8584E-03     13.4385E-03
            2735            3179     12.8584E-03     13.4385E-03
            2734            3179     12.8584E-03     13.4385E-03
            2753            3180     12.3534E-03     12.9224E-03
            2754            3180     12.3534E-03     12.9224E-03
            2736            3180     12.3534E-03     12.9224E-03
            2735            3180     12.3534E-03     12.9224E-03
            2754            3181     11.8887E-03     12.4493E-03
            2736            3181     11.8887E-03     12.4493E-03
            2755            3181     11.8887E-03     12.4493E-03
            2737            3181     11.8887E-03     12.4493E-03
            2755            3182     11.4530E-03     12.0095E-03
            2738            3182     11.4530E-03     12.0095E-03
            2737            3182     11.4530E-03     12.0095E-03
            2756            3182     11.4530E-03     12.0095E-03
            2756            3183     11.0565E-03     11.6125E-03
            2757            3183     11.0565E-03     11.6125E-03
            2739            3183     11.0565E-03     11.6125E-03
            2738            3183     11.0565E-03     11.6125E-03
            2739            3184     10.6929E-03     11.2487E-03
            2758            3184     10.6929E-03     11.2487E-03
            2757            3184     10.6929E-03     11.2487E-03
            2740            3184     10.6929E-03     11.2487E-03
            2741            3185     10.4139E-03     10.9615E-03
            2758            3185     10.4139E-03     10.9615E-03
            2740            3185     10.4139E-03     10.9615E-03
            2759            3185     10.4139E-03     10.9615E-03
            2742            3186     10.1620E-03     10.6880E-03
            2759            3186     10.1620E-03     10.6880E-03
            2760            3186     10.1620E-03     10.6880E-03
            2741            3186     10.1620E-03     10.6880E-03
            2742            3187     9.91639E-03     10.4183E-03
            2760            3187     9.91639E-03     10.4183E-03
            2743            3187     9.91639E-03     10.4183E-03
            2761            3187     9.91639E-03     10.4183E-03
            2761            3188     9.79580E-03     10.2049E-03
            2744            3188     9.79580E-03     10.2049E-03
            2762            3188     9.79580E-03     10.2049E-03
            2743            3188     9.79580E-03     10.2049E-03
            2746            3189     22.3144E-03     22.7570E-03
            2745            3189     22.3144E-03     22.7570E-03
            2764            3189     22.3144E-03     22.7570E-03
            2763            3189     22.3144E-03     22.7570E-03
            2764            3190     19.7577E-03     20.1378E-03
            2747            3190     19.7577E-03     20.1378E-03
            2746            3190     19.7577E-03     20.1378E-03
            2765            3190     19.7577E-03     20.1378E-03
            2748            3191     17.4660E-03     18.0169E-03
            2747            3191     17.4660E-03     18.0169E-03
            2765            3191     17.4660E-03     18.0169E-03
            2766            3191     17.4660E-03     18.0169E-03
            2749            3192     15.7680E-03     16.4665E-03
            2748            3192     15.7680E-03     16.4665E-03
            2766            3192     15.7680E-03     16.4665E-03
            2767            3192     15.7680E-03     16.4665E-03
            2750            3193     14.6514E-03     15.3757E-03
            2767            3193     14.6514E-03     15.3757E-03
            2749            3193     14.6514E-03     15.3757E-03
            2768            3193     14.6514E-03     15.3757E-03
            2751            3194     13.8035E-03     14.5417E-03
            2750            3194     13.8035E-03     14.5417E-03
            2768            3194     13.8035E-03     14.5417E-03
            2769            3194     13.8035E-03     14.5417E-03
            2769            3195     13.1405E-03     13.8779E-03
            2770            3195     13.1405E-03     13.8779E-03
            2751            3195     13.1405E-03     13.8779E-03
            2752            3195     13.1405E-03     13.8779E-03
            2770            3196     12.5815E-03     13.3142E-03
            2753            3196     12.5815E-03     13.3142E-03
            2771            3196     12.5815E-03     13.3142E-03
            2752            3196     12.5815E-03     13.3142E-03
            2754            3197     12.0876E-03     12.8166E-03
            2771            3197     12.0876E-03     12.8166E-03
            2772            3197     12.0876E-03     12.8166E-03
            2753            3197     12.0876E-03     12.8166E-03
            2772            3198     11.6423E-03     12.3669E-03
            2755            3198     11.6423E-03     12.3669E-03
            2754            3198     11.6423E-03     12.3669E-03
            2773            3198     11.6423E-03     12.3669E-03
            2755            3199     11.2384E-03     11.9609E-03
            2773            3199     11.2384E-03     11.9609E-03
            2756            3199     11.2384E-03     11.9609E-03
            2774            3199     11.2384E-03     11.9609E-03
            2756            3200     10.8898E-03     11.6067E-03
            2774            3200     10.8898E-03     11.6067E-03
            2757            3200     10.8898E-03     11.6067E-03
            2775            3200     10.8898E-03     11.6067E-03
            2775            3201     10.6200E-03     11.3301E-03
            2776            3201     10.6200E-03     11.3301E-03
            2758            3201     10.6200E-03     11.3301E-03
            2757            3201     10.6200E-03     11.3301E-03
            2759            3202     10.4595E-03     11.1486E-03
            2777            3202     10.4595E-03     11.1486E-03
            2776            3202     10.4595E-03     11.1486E-03
            2758            3202     10.4595E-03     11.1486E-03
            2760            3203     10.5484E-03     11.1778E-03
            2777            3203     10.5484E-03     11.1778E-03
            2778            3203     10.5484E-03     11.1778E-03
            2759            3203     10.5484E-03     11.1778E-03
            2779            3204     10.7012E-03     11.2496E-03
            2760            3204     10.7012E-03     11.2496E-03
            2778            3204     10.7012E-03     11.2496E-03
            2761            3204     10.7012E-03     11.2496E-03
            2779            3205     10.7245E-03     11.2297E-03
            2762            3205     10.7245E-03     11.2297E-03
            2761            3205     10.7245E-03     11.2297E-03
            2780            3205     10.7245E-03     11.2297E-03
            2763            3206     23.5887E-03     23.7338E-03
            2764            3206     23.5887E-03     23.7338E-03
            2782            3206     23.5887E-03     23.7338E-03
            2781            3206     23.5887E-03     23.7338E-03
            2765            3207     19.9377E-03     20.5063E-03
            2764            3207     19.9377E-03     20.5063E-03
            2783            3207     19.9377E-03     20.5063E-03
            2782            3207     19.9377E-03     20.5063E-03
            2783            3208     17.1490E-03     17.9737E-03
            2784            3208     17.1490E-03     17.9737E-03
            2765            3208     17.1490E-03     17.9737E-03
            2766            3208     17.1490E-03     17.9737E-03
            2766            3209     15.5283E-03     16.3732E-03
            2785            3209     15.5283E-03     16.3732E-03
            2767            3209     15.5283E-03     16.3732E-03
            2784            3209     15.5283E-03     16.3732E-03
            2786            3210     14.3875E-03     15.2447E-03
            2785            3210     14.3875E-03     15.2447E-03
            2768            3210     14.3875E-03     15.2447E-03
            2767            3210     14.3875E-03     15.2447E-03
            2768            3211     13.5437E-03     14.4112E-03
            2786            3211     13.5437E-03     14.4112E-03
            2769            3211     13.5437E-03     14.4112E-03
            2787            3211     13.5437E-03     14.4112E-03
            2770            3212     12.8823E-03     13.7553E-03
            2769            3212     12.8823E-03     13.7553E-03
            2788            3212     12.8823E-03     13.7553E-03
            2787            3212     12.8823E-03     13.7553E-03
            2771            3213     12.3237E-03     13.2054E-03
            2789            3213     12.3237E-03     13.2054E-03
            2788            3213     12.3237E-03     13.2054E-03
            2770            3213     12.3237E-03     13.2054E-03
            2789            3214     11.8401E-03     12.7258E-03
            2771            3214     11.8401E-03     12.7258E-03
            2790            3214     11.8401E-03     12.7258E-03
            2772            3214     11.8401E-03     12.7258E-03
            2791            3215     11.4026E-03     12.2927E-03
            2773            3215     11.4026E-03     12.2927E-03
            2772            3215     11.4026E-03     12.2927E-03
            2790            3215     11.4026E-03     12.2927E-03
            2774            3216     11.0211E-03     11.9101E-03
            2773            3216     11.0211E-03     11.9101E-03
            2792            3216     11.0211E-03     11.9101E-03
            2791            3216     11.0211E-03     11.9101E-03
            2774            3217     10.6944E-03     11.5816E-03
            2792            3217     10.6944E-03     11.5816E-03
            2775            3217     10.6944E-03     11.5816E-03
            2793            3217     10.6944E-03     11.5816E-03
            2776            3218     10.4761E-03     11.3506E-03
            2793            3218     10.4761E-03     11.3506E-03
            2794            3218     10.4761E-03     11.3506E-03
            2775            3218     10.4761E-03     11.3506E-03
            2776            3219     10.3993E-03     11.2562E-03
            2777            3219     10.3993E-03     11.2562E-03
            2794            3219     10.3993E-03     11.2562E-03
            2795            3219     10.3993E-03     11.2562E-03
            2778            3220     10.6019E-03     11.4108E-03
            2795            3220     10.6019E-03     11.4108E-03
            2777            3220     10.6019E-03     11.4108E-03
            2796            3220     10.6019E-03     11.4108E-03
            2778            3221     11.4073E-03     12.0781E-03
            2796            3221     11.4073E-03     12.0781E-03
            2797            3221     11.4073E-03     12.0781E-03
            2779            3221     11.4073E-03     12.0781E-03
            2798            3222     12.1544E-03     12.6314E-03
            2779            3222     12.1544E-03     12.6314E-03
            2797            3222     12.1544E-03     12.6314E-03
            2780            3222     12.1544E-03     12.6314E-03
            2799            3223     23.7525E-03     24.7514E-03
            2781            3223     23.7525E-03     24.7514E-03
            2782            3223     23.7525E-03     24.7514E-03
            2800            3223     23.7525E-03     24.7514E-03
            2783            3224     19.1787E-03     20.3276E-03
            2782            3224     19.1787E-03     20.3276E-03
            2800            3224     19.1787E-03     20.3276E-03
            2801            3224     19.1787E-03     20.3276E-03
            2784            3225     16.7884E-03     17.7962E-03
            2802            3225     16.7884E-03     17.7962E-03
            2801            3225     16.7884E-03     17.7962E-03
            2783            3225     16.7884E-03     17.7962E-03
            2785            3226     15.2807E-03     16.2434E-03
            2802            3226     15.2807E-03     16.2434E-03
            2803            3226     15.2807E-03     16.2434E-03
            2784            3226     15.2807E-03     16.2434E-03
            2786            3227     14.1714E-03     15.1375E-03
            2804            3227     14.1714E-03     15.1375E-03
            2803            3227     14.1714E-03     15.1375E-03
            2785            3227     14.1714E-03     15.1375E-03
            2787            3228     13.3489E-03     14.3303E-03
            2786            3228     13.3489E-03     14.3303E-03
            2805            3228     13.3489E-03     14.3303E-03
            2804            3228     13.3489E-03     14.3303E-03
            2806            3229     12.6759E-03     13.6851E-03
            2788            3229     12.6759E-03     13.6851E-03
            2787            3229     12.6759E-03     13.6851E-03
            2805            3229     12.6759E-03     13.6851E-03
            2806            3230     12.1203E-03     13.1505E-03
            2788            3230     12.1203E-03     13.1505E-03
            2789            3230     12.1203E-03     13.1505E-03
            2807            3230     12.1203E-03     13.1505E-03
            2789            3231     11.6293E-03     12.6786E-03
            2807            3231     11.6293E-03     12.6786E-03
            2808            3231     11.6293E-03     12.6786E-03
            2790            3231     11.6293E-03     12.6786E-03
            2808            3232     11.2012E-03     12.2608E-03
            2791            3232     11.2012E-03     12.2608E-03
            2790            3232     11.2012E-03     12.2608E-03
            2809            3232     11.2012E-03     12.2608E-03
            2810            3233     10.8185E-03     11.8836E-03
            2792            3233     10.8185E-03     11.8836E-03
            2809            3233     10.8185E-03     11.8836E-03
            2791            3233     10.8185E-03     11.8836E-03
            2811            3234     10.5132E-03     11.5756E-03
            2793            3234     10.5132E-03     11.5756E-03
            2792            3234     10.5132E-03     11.5756E-03
            2810            3234     10.5132E-03     11.5756E-03
            2812            3235     10.2871E-03     11.3440E-03
            2811            3235     10.2871E-03     11.3440E-03
            2793            3235     10.2871E-03     11.3440E-03
            2794            3235     10.2871E-03     11.3440E-03
            2794            3236     10.2529E-03     11.2961E-03
            2812            3236     10.2529E-03     11.2961E-03
            2813            3236     10.2529E-03     11.2961E-03
            2795            3236     10.2529E-03     11.2961E-03
            2814            3237     10.4303E-03     11.4635E-03
            2813            3237     10.4303E-03     11.4635E-03
            2796            3237     10.4303E-03     11.4635E-03
            2795            3237     10.4303E-03     11.4635E-03
            2796            3238     11.3259E-03     12.3235E-03
            2814            3238     11.3259E-03     12.3235E-03
            2797            3238     11.3259E-03     12.3235E-03
            2815            3238     11.3259E-03     12.3235E-03
            2798            3239     13.4106E-03     14.2890E-03
            2797            3239     13.4106E-03     14.2890E-03
            2815            3239     13.4106E-03     14.2890E-03
            2816            3239     13.4106E-03     14.2890E-03
            2817            3240     24.3237E-03     24.7995E-03
            2818            3240     24.3237E-03     24.7995E-03
            2800            3240     24.3237E-03     24.7995E-03
            2799            3240     24.3237E-03     24.7995E-03
            2800            3241     22.6101E-03     22.6088E-03
            2818            3241     22.6101E-03     22.6088E-03
            2801            3241     22.6101E-03     22.6088E-03
            2819            3241     22.6101E-03     22.6088E-03
            2801            3242     21.6771E-03     21.6055E-03
            2820            3242     21.6771E-03     21.6055E-03
            2802            3242     21.6771E-03     21.6055E-03
            2819            3242     21.6771E-03     21.6055E-03
            2803            3243     20.7863E-03     20.7934E-03
            2802            3243     20.7863E-03     20.7934E-03
            2820            3243     20.7863E-03     20.7934E-03
            2821            3243     20.7863E-03     20.7934E-03
            2804            3244     20.0367E-03     20.1019E-03
            2822            3244     20.0367E-03     20.1019E-03
            2821            3244     20.0367E-03     20.1019E-03
            2803            3244     20.0367E-03     20.1019E-03
            2822            3245     19.2995E-03     19.4555E-03
            2804            3245     19.2995E-03     19.4555E-03
            2805            3245     19.2995E-03     19.4555E-03
            2823            3245     19.2995E-03     19.4555E-03
            2824            3246     18.6044E-03     18.8173E-03
            2823            3246     18.6044E-03     18.8173E-03
            2805            3246     18.6044E-03     18.8173E-03
            2806            3246     18.6044E-03     18.8173E-03
            2825            3247     17.9096E-03     18.1805E-03
            2806            3247     17.9096E-03     18.1805E-03
            2807            3247     17.9096E-03     18.1805E-03
            2824            3247     17.9096E-03     18.1805E-03
            2807            3248     17.2256E-03     17.5301E-03
            2826            3248     17.2256E-03     17.5301E-03
            2808            3248     17.2256E-03     17.5301E-03
            2825            3248     17.2256E-03     17.5301E-03
            2826            3249     16.5422E-03     16.8733E-03
            2808            3249     16.5422E-03     16.8733E-03
            2827            3249     16.5422E-03     16.8733E-03
            2809            3249     16.5422E-03     16.8733E-03
            2810            3250     15.8659E-03     16.2064E-03
            2809            3250     15.8659E-03     16.2064E-03
            2828            3250     15.8659E-03     16.2064E-03
            2827            3250     15.8659E-03     16.2064E-03
            2811            3251     15.2085E-03     15.5471E-03
            2828            3251     15.2085E-03     15.5471E-03
            2810            3251     15.2085E-03     15.5471E-03
            2829            3251     15.2085E-03     15.5471E-03
            2812            3252     14.5859E-03     14.9043E-03
            2811            3252     14.5859E-03     14.9043E-03
            2830            3252     14.5859E-03     14.9043E-03
            2829            3252     14.5859E-03     14.9043E-03
            2813            3253     14.0449E-03     14.3252E-03
            2830            3253     14.0449E-03     14.3252E-03
            2831            3253     14.0449E-03     14.3252E-03
            2812            3253     14.0449E-03     14.3252E-03
            2813            3254     13.6607E-03     13.8737E-03
            2814            3254     13.6607E-03     13.8737E-03
            2831            3254     13.6607E-03     13.8737E-03
            2832            3254     13.6607E-03     13.8737E-03
            2815            3255     13.5822E-03     13.7325E-03
            2833            3255     13.5822E-03     13.7325E-03
            2832            3255     13.5822E-03     13.7325E-03
            2814            3255     13.5822E-03     13.7325E-03
            2834            3256     14.5951E-03     14.8174E-03
            2816            3256     14.5951E-03     14.8174E-03
            2833            3256     14.5951E-03     14.8174E-03
            2815            3256     14.5951E-03     14.8174E-03
            2817            3257     26.3038E-03     25.5049E-03
            2818            3257     26.3038E-03     25.5049E-03
            2836            3257     26.3038E-03     25.5049E-03
            2835            3257     26.3038E-03     25.5049E-03
            2837            3258     26.9466E-03     26.1961E-03
            2818            3258     26.9466E-03     26.1961E-03
            2819            3258     26.9466E-03     26.1961E-03
            2836            3258     26.9466E-03     26.1961E-03
            2838            3259     27.2081E-03     26.4546E-03
            2819            3259     27.2081E-03     26.4546E-03
            2820            3259     27.2081E-03     26.4546E-03
            2837            3259     27.2081E-03     26.4546E-03
            2820            3260     26.9812E-03     26.2921E-03
            2838            3260     26.9812E-03     26.2921E-03
            2839            3260     26.9812E-03     26.2921E-03
            2821            3260     26.9812E-03     26.2921E-03
            2839            3261     26.5056E-03     25.8832E-03
            2840            3261     26.5056E-03     25.8832E-03
            2821            3261     26.5056E-03     25.8832E-03
            2822            3261     26.5056E-03     25.8832E-03
            2822            3262     25.8436E-03     25.2932E-03
            2841            3262     25.8436E-03     25.2932E-03
            2823            3262     25.8436E-03     25.2932E-03
            2840            3262     25.8436E-03     25.2932E-03
            2823            3263     25.0665E-03     24.5744E-03
            2842            3263     25.0665E-03     24.5744E-03
            2841            3263     25.0665E-03     24.5744E-03
            2824            3263     25.0665E-03     24.5744E-03
            2843            3264     24.2053E-03     23.7596E-03
            2824            3264     24.2053E-03     23.7596E-03
            2842            3264     24.2053E-03     23.7596E-03
            2825            3264     24.2053E-03     23.7596E-03
            2843            3265     23.2839E-03     22.8735E-03
            2844            3265     23.2839E-03     22.8735E-03
            2826            3265     23.2839E-03     22.8735E-03
            2825            3265     23.2839E-03     22.8735E-03
            2827            3266     22.3205E-03     21.9303E-03
            2844            3266     22.3205E-03     21.9303E-03
            2845            3266     22.3205E-03     21.9303E-03
            2826            3266     22.3205E-03     21.9303E-03
            2827            3267     21.3183E-03     20.9380E-03
            2846            3267     21.3183E-03     20.9380E-03
            2845            3267     21.3183E-03     20.9380E-03
            2828            3267     21.3183E-03     20.9380E-03
            2846            3268     20.2900E-03     19.9024E-03
            2828            3268     20.2900E-03     19.9024E-03
            2847            3268     20.2900E-03     19.9024E-03
            2829            3268     20.2900E-03     19.9024E-03
            2847            3269     19.2299E-03     18.8203E-03
            2829            3269     19.2299E-03     18.8203E-03
            2848            3269     19.2299E-03     18.8203E-03
            2830            3269     19.2299E-03     18.8203E-03
            2849            3270     18.1633E-03     17.7137E-03
            2831            3270     18.1633E-03     17.7137E-03
            2848            3270     18.1633E-03     17.7137E-03
            2830            3270     18.1633E-03     17.7137E-03
            2849            3271     17.0644E-03     16.5741E-03
            2831            3271     17.0644E-03     16.5741E-03
            2832            3271     17.0644E-03     16.5741E-03
            2850            3271     17.0644E-03     16.5741E-03
            2850            3272     16.0190E-03     15.6015E-03
            2832            3272     16.0190E-03     15.6015E-03
            2851            3272     16.0190E-03     15.6015E-03
            2833            3272     16.0190E-03     15.6015E-03
            2852            3273     14.6657E-03     14.9325E-03
            2833            3273     14.6657E-03     14.9325E-03
            2851            3273     14.6657E-03     14.9325E-03
            2834            3273     14.6657E-03     14.9325E-03
            2836            3274     28.1908E-03     28.2230E-03
            2854            3274     28.1908E-03     28.2230E-03
            2835            3274     28.1908E-03     28.2230E-03
            2853            3274     28.1908E-03     28.2230E-03
            2837            3275     28.0112E-03     28.1408E-03
            2855            3275     28.0112E-03     28.1408E-03
            2854            3275     28.0112E-03     28.1408E-03
            2836            3275     28.0112E-03     28.1408E-03
            2856            3276     28.2249E-03     28.2212E-03
            2838            3276     28.2249E-03     28.2212E-03
            2855            3276     28.2249E-03     28.2212E-03
            2837            3276     28.2249E-03     28.2212E-03
            2856            3277     28.0068E-03     27.8989E-03
            2839            3277     28.0068E-03     27.8989E-03
            2857            3277     28.0068E-03     27.8989E-03
            2838            3277     28.0068E-03     27.8989E-03
            2840            3278     27.4771E-03     27.3175E-03
            2839            3278     27.4771E-03     27.3175E-03
            2858            3278     27.4771E-03     27.3175E-03
            2857            3278     27.4771E-03     27.3175E-03
            2859            3279     26.7452E-03     26.5642E-03
            2840            3279     26.7452E-03     26.5642E-03
            2841            3279     26.7452E-03     26.5642E-03
            2858            3279     26.7452E-03     26.5642E-03
            2860            3280     25.8847E-03     25.6973E-03
            2842            3280     25.8847E-03     25.6973E-03
            2841            3280     25.8847E-03     25.6973E-03
            2859            3280     25.8847E-03     25.6973E-03
            2861            3281     24.9441E-03     24.7604E-03
            2843            3281     24.9441E-03     24.7604E-03
            2860            3281     24.9441E-03     24.7604E-03
            2842            3281     24.9441E-03     24.7604E-03
            2861            3282     23.9588E-03     23.7766E-03
            2843            3282     23.9588E-03     23.7766E-03
            2862            3282     23.9588E-03     23.7766E-03
            2844            3282     23.9588E-03     23.7766E-03
            2863            3283     22.9385E-03     22.7597E-03
            2845            3283     22.9385E-03     22.7597E-03
            2862            3283     22.9385E-03     22.7597E-03
            2844            3283     22.9385E-03     22.7597E-03
            2845            3284     21.8952E-03     21.7149E-03
            2864            3284     21.8952E-03     21.7149E-03
            2846            3284     21.8952E-03     21.7149E-03
            2863            3284     21.8952E-03     21.7149E-03
            2847            3285     20.8206E-03     20.6393E-03
            2865            3285     20.8206E-03     20.6393E-03
            2864            3285     20.8206E-03     20.6393E-03
            2846            3285     20.8206E-03     20.6393E-03
            2866            3286     19.7055E-03     19.5304E-03
            2865            3286     19.7055E-03     19.5304E-03
            2847            3286     19.7055E-03     19.5304E-03
            2848            3286     19.7055E-03     19.5304E-03
            2849            3287     18.5287E-03     18.3875E-03
            2848            3287     18.5287E-03     18.3875E-03
            2867            3287     18.5287E-03     18.3875E-03
            2866            3287     18.5287E-03     18.3875E-03
            2850            3288     17.2444E-03     17.2261E-03
            2849            3288     17.2444E-03     17.2261E-03
            2868            3288     17.2444E-03     17.2261E-03
            2867            3288     17.2444E-03     17.2261E-03
            2869            3289     15.7544E-03     16.1958E-03
            2850            3289     15.7544E-03     16.1958E-03
            2851            3289     15.7544E-03     16.1958E-03
            2868            3289     15.7544E-03     16.1958E-03
            2870            3290     13.9782E-03     14.9744E-03
            2852            3290     13.9782E-03     14.9744E-03
            2851            3290     13.9782E-03     14.9744E-03
            2869            3290     13.9782E-03     14.9744E-03
            2871            3291     30.2355E-03     30.4472E-03
            2853            3291     30.2355E-03     30.4472E-03
            2854            3291     30.2355E-03     30.4472E-03
            2872            3291     30.2355E-03     30.4472E-03
            2873            3292     29.4859E-03     29.9582E-03
            2854            3292     29.4859E-03     29.9582E-03
            2872            3292     29.4859E-03     29.9582E-03
            2855            3292     29.4859E-03     29.9582E-03
            2873            3293     29.2275E-03     29.6653E-03
            2856            3293     29.2275E-03     29.6653E-03
            2855            3293     29.2275E-03     29.6653E-03
            2874            3293     29.2275E-03     29.6653E-03
            2856            3294     28.8563E-03     29.1912E-03
            2857            3294     28.8563E-03     29.1912E-03
            2874            3294     28.8563E-03     29.1912E-03
            2875            3294     28.8563E-03     29.1912E-03
            2875            3295     28.2271E-03     28.4589E-03
            2876            3295     28.2271E-03     28.4589E-03
            2858            3295     28.2271E-03     28.4589E-03
            2857            3295     28.2271E-03     28.4589E-03
            2859            3296     27.4119E-03     27.5721E-03
            2876            3296     27.4119E-03     27.5721E-03
            2858            3296     27.4119E-03     27.5721E-03
            2877            3296     27.4119E-03     27.5721E-03
            2878            3297     26.4771E-03     26.5922E-03
            2860            3297     26.4771E-03     26.5922E-03
            2859            3297     26.4771E-03     26.5922E-03
            2877            3297     26.4771E-03     26.5922E-03
            2861            3298     25.4813E-03     25.5624E-03
            2860            3298     25.4813E-03     25.5624E-03
            2879            3298     25.4813E-03     25.5624E-03
            2878            3298     25.4813E-03     25.5624E-03
            2879            3299     24.4453E-03     24.5090E-03
            2862            3299     24.4453E-03     24.5090E-03
            2880            3299     24.4453E-03     24.5090E-03
            2861            3299     24.4453E-03     24.5090E-03
            2880            3300     23.3945E-03     23.4441E-03
            2862            3300     23.3945E-03     23.4441E-03
            2881            3300     23.3945E-03     23.4441E-03
            2863            3300     23.3945E-03     23.4441E-03
            2863            3301     22.3211E-03     22.3687E-03
            2864            3301     22.3211E-03     22.3687E-03
            2881            3301     22.3211E-03     22.3687E-03
            2882            3301     22.3211E-03     22.3687E-03
            2882            3302     21.2208E-03     21.2767E-03
            2865            3302     21.2208E-03     21.2767E-03
            2864            3302     21.2208E-03     21.2767E-03
            2883            3302     21.2208E-03     21.2767E-03
            2883            3303     20.0680E-03     20.1635E-03
            2865            3303     20.0680E-03     20.1635E-03
            2866            3303     20.0680E-03     20.1635E-03
            2884            3303     20.0680E-03     20.1635E-03
            2866            3304     18.8151E-03     18.9972E-03
            2884            3304     18.8151E-03     18.9972E-03
            2867            3304     18.8151E-03     18.9972E-03
            2885            3304     18.8151E-03     18.9972E-03
            2867            3305     17.4119E-03     17.8267E-03
            2885            3305     17.4119E-03     17.8267E-03
            2868            3305     17.4119E-03     17.8267E-03
            2886            3305     17.4119E-03     17.8267E-03
            2886            3306     15.7824E-03     16.5013E-03
            2887            3306     15.7824E-03     16.5013E-03
            2869            3306     15.7824E-03     16.5013E-03
            2868            3306     15.7824E-03     16.5013E-03
            2870            3307     14.2142E-03     14.8776E-03
            2887            3307     14.2142E-03     14.8776E-03
            2888            3307     14.2142E-03     14.8776E-03
            2869            3307     14.2142E-03     14.8776E-03
            2872            3308     32.0671E-03     32.3767E-03
            2889            3308     32.0671E-03     32.3767E-03
            2890            3308     32.0671E-03     32.3767E-03
            2871            3308     32.0671E-03     32.3767E-03
            2890            3309     31.0256E-03     31.5693E-03
            2873            3309     31.0256E-03     31.5693E-03
            2872            3309     31.0256E-03     31.5693E-03
            2891            3309     31.0256E-03     31.5693E-03
            2892            3310     30.2635E-03     30.9222E-03
            2891            3310     30.2635E-03     30.9222E-03
            2874            3310     30.2635E-03     30.9222E-03
            2873            3310     30.2635E-03     30.9222E-03
            2875            3311     29.5759E-03     30.1813E-03
            2874            3311     29.5759E-03     30.1813E-03
            2893            3311     29.5759E-03     30.1813E-03
            2892            3311     29.5759E-03     30.1813E-03
            2876            3312     28.7613E-03     29.2882E-03
            2894            3312     28.7613E-03     29.2882E-03
            2893            3312     28.7613E-03     29.2882E-03
            2875            3312     28.7613E-03     29.2882E-03
            2877            3313     27.8233E-03     28.2725E-03
            2876            3313     27.8233E-03     28.2725E-03
            2895            3313     27.8233E-03     28.2725E-03
            2894            3313     27.8233E-03     28.2725E-03
            2878            3314     26.8160E-03     27.1972E-03
            2896            3314     26.8160E-03     27.1972E-03
            2877            3314     26.8160E-03     27.1972E-03
            2895            3314     26.8160E-03     27.1972E-03
            2879            3315     25.7636E-03     26.1007E-03
            2897            3315     25.7636E-03     26.1007E-03
            2878            3315     25.7636E-03     26.1007E-03
            2896            3315     25.7636E-03     26.1007E-03
            2879            3316     24.7044E-03     25.0050E-03
            2897            3316     24.7044E-03     25.0050E-03
            2898            3316     24.7044E-03     25.0050E-03
            2880            3316     24.7044E-03     25.0050E-03
            2898            3317     23.6328E-03     23.9160E-03
            2881            3317     23.6328E-03     23.9160E-03
            2880            3317     23.6328E-03     23.9160E-03
            2899            3317     23.6328E-03     23.9160E-03
            2900            3318     22.5595E-03     22.8361E-03
            2881            3318     22.5595E-03     22.8361E-03
            2899            3318     22.5595E-03     22.8361E-03
            2882            3318     22.5595E-03     22.8361E-03
            2901            3319     21.4593E-03     21.7567E-03
            2882            3319     21.4593E-03     21.7567E-03
            2883            3319     21.4593E-03     21.7567E-03
            2900            3319     21.4593E-03     21.7567E-03
            2883            3320     20.3080E-03     20.6530E-03
            2901            3320     20.3080E-03     20.6530E-03
            2902            3320     20.3080E-03     20.6530E-03
            2884            3320     20.3080E-03     20.6530E-03
            2884            3321     19.0587E-03     19.5197E-03
            2885            3321     19.0587E-03     19.5197E-03
            2902            3321     19.0587E-03     19.5197E-03
            2903            3321     19.0587E-03     19.5197E-03
            2903            3322     17.6486E-03     18.2753E-03
            2886            3322     17.6486E-03     18.2753E-03
            2885            3322     17.6486E-03     18.2753E-03
            2904            3322     17.6486E-03     18.2753E-03
            2905            3323     16.1347E-03     16.8307E-03
            2887            3323     16.1347E-03     16.8307E-03
            2886            3323     16.1347E-03     16.8307E-03
            2904            3323     16.1347E-03     16.8307E-03
            2887            3324     14.6326E-03     15.4283E-03
            2888            3324     14.6326E-03     15.4283E-03
            2906            3324     14.6326E-03     15.4283E-03
            2905            3324     14.6326E-03     15.4283E-03
            2908            3325     33.7923E-03     34.1853E-03
            2889            3325     33.7923E-03     34.1853E-03
            2907            3325     33.7923E-03     34.1853E-03
            2890            3325     33.7923E-03     34.1853E-03
            2909            3326     32.3875E-03     33.0207E-03
            2908            3326     32.3875E-03     33.0207E-03
            2891            3326     32.3875E-03     33.0207E-03
            2890            3326     32.3875E-03     33.0207E-03
            2910            3327     31.2452E-03     31.9786E-03
            2891            3327     31.2452E-03     31.9786E-03
            2892            3327     31.2452E-03     31.9786E-03
            2909            3327     31.2452E-03     31.9786E-03
            2910            3328     30.1522E-03     30.9286E-03
            2892            3328     30.1522E-03     30.9286E-03
            2911            3328     30.1522E-03     30.9286E-03
            2893            3328     30.1522E-03     30.9286E-03
            2894            3329     29.0797E-03     29.8143E-03
            2912            3329     29.0797E-03     29.8143E-03
            2911            3329     29.0797E-03     29.8143E-03
            2893            3329     29.0797E-03     29.8143E-03
            2913            3330     27.9909E-03     28.6597E-03
            2895            3330     27.9909E-03     28.6597E-03
            2912            3330     27.9909E-03     28.6597E-03
            2894            3330     27.9909E-03     28.6597E-03
            2913            3331     26.8859E-03     27.5005E-03
            2896            3331     26.8859E-03     27.5005E-03
            2895            3331     26.8859E-03     27.5005E-03
            2914            3331     26.8859E-03     27.5005E-03
            2896            3332     25.7999E-03     26.3600E-03
            2914            3332     25.7999E-03     26.3600E-03
            2897            3332     25.7999E-03     26.3600E-03
            2915            3332     25.7999E-03     26.3600E-03
            2916            3333     24.7174E-03     25.2425E-03
            2898            3333     24.7174E-03     25.2425E-03
            2915            3333     24.7174E-03     25.2425E-03
            2897            3333     24.7174E-03     25.2425E-03
            2917            3334     23.6554E-03     24.1558E-03
            2898            3334     23.6554E-03     24.1558E-03
            2899            3334     23.6554E-03     24.1558E-03
            2916            3334     23.6554E-03     24.1558E-03
            2918            3335     22.5941E-03     23.0915E-03
            2899            3335     22.5941E-03     23.0915E-03
            2900            3335     22.5941E-03     23.0915E-03
            2917            3335     22.5941E-03     23.0915E-03
            2901            3336     21.5361E-03     22.0480E-03
            2900            3336     21.5361E-03     22.0480E-03
            2919            3336     21.5361E-03     22.0480E-03
            2918            3336     21.5361E-03     22.0480E-03
            2902            3337     20.4382E-03     21.0021E-03
            2920            3337     20.4382E-03     21.0021E-03
            2919            3337     20.4382E-03     21.0021E-03
            2901            3337     20.4382E-03     21.0021E-03
            2921            3338     19.2658E-03     19.9126E-03
            2903            3338     19.2658E-03     19.9126E-03
            2902            3338     19.2658E-03     19.9126E-03
            2920            3338     19.2658E-03     19.9126E-03
            2921            3339     17.9904E-03     18.7085E-03
            2904            3339     17.9904E-03     18.7085E-03
            2903            3339     17.9904E-03     18.7085E-03
            2922            3339     17.9904E-03     18.7085E-03
            2922            3340     16.5880E-03     17.3981E-03
            2904            3340     16.5880E-03     17.3981E-03
            2923            3340     16.5880E-03     17.3981E-03
            2905            3340     16.5880E-03     17.3981E-03
            2905            3341     15.2626E-03     16.0405E-03
            2924            3341     15.2626E-03     16.0405E-03
            2923            3341     15.2626E-03     16.0405E-03
            2906            3341     15.2626E-03     16.0405E-03
            2925            3342     35.3878E-03     35.9148E-03
            2907            3342     35.3878E-03     35.9148E-03
            2926            3342     35.3878E-03     35.9148E-03
            2908            3342     35.3878E-03     35.9148E-03
            2908            3343     33.6497E-03     34.3063E-03
            2927            3343     33.6497E-03     34.3063E-03
            2909            3343     33.6497E-03     34.3063E-03
            2926            3343     33.6497E-03     34.3063E-03
            2928            3344     32.0117E-03     32.8417E-03
            2909            3344     32.0117E-03     32.8417E-03
            2910            3344     32.0117E-03     32.8417E-03
            2927            3344     32.0117E-03     32.8417E-03
            2910            3345     30.5360E-03     31.4160E-03
            2929            3345     30.5360E-03     31.4160E-03
            2911            3345     30.5360E-03     31.4160E-03
            2928            3345     30.5360E-03     31.4160E-03
            2911            3346     29.1700E-03     30.0430E-03
            2930            3346     29.1700E-03     30.0430E-03
            2929            3346     29.1700E-03     30.0430E-03
            2912            3346     29.1700E-03     30.0430E-03
            2931            3347     27.8970E-03     28.7481E-03
            2930            3347     27.8970E-03     28.7481E-03
            2912            3347     27.8970E-03     28.7481E-03
            2913            3347     27.8970E-03     28.7481E-03
            2932            3348     26.7258E-03     27.5254E-03
            2913            3348     26.7258E-03     27.5254E-03
            2914            3348     26.7258E-03     27.5254E-03
            2931            3348     26.7258E-03     27.5254E-03
            2914            3349     25.5989E-03     26.3576E-03
            2933            3349     25.5989E-03     26.3576E-03
            2932            3349     25.5989E-03     26.3576E-03
            2915            3349     25.5989E-03     26.3576E-03
            2915            3350     24.5216E-03     25.2448E-03
            2934            3350     24.5216E-03     25.2448E-03
            2933            3350     24.5216E-03     25.2448E-03
            2916            3350     24.5216E-03     25.2448E-03
            2934            3351     23.4709E-03     24.1733E-03
            2917            3351     23.4709E-03     24.1733E-03
            2935            3351     23.4709E-03     24.1733E-03
            2916            3351     23.4709E-03     24.1733E-03
            2935            3352     22.4534E-03     23.1480E-03
            2917            3352     22.4534E-03     23.1480E-03
            2918            3352     22.4534E-03     23.1480E-03
            2936            3352     22.4534E-03     23.1480E-03
            2936            3353     21.4465E-03     22.1535E-03
            2918            3353     21.4465E-03     22.1535E-03
            2937            3353     21.4465E-03     22.1535E-03
            2919            3353     21.4465E-03     22.1535E-03
            2920            3354     20.4641E-03     21.2009E-03
            2937            3354     20.4641E-03     21.2009E-03
            2938            3354     20.4641E-03     21.2009E-03
            2919            3354     20.4641E-03     21.2009E-03
            2939            3355     19.4463E-03     20.2250E-03
            2920            3355     19.4463E-03     20.2250E-03
            2921            3355     19.4463E-03     20.2250E-03
            2938            3355     19.4463E-03     20.2250E-03
            2940            3356     18.3517E-03     19.1882E-03
            2922            3356     18.3517E-03     19.1882E-03
            2939            3356     18.3517E-03     19.1882E-03
            2921            3356     18.3517E-03     19.1882E-03
            2923            3357     17.1902E-03     18.0395E-03
            2940            3357     17.1902E-03     18.0395E-03
            2922            3357     17.1902E-03     18.0395E-03
            2941            3357     17.1902E-03     18.0395E-03
            2924            3358     15.9513E-03     16.8026E-03
            2941            3358     15.9513E-03     16.8026E-03
            2942            3358     15.9513E-03     16.8026E-03
            2923            3358     15.9513E-03     16.8026E-03
            2926            3359     37.0014E-03     37.5263E-03
            2944            3359     37.0014E-03     37.5263E-03
            2943            3359     37.0014E-03     37.5263E-03
            2925            3359     37.0014E-03     37.5263E-03
            2944            3360     34.6700E-03     35.4702E-03
            2926            3360     34.6700E-03     35.4702E-03
            2945            3360     34.6700E-03     35.4702E-03
            2927            3360     34.6700E-03     35.4702E-03
            2927            3361     32.5553E-03     33.4312E-03
            2945            3361     32.5553E-03     33.4312E-03
            2928            3361     32.5553E-03     33.4312E-03
            2946            3361     32.5553E-03     33.4312E-03
            2947            3362     30.6254E-03     31.5753E-03
            2946            3362     30.6254E-03     31.5753E-03
            2928            3362     30.6254E-03     31.5753E-03
            2929            3362     30.6254E-03     31.5753E-03
            2948            3363     28.9641E-03     29.9704E-03
            2947            3363     28.9641E-03     29.9704E-03
            2929            3363     28.9641E-03     29.9704E-03
            2930            3363     28.9641E-03     29.9704E-03
            2931            3364     27.5904E-03     28.5749E-03
            2949            3364     27.5904E-03     28.5749E-03
            2948            3364     27.5904E-03     28.5749E-03
            2930            3364     27.5904E-03     28.5749E-03
            2950            3365     26.3527E-03     27.3109E-03
            2932            3365     26.3527E-03     27.3109E-03
            2949            3365     26.3527E-03     27.3109E-03
            2931            3365     26.3527E-03     27.3109E-03
            2950            3366     25.2218E-03     26.1491E-03
            2951            3366     25.2218E-03     26.1491E-03
            2933            3366     25.2218E-03     26.1491E-03
            2932            3366     25.2218E-03     26.1491E-03
            2933            3367     24.1525E-03     25.0542E-03
            2934            3367     24.1525E-03     25.0542E-03
            2952            3367     24.1525E-03     25.0542E-03
            2951            3367     24.1525E-03     25.0542E-03
            2934            3368     23.1330E-03     24.0187E-03
            2952            3368     23.1330E-03     24.0187E-03
            2935            3368     23.1330E-03     24.0187E-03
            2953            3368     23.1330E-03     24.0187E-03
            2936            3369     22.1543E-03     23.0323E-03
            2953            3369     22.1543E-03     23.0323E-03
            2935            3369     22.1543E-03     23.0323E-03
            2954            3369     22.1543E-03     23.0323E-03
            2936            3370     21.2291E-03     22.1105E-03
            2937            3370     21.2291E-03     22.1105E-03
            2954            3370     21.2291E-03     22.1105E-03
            2955            3370     21.2291E-03     22.1105E-03
            2938            3371     20.3458E-03     21.2362E-03
            2937            3371     20.3458E-03     21.2362E-03
            2956            3371     20.3458E-03     21.2362E-03
            2955            3371     20.3458E-03     21.2362E-03
            2938            3372     19.5613E-03     20.4668E-03
            2957            3372     19.5613E-03     20.4668E-03
            2939            3372     19.5613E-03     20.4668E-03
            2956            3372     19.5613E-03     20.4668E-03
            2958            3373     18.7608E-03     19.6814E-03
            2940            3373     18.7608E-03     19.6814E-03
            2957            3373     18.7608E-03     19.6814E-03
            2939            3373     18.7608E-03     19.6814E-03
            2940            3374     17.8402E-03     18.7711E-03
            2958            3374     17.8402E-03     18.7711E-03
            2959            3374     17.8402E-03     18.7711E-03
            2941            3374     17.8402E-03     18.7711E-03
            2960            3375     16.8260E-03     17.7224E-03
            2941            3375     16.8260E-03     17.7224E-03
            2942            3375     16.8260E-03     17.7224E-03
            2959            3375     16.8260E-03     17.7224E-03
            2943            3376     38.4057E-03     39.2170E-03
            2944            3376     38.4057E-03     39.2170E-03
            2961            3376     38.4057E-03     39.2170E-03
            2962            3376     38.4057E-03     39.2170E-03
            2962            3377     35.5395E-03     36.2780E-03
            2944            3377     35.5395E-03     36.2780E-03
            2963            3377     35.5395E-03     36.2780E-03
            2945            3377     35.5395E-03     36.2780E-03
            2963            3378     32.6561E-03     33.5688E-03
            2945            3378     32.6561E-03     33.5688E-03
            2964            3378     32.6561E-03     33.5688E-03
            2946            3378     32.6561E-03     33.5688E-03
            2964            3379     30.2721E-03     31.3532E-03
            2965            3379     30.2721E-03     31.3532E-03
            2946            3379     30.2721E-03     31.3532E-03
            2947            3379     30.2721E-03     31.3532E-03
            2965            3380     28.5317E-03     29.6294E-03
            2947            3380     28.5317E-03     29.6294E-03
            2948            3380     28.5317E-03     29.6294E-03
            2966            3380     28.5317E-03     29.6294E-03
            2948            3381     27.0850E-03     28.1838E-03
            2966            3381     27.0850E-03     28.1838E-03
            2949            3381     27.0850E-03     28.1838E-03
            2967            3381     27.0850E-03     28.1838E-03
            2950            3382     25.8437E-03     26.9334E-03
            2967            3382     25.8437E-03     26.9334E-03
            2968            3382     25.8437E-03     26.9334E-03
            2949            3382     25.8437E-03     26.9334E-03
            2968            3383     24.7233E-03     25.7984E-03
            2951            3383     24.7233E-03     25.7984E-03
            2969            3383     24.7233E-03     25.7984E-03
            2950            3383     24.7233E-03     25.7984E-03
            2951            3384     23.6761E-03     24.7436E-03
            2969            3384     23.6761E-03     24.7436E-03
            2952            3384     23.6761E-03     24.7436E-03
            2970            3384     23.6761E-03     24.7436E-03
            2970            3385     22.6895E-03     23.7481E-03
            2971            3385     22.6895E-03     23.7481E-03
            2952            3385     22.6895E-03     23.7481E-03
            2953            3385     22.6895E-03     23.7481E-03
            2972            3386     21.7535E-03     22.8097E-03
            2971            3386     21.7535E-03     22.8097E-03
            2953            3386     21.7535E-03     22.8097E-03
            2954            3386     21.7535E-03     22.8097E-03
            2955            3387     20.8871E-03     21.9374E-03
            2972            3387     20.8871E-03     21.9374E-03
            2973            3387     20.8871E-03     21.9374E-03
            2954            3387     20.8871E-03     21.9374E-03
            2974            3388     20.1204E-03     21.1686E-03
            2955            3388     20.1204E-03     21.1686E-03
            2973            3388     20.1204E-03     21.1686E-03
            2956            3388     20.1204E-03     21.1686E-03
            2975            3389     19.4786E-03     20.5142E-03
            2974            3389     19.4786E-03     20.5142E-03
            2957            3389     19.4786E-03     20.5142E-03
            2956            3389     19.4786E-03     20.5142E-03
            2976            3390     19.1188E-03     20.1271E-03
            2958            3390     19.1188E-03     20.1271E-03
            2975            3390     19.1188E-03     20.1271E-03
            2957            3390     19.1188E-03     20.1271E-03
            2959            3391     18.6985E-03     19.6935E-03
            2976            3391     18.6985E-03     19.6935E-03
            2958            3391     18.6985E-03     19.6935E-03
            2977            3391     18.6985E-03     19.6935E-03
            2978            3392     17.8607E-03     18.8371E-03
            2959            3392     17.8607E-03     18.8371E-03
            2960            3392     17.8607E-03     18.8371E-03
            2977            3392     17.8607E-03     18.8371E-03
            2961            3393     39.9436E-03     40.2502E-03
            2962            3393     39.9436E-03     40.2502E-03
            2979            3393     39.9436E-03     40.2502E-03
            2980            3393     39.9436E-03     40.2502E-03
            2962            3394     35.6453E-03     36.4490E-03
            2980            3394     35.6453E-03     36.4490E-03
            2981            3394     35.6453E-03     36.4490E-03
            2963            3394     35.6453E-03     36.4490E-03
            2981            3395     31.9848E-03     33.1057E-03
            2982            3395     31.9848E-03     33.1057E-03
            2964            3395     31.9848E-03     33.1057E-03
            2963            3395     31.9848E-03     33.1057E-03
            2964            3396     29.6649E-03     30.8188E-03
            2982            3396     29.6649E-03     30.8188E-03
            2983            3396     29.6649E-03     30.8188E-03
            2965            3396     29.6649E-03     30.8188E-03
            2983            3397     27.9079E-03     29.0755E-03
            2984            3397     27.9079E-03     29.0755E-03
            2966            3397     27.9079E-03     29.0755E-03
            2965            3397     27.9079E-03     29.0755E-03
            2966            3398     26.4833E-03     27.6725E-03
            2984            3398     26.4833E-03     27.6725E-03
            2985            3398     26.4833E-03     27.6725E-03
            2967            3398     26.4833E-03     27.6725E-03
            2967            3399     25.2721E-03     26.4718E-03
            2985            3399     25.2721E-03     26.4718E-03
            2986            3399     25.2721E-03     26.4718E-03
            2968            3399     25.2721E-03     26.4718E-03
            2986            3400     24.1717E-03     25.3896E-03
            2987            3400     24.1717E-03     25.3896E-03
            2969            3400     24.1717E-03     25.3896E-03
            2968            3400     24.1717E-03     25.3896E-03
            2969            3401     23.1589E-03     24.3858E-03
            2970            3401     23.1589E-03     24.3858E-03
            2988            3401     23.1589E-03     24.3858E-03
            2987            3401     23.1589E-03     24.3858E-03
            2970            3402     22.1961E-03     23.4330E-03
            2988            3402     22.1961E-03     23.4330E-03
            2971            3402     22.1961E-03     23.4330E-03
            2989            3402     22.1961E-03     23.4330E-03
            2971            3403     21.3014E-03     22.5379E-03
            2990            3403     21.3014E-03     22.5379E-03
            2989            3403     21.3014E-03     22.5379E-03
            2972            3403     21.3014E-03     22.5379E-03
            2973            3404     20.4720E-03     21.7063E-03
            2972            3404     20.4720E-03     21.7063E-03
            2990            3404     20.4720E-03     21.7063E-03
            2991            3404     20.4720E-03     21.7063E-03
            2992            3405     19.7764E-03     20.9921E-03
            2974            3405     19.7764E-03     20.9921E-03
            2973            3405     19.7764E-03     20.9921E-03
            2991            3405     19.7764E-03     20.9921E-03
            2974            3406     19.2546E-03     20.4466E-03
            2992            3406     19.2546E-03     20.4466E-03
            2975            3406     19.2546E-03     20.4466E-03
            2993            3406     19.2546E-03     20.4466E-03
            2975            3407     19.0642E-03     20.2032E-03
            2994            3407     19.0642E-03     20.2032E-03
            2993            3407     19.0642E-03     20.2032E-03
            2976            3407     19.0642E-03     20.2032E-03
            2976            3408     19.5525E-03     20.6006E-03
            2995            3408     19.5525E-03     20.6006E-03
            2994            3408     19.5525E-03     20.6006E-03
            2977            3408     19.5525E-03     20.6006E-03
            2996            3409     19.5737E-03     20.5757E-03
            2978            3409     19.5737E-03     20.5757E-03
            2995            3409     19.5737E-03     20.5757E-03
            2977            3409     19.5737E-03     20.5757E-03
            2979            3410     40.0190E-03     41.0799E-03
            2998            3410     40.0190E-03     41.0799E-03
            2997            3410     40.0190E-03     41.0799E-03
            2980            3410     40.0190E-03     41.0799E-03
            2999            3411     34.3397E-03     35.6308E-03
            2998            3411     34.3397E-03     35.6308E-03
            2981            3411     34.3397E-03     35.6308E-03
            2980            3411     34.3397E-03     35.6308E-03
            2981            3412     31.0868E-03     32.2563E-03
            3000            3412     31.0868E-03     32.2563E-03
            2999            3412     31.0868E-03     32.2563E-03
            2982            3412     31.0868E-03     32.2563E-03
            2982            3413     28.9458E-03     30.0984E-03
            2983            3413     28.9458E-03     30.0984E-03
            3000            3413     28.9458E-03     30.0984E-03
            3001            3413     28.9458E-03     30.0984E-03
            2983            3414     27.2513E-03     28.4489E-03
            3001            3414     27.2513E-03     28.4489E-03
            3002            3414     27.2513E-03     28.4489E-03
            2984            3414     27.2513E-03     28.4489E-03
            3003            3415     25.8967E-03     27.1479E-03
            2984            3415     25.8967E-03     27.1479E-03
            3002            3415     25.8967E-03     27.1479E-03
            2985            3415     25.8967E-03     27.1479E-03
            2986            3416     24.7025E-03     26.0161E-03
            3003            3416     24.7025E-03     26.0161E-03
            3004            3416     24.7025E-03     26.0161E-03
            2985            3416     24.7025E-03     26.0161E-03
            2986            3417     23.6396E-03     25.0017E-03
            3005            3417     23.6396E-03     25.0017E-03
            2987            3417     23.6396E-03     25.0017E-03
            3004            3417     23.6396E-03     25.0017E-03
            2987            3418     22.6420E-03     24.0446E-03
            3005            3418     22.6420E-03     24.0446E-03
            3006            3418     22.6420E-03     24.0446E-03
            2988            3418     22.6420E-03     24.0446E-03
            3006            3419     21.7147E-03     23.1410E-03
            2989            3419     21.7147E-03     23.1410E-03
            3007            3419     21.7147E-03     23.1410E-03
            2988            3419     21.7147E-03     23.1410E-03
            2990            3420     20.8353E-03     22.2741E-03
            2989            3420     20.8353E-03     22.2741E-03
            3008            3420     20.8353E-03     22.2741E-03
            3007            3420     20.8353E-03     22.2741E-03
            3008            3421     20.0500E-03     21.4832E-03
            2991            3421     20.0500E-03     21.4832E-03
            3009            3421     20.0500E-03     21.4832E-03
            2990            3421     20.0500E-03     21.4832E-03
            3010            3422     19.3580E-03     20.7736E-03
            2991            3422     19.3580E-03     20.7736E-03
            2992            3422     19.3580E-03     20.7736E-03
            3009            3422     19.3580E-03     20.7736E-03
            2993            3423     18.9116E-03     20.2858E-03
            3010            3423     18.9116E-03     20.2858E-03
            3011            3423     18.9116E-03     20.2858E-03
            2992            3423     18.9116E-03     20.2858E-03
            3011            3424     18.7176E-03     20.0399E-03
            3012            3424     18.7176E-03     20.0399E-03
            2993            3424     18.7176E-03     20.0399E-03
            2994            3424     18.7176E-03     20.0399E-03
            2995            3425     19.4499E-03     20.6684E-03
            3013            3425     19.4499E-03     20.6684E-03
            2994            3425     19.4499E-03     20.6684E-03
            3012            3425     19.4499E-03     20.6684E-03
            3014            3426     21.4274E-03     22.5233E-03
            2996            3426     21.4274E-03     22.5233E-03
            3013            3426     21.4274E-03     22.5233E-03
            2995            3426     21.4274E-03     22.5233E-03
            3015            3427     40.2435E-03     40.7906E-03
            3016            3427     40.2435E-03     40.7906E-03
            2997            3427     40.2435E-03     40.7906E-03
            2998            3427     40.2435E-03     40.7906E-03
            2998            3428     37.7432E-03     37.6414E-03
            3017            3428     37.7432E-03     37.6414E-03
            3016            3428     37.7432E-03     37.6414E-03
            2999            3428     37.7432E-03     37.6414E-03
            3000            3429     36.2048E-03     36.0744E-03
            3017            3429     36.2048E-03     36.0744E-03
            3018            3429     36.2048E-03     36.0744E-03
            2999            3429     36.2048E-03     36.0744E-03
            3000            3430     34.7695E-03     34.7886E-03
            3019            3430     34.7695E-03     34.7886E-03
            3001            3430     34.7695E-03     34.7886E-03
            3018            3430     34.7695E-03     34.7886E-03
            3001            3431     33.5085E-03     33.6519E-03
            3002            3431     33.5085E-03     33.6519E-03
            3019            3431     33.5085E-03     33.6519E-03
            3020            3431     33.5085E-03     33.6519E-03
            3002            3432     32.2656E-03     32.5664E-03
            3003            3432     32.2656E-03     32.5664E-03
            3020            3432     32.2656E-03     32.5664E-03
            3021            3432     32.2656E-03     32.5664E-03
            3003            3433     31.0688E-03     31.4746E-03
            3022            3433     31.0688E-03     31.4746E-03
            3004            3433     31.0688E-03     31.4746E-03
            3021            3433     31.0688E-03     31.4746E-03
            3004            3434     29.8671E-03     30.3732E-03
            3023            3434     29.8671E-03     30.3732E-03
            3022            3434     29.8671E-03     30.3732E-03
            3005            3434     29.8671E-03     30.3732E-03
            3005            3435     28.6752E-03     29.2418E-03
            3024            3435     28.6752E-03     29.2418E-03
            3006            3435     28.6752E-03     29.2418E-03
            3023            3435     28.6752E-03     29.2418E-03
            3007            3436     27.4819E-03     28.0948E-03
            3024            3436     27.4819E-03     28.0948E-03
            3006            3436     27.4819E-03     28.0948E-03
            3025            3436     27.4819E-03     28.0948E-03
            3007            3437     26.3001E-03     26.9297E-03
            3008            3437     26.3001E-03     26.9297E-03
            3026            3437     26.3001E-03     26.9297E-03
            3025            3437     26.3001E-03     26.9297E-03
            3008            3438     25.1487E-03     25.7737E-03
            3026            3438     25.1487E-03     25.7737E-03
            3009            3438     25.1487E-03     25.7737E-03
            3027            3438     25.1487E-03     25.7737E-03
            3010            3439     24.0551E-03     24.6422E-03
            3028            3439     24.0551E-03     24.6422E-03
            3009            3439     24.0551E-03     24.6422E-03
            3027            3439     24.0551E-03     24.6422E-03
            3029            3440     23.0899E-03     23.6012E-03
            3010            3440     23.0899E-03     23.6012E-03
            3011            3440     23.0899E-03     23.6012E-03
            3028            3440     23.0899E-03     23.6012E-03
            3012            3441     22.3597E-03     22.7356E-03
            3029            3441     22.3597E-03     22.7356E-03
            3030            3441     22.3597E-03     22.7356E-03
            3011            3441     22.3597E-03     22.7356E-03
            3013            3442     22.1077E-03     22.2976E-03
            3012            3442     22.1077E-03     22.2976E-03
            3030            3442     22.1077E-03     22.2976E-03
            3031            3442     22.1077E-03     22.2976E-03
            3013            3443     23.4824E-03     23.4095E-03
            3031            3443     23.4824E-03     23.4095E-03
            3032            3443     23.4824E-03     23.4095E-03
            3014            3443     23.4824E-03     23.4095E-03
            3033            3444     42.6026E-03     41.6447E-03
            3034            3444     42.6026E-03     41.6447E-03
            3016            3444     42.6026E-03     41.6447E-03
            3015            3444     42.6026E-03     41.6447E-03
            3035            3445     42.8569E-03     42.0488E-03
            3016            3445     42.8569E-03     42.0488E-03
            3034            3445     42.8569E-03     42.0488E-03
            3017            3445     42.8569E-03     42.0488E-03
            3017            3446     42.5813E-03     41.7971E-03
            3036            3446     42.5813E-03     41.7971E-03
            3018            3446     42.5813E-03     41.7971E-03
            3035            3446     42.5813E-03     41.7971E-03
            3018            3447     41.8589E-03     41.1769E-03
            3036            3447     41.8589E-03     41.1769E-03
            3019            3447     41.8589E-03     41.1769E-03
            3037            3447     41.8589E-03     41.1769E-03
            3038            3448     40.8617E-03     40.2912E-03
            3037            3448     40.8617E-03     40.2912E-03
            3019            3448     40.8617E-03     40.2912E-03
            3020            3448     40.8617E-03     40.2912E-03
            3038            3449     39.6767E-03     39.2192E-03
            3020            3449     39.6767E-03     39.2192E-03
            3021            3449     39.6767E-03     39.2192E-03
            3039            3449     39.6767E-03     39.2192E-03
            3039            3450     38.3609E-03     37.9978E-03
            3040            3450     38.3609E-03     37.9978E-03
            3021            3450     38.3609E-03     37.9978E-03
            3022            3450     38.3609E-03     37.9978E-03
            3041            3451     36.9562E-03     36.6668E-03
            3023            3451     36.9562E-03     36.6668E-03
            3022            3451     36.9562E-03     36.6668E-03
            3040            3451     36.9562E-03     36.6668E-03
            3042            3452     35.4827E-03     35.2497E-03
            3023            3452     35.4827E-03     35.2497E-03
            3041            3452     35.4827E-03     35.2497E-03
            3024            3452     35.4827E-03     35.2497E-03
            3025            3453     33.9695E-03     33.7686E-03
            3024            3453     33.9695E-03     33.7686E-03
            3042            3453     33.9695E-03     33.7686E-03
            3043            3453     33.9695E-03     33.7686E-03
            3025            3454     32.4184E-03     32.2332E-03
            3043            3454     32.4184E-03     32.2332E-03
            3044            3454     32.4184E-03     32.2332E-03
            3026            3454     32.4184E-03     32.2332E-03
            3027            3455     30.8595E-03     30.6628E-03
            3045            3455     30.8595E-03     30.6628E-03
            3044            3455     30.8595E-03     30.6628E-03
            3026            3455     30.8595E-03     30.6628E-03
            3045            3456     29.2868E-03     29.0556E-03
            3027            3456     29.2868E-03     29.0556E-03
            3046            3456     29.2868E-03     29.0556E-03
            3028            3456     29.2868E-03     29.0556E-03
            3029            3457     27.7693E-03     27.4724E-03
            3028            3457     27.7693E-03     27.4724E-03
            3046            3457     27.7693E-03     27.4724E-03
            3047            3457     27.7693E-03     27.4724E-03
            3030            3458     26.2680E-03     25.8947E-03
            3047            3458     26.2680E-03     25.8947E-03
            3029            3458     26.2680E-03     25.8947E-03
            3048            3458     26.2680E-03     25.8947E-03
            3048            3459     25.0369E-03     24.6945E-03
            3049            3459     25.0369E-03     24.6945E-03
            3031            3459     25.0369E-03     24.6945E-03
            3030            3459     25.0369E-03     24.6945E-03
            3050            3460     23.4324E-03     23.8535E-03
            3031            3460     23.4324E-03     23.8535E-03
            3032            3460     23.4324E-03     23.8535E-03
            3049            3460     23.4324E-03     23.8535E-03
            3034            3461     45.0376E-03     45.2285E-03
            3033            3461     45.0376E-03     45.2285E-03
            3051            3461     45.0376E-03     45.2285E-03
            3052            3461     45.0376E-03     45.2285E-03
            3052            3462     44.5910E-03     44.9228E-03
            3035            3462     44.5910E-03     44.9228E-03
            3034            3462     44.5910E-03     44.9228E-03
            3053            3462     44.5910E-03     44.9228E-03
            3053            3463     44.2335E-03     44.4464E-03
            3054            3463     44.2335E-03     44.4464E-03
            3036            3463     44.2335E-03     44.4464E-03
            3035            3463     44.2335E-03     44.4464E-03
            3036            3464     43.4479E-03     43.5433E-03
            3054            3464     43.4479E-03     43.5433E-03
            3055            3464     43.4479E-03     43.5433E-03
            3037            3464     43.4479E-03     43.5433E-03
            3055            3465     42.3434E-03     42.3782E-03
            3056            3465     42.3434E-03     42.3782E-03
            3038            3465     42.3434E-03     42.3782E-03
            3037            3465     42.3434E-03     42.3782E-03
            3038            3466     41.0243E-03     41.0408E-03
            3056            3466     41.0243E-03     41.0408E-03
            3039            3466     41.0243E-03     41.0408E-03
            3057            3466     41.0243E-03     41.0408E-03
            3058            3467     39.5749E-03     39.5869E-03
            3039            3467     39.5749E-03     39.5869E-03
            3057            3467     39.5749E-03     39.5869E-03
            3040            3467     39.5749E-03     39.5869E-03
            3059            3468     38.0378E-03     38.0607E-03
            3041            3468     38.0378E-03     38.0607E-03
            3058            3468     38.0378E-03     38.0607E-03
            3040            3468     38.0378E-03     38.0607E-03
            3042            3469     36.4592E-03     36.4868E-03
            3059            3469     36.4592E-03     36.4868E-03
            3041            3469     36.4592E-03     36.4868E-03
            3060            3469     36.4592E-03     36.4868E-03
            3043            3470     34.8456E-03     34.8807E-03
            3042            3470     34.8456E-03     34.8807E-03
            3060            3470     34.8456E-03     34.8807E-03
            3061            3470     34.8456E-03     34.8807E-03
            3044            3471     33.2199E-03     33.2536E-03
            3062            3471     33.2199E-03     33.2536E-03
            3061            3471     33.2199E-03     33.2536E-03
            3043            3471     33.2199E-03     33.2536E-03
            3063            3472     31.5732E-03     31.6057E-03
            3062            3472     31.5732E-03     31.6057E-03
            3044            3472     31.5732E-03     31.6057E-03
            3045            3472     31.5732E-03     31.6057E-03
            3064            3473     29.9119E-03     29.9493E-03
            3045            3473     29.9119E-03     29.9493E-03
            3046            3473     29.9119E-03     29.9493E-03
            3063            3473     29.9119E-03     29.9493E-03
            3046            3474     28.2184E-03     28.2953E-03
            3064            3474     28.2184E-03     28.2953E-03
            3047            3474     28.2184E-03     28.2953E-03
            3065            3474     28.2184E-03     28.2953E-03
            3065            3475     26.4675E-03     26.6917E-03
            3047            3475     26.4675E-03     26.6917E-03
            3048            3475     26.4675E-03     26.6917E-03
            3066            3475     26.4675E-03     26.6917E-03
            3066            3476     24.5549E-03     25.3626E-03
            3067            3476     24.5549E-03     25.3626E-03
            3048            3476     24.5549E-03     25.3626E-03
            3049            3476     24.5549E-03     25.3626E-03
            3050            3477     21.8991E-03     23.5038E-03
            3067            3477     21.8991E-03     23.5038E-03
            3068            3477     21.8991E-03     23.5038E-03
            3049            3477     21.8991E-03     23.5038E-03
            3070            3478     47.4519E-03     47.9918E-03
            3052            3478     47.4519E-03     47.9918E-03
            3069            3478     47.4519E-03     47.9918E-03
            3051            3478     47.4519E-03     47.9918E-03
            3053            3479     46.4737E-03     47.3045E-03
            3070            3479     46.4737E-03     47.3045E-03
            3052            3479     46.4737E-03     47.3045E-03
            3071            3479     46.4737E-03     47.3045E-03
            3053            3480     45.7397E-03     46.5236E-03
            3054            3480     45.7397E-03     46.5236E-03
            3071            3480     45.7397E-03     46.5236E-03
            3072            3480     45.7397E-03     46.5236E-03
            3073            3481     44.7588E-03     45.4333E-03
            3055            3481     44.7588E-03     45.4333E-03
            3054            3481     44.7588E-03     45.4333E-03
            3072            3481     44.7588E-03     45.4333E-03
            3055            3482     43.5134E-03     44.0566E-03
            3074            3482     43.5134E-03     44.0566E-03
            3073            3482     43.5134E-03     44.0566E-03
            3056            3482     43.5134E-03     44.0566E-03
            3056            3483     42.0660E-03     42.5150E-03
            3074            3483     42.0660E-03     42.5150E-03
            3075            3483     42.0660E-03     42.5150E-03
            3057            3483     42.0660E-03     42.5150E-03
            3058            3484     40.4949E-03     40.8837E-03
            3076            3484     40.4949E-03     40.8837E-03
            3075            3484     40.4949E-03     40.8837E-03
            3057            3484     40.4949E-03     40.8837E-03
            3076            3485     38.8654E-03     39.2066E-03
            3058            3485     38.8654E-03     39.2066E-03
            3077            3485     38.8654E-03     39.2066E-03
            3059            3485     38.8654E-03     39.2066E-03
            3060            3486     37.1967E-03     37.5140E-03
            3078            3486     37.1967E-03     37.5140E-03
            3059            3486     37.1967E-03     37.5140E-03
            3077            3486     37.1967E-03     37.5140E-03
            3079            3487     35.5221E-03     35.8196E-03
            3061            3487     35.5221E-03     35.8196E-03
            3060            3487     35.5221E-03     35.8196E-03
            3078            3487     35.5221E-03     35.8196E-03
            3079            3488     33.8321E-03     34.1272E-03
            3080            3488     33.8321E-03     34.1272E-03
            3062            3488     33.8321E-03     34.1272E-03
            3061            3488     33.8321E-03     34.1272E-03
            3063            3489     32.1277E-03     32.4335E-03
            3080            3489     32.1277E-03     32.4335E-03
            3062            3489     32.1277E-03     32.4335E-03
            3081            3489     32.1277E-03     32.4335E-03
            3064            3490     30.3865E-03     30.7450E-03
            3063            3490     30.3865E-03     30.7450E-03
            3082            3490     30.3865E-03     30.7450E-03
            3081            3490     30.3865E-03     30.7450E-03
            3083            3491     28.5540E-03     29.0249E-03
            3064            3491     28.5540E-03     29.0249E-03
            3065            3491     28.5540E-03     29.0249E-03
            3082            3491     28.5540E-03     29.0249E-03
            3083            3492     26.5888E-03     27.3634E-03
            3066            3492     26.5888E-03     27.3634E-03
            3065            3492     26.5888E-03     27.3634E-03
            3084            3492     26.5888E-03     27.3634E-03
            3066            3493     24.2648E-03     25.4513E-03
            3085            3493     24.2648E-03     25.4513E-03
            3084            3493     24.2648E-03     25.4513E-03
            3067            3493     24.2648E-03     25.4513E-03
            3086            3494     21.7555E-03     22.8976E-03
            3067            3494     21.7555E-03     22.8976E-03
            3068            3494     21.7555E-03     22.8976E-03
            3085            3494     21.7555E-03     22.8976E-03
            3088            3495     49.6308E-03     50.2260E-03
            3070            3495     49.6308E-03     50.2260E-03
            3087            3495     49.6308E-03     50.2260E-03
            3069            3495     49.6308E-03     50.2260E-03
            3071            3496     48.3190E-03     49.2665E-03
            3089            3496     48.3190E-03     49.2665E-03
            3088            3496     48.3190E-03     49.2665E-03
            3070            3496     48.3190E-03     49.2665E-03
            3071            3497     47.0929E-03     48.1821E-03
            3072            3497     47.0929E-03     48.1821E-03
            3089            3497     47.0929E-03     48.1821E-03
            3090            3497     47.0929E-03     48.1821E-03
            3072            3498     45.8182E-03     46.8345E-03
            3091            3498     45.8182E-03     46.8345E-03
            3090            3498     45.8182E-03     46.8345E-03
            3073            3498     45.8182E-03     46.8345E-03
            3091            3499     44.3472E-03     45.2656E-03
            3073            3499     44.3472E-03     45.2656E-03
            3074            3499     44.3472E-03     45.2656E-03
            3092            3499     44.3472E-03     45.2656E-03
            3093            3500     42.7445E-03     43.5539E-03
            3074            3500     42.7445E-03     43.5539E-03
            3092            3500     42.7445E-03     43.5539E-03
            3075            3500     42.7445E-03     43.5539E-03
            3076            3501     41.0676E-03     41.7808E-03
            3075            3501     41.0676E-03     41.7808E-03
            3094            3501     41.0676E-03     41.7808E-03
            3093            3501     41.0676E-03     41.7808E-03
            3076            3502     39.3488E-03     39.9973E-03
            3077            3502     39.3488E-03     39.9973E-03
            3094            3502     39.3488E-03     39.9973E-03
            3095            3502     39.3488E-03     39.9973E-03
            3077            3503     37.6323E-03     38.2274E-03
            3096            3503     37.6323E-03     38.2274E-03
            3078            3503     37.6323E-03     38.2274E-03
            3095            3503     37.6323E-03     38.2274E-03
            3078            3504     35.9105E-03     36.4795E-03
            3096            3504     35.9105E-03     36.4795E-03
            3097            3504     35.9105E-03     36.4795E-03
            3079            3504     35.9105E-03     36.4795E-03
            3079            3505     34.1974E-03     34.7567E-03
            3098            3505     34.1974E-03     34.7567E-03
            3080            3505     34.1974E-03     34.7567E-03
            3097            3505     34.1974E-03     34.7567E-03
            3080            3506     32.4670E-03     33.0548E-03
            3081            3506     32.4670E-03     33.0548E-03
            3098            3506     32.4670E-03     33.0548E-03
            3099            3506     32.4670E-03     33.0548E-03
            3081            3507     30.6882E-03     31.3412E-03
            3099            3507     30.6882E-03     31.3412E-03
            3082            3507     30.6882E-03     31.3412E-03
            3100            3507     30.6882E-03     31.3412E-03
            3083            3508     28.8135E-03     29.6239E-03
            3100            3508     28.8135E-03     29.6239E-03
            3101            3508     28.8135E-03     29.6239E-03
            3082            3508     28.8135E-03     29.6239E-03
            3084            3509     26.7251E-03     27.7602E-03
            3101            3509     26.7251E-03     27.7602E-03
            3102            3509     26.7251E-03     27.7602E-03
            3083            3509     26.7251E-03     27.7602E-03
            3102            3510     24.4264E-03     25.5691E-03
            3084            3510     24.4264E-03     25.5691E-03
            3103            3510     24.4264E-03     25.5691E-03
            3085            3510     24.4264E-03     25.5691E-03
            3086            3511     21.9582E-03     23.2725E-03
            3104            3511     21.9582E-03     23.2725E-03
            3085            3511     21.9582E-03     23.2725E-03
            3103            3511     21.9582E-03     23.2725E-03
            3106            3512     51.6285E-03     52.3276E-03
            3088            3512     51.6285E-03     52.3276E-03
            3087            3512     51.6285E-03     52.3276E-03
            3105            3512     51.6285E-03     52.3276E-03
            3089            3513     49.9178E-03     50.9546E-03
            3106            3513     49.9178E-03     50.9546E-03
            3088            3513     49.9178E-03     50.9546E-03
            3107            3513     49.9178E-03     50.9546E-03
            3108            3514     48.2881E-03     49.4725E-03
            3090            3514     48.2881E-03     49.4725E-03
            3089            3514     48.2881E-03     49.4725E-03
            3107            3514     48.2881E-03     49.4725E-03
            3091            3515     46.5817E-03     47.8152E-03
            3108            3515     46.5817E-03     47.8152E-03
            3090            3515     46.5817E-03     47.8152E-03
            3109            3515     46.5817E-03     47.8152E-03
            3092            3516     44.8363E-03     46.0047E-03
            3109            3516     44.8363E-03     46.0047E-03
            3110            3516     44.8363E-03     46.0047E-03
            3091            3516     44.8363E-03     46.0047E-03
            3092            3517     43.0515E-03     44.1245E-03
            3093            3517     43.0515E-03     44.1245E-03
            3111            3517     43.0515E-03     44.1245E-03
            3110            3517     43.0515E-03     44.1245E-03
            3112            3518     41.2523E-03     42.2413E-03
            3093            3518     41.2523E-03     42.2413E-03
            3111            3518     41.2523E-03     42.2413E-03
            3094            3518     41.2523E-03     42.2413E-03
            3112            3519     39.4814E-03     40.3894E-03
            3094            3519     39.4814E-03     40.3894E-03
            3095            3519     39.4814E-03     40.3894E-03
            3113            3519     39.4814E-03     40.3894E-03
            3095            3520     37.7234E-03     38.5774E-03
            3114            3520     37.7234E-03     38.5774E-03
            3113            3520     37.7234E-03     38.5774E-03
            3096            3520     37.7234E-03     38.5774E-03
            3096            3521     35.9971E-03     36.8143E-03
            3097            3521     35.9971E-03     36.8143E-03
            3114            3521     35.9971E-03     36.8143E-03
            3115            3521     35.9971E-03     36.8143E-03
            3115            3522     34.2809E-03     35.0926E-03
            3097            3522     34.2809E-03     35.0926E-03
            3098            3522     34.2809E-03     35.0926E-03
            3116            3522     34.2809E-03     35.0926E-03
            3117            3523     32.5752E-03     33.4086E-03
            3099            3523     32.5752E-03     33.4086E-03
            3098            3523     32.5752E-03     33.4086E-03
            3116            3523     32.5752E-03     33.4086E-03
            3118            3524     30.8315E-03     31.7394E-03
            3117            3524     30.8315E-03     31.7394E-03
            3100            3524     30.8315E-03     31.7394E-03
            3099            3524     30.8315E-03     31.7394E-03
            3119            3525     28.9910E-03     30.0171E-03
            3101            3525     28.9910E-03     30.0171E-03
            3100            3525     28.9910E-03     30.0171E-03
            3118            3525     28.9910E-03     30.0171E-03
            3101            3526     26.9946E-03     28.1318E-03
            3120            3526     26.9946E-03     28.1318E-03
            3102            3526     26.9946E-03     28.1318E-03
            3119            3526     26.9946E-03     28.1318E-03
            3121            3527     24.7668E-03     26.0488E-03
            3103            3527     24.7668E-03     26.0488E-03
            3102            3527     24.7668E-03     26.0488E-03
            3120            3527     24.7668E-03     26.0488E-03
            3121            3528     22.4835E-03     23.7664E-03
            3122            3528     22.4835E-03     23.7664E-03
            3103            3528     22.4835E-03     23.7664E-03
            3104            3528     22.4835E-03     23.7664E-03
            3124            3529     53.4587E-03     54.3023E-03
            3105            3529     53.4587E-03     54.3023E-03
            3106            3529     53.4587E-03     54.3023E-03
            3123            3529     53.4587E-03     54.3023E-03
            3124            3530     51.3533E-03     52.4117E-03
            3106            3530     51.3533E-03     52.4117E-03
            3125            3530     51.3533E-03     52.4117E-03
            3107            3530     51.3533E-03     52.4117E-03
            3107            3531     49.1629E-03     50.4516E-03
            3108            3531     49.1629E-03     50.4516E-03
            3125            3531     49.1629E-03     50.4516E-03
            3126            3531     49.1629E-03     50.4516E-03
            3109            3532     47.0266E-03     48.3746E-03
            3108            3532     47.0266E-03     48.3746E-03
            3126            3532     47.0266E-03     48.3746E-03
            3127            3532     47.0266E-03     48.3746E-03
            3127            3533     44.9525E-03     46.2738E-03
            3109            3533     44.9525E-03     46.2738E-03
            3110            3533     44.9525E-03     46.2738E-03
            3128            3533     44.9525E-03     46.2738E-03
            3111            3534     42.9590E-03     44.2339E-03
            3110            3534     42.9590E-03     44.2339E-03
            3129            3534     42.9590E-03     44.2339E-03
            3128            3534     42.9590E-03     44.2339E-03
            3112            3535     41.0812E-03     42.2756E-03
            3129            3535     41.0812E-03     42.2756E-03
            3111            3535     41.0812E-03     42.2756E-03
            3130            3535     41.0812E-03     42.2756E-03
            3131            3536     39.2598E-03     40.3879E-03
            3112            3536     39.2598E-03     40.3879E-03
            3130            3536     39.2598E-03     40.3879E-03
            3113            3536     39.2598E-03     40.3879E-03
            3131            3537     37.5012E-03     38.5749E-03
            3113            3537     37.5012E-03     38.5749E-03
            3114            3537     37.5012E-03     38.5749E-03
            3132            3537     37.5012E-03     38.5749E-03
            3115            3538     35.7809E-03     36.8218E-03
            3132            3538     35.7809E-03     36.8218E-03
            3133            3538     35.7809E-03     36.8218E-03
            3114            3538     35.7809E-03     36.8218E-03
            3134            3539     34.1039E-03     35.1339E-03
            3116            3539     34.1039E-03     35.1339E-03
            3115            3539     34.1039E-03     35.1339E-03
            3133            3539     34.1039E-03     35.1339E-03
            3116            3540     32.4444E-03     33.4935E-03
            3134            3540     32.4444E-03     33.4935E-03
            3135            3540     32.4444E-03     33.4935E-03
            3117            3540     32.4444E-03     33.4935E-03
            3135            3541     30.8119E-03     31.9104E-03
            3118            3541     30.8119E-03     31.9104E-03
            3136            3541     30.8119E-03     31.9104E-03
            3117            3541     30.8119E-03     31.9104E-03
            3136            3542     29.1236E-03     30.2945E-03
            3118            3542     29.1236E-03     30.2945E-03
            3119            3542     29.1236E-03     30.2945E-03
            3137            3542     29.1236E-03     30.2945E-03
            3120            3543     27.3045E-03     28.5720E-03
            3137            3543     27.3045E-03     28.5720E-03
            3138            3543     27.3045E-03     28.5720E-03
            3119            3543     27.3045E-03     28.5720E-03
            3138            3544     25.3201E-03     26.6440E-03
            3139            3544     25.3201E-03     26.6440E-03
            3121            3544     25.3201E-03     26.6440E-03
            3120            3544     25.3201E-03     26.6440E-03
            3122            3545     23.1210E-03     24.4851E-03
            3121            3545     23.1210E-03     24.4851E-03
            3140            3545     23.1210E-03     24.4851E-03
            3139            3545     23.1210E-03     24.4851E-03
            3141            3546     55.2901E-03     56.1065E-03
            3142            3546     55.2901E-03     56.1065E-03
            3123            3546     55.2901E-03     56.1065E-03
            3124            3546     55.2901E-03     56.1065E-03
            3125            3547     52.4687E-03     53.6881E-03
            3142            3547     52.4687E-03     53.6881E-03
            3124            3547     52.4687E-03     53.6881E-03
            3143            3547     52.4687E-03     53.6881E-03
            3143            3548     49.7080E-03     51.0331E-03
            3144            3548     49.7080E-03     51.0331E-03
            3125            3548     49.7080E-03     51.0331E-03
            3126            3548     49.7080E-03     51.0331E-03
            3126            3549     47.0413E-03     48.4368E-03
            3127            3549     47.0413E-03     48.4368E-03
            3145            3549     47.0413E-03     48.4368E-03
            3144            3549     47.0413E-03     48.4368E-03
            3128            3550     44.6189E-03     46.0675E-03
            3146            3550     44.6189E-03     46.0675E-03
            3127            3550     44.6189E-03     46.0675E-03
            3145            3550     44.6189E-03     46.0675E-03
            3129            3551     42.5189E-03     43.9217E-03
            3128            3551     42.5189E-03     43.9217E-03
            3146            3551     42.5189E-03     43.9217E-03
            3147            3551     42.5189E-03     43.9217E-03
            3129            3552     40.5715E-03     41.9243E-03
            3130            3552     40.5715E-03     41.9243E-03
            3147            3552     40.5715E-03     41.9243E-03
            3148            3552     40.5715E-03     41.9243E-03
            3131            3553     38.7491E-03     40.0521E-03
            3130            3553     38.7491E-03     40.0521E-03
            3148            3553     38.7491E-03     40.0521E-03
            3149            3553     38.7491E-03     40.0521E-03
            3149            3554     37.0033E-03     38.2646E-03
            3131            3554     37.0033E-03     38.2646E-03
            3150            3554     37.0033E-03     38.2646E-03
            3132            3554     37.0033E-03     38.2646E-03
            3150            3555     35.3181E-03     36.5549E-03
            3151            3555     35.3181E-03     36.5549E-03
            3133            3555     35.3181E-03     36.5549E-03
            3132            3555     35.3181E-03     36.5549E-03
            3134            3556     33.6846E-03     34.9098E-03
            3152            3556     33.6846E-03     34.9098E-03
            3151            3556     33.6846E-03     34.9098E-03
            3133            3556     33.6846E-03     34.9098E-03
            3152            3557     32.1146E-03     33.3481E-03
            3153            3557     32.1146E-03     33.3481E-03
            3135            3557     32.1146E-03     33.3481E-03
            3134            3557     32.1146E-03     33.3481E-03
            3153            3558     30.5893E-03     31.8437E-03
            3135            3558     30.5893E-03     31.8437E-03
            3136            3558     30.5893E-03     31.8437E-03
            3154            3558     30.5893E-03     31.8437E-03
            3155            3559     29.1680E-03     30.4664E-03
            3137            3559     29.1680E-03     30.4664E-03
            3136            3559     29.1680E-03     30.4664E-03
            3154            3559     29.1680E-03     30.4664E-03
            3155            3560     27.6839E-03     29.0408E-03
            3137            3560     27.6839E-03     29.0408E-03
            3156            3560     27.6839E-03     29.0408E-03
            3138            3560     27.6839E-03     29.0408E-03
            3156            3561     25.9747E-03     27.3758E-03
            3157            3561     25.9747E-03     27.3758E-03
            3138            3561     25.9747E-03     27.3758E-03
            3139            3561     25.9747E-03     27.3758E-03
            3157            3562     24.0082E-03     25.4279E-03
            3140            3562     24.0082E-03     25.4279E-03
            3158            3562     24.0082E-03     25.4279E-03
            3139            3562     24.0082E-03     25.4279E-03
            3142            3563     56.8329E-03     58.0120E-03
            3159            3563     56.8329E-03     58.0120E-03
            3141            3563     56.8329E-03     58.0120E-03
            3160            3563     56.8329E-03     58.0120E-03
            3142            3564     53.3679E-03     54.4778E-03
            3160            3564     53.3679E-03     54.4778E-03
            3143            3564     53.3679E-03     54.4778E-03
            3161            3564     53.3679E-03     54.4778E-03
            3162            3565     49.6673E-03     50.9694E-03
            3143            3565     49.6673E-03     50.9694E-03
            3161            3565     49.6673E-03     50.9694E-03
            3144            3565     49.6673E-03     50.9694E-03
            3144            3566     46.4276E-03     47.9244E-03
            3162            3566     46.4276E-03     47.9244E-03
            3163            3566     46.4276E-03     47.9244E-03
            3145            3566     46.4276E-03     47.9244E-03
            3146            3567     43.9250E-03     45.4262E-03
            3163            3567     43.9250E-03     45.4262E-03
            3164            3567     43.9250E-03     45.4262E-03
            3145            3567     43.9250E-03     45.4262E-03
            3147            3568     41.7525E-03     43.2404E-03
            3165            3568     41.7525E-03     43.2404E-03
            3146            3568     41.7525E-03     43.2404E-03
            3164            3568     41.7525E-03     43.2404E-03
            3166            3569     39.8148E-03     41.2832E-03
            3147            3569     39.8148E-03     41.2832E-03
            3165            3569     39.8148E-03     41.2832E-03
            3148            3569     39.8148E-03     41.2832E-03
            3148            3570     38.0193E-03     39.4616E-03
            3167            3570     38.0193E-03     39.4616E-03
            3166            3570     38.0193E-03     39.4616E-03
            3149            3570     38.0193E-03     39.4616E-03
            3167            3571     36.3079E-03     37.7373E-03
            3168            3571     36.3079E-03     37.7373E-03
            3149            3571     36.3079E-03     37.7373E-03
            3150            3571     36.3079E-03     37.7373E-03
            3168            3572     34.6700E-03     36.0852E-03
            3169            3572     34.6700E-03     36.0852E-03
            3150            3572     34.6700E-03     36.0852E-03
            3151            3572     34.6700E-03     36.0852E-03
            3151            3573     33.0911E-03     34.5029E-03
            3170            3573     33.0911E-03     34.5029E-03
            3169            3573     33.0911E-03     34.5029E-03
            3152            3573     33.0911E-03     34.5029E-03
            3153            3574     31.5936E-03     32.9994E-03
            3171            3574     31.5936E-03     32.9994E-03
            3170            3574     31.5936E-03     32.9994E-03
            3152            3574     31.5936E-03     32.9994E-03
            3153            3575     30.2112E-03     31.6215E-03
            3171            3575     30.2112E-03     31.6215E-03
            3172            3575     30.2112E-03     31.6215E-03
            3154            3575     30.2112E-03     31.6215E-03
            3154            3576     28.9635E-03     30.3729E-03
            3172            3576     28.9635E-03     30.3729E-03
            3173            3576     28.9635E-03     30.3729E-03
            3155            3576     28.9635E-03     30.3729E-03
            3173            3577     28.0252E-03     29.4480E-03
            3155            3577     28.0252E-03     29.4480E-03
            3156            3577     28.0252E-03     29.4480E-03
            3174            3577     28.0252E-03     29.4480E-03
            3174            3578     26.9130E-03     28.3988E-03
            3156            3578     26.9130E-03     28.3988E-03
            3175            3578     26.9130E-03     28.3988E-03
            3157            3578     26.9130E-03     28.3988E-03
            3157            3579     25.1472E-03     26.6324E-03
            3158            3579     25.1472E-03     26.6324E-03
            3175            3579     25.1472E-03     26.6324E-03
            3176            3579     25.1472E-03     26.6324E-03
            3178            3580     58.5409E-03     58.9982E-03
            3177            3580     58.5409E-03     58.9982E-03
            3159            3580     58.5409E-03     58.9982E-03
            3160            3580     58.5409E-03     58.9982E-03
            3160            3581     53.3065E-03     54.3705E-03
            3178            3581     53.3065E-03     54.3705E-03
            3161            3581     53.3065E-03     54.3705E-03
            3179            3581     53.3065E-03     54.3705E-03
            3161            3582     48.5819E-03     50.0317E-03
            3162            3582     48.5819E-03     50.0317E-03
            3180            3582     48.5819E-03     50.0317E-03
            3179            3582     48.5819E-03     50.0317E-03
            3162            3583     45.4203E-03     46.9093E-03
            3180            3583     45.4203E-03     46.9093E-03
            3181            3583     45.4203E-03     46.9093E-03
            3163            3583     45.4203E-03     46.9093E-03
            3164            3584     42.9160E-03     44.4176E-03
            3181            3584     42.9160E-03     44.4176E-03
            3182            3584     42.9160E-03     44.4176E-03
            3163            3584     42.9160E-03     44.4176E-03
            3182            3585     40.7902E-03     42.3220E-03
            3183            3585     40.7902E-03     42.3220E-03
            3164            3585     40.7902E-03     42.3220E-03
            3165            3585     40.7902E-03     42.3220E-03
            3165            3586     38.9132E-03     40.4598E-03
            3166            3586     38.9132E-03     40.4598E-03
            3184            3586     38.9132E-03     40.4598E-03
            3183            3586     38.9132E-03     40.4598E-03
            3167            3587     37.1592E-03     38.7329E-03
            3166            3587     37.1592E-03     38.7329E-03
            3184            3587     37.1592E-03     38.7329E-03
            3185            3587     37.1592E-03     38.7329E-03
            3168            3588     35.5076E-03     37.0948E-03
            3167            3588     35.5076E-03     37.0948E-03
            3185            3588     35.5076E-03     37.0948E-03
            3186            3588     35.5076E-03     37.0948E-03
            3187            3589     33.9107E-03     35.5131E-03
            3169            3589     33.9107E-03     35.5131E-03
            3186            3589     33.9107E-03     35.5131E-03
            3168            3589     33.9107E-03     35.5131E-03
            3188            3590     32.3937E-03     33.9961E-03
            3187            3590     32.3937E-03     33.9961E-03
            3169            3590     32.3937E-03     33.9961E-03
            3170            3590     32.3937E-03     33.9961E-03
            3188            3591     30.9511E-03     32.5503E-03
            3170            3591     30.9511E-03     32.5503E-03
            3189            3591     30.9511E-03     32.5503E-03
            3171            3591     30.9511E-03     32.5503E-03
            3189            3592     29.6653E-03     31.2401E-03
            3190            3592     29.6653E-03     31.2401E-03
            3172            3592     29.6653E-03     31.2401E-03
            3171            3592     29.6653E-03     31.2401E-03
            3190            3593     28.5818E-03     30.1283E-03
            3191            3593     28.5818E-03     30.1283E-03
            3172            3593     28.5818E-03     30.1283E-03
            3173            3593     28.5818E-03     30.1283E-03
            3174            3594     27.8807E-03     29.3737E-03
            3173            3594     27.8807E-03     29.3737E-03
            3191            3594     27.8807E-03     29.3737E-03
            3192            3594     27.8807E-03     29.3737E-03
            3174            3595     27.9373E-03     29.4016E-03
            3175            3595     27.9373E-03     29.4016E-03
            3193            3595     27.9373E-03     29.4016E-03
            3192            3595     27.9373E-03     29.4016E-03
            3194            3596     27.1525E-03     28.7351E-03
            3175            3596     27.1525E-03     28.7351E-03
            3176            3596     27.1525E-03     28.7351E-03
            3193            3596     27.1525E-03     28.7351E-03
            3178            3597     58.4001E-03     59.5325E-03
            3195            3597     58.4001E-03     59.5325E-03
            3177            3597     58.4001E-03     59.5325E-03
            3196            3597     58.4001E-03     59.5325E-03
            3179            3598     51.3723E-03     52.8303E-03
            3197            3598     51.3723E-03     52.8303E-03
            3178            3598     51.3723E-03     52.8303E-03
            3196            3598     51.3723E-03     52.8303E-03
            3198            3599     47.1097E-03     48.4536E-03
            3180            3599     47.1097E-03     48.4536E-03
            3179            3599     47.1097E-03     48.4536E-03
            3197            3599     47.1097E-03     48.4536E-03
            3181            3600     44.1989E-03     45.5517E-03
            3198            3600     44.1989E-03     45.5517E-03
            3199            3600     44.1989E-03     45.5517E-03
            3180            3600     44.1989E-03     45.5517E-03
            3199            3601     41.7941E-03     43.2326E-03
            3182            3601     41.7941E-03     43.2326E-03
            3200            3601     41.7941E-03     43.2326E-03
            3181            3601     41.7941E-03     43.2326E-03
            3201            3602     39.7886E-03     41.3200E-03
            3200            3602     39.7886E-03     41.3200E-03
            3183            3602     39.7886E-03     41.3200E-03
            3182            3602     39.7886E-03     41.3200E-03
            3202            3603     37.9595E-03     39.5897E-03
            3184            3603     37.9595E-03     39.5897E-03
            3183            3603     37.9595E-03     39.5897E-03
            3201            3603     37.9595E-03     39.5897E-03
            3202            3604     36.2792E-03     37.9868E-03
            3203            3604     36.2792E-03     37.9868E-03
            3185            3604     36.2792E-03     37.9868E-03
            3184            3604     36.2792E-03     37.9868E-03
            3185            3605     34.6671E-03     36.4379E-03
            3204            3605     34.6671E-03     36.4379E-03
            3203            3605     34.6671E-03     36.4379E-03
            3186            3605     34.6671E-03     36.4379E-03
            3186            3606     33.1337E-03     34.9422E-03
            3187            3606     33.1337E-03     34.9422E-03
            3205            3606     33.1337E-03     34.9422E-03
            3204            3606     33.1337E-03     34.9422E-03
            3188            3607     31.6507E-03     33.4789E-03
            3187            3607     31.6507E-03     33.4789E-03
            3206            3607     31.6507E-03     33.4789E-03
            3205            3607     31.6507E-03     33.4789E-03
            3189            3608     30.2782E-03     32.0974E-03
            3206            3608     30.2782E-03     32.0974E-03
            3188            3608     30.2782E-03     32.0974E-03
            3207            3608     30.2782E-03     32.0974E-03
            3208            3609     29.0127E-03     30.8017E-03
            3189            3609     29.0127E-03     30.8017E-03
            3190            3609     29.0127E-03     30.8017E-03
            3207            3609     29.0127E-03     30.8017E-03
            3209            3610     28.0474E-03     29.7666E-03
            3208            3610     28.0474E-03     29.7666E-03
            3191            3610     28.0474E-03     29.7666E-03
            3190            3610     28.0474E-03     29.7666E-03
            3191            3611     27.3790E-03     29.0044E-03
            3192            3611     27.3790E-03     29.0044E-03
            3209            3611     27.3790E-03     29.0044E-03
            3210            3611     27.3790E-03     29.0044E-03
            3210            3612     27.8545E-03     29.3127E-03
            3193            3612     27.8545E-03     29.3127E-03
            3211            3612     27.8545E-03     29.3127E-03
            3192            3612     27.8545E-03     29.3127E-03
            3193            3613     29.6448E-03     31.0050E-03
            3212            3613     29.6448E-03     31.0050E-03
            3211            3613     29.6448E-03     31.0050E-03
            3194            3613     29.6448E-03     31.0050E-03
            3196            3614     58.1167E-03     58.8461E-03
            3195            3614     58.1167E-03     58.8461E-03
            3214            3614     58.1167E-03     58.8461E-03
            3213            3614     58.1167E-03     58.8461E-03
            3197            3615     54.6306E-03     54.4659E-03
            3215            3615     54.6306E-03     54.4659E-03
            3214            3615     54.6306E-03     54.4659E-03
            3196            3615     54.6306E-03     54.4659E-03
            3197            3616     52.3706E-03     52.2034E-03
            3216            3616     52.3706E-03     52.2034E-03
            3215            3616     52.3706E-03     52.2034E-03
            3198            3616     52.3706E-03     52.2034E-03
            3198            3617     50.2511E-03     50.3134E-03
            3199            3617     50.2511E-03     50.3134E-03
            3217            3617     50.2511E-03     50.3134E-03
            3216            3617     50.2511E-03     50.3134E-03
            3200            3618     48.3631E-03     48.6103E-03
            3217            3618     48.3631E-03     48.6103E-03
            3199            3618     48.3631E-03     48.6103E-03
            3218            3618     48.3631E-03     48.6103E-03
            3218            3619     46.4817E-03     46.9540E-03
            3219            3619     46.4817E-03     46.9540E-03
            3200            3619     46.4817E-03     46.9540E-03
            3201            3619     46.4817E-03     46.9540E-03
            3202            3620     44.6697E-03     45.2875E-03
            3220            3620     44.6697E-03     45.2875E-03
            3219            3620     44.6697E-03     45.2875E-03
            3201            3620     44.6697E-03     45.2875E-03
            3221            3621     42.8381E-03     43.5926E-03
            3202            3621     42.8381E-03     43.5926E-03
            3220            3621     42.8381E-03     43.5926E-03
            3203            3621     42.8381E-03     43.5926E-03
            3204            3622     41.0281E-03     41.8622E-03
            3203            3622     41.0281E-03     41.8622E-03
            3222            3622     41.0281E-03     41.8622E-03
            3221            3622     41.0281E-03     41.8622E-03
            3222            3623     39.2059E-03     40.1021E-03
            3204            3623     39.2059E-03     40.1021E-03
            3205            3623     39.2059E-03     40.1021E-03
            3223            3623     39.2059E-03     40.1021E-03
            3224            3624     37.4083E-03     38.3251E-03
            3223            3624     37.4083E-03     38.3251E-03
            3205            3624     37.4083E-03     38.3251E-03
            3206            3624     37.4083E-03     38.3251E-03
            3224            3625     35.6377E-03     36.5497E-03
            3207            3625     35.6377E-03     36.5497E-03
            3225            3625     35.6377E-03     36.5497E-03
            3206            3625     35.6377E-03     36.5497E-03
            3225            3626     33.9537E-03     34.8137E-03
            3226            3626     33.9537E-03     34.8137E-03
            3208            3626     33.9537E-03     34.8137E-03
            3207            3626     33.9537E-03     34.8137E-03
            3208            3627     32.4265E-03     33.1820E-03
            3226            3627     32.4265E-03     33.1820E-03
            3227            3627     32.4265E-03     33.1820E-03
            3209            3627     32.4265E-03     33.1820E-03
            3227            3628     31.2160E-03     31.7758E-03
            3210            3628     31.2160E-03     31.7758E-03
            3209            3628     31.2160E-03     31.7758E-03
            3228            3628     31.2160E-03     31.7758E-03
            3210            3629     30.6513E-03     30.9147E-03
            3228            3629     30.6513E-03     30.9147E-03
            3229            3629     30.6513E-03     30.9147E-03
            3211            3629     30.6513E-03     30.9147E-03
            3212            3630     32.2632E-03     31.9727E-03
            3211            3630     32.2632E-03     31.9727E-03
            3230            3630     32.2632E-03     31.9727E-03
            3229            3630     32.2632E-03     31.9727E-03
            3214            3631     60.8714E-03     59.8329E-03
            3213            3631     60.8714E-03     59.8329E-03
            3232            3631     60.8714E-03     59.8329E-03
            3231            3631     60.8714E-03     59.8329E-03
            3214            3632     60.4613E-03     59.6630E-03
            3233            3632     60.4613E-03     59.6630E-03
            3232            3632     60.4613E-03     59.6630E-03
            3215            3632     60.4613E-03     59.6630E-03
            3215            3633     59.4963E-03     58.7562E-03
            3216            3633     59.4963E-03     58.7562E-03
            3233            3633     59.4963E-03     58.7562E-03
            3234            3633     59.4963E-03     58.7562E-03
            3235            3634     58.1410E-03     57.5189E-03
            3217            3634     58.1410E-03     57.5189E-03
            3234            3634     58.1410E-03     57.5189E-03
            3216            3634     58.1410E-03     57.5189E-03
            3217            3635     56.4620E-03     56.0059E-03
            3235            3635     56.4620E-03     56.0059E-03
            3236            3635     56.4620E-03     56.0059E-03
            3218            3635     56.4620E-03     56.0059E-03
            3218            3636     54.6138E-03     54.2968E-03
            3236            3636     54.6138E-03     54.2968E-03
            3219            3636     54.6138E-03     54.2968E-03
            3237            3636     54.6138E-03     54.2968E-03
            3238            3637     52.6170E-03     52.4190E-03
            3219            3637     52.6170E-03     52.4190E-03
            3237            3637     52.6170E-03     52.4190E-03
            3220            3637     52.6170E-03     52.4190E-03
            3220            3638     50.5368E-03     50.4306E-03
            3238            3638     50.5368E-03     50.4306E-03
            3221            3638     50.5368E-03     50.4306E-03
            3239            3638     50.5368E-03     50.4306E-03
            3240            3639     48.3909E-03     48.3448E-03
            3222            3639     48.3909E-03     48.3448E-03
            3239            3639     48.3909E-03     48.3448E-03
            3221            3639     48.3909E-03     48.3448E-03
            3223            3640     46.2082E-03     46.2027E-03
            3241            3640     46.2082E-03     46.2027E-03
            3222            3640     46.2082E-03     46.2027E-03
            3240            3640     46.2082E-03     46.2027E-03
            3241            3641     43.9940E-03     44.0006E-03
            3242            3641     43.9940E-03     44.0006E-03
            3224            3641     43.9940E-03     44.0006E-03
            3223            3641     43.9940E-03     44.0006E-03
            3242            3642     41.7873E-03     41.7826E-03
            3243            3642     41.7873E-03     41.7826E-03
            3224            3642     41.7873E-03     41.7826E-03
            3225            3642     41.7873E-03     41.7826E-03
            3244            3643     39.5705E-03     39.5223E-03
            3225            3643     39.5705E-03     39.5223E-03
            3243            3643     39.5705E-03     39.5223E-03
            3226            3643     39.5705E-03     39.5223E-03
            3226            3644     37.4648E-03     37.3334E-03
            3244            3644     37.4648E-03     37.3334E-03
            3227            3644     37.4648E-03     37.3334E-03
            3245            3644     37.4648E-03     37.3334E-03
            3245            3645     35.3934E-03     35.1629E-03
            3228            3645     35.3934E-03     35.1629E-03
            3227            3645     35.3934E-03     35.1629E-03
            3246            3645     35.3934E-03     35.1629E-03
            3247            3646     33.8048E-03     33.5596E-03
            3228            3646     33.8048E-03     33.5596E-03
            3229            3646     33.8048E-03     33.5596E-03
            3246            3646     33.8048E-03     33.5596E-03
            3247            3647     31.8205E-03     32.4419E-03
            3230            3647     31.8205E-03     32.4419E-03
            3229            3647     31.8205E-03     32.4419E-03
            3248            3647     31.8205E-03     32.4419E-03
            3232            3648     63.9122E-03     64.2980E-03
            3249            3648     63.9122E-03     64.2980E-03
            3250            3648     63.9122E-03     64.2980E-03
            3231            3648     63.9122E-03     64.2980E-03
            3251            3649     62.9011E-03     63.5318E-03
            3250            3649     62.9011E-03     63.5318E-03
            3232            3649     62.9011E-03     63.5318E-03
            3233            3649     62.9011E-03     63.5318E-03
            3251            3650     61.7570E-03     62.2555E-03
            3233            3650     61.7570E-03     62.2555E-03
            3234            3650     61.7570E-03     62.2555E-03
            3252            3650     61.7570E-03     62.2555E-03
            3252            3651     60.1856E-03     60.5703E-03
            3235            3651     60.1856E-03     60.5703E-03
            3253            3651     60.1856E-03     60.5703E-03
            3234            3651     60.1856E-03     60.5703E-03
            3253            3652     58.3221E-03     58.6138E-03
            3236            3652     58.3221E-03     58.6138E-03
            3235            3652     58.3221E-03     58.6138E-03
            3254            3652     58.3221E-03     58.6138E-03
            3236            3653     56.2343E-03     56.5053E-03
            3254            3653     56.2343E-03     56.5053E-03
            3255            3653     56.2343E-03     56.5053E-03
            3237            3653     56.2343E-03     56.5053E-03
            3237            3654     54.0350E-03     54.2991E-03
            3238            3654     54.0350E-03     54.2991E-03
            3255            3654     54.0350E-03     54.2991E-03
            3256            3654     54.0350E-03     54.2991E-03
            3256            3655     51.7689E-03     52.0361E-03
            3238            3655     51.7689E-03     52.0361E-03
            3257            3655     51.7689E-03     52.0361E-03
            3239            3655     51.7689E-03     52.0361E-03
            3240            3656     49.4713E-03     49.7472E-03
            3257            3656     49.4713E-03     49.7472E-03
            3258            3656     49.4713E-03     49.7472E-03
            3239            3656     49.4713E-03     49.7472E-03
            3258            3657     47.1657E-03     47.4410E-03
            3240            3657     47.1657E-03     47.4410E-03
            3241            3657     47.1657E-03     47.4410E-03
            3259            3657     47.1657E-03     47.4410E-03
            3241            3658     44.8590E-03     45.1347E-03
            3242            3658     44.8590E-03     45.1347E-03
            3259            3658     44.8590E-03     45.1347E-03
            3260            3658     44.8590E-03     45.1347E-03
            3243            3659     42.5527E-03     42.8197E-03
            3261            3659     42.5527E-03     42.8197E-03
            3242            3659     42.5527E-03     42.8197E-03
            3260            3659     42.5527E-03     42.8197E-03
            3243            3660     40.2556E-03     40.5274E-03
            3244            3660     40.2556E-03     40.5274E-03
            3262            3660     40.2556E-03     40.5274E-03
            3261            3660     40.2556E-03     40.5274E-03
            3263            3661     37.9400E-03     38.2524E-03
            3245            3661     37.9400E-03     38.2524E-03
            3262            3661     37.9400E-03     38.2524E-03
            3244            3661     37.9400E-03     38.2524E-03
            3245            3662     35.6093E-03     36.0823E-03
            3263            3662     35.6093E-03     36.0823E-03
            3246            3662     35.6093E-03     36.0823E-03
            3264            3662     35.6093E-03     36.0823E-03
            3246            3663     33.1354E-03     34.3096E-03
            3264            3663     33.1354E-03     34.3096E-03
            3265            3663     33.1354E-03     34.3096E-03
            3247            3663     33.1354E-03     34.3096E-03
            3265            3664     29.5039E-03     31.7009E-03
            3247            3664     29.5039E-03     31.7009E-03
            3248            3664     29.5039E-03     31.7009E-03
            3266            3664     29.5039E-03     31.7009E-03
            3249            3665     66.6687E-03     67.6566E-03
            3268            3665     66.6687E-03     67.6566E-03
            3267            3665     66.6687E-03     67.6566E-03
            3250            3665     66.6687E-03     67.6566E-03
            3250            3666     65.1830E-03     66.4450E-03
            3268            3666     65.1830E-03     66.4450E-03
            3251            3666     65.1830E-03     66.4450E-03
            3269            3666     65.1830E-03     66.4450E-03
            3269            3667     63.6504E-03     64.9078E-03
            3270            3667     63.6504E-03     64.9078E-03
            3252            3667     63.6504E-03     64.9078E-03
            3251            3667     63.6504E-03     64.9078E-03
            3270            3668     61.8186E-03     62.9162E-03
            3271            3668     61.8186E-03     62.9162E-03
            3253            3668     61.8186E-03     62.9162E-03
            3252            3668     61.8186E-03     62.9162E-03
            3271            3669     59.7128E-03     60.6501E-03
            3254            3669     59.7128E-03     60.6501E-03
            3272            3669     59.7128E-03     60.6501E-03
            3253            3669     59.7128E-03     60.6501E-03
            3255            3670     57.4289E-03     58.2407E-03
            3254            3670     57.4289E-03     58.2407E-03
            3272            3670     57.4289E-03     58.2407E-03
            3273            3670     57.4289E-03     58.2407E-03
            3256            3671     55.0628E-03     55.7816E-03
            3255            3671     55.0628E-03     55.7816E-03
            3273            3671     55.0628E-03     55.7816E-03
            3274            3671     55.0628E-03     55.7816E-03
            3274            3672     52.6543E-03     53.3169E-03
            3275            3672     52.6543E-03     53.3169E-03
            3257            3672     52.6543E-03     53.3169E-03
            3256            3672     52.6543E-03     53.3169E-03
            3258            3673     50.2547E-03     50.8732E-03
            3276            3673     50.2547E-03     50.8732E-03
            3275            3673     50.2547E-03     50.8732E-03
            3257            3673     50.2547E-03     50.8732E-03
            3258            3674     47.8578E-03     48.4541E-03
            3276            3674     47.8578E-03     48.4541E-03
            3277            3674     47.8578E-03     48.4541E-03
            3259            3674     47.8578E-03     48.4541E-03
            3278            3675     45.4867E-03     46.0699E-03
            3277            3675     45.4867E-03     46.0699E-03
            3260            3675     45.4867E-03     46.0699E-03
            3259            3675     45.4867E-03     46.0699E-03
            3261            3676     43.1130E-03     43.7096E-03
            3278            3676     43.1130E-03     43.7096E-03
            3279            3676     43.1130E-03     43.7096E-03
            3260            3676     43.1130E-03     43.7096E-03
            3280            3677     40.7324E-03     41.3835E-03
            3279            3677     40.7324E-03     41.3835E-03
            3261            3677     40.7324E-03     41.3835E-03
            3262            3677     40.7324E-03     41.3835E-03
            3262            3678     38.2697E-03     39.0539E-03
            3263            3678     38.2697E-03     39.0539E-03
            3280            3678     38.2697E-03     39.0539E-03
            3281            3678     38.2697E-03     39.0539E-03
            3264            3679     35.6654E-03     36.8141E-03
            3282            3679     35.6654E-03     36.8141E-03
            3263            3679     35.6654E-03     36.8141E-03
            3281            3679     35.6654E-03     36.8141E-03
            3282            3680     32.5629E-03     34.2287E-03
            3283            3680     32.5629E-03     34.2287E-03
            3265            3680     32.5629E-03     34.2287E-03
            3264            3680     32.5629E-03     34.2287E-03
            3283            3681     28.9906E-03     30.6641E-03
            3265            3681     28.9906E-03     30.6641E-03
            3266            3681     28.9906E-03     30.6641E-03
            3284            3681     28.9906E-03     30.6641E-03
            3285            3682     69.1924E-03     70.1328E-03
            3286            3682     69.1924E-03     70.1328E-03
            3267            3682     69.1924E-03     70.1328E-03
            3268            3682     69.1924E-03     70.1328E-03
            3269            3683     67.1750E-03     68.7126E-03
            3286            3683     67.1750E-03     68.7126E-03
            3287            3683     67.1750E-03     68.7126E-03
            3268            3683     67.1750E-03     68.7126E-03
            3270            3684     65.1913E-03     66.8079E-03
            3269            3684     65.1913E-03     66.8079E-03
            3287            3684     65.1913E-03     66.8079E-03
            3288            3684     65.1913E-03     66.8079E-03
            3271            3685     62.9791E-03     64.5268E-03
            3270            3685     62.9791E-03     64.5268E-03
            3289            3685     62.9791E-03     64.5268E-03
            3288            3685     62.9791E-03     64.5268E-03
            3289            3686     60.5824E-03     61.9910E-03
            3272            3686     60.5824E-03     61.9910E-03
            3290            3686     60.5824E-03     61.9910E-03
            3271            3686     60.5824E-03     61.9910E-03
            3291            3687     58.1122E-03     59.3537E-03
            3272            3687     58.1122E-03     59.3537E-03
            3290            3687     58.1122E-03     59.3537E-03
            3273            3687     58.1122E-03     59.3537E-03
            3291            3688     55.5912E-03     56.7179E-03
            3292            3688     55.5912E-03     56.7179E-03
            3273            3688     55.5912E-03     56.7179E-03
            3274            3688     55.5912E-03     56.7179E-03
            3274            3689     53.1047E-03     54.1283E-03
            3275            3689     53.1047E-03     54.1283E-03
            3292            3689     53.1047E-03     54.1283E-03
            3293            3689     53.1047E-03     54.1283E-03
            3293            3690     50.6273E-03     51.5870E-03
            3276            3690     50.6273E-03     51.5870E-03
            3275            3690     50.6273E-03     51.5870E-03
            3294            3690     50.6273E-03     51.5870E-03
            3276            3691     48.1970E-03     49.1131E-03
            3294            3691     48.1970E-03     49.1131E-03
            3277            3691     48.1970E-03     49.1131E-03
            3295            3691     48.1970E-03     49.1131E-03
            3277            3692     45.7798E-03     46.6837E-03
            3278            3692     45.7798E-03     46.6837E-03
            3296            3692     45.7798E-03     46.6837E-03
            3295            3692     45.7798E-03     46.6837E-03
            3278            3693     43.3983E-03     44.3267E-03
            3279            3693     43.3983E-03     44.3267E-03
            3296            3693     43.3983E-03     44.3267E-03
            3297            3693     43.3983E-03     44.3267E-03
            3280            3694     40.9739E-03     41.9827E-03
            3297            3694     40.9739E-03     41.9827E-03
            3279            3694     40.9739E-03     41.9827E-03
            3298            3694     40.9739E-03     41.9827E-03
            3280            3695     38.4731E-03     39.6652E-03
            3298            3695     38.4731E-03     39.6652E-03
            3281            3695     38.4731E-03     39.6652E-03
            3299            3695     38.4731E-03     39.6652E-03
            3299            3696     35.7082E-03     37.1887E-03
            3300            3696     35.7082E-03     37.1887E-03
            3281            3696     35.7082E-03     37.1887E-03
            3282            3696     35.7082E-03     37.1887E-03
            3283            3697     32.5620E-03     34.2025E-03
            3300            3697     32.5620E-03     34.2025E-03
            3282            3697     32.5620E-03     34.2025E-03
            3301            3697     32.5620E-03     34.2025E-03
            3301            3698     29.0482E-03     30.9221E-03
            3302            3698     29.0482E-03     30.9221E-03
            3284            3698     29.0482E-03     30.9221E-03
            3283            3698     29.0482E-03     30.9221E-03
            3286            3699     71.2839E-03     72.5091E-03
            3285            3699     71.2839E-03     72.5091E-03
            3304            3699     71.2839E-03     72.5091E-03
            3303            3699     71.2839E-03     72.5091E-03
            3305            3700     68.9375E-03     70.4502E-03
            3304            3700     68.9375E-03     70.4502E-03
            3286            3700     68.9375E-03     70.4502E-03
            3287            3700     68.9375E-03     70.4502E-03
            3287            3701     66.3059E-03     68.1204E-03
            3306            3701     66.3059E-03     68.1204E-03
            3288            3701     66.3059E-03     68.1204E-03
            3305            3701     66.3059E-03     68.1204E-03
            3306            3702     63.6200E-03     65.4289E-03
            3288            3702     63.6200E-03     65.4289E-03
            3307            3702     63.6200E-03     65.4289E-03
            3289            3702     63.6200E-03     65.4289E-03
            3307            3703     60.9126E-03     62.5967E-03
            3308            3703     60.9126E-03     62.5967E-03
            3289            3703     60.9126E-03     62.5967E-03
            3290            3703     60.9126E-03     62.5967E-03
            3291            3704     58.2101E-03     59.7892E-03
            3308            3704     58.2101E-03     59.7892E-03
            3309            3704     58.2101E-03     59.7892E-03
            3290            3704     58.2101E-03     59.7892E-03
            3309            3705     55.6205E-03     57.0589E-03
            3292            3705     55.6205E-03     57.0589E-03
            3310            3705     55.6205E-03     57.0589E-03
            3291            3705     55.6205E-03     57.0589E-03
            3293            3706     53.0639E-03     54.4057E-03
            3310            3706     53.0639E-03     54.4057E-03
            3311            3706     53.0639E-03     54.4057E-03
            3292            3706     53.0639E-03     54.4057E-03
            3312            3707     50.5793E-03     51.8435E-03
            3293            3707     50.5793E-03     51.8435E-03
            3294            3707     50.5793E-03     51.8435E-03
            3311            3707     50.5793E-03     51.8435E-03
            3294            3708     48.1264E-03     49.3460E-03
            3295            3708     48.1264E-03     49.3460E-03
            3313            3708     48.1264E-03     49.3460E-03
            3312            3708     48.1264E-03     49.3460E-03
            3313            3709     45.7316E-03     46.9374E-03
            3296            3709     45.7316E-03     46.9374E-03
            3314            3709     45.7316E-03     46.9374E-03
            3295            3709     45.7316E-03     46.9374E-03
            3315            3710     43.3463E-03     44.5762E-03
            3296            3710     43.3463E-03     44.5762E-03
            3297            3710     43.3463E-03     44.5762E-03
            3314            3710     43.3463E-03     44.5762E-03
            3298            3711     40.9994E-03     42.3100E-03
            3316            3711     40.9994E-03     42.3100E-03
            3315            3711     40.9994E-03     42.3100E-03
            3297            3711     40.9994E-03     42.3100E-03
            3317            3712     38.5490E-03     40.0165E-03
            3316            3712     38.5490E-03     40.0165E-03
            3298            3712     38.5490E-03     40.0165E-03
            3299            3712     38.5490E-03     40.0165E-03
            3317            3713     35.8943E-03     37.5026E-03
            3299            3713     35.8943E-03     37.5026E-03
            3318            3713     35.8943E-03     37.5026E-03
            3300            3713     35.8943E-03     37.5026E-03
            3301            3714     32.8961E-03     34.7168E-03
            3319            3714     32.8961E-03     34.7168E-03
            3300            3714     32.8961E-03     34.7168E-03
            3318            3714     32.8961E-03     34.7168E-03
            3302            3715     29.5581E-03     31.4428E-03
            3301            3715     29.5581E-03     31.4428E-03
            3319            3715     29.5581E-03     31.4428E-03
            3320            3715     29.5581E-03     31.4428E-03
            3303            3716     73.4357E-03     74.5428E-03
            3304            3716     73.4357E-03     74.5428E-03
            3322            3716     73.4357E-03     74.5428E-03
            3321            3716     73.4357E-03     74.5428E-03
            3323            3717     70.2096E-03     71.9430E-03
            3304            3717     70.2096E-03     71.9430E-03
            3305            3717     70.2096E-03     71.9430E-03
            3322            3717     70.2096E-03     71.9430E-03
            3323            3718     66.9609E-03     68.8045E-03
            3306            3718     66.9609E-03     68.8045E-03
            3305            3718     66.9609E-03     68.8045E-03
            3324            3718     66.9609E-03     68.8045E-03
            3324            3719     63.6792E-03     65.5681E-03
            3306            3719     63.6792E-03     65.5681E-03
            3325            3719     63.6792E-03     65.5681E-03
            3307            3719     63.6792E-03     65.5681E-03
            3326            3720     60.5807E-03     62.4726E-03
            3307            3720     60.5807E-03     62.4726E-03
            3308            3720     60.5807E-03     62.4726E-03
            3325            3720     60.5807E-03     62.4726E-03
            3309            3721     57.7992E-03     59.5745E-03
            3326            3721     57.7992E-03     59.5745E-03
            3327            3721     57.7992E-03     59.5745E-03
            3308            3721     57.7992E-03     59.5745E-03
            3327            3722     55.1343E-03     56.8162E-03
            3310            3722     55.1343E-03     56.8162E-03
            3309            3722     55.1343E-03     56.8162E-03
            3328            3722     55.1343E-03     56.8162E-03
            3310            3723     52.5941E-03     54.1878E-03
            3329            3723     52.5941E-03     54.1878E-03
            3311            3723     52.5941E-03     54.1878E-03
            3328            3723     52.5941E-03     54.1878E-03
            3311            3724     50.1134E-03     51.6453E-03
            3330            3724     50.1134E-03     51.6453E-03
            3312            3724     50.1134E-03     51.6453E-03
            3329            3724     50.1134E-03     51.6453E-03
            3312            3725     47.6973E-03     49.1918E-03
            3330            3725     47.6973E-03     49.1918E-03
            3331            3725     47.6973E-03     49.1918E-03
            3313            3725     47.6973E-03     49.1918E-03
            3331            3726     45.3217E-03     46.8022E-03
            3332            3726     45.3217E-03     46.8022E-03
            3313            3726     45.3217E-03     46.8022E-03
            3314            3726     45.3217E-03     46.8022E-03
            3332            3727     43.0146E-03     44.5119E-03
            3314            3727     43.0146E-03     44.5119E-03
            3315            3727     43.0146E-03     44.5119E-03
            3333            3727     43.0146E-03     44.5119E-03
            3333            3728     40.7295E-03     42.2821E-03
            3316            3728     40.7295E-03     42.2821E-03
            3334            3728     40.7295E-03     42.2821E-03
            3315            3728     40.7295E-03     42.2821E-03
            3317            3729     38.5342E-03     40.1660E-03
            3334            3729     38.5342E-03     40.1660E-03
            3316            3729     38.5342E-03     40.1660E-03
            3335            3729     38.5342E-03     40.1660E-03
            3317            3730     36.1887E-03     37.9787E-03
            3336            3730     36.1887E-03     37.9787E-03
            3318            3730     36.1887E-03     37.9787E-03
            3335            3730     36.1887E-03     37.9787E-03
            3336            3731     33.5019E-03     35.3770E-03
            3337            3731     33.5019E-03     35.3770E-03
            3319            3731     33.5019E-03     35.3770E-03
            3318            3731     33.5019E-03     35.3770E-03
            3320            3732     30.3794E-03     32.3481E-03
            3338            3732     30.3794E-03     32.3481E-03
            3319            3732     30.3794E-03     32.3481E-03
            3337            3732     30.3794E-03     32.3481E-03
            3339            3733     75.1150E-03     76.6913E-03
            3340            3733     75.1150E-03     76.6913E-03
            3322            3733     75.1150E-03     76.6913E-03
            3321            3733     75.1150E-03     76.6913E-03
            3322            3734     71.2102E-03     72.7472E-03
            3341            3734     71.2102E-03     72.7472E-03
            3340            3734     71.2102E-03     72.7472E-03
            3323            3734     71.2102E-03     72.7472E-03
            3323            3735     66.8408E-03     68.6269E-03
            3341            3735     66.8408E-03     68.6269E-03
            3342            3735     66.8408E-03     68.6269E-03
            3324            3735     66.8408E-03     68.6269E-03
            3343            3736     62.8964E-03     64.8778E-03
            3324            3736     62.8964E-03     64.8778E-03
            3325            3736     62.8964E-03     64.8778E-03
            3342            3736     62.8964E-03     64.8778E-03
            3325            3737     59.7299E-03     61.6801E-03
            3344            3737     59.7299E-03     61.6801E-03
            3326            3737     59.7299E-03     61.6801E-03
            3343            3737     59.7299E-03     61.6801E-03
            3345            3738     56.8790E-03     58.7772E-03
            3344            3738     56.8790E-03     58.7772E-03
            3327            3738     56.8790E-03     58.7772E-03
            3326            3738     56.8790E-03     58.7772E-03
            3328            3739     54.2554E-03     56.1000E-03
            3345            3739     54.2554E-03     56.1000E-03
            3346            3739     54.2554E-03     56.1000E-03
            3327            3739     54.2554E-03     56.1000E-03
            3328            3740     51.7526E-03     53.5502E-03
            3329            3740     51.7526E-03     53.5502E-03
            3347            3740     51.7526E-03     53.5502E-03
            3346            3740     51.7526E-03     53.5502E-03
            3348            3741     49.3255E-03     51.0944E-03
            3330            3741     49.3255E-03     51.0944E-03
            3329            3741     49.3255E-03     51.0944E-03
            3347            3741     49.3255E-03     51.0944E-03
            3349            3742     46.9559E-03     48.7042E-03
            3330            3742     46.9559E-03     48.7042E-03
            3348            3742     46.9559E-03     48.7042E-03
            3331            3742     46.9559E-03     48.7042E-03
            3349            3743     44.6402E-03     46.3818E-03
            3331            3743     44.6402E-03     46.3818E-03
            3332            3743     44.6402E-03     46.3818E-03
            3350            3743     44.6402E-03     46.3818E-03
            3351            3744     42.3911E-03     44.1360E-03
            3350            3744     42.3911E-03     44.1360E-03
            3333            3744     42.3911E-03     44.1360E-03
            3332            3744     42.3911E-03     44.1360E-03
            3334            3745     40.2520E-03     42.0096E-03
            3351            3745     40.2520E-03     42.0096E-03
            3352            3745     40.2520E-03     42.0096E-03
            3333            3745     40.2520E-03     42.0096E-03
            3334            3746     38.2218E-03     40.0169E-03
            3352            3746     38.2218E-03     40.0169E-03
            3335            3746     38.2218E-03     40.0169E-03
            3353            3746     38.2218E-03     40.0169E-03
            3336            3747     36.5020E-03     38.3547E-03
            3354            3747     36.5020E-03     38.3547E-03
            3353            3747     36.5020E-03     38.3547E-03
            3335            3747     36.5020E-03     38.3547E-03
            3337            3748     34.4797E-03     36.4872E-03
            3336            3748     34.4797E-03     36.4872E-03
            3354            3748     34.4797E-03     36.4872E-03
            3355            3748     34.4797E-03     36.4872E-03
            3356            3749     31.6049E-03     33.6503E-03
            3355            3749     31.6049E-03     33.6503E-03
            3337            3749     31.6049E-03     33.6503E-03
            3338            3749     31.6049E-03     33.6503E-03
            3357            3750     76.9979E-03     77.6220E-03
            3358            3750     76.9979E-03     77.6220E-03
            3340            3750     76.9979E-03     77.6220E-03
            3339            3750     76.9979E-03     77.6220E-03
            3341            3751     71.0003E-03     72.3986E-03
            3340            3751     71.0003E-03     72.3986E-03
            3358            3751     71.0003E-03     72.3986E-03
            3359            3751     71.0003E-03     72.3986E-03
            3360            3752     65.4068E-03     67.2658E-03
            3359            3752     65.4068E-03     67.2658E-03
            3342            3752     65.4068E-03     67.2658E-03
            3341            3752     65.4068E-03     67.2658E-03
            3361            3753     61.5501E-03     63.4649E-03
            3342            3753     61.5501E-03     63.4649E-03
            3360            3753     61.5501E-03     63.4649E-03
            3343            3753     61.5501E-03     63.4649E-03
            3343            3754     58.4010E-03     60.3157E-03
            3361            3754     58.4010E-03     60.3157E-03
            3362            3754     58.4010E-03     60.3157E-03
            3344            3754     58.4010E-03     60.3157E-03
            3345            3755     55.6275E-03     57.5722E-03
            3362            3755     55.6275E-03     57.5722E-03
            3363            3755     55.6275E-03     57.5722E-03
            3344            3755     55.6275E-03     57.5722E-03
            3364            3756     53.0937E-03     55.0487E-03
            3363            3756     53.0937E-03     55.0487E-03
            3346            3756     53.0937E-03     55.0487E-03
            3345            3756     53.0937E-03     55.0487E-03
            3346            3757     50.6636E-03     52.6433E-03
            3365            3757     50.6636E-03     52.6433E-03
            3347            3757     50.6636E-03     52.6433E-03
            3364            3757     50.6636E-03     52.6433E-03
            3365            3758     48.3163E-03     50.3098E-03
            3366            3758     48.3163E-03     50.3098E-03
            3348            3758     48.3163E-03     50.3098E-03
            3347            3758     48.3163E-03     50.3098E-03
            3366            3759     46.0072E-03     48.0138E-03
            3349            3759     46.0072E-03     48.0138E-03
            3367            3759     46.0072E-03     48.0138E-03
            3348            3759     46.0072E-03     48.0138E-03
            3367            3760     43.7618E-03     45.7710E-03
            3350            3760     43.7618E-03     45.7710E-03
            3368            3760     43.7618E-03     45.7710E-03
            3349            3760     43.7618E-03     45.7710E-03
            3350            3761     41.5779E-03     43.5803E-03
            3351            3761     41.5779E-03     43.5803E-03
            3368            3761     41.5779E-03     43.5803E-03
            3369            3761     41.5779E-03     43.5803E-03
            3352            3762     39.5428E-03     41.5263E-03
            3351            3762     39.5428E-03     41.5263E-03
            3369            3762     39.5428E-03     41.5263E-03
            3370            3762     39.5428E-03     41.5263E-03
            3352            3763     37.7109E-03     39.6631E-03
            3371            3763     37.7109E-03     39.6631E-03
            3353            3763     37.7109E-03     39.6631E-03
            3370            3763     37.7109E-03     39.6631E-03
            3353            3764     36.2768E-03     38.1859E-03
            3354            3764     36.2768E-03     38.1859E-03
            3372            3764     36.2768E-03     38.1859E-03
            3371            3764     36.2768E-03     38.1859E-03
            3373            3765     35.6616E-03     37.6089E-03
            3354            3765     35.6616E-03     37.6089E-03
            3355            3765     35.6616E-03     37.6089E-03
            3372            3765     35.6616E-03     37.6089E-03
            3373            3766     33.8913E-03     36.0907E-03
            3355            3766     33.8913E-03     36.0907E-03
            3356            3766     33.8913E-03     36.0907E-03
            3374            3766     33.8913E-03     36.0907E-03
            3376            3767     76.6606E-03     77.8772E-03
            3357            3767     76.6606E-03     77.8772E-03
            3375            3767     76.6606E-03     77.8772E-03
            3358            3767     76.6606E-03     77.8772E-03
            3358            3768     68.4924E-03     70.1585E-03
            3377            3768     68.4924E-03     70.1585E-03
            3359            3768     68.4924E-03     70.1585E-03
            3376            3768     68.4924E-03     70.1585E-03
            3378            3769     63.4085E-03     65.0061E-03
            3360            3769     63.4085E-03     65.0061E-03
            3377            3769     63.4085E-03     65.0061E-03
            3359            3769     63.4085E-03     65.0061E-03
            3379            3770     59.8646E-03     61.5165E-03
            3360            3770     59.8646E-03     61.5165E-03
            3361            3770     59.8646E-03     61.5165E-03
            3378            3770     59.8646E-03     61.5165E-03
            3361            3771     56.8386E-03     58.6393E-03
            3362            3771     56.8386E-03     58.6393E-03
            3379            3771     56.8386E-03     58.6393E-03
            3380            3771     56.8386E-03     58.6393E-03
            3362            3772     54.2338E-03     56.1701E-03
            3381            3772     54.2338E-03     56.1701E-03
            3380            3772     54.2338E-03     56.1701E-03
            3363            3772     54.2338E-03     56.1701E-03
            3382            3773     51.7832E-03     53.8524E-03
            3381            3773     51.7832E-03     53.8524E-03
            3363            3773     51.7832E-03     53.8524E-03
            3364            3773     51.7832E-03     53.8524E-03
            3364            3774     49.4651E-03     51.6343E-03
            3382            3774     49.4651E-03     51.6343E-03
            3383            3774     49.4651E-03     51.6343E-03
            3365            3774     49.4651E-03     51.6343E-03
            3365            3775     47.1891E-03     49.4336E-03
            3383            3775     47.1891E-03     49.4336E-03
            3384            3775     47.1891E-03     49.4336E-03
            3366            3775     47.1891E-03     49.4336E-03
            3367            3776     44.9706E-03     47.2621E-03
            3385            3776     44.9706E-03     47.2621E-03
            3366            3776     44.9706E-03     47.2621E-03
            3384            3776     44.9706E-03     47.2621E-03
            3386            3777     42.7790E-03     45.0906E-03
            3385            3777     42.7790E-03     45.0906E-03
            3367            3777     42.7790E-03     45.0906E-03
            3368            3777     42.7790E-03     45.0906E-03
            3368            3778     40.6866E-03     42.9888E-03
            3369            3778     40.6866E-03     42.9888E-03
            3386            3778     40.6866E-03     42.9888E-03
            3387            3778     40.6866E-03     42.9888E-03
            3370            3779     38.6876E-03     40.9462E-03
            3388            3779     38.6876E-03     40.9462E-03
            3369            3779     38.6876E-03     40.9462E-03
            3387            3779     38.6876E-03     40.9462E-03
            3389            3780     37.0147E-03     39.1798E-03
            3371            3780     37.0147E-03     39.1798E-03
            3370            3780     37.0147E-03     39.1798E-03
            3388            3780     37.0147E-03     39.1798E-03
            3390            3781     35.6583E-03     37.6936E-03
            3371            3781     35.6583E-03     37.6936E-03
            3389            3781     35.6583E-03     37.6936E-03
            3372            3781     35.6583E-03     37.6936E-03
            3372            3782     35.6336E-03     37.4308E-03
            3373            3782     35.6336E-03     37.4308E-03
            3391            3782     35.6336E-03     37.4308E-03
            3390            3782     35.6336E-03     37.4308E-03
            3374            3783     36.9948E-03     38.7294E-03
            3373            3783     36.9948E-03     38.7294E-03
            3391            3783     36.9948E-03     38.7294E-03
            3392            3783     36.9948E-03     38.7294E-03
            4348            4562     81.6018E-03     84.1714E-03
            4366            4562     81.6018E-03     84.1714E-03
            4365            4562     81.6018E-03     84.1714E-03
            4347            4562     81.6018E-03     84.1714E-03
            4366            4563     72.4827E-03     73.9737E-03
            4367            4563     72.4827E-03     73.9737E-03
            4349            4563     72.4827E-03     73.9737E-03
            4348            4563     72.4827E-03     73.9737E-03
            4349            4564     65.7646E-03     67.0519E-03
            4350            4564     65.7646E-03     67.0519E-03
            4368            4564     65.7646E-03     67.0519E-03
            4367            4564     65.7646E-03     67.0519E-03
            4369            4565     59.5595E-03     60.8844E-03
            4368            4565     59.5595E-03     60.8844E-03
            4351            4565     59.5595E-03     60.8844E-03
            4350            4565     59.5595E-03     60.8844E-03
            4352            4566     53.7987E-03     55.1631E-03
            4351            4566     53.7987E-03     55.1631E-03
            4370            4566     53.7987E-03     55.1631E-03
            4369            4566     53.7987E-03     55.1631E-03
            4352            4567     48.2061E-03     49.6721E-03
            4370            4567     48.2061E-03     49.6721E-03
            4371            4567     48.2061E-03     49.6721E-03
            4353            4567     48.2061E-03     49.6721E-03
            4353            4568     42.7616E-03     44.2905E-03
            4371            4568     42.7616E-03     44.2905E-03
            4354            4568     42.7616E-03     44.2905E-03
            4372            4568     42.7616E-03     44.2905E-03
            4355            4569     37.3762E-03     38.9770E-03
            4373            4569     37.3762E-03     38.9770E-03
            4372            4569     37.3762E-03     38.9770E-03
            4354            4569     37.3762E-03     38.9770E-03
            4355            4570     32.0395E-03     33.6814E-03
            4374            4570     32.0395E-03     33.6814E-03
            4373            4570     32.0395E-03     33.6814E-03
            4356            4570     32.0395E-03     33.6814E-03
            4356            4571     26.7228E-03     28.3964E-03
            4375            4571     26.7228E-03     28.3964E-03
            4374            4571     26.7228E-03     28.3964E-03
            4357            4571     26.7228E-03     28.3964E-03
            4357            4572     21.4146E-03     23.0973E-03
            4376            4572     21.4146E-03     23.0973E-03
            4358            4572     21.4146E-03     23.0973E-03
            4375            4572     21.4146E-03     23.0973E-03
            4358            4573     16.1224E-03     17.7872E-03
            4377            4573     16.1224E-03     17.7872E-03
            4376            4573     16.1224E-03     17.7872E-03
            4359            4573     16.1224E-03     17.7872E-03
            4378            4574     10.8345E-03     12.4491E-03
            4377            4574     10.8345E-03     12.4491E-03
            4359            4574     10.8345E-03     12.4491E-03
            4360            4574     10.8345E-03     12.4491E-03
            4379            4575     5.85376E-03     7.20803E-03
            4378            4575     5.85376E-03     7.20803E-03
            4360            4575     5.85376E-03     7.20803E-03
            4361            4575     5.85376E-03     7.20803E-03
            4362            4576     3.78408E-03     3.80802E-03
            4380            4576     3.78408E-03     3.80802E-03
            4361            4576     3.78408E-03     3.80802E-03
            4379            4576     3.78408E-03     3.80802E-03
            4380            4577     6.72572E-03     5.62877E-03
            4363            4577     6.72572E-03     5.62877E-03
            4381            4577     6.72572E-03     5.62877E-03
            4362            4577     6.72572E-03     5.62877E-03
            4364            4578     13.2975E-03     12.5224E-03
            4382            4578     13.2975E-03     12.5224E-03
            4381            4578     13.2975E-03     12.5224E-03
            4363            4578     13.2975E-03     12.5224E-03
            4383            4579     84.4393E-03     85.5515E-03
            4365            4579     84.4393E-03     85.5515E-03
            4384            4579     84.4393E-03     85.5515E-03
            4366            4579     84.4393E-03     85.5515E-03
            4385            4580     72.2171E-03     73.8608E-03
            4367            4580     72.2171E-03     73.8608E-03
            4384            4580     72.2171E-03     73.8608E-03
            4366            4580     72.2171E-03     73.8608E-03
            4386            4581     63.5462E-03     65.1229E-03
            4385            4581     63.5462E-03     65.1229E-03
            4368            4581     63.5462E-03     65.1229E-03
            4367            4581     63.5462E-03     65.1229E-03
            4386            4582     56.8369E-03     58.4195E-03
            4369            4582     56.8369E-03     58.4195E-03
            4368            4582     56.8369E-03     58.4195E-03
            4387            4582     56.8369E-03     58.4195E-03
            4387            4583     50.7878E-03     52.4687E-03
            4369            4583     50.7878E-03     52.4687E-03
            4370            4583     50.7878E-03     52.4687E-03
            4388            4583     50.7878E-03     52.4687E-03
            4370            4584     45.2812E-03     47.0675E-03
            4371            4584     45.2812E-03     47.0675E-03
            4389            4584     45.2812E-03     47.0675E-03
            4388            4584     45.2812E-03     47.0675E-03
            4390            4585     40.0036E-03     41.8941E-03
            4371            4585     40.0036E-03     41.8941E-03
            4372            4585     40.0036E-03     41.8941E-03
            4389            4585     40.0036E-03     41.8941E-03
            4372            4586     34.9029E-03     36.8798E-03
            4373            4586     34.9029E-03     36.8798E-03
            4391            4586     34.9029E-03     36.8798E-03
            4390            4586     34.9029E-03     36.8798E-03
            4391            4587     29.8817E-03     31.9207E-03
            4373            4587     29.8817E-03     31.9207E-03
            4374            4587     29.8817E-03     31.9207E-03
            4392            4587     29.8817E-03     31.9207E-03
            4375            4588     24.9140E-03     26.9889E-03
            4374            4588     24.9140E-03     26.9889E-03
            4392            4588     24.9140E-03     26.9889E-03
            4393            4588     24.9140E-03     26.9889E-03
            4394            4589     19.9780E-03     22.0522E-03
            4376            4589     19.9780E-03     22.0522E-03
            4375            4589     19.9780E-03     22.0522E-03
            4393            4589     19.9780E-03     22.0522E-03
            4376            4590     15.0624E-03     17.0889E-03
            4395            4590     15.0624E-03     17.0889E-03
            4394            4590     15.0624E-03     17.0889E-03
            4377            4590     15.0624E-03     17.0889E-03
            4377            4591     10.2426E-03     12.1193E-03
            4395            4591     10.2426E-03     12.1193E-03
            4396            4591     10.2426E-03     12.1193E-03
            4378            4591     10.2426E-03     12.1193E-03
            4397            4592     5.96656E-03     7.31131E-03
            4379            4592     5.96656E-03     7.31131E-03
            4396            4592     5.96656E-03     7.31131E-03
            4378            4592     5.96656E-03     7.31131E-03
            4380            4593     4.73054E-03     4.50791E-03
            4398            4593     4.73054E-03     4.50791E-03
            4379            4593     4.73054E-03     4.50791E-03
            4397            4593     4.73054E-03     4.50791E-03
            4380            4594     8.50600E-03     7.06574E-03
            4399            4594     8.50600E-03     7.06574E-03
            4398            4594     8.50600E-03     7.06574E-03
            4381            4594     8.50600E-03     7.06574E-03
            4399            4595     15.3755E-03     13.9347E-03
            4382            4595     15.3755E-03     13.9347E-03
            4381            4595     15.3755E-03     13.9347E-03
            4400            4595     15.3755E-03     13.9347E-03
            4401            4596     84.4379E-03     84.6311E-03
            4384            4596     84.4379E-03     84.6311E-03
            4402            4596     84.4379E-03     84.6311E-03
            4383            4596     84.4379E-03     84.6311E-03
            4403            4597     75.1300E-03     76.1353E-03
            4402            4597     75.1300E-03     76.1353E-03
            4385            4597     75.1300E-03     76.1353E-03
            4384            4597     75.1300E-03     76.1353E-03
            4404            4598     65.9663E-03     67.5579E-03
            4386            4598     65.9663E-03     67.5579E-03
            4403            4598     65.9663E-03     67.5579E-03
            4385            4598     65.9663E-03     67.5579E-03
            4405            4599     58.8475E-03     60.5666E-03
            4387            4599     58.8475E-03     60.5666E-03
            4386            4599     58.8475E-03     60.5666E-03
            4404            4599     58.8475E-03     60.5666E-03
            4387            4600     52.6184E-03     54.3603E-03
            4406            4600     52.6184E-03     54.3603E-03
            4405            4600     52.6184E-03     54.3603E-03
            4388            4600     52.6184E-03     54.3603E-03
            4406            4601     46.8678E-03     48.6593E-03
            4388            4601     46.8678E-03     48.6593E-03
            4389            4601     46.8678E-03     48.6593E-03
            4407            4601     46.8678E-03     48.6593E-03
            4408            4602     41.4471E-03     43.2487E-03
            4407            4602     41.4471E-03     43.2487E-03
            4390            4602     41.4471E-03     43.2487E-03
            4389            4602     41.4471E-03     43.2487E-03
            4391            4603     36.1830E-03     38.0079E-03
            4408            4603     36.1830E-03     38.0079E-03
            4390            4603     36.1830E-03     38.0079E-03
            4409            4603     36.1830E-03     38.0079E-03
            4410            4604     31.0428E-03     32.8690E-03
            4409            4604     31.0428E-03     32.8690E-03
            4391            4604     31.0428E-03     32.8690E-03
            4392            4604     31.0428E-03     32.8690E-03
            4393            4605     25.9709E-03     27.7893E-03
            4410            4605     25.9709E-03     27.7893E-03
            4392            4605     25.9709E-03     27.7893E-03
            4411            4605     25.9709E-03     27.7893E-03
            4393            4606     20.9738E-03     22.7524E-03
            4411            4606     20.9738E-03     22.7524E-03
            4394            4606     20.9738E-03     22.7524E-03
            4412            4606     20.9738E-03     22.7524E-03
            4394            4607     16.0734E-03     17.7602E-03
            4413            4607     16.0734E-03     17.7602E-03
            4412            4607     16.0734E-03     17.7602E-03
            4395            4607     16.0734E-03     17.7602E-03
            4395            4608     11.4467E-03     12.8914E-03
            4396            4608     11.4467E-03     12.8914E-03
            4414            4608     11.4467E-03     12.8914E-03
            4413            4608     11.4467E-03     12.8914E-03
            4396            4609     7.67181E-03     8.46620E-03
            4397            4609     7.67181E-03     8.46620E-03
            4414            4609     7.67181E-03     8.46620E-03
            4415            4609     7.67181E-03     8.46620E-03
            4397            4610     6.86965E-03     6.29100E-03
            4398            4610     6.86965E-03     6.29100E-03
            4416            4610     6.86965E-03     6.29100E-03
            4415            4610     6.86965E-03     6.29100E-03
            4398            4611     10.0761E-03     8.33498E-03
            4416            4611     10.0761E-03     8.33498E-03
            4399            4611     10.0761E-03     8.33498E-03
            4417            4611     10.0761E-03     8.33498E-03
            4399            4612     14.7750E-03     12.6615E-03
            4400            4612     14.7750E-03     12.6615E-03
            4418            4612     14.7750E-03     12.6615E-03
            4417            4612     14.7750E-03     12.6615E-03
            4420            4613     81.6550E-03     82.9542E-03
            4419            4613     81.6550E-03     82.9542E-03
            4401            4613     81.6550E-03     82.9542E-03
            4402            4613     81.6550E-03     82.9542E-03
            4421            4614     74.9603E-03     76.1210E-03
            4420            4614     74.9603E-03     76.1210E-03
            4402            4614     74.9603E-03     76.1210E-03
            4403            4614     74.9603E-03     76.1210E-03
            4404            4615     67.4980E-03     68.8925E-03
            4403            4615     67.4980E-03     68.8925E-03
            4421            4615     67.4980E-03     68.8925E-03
            4422            4615     67.4980E-03     68.8925E-03
            4423            4616     60.3570E-03     62.0505E-03
            4405            4616     60.3570E-03     62.0505E-03
            4422            4616     60.3570E-03     62.0505E-03
            4404            4616     60.3570E-03     62.0505E-03
            4423            4617     54.1276E-03     55.8636E-03
            4424            4617     54.1276E-03     55.8636E-03
            4405            4617     54.1276E-03     55.8636E-03
            4406            4617     54.1276E-03     55.8636E-03
            4406            4618     48.2960E-03     50.0211E-03
            4424            4618     48.2960E-03     50.0211E-03
            4407            4618     48.2960E-03     50.0211E-03
            4425            4618     48.2960E-03     50.0211E-03
            4426            4619     42.7516E-03     44.4604E-03
            4407            4619     42.7516E-03     44.4604E-03
            4408            4619     42.7516E-03     44.4604E-03
            4425            4619     42.7516E-03     44.4604E-03
            4426            4620     37.3948E-03     39.0606E-03
            4427            4620     37.3948E-03     39.0606E-03
            4408            4620     37.3948E-03     39.0606E-03
            4409            4620     37.3948E-03     39.0606E-03
            4427            4621     32.1527E-03     33.7889E-03
            4428            4621     32.1527E-03     33.7889E-03
            4409            4621     32.1527E-03     33.7889E-03
            4410            4621     32.1527E-03     33.7889E-03
            4410            4622     27.0220E-03     28.6109E-03
            4428            4622     27.0220E-03     28.6109E-03
            4429            4622     27.0220E-03     28.6109E-03
            4411            4622     27.0220E-03     28.6109E-03
            4412            4623     21.9952E-03     23.5249E-03
            4429            4623     21.9952E-03     23.5249E-03
            4430            4623     21.9952E-03     23.5249E-03
            4411            4623     21.9952E-03     23.5249E-03
            4430            4624     17.1631E-03     18.5682E-03
            4431            4624     17.1631E-03     18.5682E-03
            4412            4624     17.1631E-03     18.5682E-03
            4413            4624     17.1631E-03     18.5682E-03
            4414            4625     12.6892E-03     13.8390E-03
            4413            4625     12.6892E-03     13.8390E-03
            4431            4625     12.6892E-03     13.8390E-03
            4432            4625     12.6892E-03     13.8390E-03
            4432            4626     9.31228E-03     9.79178E-03
            4433            4626     9.31228E-03     9.79178E-03
            4415            4626     9.31228E-03     9.79178E-03
            4414            4626     9.31228E-03     9.79178E-03
            4415            4627     8.39815E-03     7.70305E-03
            4416            4627     8.39815E-03     7.70305E-03
            4433            4627     8.39815E-03     7.70305E-03
            4434            4627     8.39815E-03     7.70305E-03
            4416            4628     10.2668E-03     8.61523E-03
            4417            4628     10.2668E-03     8.61523E-03
            4434            4628     10.2668E-03     8.61523E-03
            4435            4628     10.2668E-03     8.61523E-03
            4436            4629     13.6872E-03     11.8221E-03
            4435            4629     13.6872E-03     11.8221E-03
            4418            4629     13.6872E-03     11.8221E-03
            4417            4629     13.6872E-03     11.8221E-03
            4438            4630     79.2048E-03     80.0445E-03
            4437            4630     79.2048E-03     80.0445E-03
            4419            4630     79.2048E-03     80.0445E-03
            4420            4630     79.2048E-03     80.0445E-03
            4421            4631     73.4116E-03     74.7756E-03
            4438            4631     73.4116E-03     74.7756E-03
            4439            4631     73.4116E-03     74.7756E-03
            4420            4631     73.4116E-03     74.7756E-03
            4440            4632     67.3524E-03     68.8476E-03
            4422            4632     67.3524E-03     68.8476E-03
            4439            4632     67.3524E-03     68.8476E-03
            4421            4632     67.3524E-03     68.8476E-03
            4441            4633     61.1440E-03     62.7154E-03
            4422            4633     61.1440E-03     62.7154E-03
            4440            4633     61.1440E-03     62.7154E-03
            4423            4633     61.1440E-03     62.7154E-03
            4424            4634     55.0626E-03     56.7255E-03
            4441            4634     55.0626E-03     56.7255E-03
            4442            4634     55.0626E-03     56.7255E-03
            4423            4634     55.0626E-03     56.7255E-03
            4425            4635     49.3400E-03     50.9585E-03
            4424            4635     49.3400E-03     50.9585E-03
            4442            4635     49.3400E-03     50.9585E-03
            4443            4635     49.3400E-03     50.9585E-03
            4444            4636     43.7839E-03     45.3411E-03
            4426            4636     43.7839E-03     45.3411E-03
            4443            4636     43.7839E-03     45.3411E-03
            4425            4636     43.7839E-03     45.3411E-03
            4445            4637     38.3864E-03     39.8828E-03
            4426            4637     38.3864E-03     39.8828E-03
            4444            4637     38.3864E-03     39.8828E-03
            4427            4637     38.3864E-03     39.8828E-03
            4428            4638     33.1125E-03     34.5419E-03
            4445            4638     33.1125E-03     34.5419E-03
            4427            4638     33.1125E-03     34.5419E-03
            4446            4638     33.1125E-03     34.5419E-03
            4428            4639     27.9521E-03     29.3271E-03
            4446            4639     27.9521E-03     29.3271E-03
            4447            4639     27.9521E-03     29.3271E-03
            4429            4639     27.9521E-03     29.3271E-03
            4447            4640     22.9515E-03     24.2531E-03
            4448            4640     22.9515E-03     24.2531E-03
            4429            4640     22.9515E-03     24.2531E-03
            4430            4640     22.9515E-03     24.2531E-03
            4430            4641     18.1794E-03     19.3715E-03
            4448            4641     18.1794E-03     19.3715E-03
            4449            4641     18.1794E-03     19.3715E-03
            4431            4641     18.1794E-03     19.3715E-03
            4431            4642     13.9043E-03     14.8421E-03
            4450            4642     13.9043E-03     14.8421E-03
            4432            4642     13.9043E-03     14.8421E-03
            4449            4642     13.9043E-03     14.8421E-03
            4451            4643     10.6827E-03     11.0519E-03
            4433            4643     10.6827E-03     11.0519E-03
            4450            4643     10.6827E-03     11.0519E-03
            4432            4643     10.6827E-03     11.0519E-03
            4433            4644     9.39746E-03     8.84216E-03
            4452            4644     9.39746E-03     8.84216E-03
            4451            4644     9.39746E-03     8.84216E-03
            4434            4644     9.39746E-03     8.84216E-03
            4453            4645     10.5787E-03     9.17555E-03
            4435            4645     10.5787E-03     9.17555E-03
            4452            4645     10.5787E-03     9.17555E-03
            4434            4645     10.5787E-03     9.17555E-03
            4453            4646     13.4944E-03     11.6425E-03
            4454            4646     13.4944E-03     11.6425E-03
            4436            4646     13.4944E-03     11.6425E-03
            4435            4646     13.4944E-03     11.6425E-03
            4456            4647     76.3839E-03     77.3551E-03
            4438            4647     76.3839E-03     77.3551E-03
            4437            4647     76.3839E-03     77.3551E-03
            4455            4647     76.3839E-03     77.3551E-03
            4456            4648     71.5997E-03     72.8097E-03
            4439            4648     71.5997E-03     72.8097E-03
            4457            4648     71.5997E-03     72.8097E-03
            4438            4648     71.5997E-03     72.8097E-03
            4439            4649     66.3909E-03     67.8682E-03
            4457            4649     66.3909E-03     67.8682E-03
            4440            4649     66.3909E-03     67.8682E-03
            4458            4649     66.3909E-03     67.8682E-03
            4458            4650     60.9559E-03     62.5059E-03
            4440            4650     60.9559E-03     62.5059E-03
            4441            4650     60.9559E-03     62.5059E-03
            4459            4650     60.9559E-03     62.5059E-03
            4459            4651     55.4160E-03     56.9217E-03
            4441            4651     55.4160E-03     56.9217E-03
            4442            4651     55.4160E-03     56.9217E-03
            4460            4651     55.4160E-03     56.9217E-03
            4460            4652     49.8676E-03     51.3236E-03
            4442            4652     49.8676E-03     51.3236E-03
            4461            4652     49.8676E-03     51.3236E-03
            4443            4652     49.8676E-03     51.3236E-03
            4443            4653     44.4362E-03     45.7986E-03
            4462            4653     44.4362E-03     45.7986E-03
            4444            4653     44.4362E-03     45.7986E-03
            4461            4653     44.4362E-03     45.7986E-03
            4444            4654     39.0841E-03     40.3611E-03
            4445            4654     39.0841E-03     40.3611E-03
            4462            4654     39.0841E-03     40.3611E-03
            4463            4654     39.0841E-03     40.3611E-03
            4445            4655     33.8400E-03     35.0468E-03
            4464            4655     33.8400E-03     35.0468E-03
            4446            4655     33.8400E-03     35.0468E-03
            4463            4655     33.8400E-03     35.0468E-03
            4446            4656     28.7240E-03     29.8671E-03
            4464            4656     28.7240E-03     29.8671E-03
            4447            4656     28.7240E-03     29.8671E-03
            4465            4656     28.7240E-03     29.8671E-03
            4465            4657     23.7784E-03     24.8659E-03
            4466            4657     23.7784E-03     24.8659E-03
            4447            4657     23.7784E-03     24.8659E-03
            4448            4657     23.7784E-03     24.8659E-03
            4467            4658     19.1285E-03     20.1285E-03
            4448            4658     19.1285E-03     20.1285E-03
            4466            4658     19.1285E-03     20.1285E-03
            4449            4658     19.1285E-03     20.1285E-03
            4449            4659     15.0141E-03     15.8216E-03
            4450            4659     15.0141E-03     15.8216E-03
            4468            4659     15.0141E-03     15.8216E-03
            4467            4659     15.0141E-03     15.8216E-03
            4468            4660     11.9067E-03     12.2836E-03
            4469            4660     11.9067E-03     12.2836E-03
            4451            4660     11.9067E-03     12.2836E-03
            4450            4660     11.9067E-03     12.2836E-03
            4470            4661     10.5908E-03     10.1995E-03
            4452            4661     10.5908E-03     10.1995E-03
            4469            4661     10.5908E-03     10.1995E-03
            4451            4661     10.5908E-03     10.1995E-03
            4453            4662     11.3319E-03     10.1146E-03
            4470            4662     11.3319E-03     10.1146E-03
            4452            4662     11.3319E-03     10.1146E-03
            4471            4662     11.3319E-03     10.1146E-03
            4453            4663     13.6235E-03     11.9416E-03
            4454            4663     13.6235E-03     11.9416E-03
            4471            4663     13.6235E-03     11.9416E-03
            4472            4663     13.6235E-03     11.9416E-03
            4456            4664     73.5621E-03     74.4101E-03
            4473            4664     73.5621E-03     74.4101E-03
            4474            4664     73.5621E-03     74.4101E-03
            4455            4664     73.5621E-03     74.4101E-03
            4474            4665     69.3997E-03     70.6291E-03
            4475            4665     69.3997E-03     70.6291E-03
            4456            4665     69.3997E-03     70.6291E-03
            4457            4665     69.3997E-03     70.6291E-03
            4457            4666     64.9807E-03     66.3669E-03
            4476            4666     64.9807E-03     66.3669E-03
            4458            4666     64.9807E-03     66.3669E-03
            4475            4666     64.9807E-03     66.3669E-03
            4459            4667     60.1695E-03     61.5820E-03
            4458            4667     60.1695E-03     61.5820E-03
            4477            4667     60.1695E-03     61.5820E-03
            4476            4667     60.1695E-03     61.5820E-03
            4478            4668     55.1065E-03     56.4346E-03
            4459            4668     55.1065E-03     56.4346E-03
            4460            4668     55.1065E-03     56.4346E-03
            4477            4668     55.1065E-03     56.4346E-03
            4461            4669     49.9015E-03     51.1113E-03
            4478            4669     49.9015E-03     51.1113E-03
            4479            4669     49.9015E-03     51.1113E-03
            4460            4669     49.9015E-03     51.1113E-03
            4480            4670     44.6537E-03     45.7625E-03
            4461            4670     44.6537E-03     45.7625E-03
            4479            4670     44.6537E-03     45.7625E-03
            4462            4670     44.6537E-03     45.7625E-03
            4462            4671     39.4515E-03     40.4661E-03
            4481            4671     39.4515E-03     40.4661E-03
            4480            4671     39.4515E-03     40.4661E-03
            4463            4671     39.4515E-03     40.4661E-03
            4463            4672     34.3217E-03     35.2662E-03
            4481            4672     34.3217E-03     35.2662E-03
            4482            4672     34.3217E-03     35.2662E-03
            4464            4672     34.3217E-03     35.2662E-03
            4483            4673     29.3165E-03     30.2108E-03
            4482            4673     29.3165E-03     30.2108E-03
            4465            4673     29.3165E-03     30.2108E-03
            4464            4673     29.3165E-03     30.2108E-03
            4466            4674     24.5047E-03     25.3607E-03
            4484            4674     24.5047E-03     25.3607E-03
            4483            4674     24.5047E-03     25.3607E-03
            4465            4674     24.5047E-03     25.3607E-03
            4466            4675     20.0072E-03     20.8214E-03
            4485            4675     20.0072E-03     20.8214E-03
            4484            4675     20.0072E-03     20.8214E-03
            4467            4675     20.0072E-03     20.8214E-03
            4467            4676     16.0647E-03     16.7829E-03
            4485            4676     16.0647E-03     16.7829E-03
            4486            4676     16.0647E-03     16.7829E-03
            4468            4676     16.0647E-03     16.7829E-03
            4487            4677     13.1773E-03     13.5805E-03
            4468            4677     13.1773E-03     13.5805E-03
            4486            4677     13.1773E-03     13.5805E-03
            4469            4677     13.1773E-03     13.5805E-03
            4469            4678     11.8388E-03     11.6449E-03
            4487            4678     11.8388E-03     11.6449E-03
            4470            4678     11.8388E-03     11.6449E-03
            4488            4678     11.8388E-03     11.6449E-03
            4489            4679     12.3033E-03     11.3722E-03
            4470            4679     12.3033E-03     11.3722E-03
            4471            4679     12.3033E-03     11.3722E-03
            4488            4679     12.3033E-03     11.3722E-03
            4490            4680     14.1702E-03     12.6446E-03
            4471            4680     14.1702E-03     12.6446E-03
            4489            4680     14.1702E-03     12.6446E-03
            4472            4680     14.1702E-03     12.6446E-03
            4473            4681     70.4860E-03     71.2531E-03
            4491            4681     70.4860E-03     71.2531E-03
            4492            4681     70.4860E-03     71.2531E-03
            4474            4681     70.4860E-03     71.2531E-03
            4492            4682     66.9728E-03     68.1456E-03
            4475            4682     66.9728E-03     68.1456E-03
            4474            4682     66.9728E-03     68.1456E-03
            4493            4682     66.9728E-03     68.1456E-03
            4476            4683     63.1429E-03     64.4113E-03
            4493            4683     63.1429E-03     64.4113E-03
            4475            4683     63.1429E-03     64.4113E-03
            4494            4683     63.1429E-03     64.4113E-03
            4477            4684     58.9132E-03     60.0661E-03
            4476            4684     58.9132E-03     60.0661E-03
            4494            4684     58.9132E-03     60.0661E-03
            4495            4684     58.9132E-03     60.0661E-03
            4478            4685     54.2730E-03     55.3039E-03
            4477            4685     54.2730E-03     55.3039E-03
            4496            4685     54.2730E-03     55.3039E-03
            4495            4685     54.2730E-03     55.3039E-03
            4497            4686     49.4271E-03     50.3211E-03
            4478            4686     49.4271E-03     50.3211E-03
            4496            4686     49.4271E-03     50.3211E-03
            4479            4686     49.4271E-03     50.3211E-03
            4479            4687     44.4700E-03     45.2528E-03
            4498            4687     44.4700E-03     45.2528E-03
            4497            4687     44.4700E-03     45.2528E-03
            4480            4687     44.4700E-03     45.2528E-03
            4480            4688     39.4939E-03     40.2017E-03
            4498            4688     39.4939E-03     40.2017E-03
            4499            4688     39.4939E-03     40.2017E-03
            4481            4688     39.4939E-03     40.2017E-03
            4499            4689     34.5767E-03     35.2272E-03
            4482            4689     34.5767E-03     35.2272E-03
            4500            4689     34.5767E-03     35.2272E-03
            4481            4689     34.5767E-03     35.2272E-03
            4483            4690     29.7735E-03     30.3919E-03
            4500            4690     29.7735E-03     30.3919E-03
            4482            4690     29.7735E-03     30.3919E-03
            4501            4690     29.7735E-03     30.3919E-03
            4484            4691     25.1657E-03     25.7725E-03
            4483            4691     25.1657E-03     25.7725E-03
            4501            4691     25.1657E-03     25.7725E-03
            4502            4691     25.1657E-03     25.7725E-03
            4485            4692     20.8808E-03     21.4922E-03
            4484            4692     20.8808E-03     21.4922E-03
            4503            4692     20.8808E-03     21.4922E-03
            4502            4692     20.8808E-03     21.4922E-03
            4503            4693     17.1540E-03     17.7609E-03
            4504            4693     17.1540E-03     17.7609E-03
            4486            4693     17.1540E-03     17.7609E-03
            4485            4693     17.1540E-03     17.7609E-03
            4504            4694     14.3832E-03     14.8923E-03
            4487            4694     14.3832E-03     14.8923E-03
            4505            4694     14.3832E-03     14.8923E-03
            4486            4694     14.3832E-03     14.8923E-03
            4505            4695     13.1446E-03     13.2074E-03
            4488            4695     13.1446E-03     13.2074E-03
            4506            4695     13.1446E-03     13.2074E-03
            4487            4695     13.1446E-03     13.2074E-03
            4506            4696     13.4505E-03     12.8474E-03
            4489            4696     13.4505E-03     12.8474E-03
            4488            4696     13.4505E-03     12.8474E-03
            4507            4696     13.4505E-03     12.8474E-03
            4489            4697     14.9509E-03     13.7233E-03
            4490            4697     14.9509E-03     13.7233E-03
            4507            4697     14.9509E-03     13.7233E-03
            4508            4697     14.9509E-03     13.7233E-03
            4509            4698     67.0295E-03     67.8538E-03
            4491            4698     67.0295E-03     67.8538E-03
            4510            4698     67.0295E-03     67.8538E-03
            4492            4698     67.0295E-03     67.8538E-03
            4510            4699     64.1943E-03     65.1851E-03
            4493            4699     64.1943E-03     65.1851E-03
            4492            4699     64.1943E-03     65.1851E-03
            4511            4699     64.1943E-03     65.1851E-03
            4493            4700     60.9776E-03     61.8699E-03
            4511            4700     60.9776E-03     61.8699E-03
            4494            4700     60.9776E-03     61.8699E-03
            4512            4700     60.9776E-03     61.8699E-03
            4494            4701     57.1589E-03     57.9190E-03
            4513            4701     57.1589E-03     57.9190E-03
            4512            4701     57.1589E-03     57.9190E-03
            4495            4701     57.1589E-03     57.9190E-03
            4514            4702     52.9850E-03     53.5703E-03
            4495            4702     52.9850E-03     53.5703E-03
            4496            4702     52.9850E-03     53.5703E-03
            4513            4702     52.9850E-03     53.5703E-03
            4515            4703     48.5208E-03     48.9975E-03
            4497            4703     48.5208E-03     48.9975E-03
            4514            4703     48.5208E-03     48.9975E-03
            4496            4703     48.5208E-03     48.9975E-03
            4516            4704     43.9204E-03     44.3303E-03
            4498            4704     43.9204E-03     44.3303E-03
            4497            4704     43.9204E-03     44.3303E-03
            4515            4704     43.9204E-03     44.3303E-03
            4499            4705     39.2791E-03     39.6405E-03
            4517            4705     39.2791E-03     39.6405E-03
            4516            4705     39.2791E-03     39.6405E-03
            4498            4705     39.2791E-03     39.6405E-03
            4517            4706     34.6672E-03     35.0090E-03
            4499            4706     34.6672E-03     35.0090E-03
            4500            4706     34.6672E-03     35.0090E-03
            4518            4706     34.6672E-03     35.0090E-03
            4500            4707     30.1644E-03     30.4964E-03
            4519            4707     30.1644E-03     30.4964E-03
            4501            4707     30.1644E-03     30.4964E-03
            4518            4707     30.1644E-03     30.4964E-03
            4501            4708     25.8497E-03     26.1930E-03
            4502            4708     25.8497E-03     26.1930E-03
            4520            4708     25.8497E-03     26.1930E-03
            4519            4708     25.8497E-03     26.1930E-03
            4521            4709     21.8440E-03     22.2279E-03
            4503            4709     21.8440E-03     22.2279E-03
            4520            4709     21.8440E-03     22.2279E-03
            4502            4709     21.8440E-03     22.2279E-03
            4521            4710     18.3483E-03     18.8048E-03
            4504            4710     18.3483E-03     18.8048E-03
            4503            4710     18.3483E-03     18.8048E-03
            4522            4710     18.3483E-03     18.8048E-03
            4523            4711     15.6676E-03     16.2348E-03
            4504            4711     15.6676E-03     16.2348E-03
            4522            4711     15.6676E-03     16.2348E-03
            4505            4711     15.6676E-03     16.2348E-03
            4506            4712     14.3127E-03     14.8364E-03
            4523            4712     14.3127E-03     14.8364E-03
            4524            4712     14.3127E-03     14.8364E-03
            4505            4712     14.3127E-03     14.8364E-03
            4525            4713     14.6763E-03     14.5250E-03
            4524            4713     14.6763E-03     14.5250E-03
            4506            4713     14.6763E-03     14.5250E-03
            4507            4713     14.6763E-03     14.5250E-03
            4507            4714     15.9100E-03     15.0100E-03
            4508            4714     15.9100E-03     15.0100E-03
            4525            4714     15.9100E-03     15.0100E-03
            4526            4714     15.9100E-03     15.0100E-03
            4527            4715     63.1999E-03     63.4392E-03
            4509            4715     63.1999E-03     63.4392E-03
            4510            4715     63.1999E-03     63.4392E-03
            4528            4715     63.1999E-03     63.4392E-03
            4528            4716     61.0815E-03     61.4693E-03
            4510            4716     61.0815E-03     61.4693E-03
            4511            4716     61.0815E-03     61.4693E-03
            4529            4716     61.0815E-03     61.4693E-03
            4530            4717     58.2994E-03     58.5577E-03
            4529            4717     58.2994E-03     58.5577E-03
            4512            4717     58.2994E-03     58.5577E-03
            4511            4717     58.2994E-03     58.5577E-03
            4512            4718     55.0052E-03     55.0858E-03
            4513            4718     55.0052E-03     55.0858E-03
            4531            4718     55.0052E-03     55.0858E-03
            4530            4718     55.0052E-03     55.0858E-03
            4532            4719     51.2698E-03     51.2811E-03
            4513            4719     51.2698E-03     51.2811E-03
            4531            4719     51.2698E-03     51.2811E-03
            4514            4719     51.2698E-03     51.2811E-03
            4514            4720     47.2713E-03     47.2663E-03
            4533            4720     47.2713E-03     47.2663E-03
            4532            4720     47.2713E-03     47.2663E-03
            4515            4720     47.2713E-03     47.2663E-03
            4533            4721     43.1223E-03     43.1198E-03
            4516            4721     43.1223E-03     43.1198E-03
            4515            4721     43.1223E-03     43.1198E-03
            4534            4721     43.1223E-03     43.1198E-03
            4534            4722     38.9076E-03     38.9300E-03
            4535            4722     38.9076E-03     38.9300E-03
            4516            4722     38.9076E-03     38.9300E-03
            4517            4722     38.9076E-03     38.9300E-03
            4535            4723     34.7141E-03     34.7530E-03
            4518            4723     34.7141E-03     34.7530E-03
            4536            4723     34.7141E-03     34.7530E-03
            4517            4723     34.7141E-03     34.7530E-03
            4536            4724     30.6055E-03     30.6708E-03
            4537            4724     30.6055E-03     30.6708E-03
            4518            4724     30.6055E-03     30.6708E-03
            4519            4724     30.6055E-03     30.6708E-03
            4537            4725     26.6722E-03     26.7641E-03
            4520            4725     26.6722E-03     26.7641E-03
            4519            4725     26.6722E-03     26.7641E-03
            4538            4725     26.6722E-03     26.7641E-03
            4521            4726     23.0167E-03     23.1599E-03
            4520            4726     23.0167E-03     23.1599E-03
            4539            4726     23.0167E-03     23.1599E-03
            4538            4726     23.0167E-03     23.1599E-03
            4521            4727     19.7878E-03     20.0414E-03
            4540            4727     19.7878E-03     20.0414E-03
            4539            4727     19.7878E-03     20.0414E-03
            4522            4727     19.7878E-03     20.0414E-03
            4541            4728     17.2207E-03     17.6709E-03
            4522            4728     17.2207E-03     17.6709E-03
            4540            4728     17.2207E-03     17.6709E-03
            4523            4728     17.2207E-03     17.6709E-03
            4524            4729     15.5279E-03     16.3839E-03
            4542            4729     15.5279E-03     16.3839E-03
            4523            4729     15.5279E-03     16.3839E-03
            4541            4729     15.5279E-03     16.3839E-03
            4542            4730     15.3413E-03     16.3400E-03
            4543            4730     15.3413E-03     16.3400E-03
            4525            4730     15.3413E-03     16.3400E-03
            4524            4730     15.3413E-03     16.3400E-03
            4526            4731     16.9510E-03     16.7684E-03
            4543            4731     16.9510E-03     16.7684E-03
            4525            4731     16.9510E-03     16.7684E-03
            4544            4731     16.9510E-03     16.7684E-03
            4528            4732     58.8689E-03     57.9037E-03
            4527            4732     58.8689E-03     57.9037E-03
            4545            4732     58.8689E-03     57.9037E-03
            4546            4732     58.8689E-03     57.9037E-03
            4528            4733     57.4939E-03     56.6580E-03
            4547            4733     57.4939E-03     56.6580E-03
            4529            4733     57.4939E-03     56.6580E-03
            4546            4733     57.4939E-03     56.6580E-03
            4547            4734     55.2649E-03     54.3798E-03
            4529            4734     55.2649E-03     54.3798E-03
            4530            4734     55.2649E-03     54.3798E-03
            4548            4734     55.2649E-03     54.3798E-03
            4549            4735     52.4723E-03     51.6992E-03
            4548            4735     52.4723E-03     51.6992E-03
            4531            4735     52.4723E-03     51.6992E-03
            4530            4735     52.4723E-03     51.6992E-03
            4532            4736     49.2828E-03     48.6496E-03
            4549            4736     49.2828E-03     48.6496E-03
            4531            4736     49.2828E-03     48.6496E-03
            4550            4736     49.2828E-03     48.6496E-03
            4550            4737     45.8478E-03     45.3517E-03
            4533            4737     45.8478E-03     45.3517E-03
            4551            4737     45.8478E-03     45.3517E-03
            4532            4737     45.8478E-03     45.3517E-03
            4533            4738     42.2487E-03     41.8766E-03
            4552            4738     42.2487E-03     41.8766E-03
            4534            4738     42.2487E-03     41.8766E-03
            4551            4738     42.2487E-03     41.8766E-03
            4552            4739     38.5740E-03     38.2927E-03
            4535            4739     38.5740E-03     38.2927E-03
            4553            4739     38.5740E-03     38.2927E-03
            4534            4739     38.5740E-03     38.2927E-03
            4536            4740     34.8848E-03     34.6828E-03
            4553            4740     34.8848E-03     34.6828E-03
            4554            4740     34.8848E-03     34.6828E-03
            4535            4740     34.8848E-03     34.6828E-03
            4555            4741     31.2644E-03     31.1098E-03
            4536            4741     31.2644E-03     31.1098E-03
            4554            4741     31.2644E-03     31.1098E-03
            4537            4741     31.2644E-03     31.1098E-03
            4555            4742     27.7784E-03     27.6715E-03
            4537            4742     27.7784E-03     27.6715E-03
            4556            4742     27.7784E-03     27.6715E-03
            4538            4742     27.7784E-03     27.6715E-03
            4539            4743     24.5353E-03     24.4628E-03
            4557            4743     24.5353E-03     24.4628E-03
            4556            4743     24.5353E-03     24.4628E-03
            4538            4743     24.5353E-03     24.4628E-03
            4558            4744     21.6304E-03     21.6395E-03
            4539            4744     21.6304E-03     21.6395E-03
            4557            4744     21.6304E-03     21.6395E-03
            4540            4744     21.6304E-03     21.6395E-03
            4540            4745     19.2061E-03     19.3799E-03
            4559            4745     19.2061E-03     19.3799E-03
            4558            4745     19.2061E-03     19.3799E-03
            4541            4745     19.2061E-03     19.3799E-03
            4560            4746     17.3757E-03     17.9402E-03
            4542            4746     17.3757E-03     17.9402E-03
            4541            4746     17.3757E-03     17.9402E-03
            4559            4746     17.3757E-03     17.9402E-03
            4561            4747     16.1000E-03     17.6657E-03
            4560            4747     16.1000E-03     17.6657E-03
            4542            4747     16.1000E-03     17.6657E-03
            4543            4747     16.1000E-03     17.6657E-03
            4561            4748     16.1847E-03     18.7963E-03
            4544            4748     16.1847E-03     18.7963E-03
            4562            4748     16.1847E-03     18.7963E-03
            4543            4748     16.1847E-03     18.7963E-03
            4564            4749     56.8919E-03     57.9158E-03
            4546            4749     56.8919E-03     57.9158E-03
            4545            4749     56.8919E-03     57.9158E-03
            4563            4749     56.8919E-03     57.9158E-03
            4547            4750     51.5666E-03     51.5091E-03
            4565            4750     51.5666E-03     51.5091E-03
            4546            4750     51.5666E-03     51.5091E-03
            4564            4750     51.5666E-03     51.5091E-03
            4547            4751     47.6671E-03     47.5417E-03
            4548            4751     47.6671E-03     47.5417E-03
            4565            4751     47.6671E-03     47.5417E-03
            4566            4751     47.6671E-03     47.5417E-03
            4567            4752     43.9484E-03     43.9790E-03
            4549            4752     43.9484E-03     43.9790E-03
            4566            4752     43.9484E-03     43.9790E-03
            4548            4752     43.9484E-03     43.9790E-03
            4567            4753     40.4641E-03     40.6255E-03
            4549            4753     40.4641E-03     40.6255E-03
            4568            4753     40.4641E-03     40.6255E-03
            4550            4753     40.4641E-03     40.6255E-03
            4550            4754     37.0174E-03     37.3571E-03
            4569            4754     37.0174E-03     37.3571E-03
            4568            4754     37.0174E-03     37.3571E-03
            4551            4754     37.0174E-03     37.3571E-03
            4552            4755     33.6432E-03     34.0963E-03
            4569            4755     33.6432E-03     34.0963E-03
            4570            4755     33.6432E-03     34.0963E-03
            4551            4755     33.6432E-03     34.0963E-03
            4552            4756     30.2845E-03     30.8526E-03
            4570            4756     30.2845E-03     30.8526E-03
            4571            4756     30.2845E-03     30.8526E-03
            4553            4756     30.2845E-03     30.8526E-03
            4553            4757     26.9820E-03     27.6146E-03
            4572            4757     26.9820E-03     27.6146E-03
            4554            4757     26.9820E-03     27.6146E-03
            4571            4757     26.9820E-03     27.6146E-03
            4572            4758     23.7262E-03     24.4090E-03
            4573            4758     23.7262E-03     24.4090E-03
            4554            4758     23.7262E-03     24.4090E-03
            4555            4758     23.7262E-03     24.4090E-03
            4573            4759     20.5751E-03     21.2681E-03
            4556            4759     20.5751E-03     21.2681E-03
            4555            4759     20.5751E-03     21.2681E-03
            4574            4759     20.5751E-03     21.2681E-03
            4557            4760     17.5701E-03     18.2419E-03
            4575            4760     17.5701E-03     18.2419E-03
            4574            4760     17.5701E-03     18.2419E-03
            4556            4760     17.5701E-03     18.2419E-03
            4575            4761     14.8367E-03     15.4179E-03
            4576            4761     14.8367E-03     15.4179E-03
            4558            4761     14.8367E-03     15.4179E-03
            4557            4761     14.8367E-03     15.4179E-03
            4558            4762     12.7328E-03     13.0808E-03
            4576            4762     12.7328E-03     13.0808E-03
            4577            4762     12.7328E-03     13.0808E-03
            4559            4762     12.7328E-03     13.0808E-03
            4560            4763     11.8333E-03     11.8181E-03
            4559            4763     11.8333E-03     11.8181E-03
            4577            4763     11.8333E-03     11.8181E-03
            4578            4763     11.8333E-03     11.8181E-03
            4579            4764     12.2091E-03     12.3626E-03
            4561            4764     12.2091E-03     12.3626E-03
            4578            4764     12.2091E-03     12.3626E-03
            4560            4764     12.2091E-03     12.3626E-03
            4579            4765     13.8586E-03     15.8383E-03
            4562            4765     13.8586E-03     15.8383E-03
            4580            4765     13.8586E-03     15.8383E-03
            4561            4765     13.8586E-03     15.8383E-03
            4582            4766     58.5552E-03     59.5609E-03
            4564            4766     58.5552E-03     59.5609E-03
            4563            4766     58.5552E-03     59.5609E-03
            4581            4766     58.5552E-03     59.5609E-03
            4582            4767     48.9961E-03     50.3696E-03
            4565            4767     48.9961E-03     50.3696E-03
            4564            4767     48.9961E-03     50.3696E-03
            4583            4767     48.9961E-03     50.3696E-03
            4565            4768     42.4249E-03     43.7325E-03
            4566            4768     42.4249E-03     43.7325E-03
            4584            4768     42.4249E-03     43.7325E-03
            4583            4768     42.4249E-03     43.7325E-03
            4566            4769     37.5367E-03     38.8105E-03
            4585            4769     37.5367E-03     38.8105E-03
            4567            4769     37.5367E-03     38.8105E-03
            4584            4769     37.5367E-03     38.8105E-03
            4585            4770     33.2648E-03     34.5818E-03
            4568            4770     33.2648E-03     34.5818E-03
            4567            4770     33.2648E-03     34.5818E-03
            4586            4770     33.2648E-03     34.5818E-03
            4587            4771     29.5005E-03     30.8678E-03
            4568            4771     29.5005E-03     30.8678E-03
            4586            4771     29.5005E-03     30.8678E-03
            4569            4771     29.5005E-03     30.8678E-03
            4570            4772     25.9782E-03     27.3999E-03
            4569            4772     25.9782E-03     27.3999E-03
            4587            4772     25.9782E-03     27.3999E-03
            4588            4772     25.9782E-03     27.3999E-03
            4571            4773     22.6487E-03     24.1148E-03
            4588            4773     22.6487E-03     24.1148E-03
            4570            4773     22.6487E-03     24.1148E-03
            4589            4773     22.6487E-03     24.1148E-03
            4590            4774     19.4276E-03     20.9177E-03
            4589            4774     19.4276E-03     20.9177E-03
            4571            4774     19.4276E-03     20.9177E-03
            4572            4774     19.4276E-03     20.9177E-03
            4573            4775     16.2974E-03     17.7893E-03
            4590            4775     16.2974E-03     17.7893E-03
            4572            4775     16.2974E-03     17.7893E-03
            4591            4775     16.2974E-03     17.7893E-03
            4592            4776     13.2533E-03     14.7047E-03
            4591            4776     13.2533E-03     14.7047E-03
            4574            4776     13.2533E-03     14.7047E-03
            4573            4776     13.2533E-03     14.7047E-03
            4575            4777     10.3383E-03     11.6869E-03
            4574            4777     10.3383E-03     11.6869E-03
            4592            4777     10.3383E-03     11.6869E-03
            4593            4777     10.3383E-03     11.6869E-03
            4575            4778     7.71970E-03     8.82092E-03
            4594            4778     7.71970E-03     8.82092E-03
            4593            4778     7.71970E-03     8.82092E-03
            4576            4778     7.71970E-03     8.82092E-03
            4594            4779     5.98460E-03     6.50525E-03
            4595            4779     5.98460E-03     6.50525E-03
            4576            4779     5.98460E-03     6.50525E-03
            4577            4779     5.98460E-03     6.50525E-03
            4577            4780     5.97849E-03     5.62532E-03
            4595            4780     5.97849E-03     5.62532E-03
            4578            4780     5.97849E-03     5.62532E-03
            4596            4780     5.97849E-03     5.62532E-03
            4579            4781     8.43698E-03     7.45797E-03
            4578            4781     8.43698E-03     7.45797E-03
            4597            4781     8.43698E-03     7.45797E-03
            4596            4781     8.43698E-03     7.45797E-03
            4598            4782     12.7004E-03     11.5576E-03
            4580            4782     12.7004E-03     11.5576E-03
            4579            4782     12.7004E-03     11.5576E-03
            4597            4782     12.7004E-03     11.5576E-03
            4600            4783     57.9651E-03     58.0733E-03
            4581            4783     57.9651E-03     58.0733E-03
            4599            4783     57.9651E-03     58.0733E-03
            4582            4783     57.9651E-03     58.0733E-03
            4583            4784     50.8162E-03     51.5113E-03
            4600            4784     50.8162E-03     51.5113E-03
            4601            4784     50.8162E-03     51.5113E-03
            4582            4784     50.8162E-03     51.5113E-03
            4584            4785     43.9588E-03     45.1011E-03
            4602            4785     43.9588E-03     45.1011E-03
            4601            4785     43.9588E-03     45.1011E-03
            4583            4785     43.9588E-03     45.1011E-03
            4602            4786     38.8155E-03     40.0766E-03
            4603            4786     38.8155E-03     40.0766E-03
            4584            4786     38.8155E-03     40.0766E-03
            4585            4786     38.8155E-03     40.0766E-03
            4585            4787     34.4839E-03     35.7641E-03
            4586            4787     34.4839E-03     35.7641E-03
            4603            4787     34.4839E-03     35.7641E-03
            4604            4787     34.4839E-03     35.7641E-03
            4604            4788     30.6005E-03     31.9226E-03
            4587            4788     30.6005E-03     31.9226E-03
            4586            4788     30.6005E-03     31.9226E-03
            4605            4788     30.6005E-03     31.9226E-03
            4588            4789     27.0452E-03     28.3712E-03
            4605            4789     27.0452E-03     28.3712E-03
            4606            4789     27.0452E-03     28.3712E-03
            4587            4789     27.0452E-03     28.3712E-03
            4589            4790     23.6654E-03     24.9995E-03
            4607            4790     23.6654E-03     24.9995E-03
            4588            4790     23.6654E-03     24.9995E-03
            4606            4790     23.6654E-03     24.9995E-03
            4589            4791     20.4338E-03     21.7534E-03
            4590            4791     20.4338E-03     21.7534E-03
            4607            4791     20.4338E-03     21.7534E-03
            4608            4791     20.4338E-03     21.7534E-03
            4608            4792     17.3068E-03     18.5932E-03
            4609            4792     17.3068E-03     18.5932E-03
            4591            4792     17.3068E-03     18.5932E-03
            4590            4792     17.3068E-03     18.5932E-03
            4610            4793     14.3102E-03     15.5247E-03
            4592            4793     14.3102E-03     15.5247E-03
            4591            4793     14.3102E-03     15.5247E-03
            4609            4793     14.3102E-03     15.5247E-03
            4611            4794     11.4936E-03     12.5675E-03
            4610            4794     11.4936E-03     12.5675E-03
            4592            4794     11.4936E-03     12.5675E-03
            4593            4794     11.4936E-03     12.5675E-03
            4611            4795     9.08100E-03     9.87042E-03
            4612            4795     9.08100E-03     9.87042E-03
            4594            4795     9.08100E-03     9.87042E-03
            4593            4795     9.08100E-03     9.87042E-03
            4594            4796     7.46539E-03     7.73031E-03
            4612            4796     7.46539E-03     7.73031E-03
            4613            4796     7.46539E-03     7.73031E-03
            4595            4796     7.46539E-03     7.73031E-03
            4614            4797     7.46001E-03     6.99738E-03
            4613            4797     7.46001E-03     6.99738E-03
            4596            4797     7.46001E-03     6.99738E-03
            4595            4797     7.46001E-03     6.99738E-03
            4615            4798     9.32304E-03     8.27181E-03
            4597            4798     9.32304E-03     8.27181E-03
            4614            4798     9.32304E-03     8.27181E-03
            4596            4798     9.32304E-03     8.27181E-03
            4615            4799     11.8109E-03     10.5215E-03
            4597            4799     11.8109E-03     10.5215E-03
            4598            4799     11.8109E-03     10.5215E-03
            4616            4799     11.8109E-03     10.5215E-03
            4617            4800     55.2321E-03     56.1408E-03
            4599            4800     55.2321E-03     56.1408E-03
            4600            4800     55.2321E-03     56.1408E-03
            4618            4800     55.2321E-03     56.1408E-03
            4619            4801     50.2097E-03     50.9561E-03
            4618            4801     50.2097E-03     50.9561E-03
            4600            4801     50.2097E-03     50.9561E-03
            4601            4801     50.2097E-03     50.9561E-03
            4601            4802     44.7781E-03     45.6935E-03
            4620            4802     44.7781E-03     45.6935E-03
            4602            4802     44.7781E-03     45.6935E-03
            4619            4802     44.7781E-03     45.6935E-03
            4602            4803     39.7265E-03     40.8793E-03
            4620            4803     39.7265E-03     40.8793E-03
            4621            4803     39.7265E-03     40.8793E-03
            4603            4803     39.7265E-03     40.8793E-03
            4622            4804     35.4700E-03     36.6878E-03
            4604            4804     35.4700E-03     36.6878E-03
            4621            4804     35.4700E-03     36.6878E-03
            4603            4804     35.4700E-03     36.6878E-03
            4604            4805     31.6073E-03     32.8343E-03
            4623            4805     31.6073E-03     32.8343E-03
            4622            4805     31.6073E-03     32.8343E-03
            4605            4805     31.6073E-03     32.8343E-03
            4605            4806     28.0232E-03     29.2516E-03
            4624            4806     28.0232E-03     29.2516E-03
            4606            4806     28.0232E-03     29.2516E-03
            4623            4806     28.0232E-03     29.2516E-03
            4606            4807     24.6373E-03     25.8356E-03
            4607            4807     24.6373E-03     25.8356E-03
            4625            4807     24.6373E-03     25.8356E-03
            4624            4807     24.6373E-03     25.8356E-03
            4607            4808     21.3855E-03     22.5515E-03
            4608            4808     21.3855E-03     22.5515E-03
            4625            4808     21.3855E-03     22.5515E-03
            4626            4808     21.3855E-03     22.5515E-03
            4608            4809     18.2724E-03     19.3800E-03
            4627            4809     18.2724E-03     19.3800E-03
            4626            4809     18.2724E-03     19.3800E-03
            4609            4809     18.2724E-03     19.3800E-03
            4628            4810     15.3008E-03     16.3215E-03
            4610            4810     15.3008E-03     16.3215E-03
            4609            4810     15.3008E-03     16.3215E-03
            4627            4810     15.3008E-03     16.3215E-03
            4629            4811     12.5717E-03     13.4360E-03
            4628            4811     12.5717E-03     13.4360E-03
            4610            4811     12.5717E-03     13.4360E-03
            4611            4811     12.5717E-03     13.4360E-03
            4630            4812     10.2246E-03     10.8171E-03
            4629            4812     10.2246E-03     10.8171E-03
            4612            4812     10.2246E-03     10.8171E-03
            4611            4812     10.2246E-03     10.8171E-03
            4630            4813     8.67135E-03     8.79159E-03
            4612            4813     8.67135E-03     8.79159E-03
            4631            4813     8.67135E-03     8.79159E-03
            4613            4813     8.67135E-03     8.79159E-03
            4614            4814     8.36853E-03     7.86849E-03
            4631            4814     8.36853E-03     7.86849E-03
            4632            4814     8.36853E-03     7.86849E-03
            4613            4814     8.36853E-03     7.86849E-03
            4633            4815     9.24370E-03     8.25122E-03
            4615            4815     9.24370E-03     8.25122E-03
            4614            4815     9.24370E-03     8.25122E-03
            4632            4815     9.24370E-03     8.25122E-03
            4634            4816     10.9324E-03     9.74308E-03
            4633            4816     10.9324E-03     9.74308E-03
            4615            4816     10.9324E-03     9.74308E-03
            4616            4816     10.9324E-03     9.74308E-03
            4635            4817     52.8399E-03     53.3837E-03
            4618            4817     52.8399E-03     53.3837E-03
            4617            4817     52.8399E-03     53.3837E-03
            4636            4817     52.8399E-03     53.3837E-03
            4618            4818     48.5816E-03     49.4644E-03
            4637            4818     48.5816E-03     49.4644E-03
            4636            4818     48.5816E-03     49.4644E-03
            4619            4818     48.5816E-03     49.4644E-03
            4619            4819     44.3324E-03     45.2846E-03
            4637            4819     44.3324E-03     45.2846E-03
            4620            4819     44.3324E-03     45.2846E-03
            4638            4819     44.3324E-03     45.2846E-03
            4621            4820     40.0962E-03     41.1254E-03
            4639            4820     40.0962E-03     41.1254E-03
            4620            4820     40.0962E-03     41.1254E-03
            4638            4820     40.0962E-03     41.1254E-03
            4639            4821     36.0521E-03     37.1780E-03
            4621            4821     36.0521E-03     37.1780E-03
            4622            4821     36.0521E-03     37.1780E-03
            4640            4821     36.0521E-03     37.1780E-03
            4640            4822     32.3473E-03     33.4718E-03
            4623            4822     32.3473E-03     33.4718E-03
            4622            4822     32.3473E-03     33.4718E-03
            4641            4822     32.3473E-03     33.4718E-03
            4642            4823     28.8187E-03     29.9184E-03
            4623            4823     28.8187E-03     29.9184E-03
            4624            4823     28.8187E-03     29.9184E-03
            4641            4823     28.8187E-03     29.9184E-03
            4625            4824     25.4512E-03     26.5133E-03
            4624            4824     25.4512E-03     26.5133E-03
            4643            4824     25.4512E-03     26.5133E-03
            4642            4824     25.4512E-03     26.5133E-03
            4644            4825     22.2163E-03     23.2245E-03
            4625            4825     22.2163E-03     23.2245E-03
            4643            4825     22.2163E-03     23.2245E-03
            4626            4825     22.2163E-03     23.2245E-03
            4644            4826     19.1107E-03     20.0578E-03
            4627            4826     19.1107E-03     20.0578E-03
            4626            4826     19.1107E-03     20.0578E-03
            4645            4826     19.1107E-03     20.0578E-03
            4645            4827     16.1828E-03     17.0367E-03
            4627            4827     16.1828E-03     17.0367E-03
            4646            4827     16.1828E-03     17.0367E-03
            4628            4827     16.1828E-03     17.0367E-03
            4646            4828     13.4898E-03     14.2016E-03
            4629            4828     13.4898E-03     14.2016E-03
            4647            4828     13.4898E-03     14.2016E-03
            4628            4828     13.4898E-03     14.2016E-03
            4647            4829     11.2144E-03     11.6775E-03
            4629            4829     11.2144E-03     11.6775E-03
            4630            4829     11.2144E-03     11.6775E-03
            4648            4829     11.2144E-03     11.6775E-03
            4649            4830     9.60898E-03     9.67098E-03
            4630            4830     9.60898E-03     9.67098E-03
            4648            4830     9.60898E-03     9.67098E-03
            4631            4830     9.60898E-03     9.67098E-03
            4632            4831     8.91990E-03     8.47588E-03
            4649            4831     8.91990E-03     8.47588E-03
            4631            4831     8.91990E-03     8.47588E-03
            4650            4831     8.91990E-03     8.47588E-03
            4650            4832     9.34281E-03     8.44086E-03
            4632            4832     9.34281E-03     8.44086E-03
            4651            4832     9.34281E-03     8.44086E-03
            4633            4832     9.34281E-03     8.44086E-03
            4651            4833     10.6858E-03     9.51922E-03
            4633            4833     10.6858E-03     9.51922E-03
            4652            4833     10.6858E-03     9.51922E-03
            4634            4833     10.6858E-03     9.51922E-03
            4654            4834     50.2209E-03     50.8654E-03
            4635            4834     50.2209E-03     50.8654E-03
            4636            4834     50.2209E-03     50.8654E-03
            4653            4834     50.2209E-03     50.8654E-03
            4654            4835     46.8440E-03     47.5773E-03
            4637            4835     46.8440E-03     47.5773E-03
            4636            4835     46.8440E-03     47.5773E-03
            4655            4835     46.8440E-03     47.5773E-03
            4656            4836     43.3151E-03     44.2494E-03
            4655            4836     43.3151E-03     44.2494E-03
            4637            4836     43.3151E-03     44.2494E-03
            4638            4836     43.3151E-03     44.2494E-03
            4638            4837     39.7740E-03     40.7776E-03
            4639            4837     39.7740E-03     40.7776E-03
            4657            4837     39.7740E-03     40.7776E-03
            4656            4837     39.7740E-03     40.7776E-03
            4658            4838     36.2377E-03     37.2436E-03
            4639            4838     36.2377E-03     37.2436E-03
            4640            4838     36.2377E-03     37.2436E-03
            4657            4838     36.2377E-03     37.2436E-03
            4659            4839     32.7359E-03     33.7408E-03
            4641            4839     32.7359E-03     33.7408E-03
            4640            4839     32.7359E-03     33.7408E-03
            4658            4839     32.7359E-03     33.7408E-03
            4660            4840     29.3565E-03     30.3110E-03
            4641            4840     29.3565E-03     30.3110E-03
            4642            4840     29.3565E-03     30.3110E-03
            4659            4840     29.3565E-03     30.3110E-03
            4642            4841     26.0543E-03     26.9573E-03
            4660            4841     26.0543E-03     26.9573E-03
            4661            4841     26.0543E-03     26.9573E-03
            4643            4841     26.0543E-03     26.9573E-03
            4661            4842     22.8622E-03     23.7093E-03
            4662            4842     22.8622E-03     23.7093E-03
            4643            4842     22.8622E-03     23.7093E-03
            4644            4842     22.8622E-03     23.7093E-03
            4644            4843     19.7996E-03     20.5833E-03
            4645            4843     19.7996E-03     20.5833E-03
            4663            4843     19.7996E-03     20.5833E-03
            4662            4843     19.7996E-03     20.5833E-03
            4663            4844     16.9082E-03     17.6166E-03
            4664            4844     16.9082E-03     17.6166E-03
            4645            4844     16.9082E-03     17.6166E-03
            4646            4844     16.9082E-03     17.6166E-03
            4665            4845     14.2829E-03     14.8702E-03
            4647            4845     14.2829E-03     14.8702E-03
            4646            4845     14.2829E-03     14.8702E-03
            4664            4845     14.2829E-03     14.8702E-03
            4648            4846     12.0519E-03     12.4390E-03
            4666            4846     12.0519E-03     12.4390E-03
            4647            4846     12.0519E-03     12.4390E-03
            4665            4846     12.0519E-03     12.4390E-03
            4648            4847     10.4035E-03     10.4691E-03
            4667            4847     10.4035E-03     10.4691E-03
            4649            4847     10.4035E-03     10.4691E-03
            4666            4847     10.4035E-03     10.4691E-03
            4667            4848     9.59336E-03     9.21864E-03
            4650            4848     9.59336E-03     9.21864E-03
            4649            4848     9.59336E-03     9.21864E-03
            4668            4848     9.59336E-03     9.21864E-03
            4668            4849     9.71375E-03     8.90695E-03
            4669            4849     9.71375E-03     8.90695E-03
            4650            4849     9.71375E-03     8.90695E-03
            4651            4849     9.71375E-03     8.90695E-03
            4669            4850     10.6677E-03     9.57596E-03
            4651            4850     10.6677E-03     9.57596E-03
            4652            4850     10.6677E-03     9.57596E-03
            4670            4850     10.6677E-03     9.57596E-03
            4654            4851     47.7094E-03     48.2095E-03
            4653            4851     47.7094E-03     48.2095E-03
            4672            4851     47.7094E-03     48.2095E-03
            4671            4851     47.7094E-03     48.2095E-03
            4673            4852     44.8492E-03     45.6141E-03
            4672            4852     44.8492E-03     45.6141E-03
            4655            4852     44.8492E-03     45.6141E-03
            4654            4852     44.8492E-03     45.6141E-03
            4656            4853     42.0475E-03     42.9067E-03
            4673            4853     42.0475E-03     42.9067E-03
            4655            4853     42.0475E-03     42.9067E-03
            4674            4853     42.0475E-03     42.9067E-03
            4675            4854     39.0795E-03     40.0027E-03
            4656            4854     39.0795E-03     40.0027E-03
            4674            4854     39.0795E-03     40.0027E-03
            4657            4854     39.0795E-03     40.0027E-03
            4658            4855     35.9850E-03     36.8932E-03
            4676            4855     35.9850E-03     36.8932E-03
            4675            4855     35.9850E-03     36.8932E-03
            4657            4855     35.9850E-03     36.8932E-03
            4659            4856     32.8143E-03     33.6548E-03
            4658            4856     32.8143E-03     33.6548E-03
            4677            4856     32.8143E-03     33.6548E-03
            4676            4856     32.8143E-03     33.6548E-03
            4659            4857     29.5969E-03     30.3839E-03
            4677            4857     29.5969E-03     30.3839E-03
            4678            4857     29.5969E-03     30.3839E-03
            4660            4857     29.5969E-03     30.3839E-03
            4678            4858     26.4233E-03     27.1430E-03
            4661            4858     26.4233E-03     27.1430E-03
            4679            4858     26.4233E-03     27.1430E-03
            4660            4858     26.4233E-03     27.1430E-03
            4679            4859     23.3102E-03     23.9765E-03
            4661            4859     23.3102E-03     23.9765E-03
            4662            4859     23.3102E-03     23.9765E-03
            4680            4859     23.3102E-03     23.9765E-03
            4662            4860     20.3180E-03     20.9335E-03
            4681            4860     20.3180E-03     20.9335E-03
            4680            4860     20.3180E-03     20.9335E-03
            4663            4860     20.3180E-03     20.9335E-03
            4682            4861     17.5018E-03     18.0622E-03
            4681            4861     17.5018E-03     18.0622E-03
            4663            4861     17.5018E-03     18.0622E-03
            4664            4861     17.5018E-03     18.0622E-03
            4665            4862     14.9506E-03     15.4350E-03
            4683            4862     14.9506E-03     15.4350E-03
            4682            4862     14.9506E-03     15.4350E-03
            4664            4862     14.9506E-03     15.4350E-03
            4665            4863     12.7912E-03     13.1343E-03
            4683            4863     12.7912E-03     13.1343E-03
            4666            4863     12.7912E-03     13.1343E-03
            4684            4863     12.7912E-03     13.1343E-03
            4684            4864     11.2016E-03     11.2948E-03
            4685            4864     11.2016E-03     11.2948E-03
            4666            4864     11.2016E-03     11.2948E-03
            4667            4864     11.2016E-03     11.2948E-03
            4686            4865     10.3266E-03     10.0539E-03
            4668            4865     10.3266E-03     10.0539E-03
            4667            4865     10.3266E-03     10.0539E-03
            4685            4865     10.3266E-03     10.0539E-03
            4686            4866     10.2320E-03     9.55032E-03
            4669            4866     10.2320E-03     9.55032E-03
            4668            4866     10.2320E-03     9.55032E-03
            4687            4866     10.2320E-03     9.55032E-03
            4669            4867     10.8938E-03     9.89871E-03
            4687            4867     10.8938E-03     9.89871E-03
            4670            4867     10.8938E-03     9.89871E-03
            4688            4867     10.8938E-03     9.89871E-03
            4689            4868     44.9935E-03     45.4959E-03
            4690            4868     44.9935E-03     45.4959E-03
            4671            4868     44.9935E-03     45.4959E-03
            4672            4868     44.9935E-03     45.4959E-03
            4672            4869     42.7993E-03     43.4821E-03
            4690            4869     42.7993E-03     43.4821E-03
            4673            4869     42.7993E-03     43.4821E-03
            4691            4869     42.7993E-03     43.4821E-03
            4674            4870     40.5461E-03     41.3766E-03
            4673            4870     40.5461E-03     41.3766E-03
            4692            4870     40.5461E-03     41.3766E-03
            4691            4870     40.5461E-03     41.3766E-03
            4675            4871     38.1271E-03     38.9361E-03
            4693            4871     38.1271E-03     38.9361E-03
            4692            4871     38.1271E-03     38.9361E-03
            4674            4871     38.1271E-03     38.9361E-03
            4676            4872     35.4492E-03     36.1853E-03
            4693            4872     35.4492E-03     36.1853E-03
            4675            4872     35.4492E-03     36.1853E-03
            4694            4872     35.4492E-03     36.1853E-03
            4694            4873     32.5650E-03     33.2214E-03
            4677            4873     32.5650E-03     33.2214E-03
            4676            4873     32.5650E-03     33.2214E-03
            4695            4873     32.5650E-03     33.2214E-03
            4696            4874     29.5782E-03     30.1480E-03
            4678            4874     29.5782E-03     30.1480E-03
            4677            4874     29.5782E-03     30.1480E-03
            4695            4874     29.5782E-03     30.1480E-03
            4678            4875     26.5500E-03     27.0629E-03
            4696            4875     26.5500E-03     27.0629E-03
            4679            4875     26.5500E-03     27.0629E-03
            4697            4875     26.5500E-03     27.0629E-03
            4697            4876     23.5711E-03     24.0335E-03
            4679            4876     23.5711E-03     24.0335E-03
            4698            4876     23.5711E-03     24.0335E-03
            4680            4876     23.5711E-03     24.0335E-03
            4680            4877     20.6881E-03     21.1189E-03
            4681            4877     20.6881E-03     21.1189E-03
            4699            4877     20.6881E-03     21.1189E-03
            4698            4877     20.6881E-03     21.1189E-03
            4700            4878     17.9827E-03     18.3883E-03
            4681            4878     17.9827E-03     18.3883E-03
            4699            4878     17.9827E-03     18.3883E-03
            4682            4878     17.9827E-03     18.3883E-03
            4682            4879     15.5349E-03     15.9135E-03
            4683            4879     15.5349E-03     15.9135E-03
            4701            4879     15.5349E-03     15.9135E-03
            4700            4879     15.5349E-03     15.9135E-03
            4702            4880     13.4817E-03     13.8009E-03
            4684            4880     13.4817E-03     13.8009E-03
            4701            4880     13.4817E-03     13.8009E-03
            4683            4880     13.4817E-03     13.8009E-03
            4684            4881     11.9683E-03     12.1240E-03
            4703            4881     11.9683E-03     12.1240E-03
            4702            4881     11.9683E-03     12.1240E-03
            4685            4881     11.9683E-03     12.1240E-03
            4704            4882     11.0986E-03     10.9661E-03
            4686            4882     11.0986E-03     10.9661E-03
            4685            4882     11.0986E-03     10.9661E-03
            4703            4882     11.0986E-03     10.9661E-03
            4687            4883     10.9051E-03     10.3903E-03
            4704            4883     10.9051E-03     10.3903E-03
            4686            4883     10.9051E-03     10.3903E-03
            4705            4883     10.9051E-03     10.3903E-03
            4706            4884     11.2832E-03     10.4023E-03
            4705            4884     11.2832E-03     10.4023E-03
            4688            4884     11.2832E-03     10.4023E-03
            4687            4884     11.2832E-03     10.4023E-03
            4708            4885     42.1970E-03     42.6066E-03
            4690            4885     42.1970E-03     42.6066E-03
            4707            4885     42.1970E-03     42.6066E-03
            4689            4885     42.1970E-03     42.6066E-03
            4690            4886     40.5507E-03     41.2427E-03
            4709            4886     40.5507E-03     41.2427E-03
            4691            4886     40.5507E-03     41.2427E-03
            4708            4886     40.5507E-03     41.2427E-03
            4710            4887     38.9193E-03     39.6266E-03
            4692            4887     38.9193E-03     39.6266E-03
            4691            4887     38.9193E-03     39.6266E-03
            4709            4887     38.9193E-03     39.6266E-03
            4711            4888     36.9717E-03     37.5934E-03
            4692            4888     36.9717E-03     37.5934E-03
            4693            4888     36.9717E-03     37.5934E-03
            4710            4888     36.9717E-03     37.5934E-03
            4712            4889     34.6580E-03     35.1590E-03
            4693            4889     34.6580E-03     35.1590E-03
            4694            4889     34.6580E-03     35.1590E-03
            4711            4889     34.6580E-03     35.1590E-03
            4713            4890     32.0625E-03     32.4571E-03
            4712            4890     32.0625E-03     32.4571E-03
            4695            4890     32.0625E-03     32.4571E-03
            4694            4890     32.0625E-03     32.4571E-03
            4696            4891     29.2990E-03     29.6238E-03
            4714            4891     29.2990E-03     29.6238E-03
            4713            4891     29.2990E-03     29.6238E-03
            4695            4891     29.2990E-03     29.6238E-03
            4696            4892     26.4786E-03     26.7479E-03
            4715            4892     26.4786E-03     26.7479E-03
            4714            4892     26.4786E-03     26.7479E-03
            4697            4892     26.4786E-03     26.7479E-03
            4698            4893     23.6683E-03     23.9113E-03
            4697            4893     23.6683E-03     23.9113E-03
            4715            4893     23.6683E-03     23.9113E-03
            4716            4893     23.6683E-03     23.9113E-03
            4698            4894     20.9544E-03     21.1828E-03
            4716            4894     20.9544E-03     21.1828E-03
            4717            4894     20.9544E-03     21.1828E-03
            4699            4894     20.9544E-03     21.1828E-03
            4700            4895     18.3954E-03     18.6327E-03
            4699            4895     18.3954E-03     18.6327E-03
            4717            4895     18.3954E-03     18.6327E-03
            4718            4895     18.3954E-03     18.6327E-03
            4718            4896     16.0958E-03     16.3526E-03
            4701            4896     16.0958E-03     16.3526E-03
            4700            4896     16.0958E-03     16.3526E-03
            4719            4896     16.0958E-03     16.3526E-03
            4720            4897     14.1467E-03     14.4325E-03
            4701            4897     14.1467E-03     14.4325E-03
            4702            4897     14.1467E-03     14.4325E-03
            4719            4897     14.1467E-03     14.4325E-03
            4702            4898     12.7064E-03     12.9762E-03
            4721            4898     12.7064E-03     12.9762E-03
            4720            4898     12.7064E-03     12.9762E-03
            4703            4898     12.7064E-03     12.9762E-03
            4703            4899     11.9055E-03     11.9614E-03
            4722            4899     11.9055E-03     11.9614E-03
            4721            4899     11.9055E-03     11.9614E-03
            4704            4899     11.9055E-03     11.9614E-03
            4723            4900     11.6347E-03     11.3418E-03
            4704            4900     11.6347E-03     11.3418E-03
            4705            4900     11.6347E-03     11.3418E-03
            4722            4900     11.6347E-03     11.3418E-03
            4723            4901     11.8120E-03     11.1471E-03
            4724            4901     11.8120E-03     11.1471E-03
            4705            4901     11.8120E-03     11.1471E-03
            4706            4901     11.8120E-03     11.1471E-03
            4726            4902     39.1299E-03     39.5582E-03
            4708            4902     39.1299E-03     39.5582E-03
            4707            4902     39.1299E-03     39.5582E-03
            4725            4902     39.1299E-03     39.5582E-03
            4708            4903     38.1770E-03     38.7354E-03
            4709            4903     38.1770E-03     38.7354E-03
            4726            4903     38.1770E-03     38.7354E-03
            4727            4903     38.1770E-03     38.7354E-03
            4728            4904     37.1638E-03     37.6225E-03
            4709            4904     37.1638E-03     37.6225E-03
            4727            4904     37.1638E-03     37.6225E-03
            4710            4904     37.1638E-03     37.6225E-03
            4728            4905     35.6388E-03     35.9253E-03
            4710            4905     35.6388E-03     35.9253E-03
            4711            4905     35.6388E-03     35.9253E-03
            4729            4905     35.6388E-03     35.9253E-03
            4711            4906     33.6311E-03     33.7914E-03
            4729            4906     33.6311E-03     33.7914E-03
            4730            4906     33.6311E-03     33.7914E-03
            4712            4906     33.6311E-03     33.7914E-03
            4731            4907     31.3162E-03     31.3968E-03
            4730            4907     31.3162E-03     31.3968E-03
            4713            4907     31.3162E-03     31.3968E-03
            4712            4907     31.3162E-03     31.3968E-03
            4713            4908     28.8189E-03     28.8528E-03
            4732            4908     28.8189E-03     28.8528E-03
            4714            4908     28.8189E-03     28.8528E-03
            4731            4908     28.8189E-03     28.8528E-03
            4714            4909     26.2410E-03     26.2566E-03
            4733            4909     26.2410E-03     26.2566E-03
            4715            4909     26.2410E-03     26.2566E-03
            4732            4909     26.2410E-03     26.2566E-03
            4716            4910     23.6709E-03     23.6804E-03
            4715            4910     23.6709E-03     23.6804E-03
            4734            4910     23.6709E-03     23.6804E-03
            4733            4910     23.6709E-03     23.6804E-03
            4734            4911     21.1699E-03     21.1949E-03
            4716            4911     21.1699E-03     21.1949E-03
            4717            4911     21.1699E-03     21.1949E-03
            4735            4911     21.1699E-03     21.1949E-03
            4736            4912     18.8213E-03     18.8752E-03
            4718            4912     18.8213E-03     18.8752E-03
            4735            4912     18.8213E-03     18.8752E-03
            4717            4912     18.8213E-03     18.8752E-03
            4719            4913     16.6854E-03     16.8041E-03
            4718            4913     16.6854E-03     16.8041E-03
            4737            4913     16.6854E-03     16.8041E-03
            4736            4913     16.6854E-03     16.8041E-03
            4719            4914     14.8768E-03     15.0848E-03
            4738            4914     14.8768E-03     15.0848E-03
            4720            4914     14.8768E-03     15.0848E-03
            4737            4914     14.8768E-03     15.0848E-03
            4721            4915     13.4656E-03     13.8114E-03
            4739            4915     13.4656E-03     13.8114E-03
            4738            4915     13.4656E-03     13.8114E-03
            4720            4915     13.4656E-03     13.8114E-03
            4721            4916     12.6143E-03     13.0247E-03
            4722            4916     12.6143E-03     13.0247E-03
            4740            4916     12.6143E-03     13.0247E-03
            4739            4916     12.6143E-03     13.0247E-03
            4740            4917     12.4356E-03     12.4747E-03
            4741            4917     12.4356E-03     12.4747E-03
            4723            4917     12.4356E-03     12.4747E-03
            4722            4917     12.4356E-03     12.4747E-03
            4741            4918     12.4395E-03     11.9876E-03
            4723            4918     12.4395E-03     11.9876E-03
            4742            4918     12.4395E-03     11.9876E-03
            4724            4918     12.4395E-03     11.9876E-03
            4725            4919     35.7660E-03     35.8992E-03
            4726            4919     35.7660E-03     35.8992E-03
            4743            4919     35.7660E-03     35.8992E-03
            4744            4919     35.7660E-03     35.8992E-03
            4745            4920     35.7612E-03     35.8842E-03
            4727            4920     35.7612E-03     35.8842E-03
            4744            4920     35.7612E-03     35.8842E-03
            4726            4920     35.7612E-03     35.8842E-03
            4745            4921     35.2984E-03     35.2076E-03
            4727            4921     35.2984E-03     35.2076E-03
            4746            4921     35.2984E-03     35.2076E-03
            4728            4921     35.2984E-03     35.2076E-03
            4746            4922     34.0726E-03     33.8544E-03
            4728            4922     34.0726E-03     33.8544E-03
            4729            4922     34.0726E-03     33.8544E-03
            4747            4922     34.0726E-03     33.8544E-03
            4747            4923     32.3772E-03     32.1032E-03
            4748            4923     32.3772E-03     32.1032E-03
            4729            4923     32.3772E-03     32.1032E-03
            4730            4923     32.3772E-03     32.1032E-03
            4748            4924     30.3718E-03     30.0935E-03
            4730            4924     30.3718E-03     30.0935E-03
            4749            4924     30.3718E-03     30.0935E-03
            4731            4924     30.3718E-03     30.0935E-03
            4750            4925     28.1938E-03     27.9303E-03
            4749            4925     28.1938E-03     27.9303E-03
            4732            4925     28.1938E-03     27.9303E-03
            4731            4925     28.1938E-03     27.9303E-03
            4732            4926     25.9304E-03     25.6922E-03
            4733            4926     25.9304E-03     25.6922E-03
            4750            4926     25.9304E-03     25.6922E-03
            4751            4926     25.9304E-03     25.6922E-03
            4751            4927     23.6559E-03     23.4508E-03
            4752            4927     23.6559E-03     23.4508E-03
            4734            4927     23.6559E-03     23.4508E-03
            4733            4927     23.6559E-03     23.4508E-03
            4753            4928     21.4395E-03     21.2706E-03
            4752            4928     21.4395E-03     21.2706E-03
            4735            4928     21.4395E-03     21.2706E-03
            4734            4928     21.4395E-03     21.2706E-03
            4753            4929     19.3359E-03     19.2190E-03
            4754            4929     19.3359E-03     19.2190E-03
            4735            4929     19.3359E-03     19.2190E-03
            4736            4929     19.3359E-03     19.2190E-03
            4737            4930     17.4199E-03     17.3754E-03
            4755            4930     17.4199E-03     17.3754E-03
            4754            4930     17.4199E-03     17.3754E-03
            4736            4930     17.4199E-03     17.3754E-03
            4738            4931     15.7411E-03     15.8275E-03
            4755            4931     15.7411E-03     15.8275E-03
            4737            4931     15.7411E-03     15.8275E-03
            4756            4931     15.7411E-03     15.8275E-03
            4739            4932     14.3885E-03     14.6656E-03
            4756            4932     14.3885E-03     14.6656E-03
            4738            4932     14.3885E-03     14.6656E-03
            4757            4932     14.3885E-03     14.6656E-03
            4757            4933     13.3582E-03     13.9928E-03
            4739            4933     13.3582E-03     13.9928E-03
            4740            4933     13.3582E-03     13.9928E-03
            4758            4933     13.3582E-03     13.9928E-03
            4741            4934     12.8751E-03     13.7435E-03
            4740            4934     12.8751E-03     13.7435E-03
            4758            4934     12.8751E-03     13.7435E-03
            4759            4934     12.8751E-03     13.7435E-03
            4741            4935     13.1147E-03     13.2769E-03
            4742            4935     13.1147E-03     13.2769E-03
            4760            4935     13.1147E-03     13.2769E-03
            4759            4935     13.1147E-03     13.2769E-03
            4743            4936     32.4443E-03     31.5037E-03
            4762            4936     32.4443E-03     31.5037E-03
            4744            4936     32.4443E-03     31.5037E-03
            4761            4936     32.4443E-03     31.5037E-03
            4745            4937     33.4146E-03     32.4716E-03
            4763            4937     33.4146E-03     32.4716E-03
            4762            4937     33.4146E-03     32.4716E-03
            4744            4937     33.4146E-03     32.4716E-03
            4745            4938     33.2079E-03     32.2668E-03
            4763            4938     33.2079E-03     32.2668E-03
            4764            4938     33.2079E-03     32.2668E-03
            4746            4938     33.2079E-03     32.2668E-03
            4746            4939     32.2885E-03     31.4387E-03
            4747            4939     32.2885E-03     31.4387E-03
            4765            4939     32.2885E-03     31.4387E-03
            4764            4939     32.2885E-03     31.4387E-03
            4747            4940     30.9445E-03     30.2126E-03
            4765            4940     30.9445E-03     30.2126E-03
            4766            4940     30.9445E-03     30.2126E-03
            4748            4940     30.9445E-03     30.2126E-03
            4748            4941     29.3361E-03     28.7098E-03
            4766            4941     29.3361E-03     28.7098E-03
            4749            4941     29.3361E-03     28.7098E-03
            4767            4941     29.3361E-03     28.7098E-03
            4749            4942     27.5512E-03     27.0219E-03
            4767            4942     27.5512E-03     27.0219E-03
            4768            4942     27.5512E-03     27.0219E-03
            4750            4942     27.5512E-03     27.0219E-03
            4769            4943     25.6736E-03     25.2256E-03
            4750            4943     25.6736E-03     25.2256E-03
            4751            4943     25.6736E-03     25.2256E-03
            4768            4943     25.6736E-03     25.2256E-03
            4770            4944     23.7616E-03     23.3827E-03
            4752            4944     23.7616E-03     23.3827E-03
            4769            4944     23.7616E-03     23.3827E-03
            4751            4944     23.7616E-03     23.3827E-03
            4753            4945     21.8741E-03     21.5556E-03
            4771            4945     21.8741E-03     21.5556E-03
            4770            4945     21.8741E-03     21.5556E-03
            4752            4945     21.8741E-03     21.5556E-03
            4772            4946     20.0640E-03     19.8056E-03
            4771            4946     20.0640E-03     19.8056E-03
            4753            4946     20.0640E-03     19.8056E-03
            4754            4946     20.0640E-03     19.8056E-03
            4755            4947     18.3836E-03     18.1910E-03
            4773            4947     18.3836E-03     18.1910E-03
            4754            4947     18.3836E-03     18.1910E-03
            4772            4947     18.3836E-03     18.1910E-03
            4774            4948     16.8759E-03     16.7862E-03
            4773            4948     16.8759E-03     16.7862E-03
            4756            4948     16.8759E-03     16.7862E-03
            4755            4948     16.8759E-03     16.7862E-03
            4757            4949     15.5759E-03     15.6552E-03
            4774            4949     15.5759E-03     15.6552E-03
            4756            4949     15.5759E-03     15.6552E-03
            4775            4949     15.5759E-03     15.6552E-03
            4757            4950     14.4745E-03     14.8697E-03
            4776            4950     14.4745E-03     14.8697E-03
            4758            4950     14.4745E-03     14.8697E-03
            4775            4950     14.4745E-03     14.8697E-03
            4759            4951     13.4461E-03     14.5857E-03
            4777            4951     13.4461E-03     14.5857E-03
            4758            4951     13.4461E-03     14.5857E-03
            4776            4951     13.4461E-03     14.5857E-03
            4759            4952     12.7432E-03     14.6945E-03
            4777            4952     12.7432E-03     14.6945E-03
            4760            4952     12.7432E-03     14.6945E-03
            4778            4952     12.7432E-03     14.6945E-03
            4762            4953     31.3510E-03     31.8244E-03
            4780            4953     31.3510E-03     31.8244E-03
            4761            4953     31.3510E-03     31.8244E-03
            4779            4953     31.3510E-03     31.8244E-03
            4763            4954     28.7027E-03     28.5822E-03
            4780            4954     28.7027E-03     28.5822E-03
            4762            4954     28.7027E-03     28.5822E-03
            4781            4954     28.7027E-03     28.5822E-03
            4763            4955     26.8517E-03     26.7098E-03
            4764            4955     26.8517E-03     26.7098E-03
            4781            4955     26.8517E-03     26.7098E-03
            4782            4955     26.8517E-03     26.7098E-03
            4782            4956     25.1308E-03     25.0884E-03
            4783            4956     25.1308E-03     25.0884E-03
            4764            4956     25.1308E-03     25.0884E-03
            4765            4956     25.1308E-03     25.0884E-03
            4784            4957     23.5337E-03     23.5764E-03
            4766            4957     23.5337E-03     23.5764E-03
            4783            4957     23.5337E-03     23.5764E-03
            4765            4957     23.5337E-03     23.5764E-03
            4785            4958     21.9650E-03     22.1045E-03
            4784            4958     21.9650E-03     22.1045E-03
            4767            4958     21.9650E-03     22.1045E-03
            4766            4958     21.9650E-03     22.1045E-03
            4785            4959     20.4263E-03     20.6300E-03
            4786            4959     20.4263E-03     20.6300E-03
            4767            4959     20.4263E-03     20.6300E-03
            4768            4959     20.4263E-03     20.6300E-03
            4768            4960     18.9066E-03     19.1603E-03
            4787            4960     18.9066E-03     19.1603E-03
            4786            4960     18.9066E-03     19.1603E-03
            4769            4960     18.9066E-03     19.1603E-03
            4788            4961     17.4148E-03     17.6929E-03
            4770            4961     17.4148E-03     17.6929E-03
            4787            4961     17.4148E-03     17.6929E-03
            4769            4961     17.4148E-03     17.6929E-03
            4788            4962     15.9827E-03     16.2638E-03
            4770            4962     15.9827E-03     16.2638E-03
            4771            4962     15.9827E-03     16.2638E-03
            4789            4962     15.9827E-03     16.2638E-03
            4789            4963     14.6223E-03     14.8808E-03
            4771            4963     14.6223E-03     14.8808E-03
            4772            4963     14.6223E-03     14.8808E-03
            4790            4963     14.6223E-03     14.8808E-03
            4772            4964     13.4021E-03     13.6128E-03
            4791            4964     13.4021E-03     13.6128E-03
            4773            4964     13.4021E-03     13.6128E-03
            4790            4964     13.4021E-03     13.6128E-03
            4792            4965     12.3414E-03     12.4710E-03
            4791            4965     12.3414E-03     12.4710E-03
            4773            4965     12.3414E-03     12.4710E-03
            4774            4965     12.3414E-03     12.4710E-03
            4775            4966     11.5510E-03     11.6025E-03
            4792            4966     11.5510E-03     11.6025E-03
            4793            4966     11.5510E-03     11.6025E-03
            4774            4966     11.5510E-03     11.6025E-03
            4776            4967     11.0547E-03     11.0361E-03
            4775            4967     11.0547E-03     11.0361E-03
            4793            4967     11.0547E-03     11.0361E-03
            4794            4967     11.0547E-03     11.0361E-03
            4794            4968     10.9505E-03     11.0925E-03
            4776            4968     10.9505E-03     11.0925E-03
            4777            4968     10.9505E-03     11.0925E-03
            4795            4968     10.9505E-03     11.0925E-03
            4796            4969     11.2632E-03     12.3784E-03
            4777            4969     11.2632E-03     12.3784E-03
            4778            4969     11.2632E-03     12.3784E-03
            4795            4969     11.2632E-03     12.3784E-03
            4779            4970     32.2695E-03     33.1252E-03
            4798            4970     32.2695E-03     33.1252E-03
            4780            4970     32.2695E-03     33.1252E-03
            4797            4970     32.2695E-03     33.1252E-03
            4798            4971     25.9493E-03     27.0138E-03
            4799            4971     25.9493E-03     27.0138E-03
            4780            4971     25.9493E-03     27.0138E-03
            4781            4971     25.9493E-03     27.0138E-03
            4781            4972     21.9706E-03     23.0036E-03
            4782            4972     21.9706E-03     23.0036E-03
            4799            4972     21.9706E-03     23.0036E-03
            4800            4972     21.9706E-03     23.0036E-03
            4801            4973     19.3375E-03     20.3305E-03
            4782            4973     19.3375E-03     20.3305E-03
            4783            4973     19.3375E-03     20.3305E-03
            4800            4973     19.3375E-03     20.3305E-03
            4783            4974     17.2130E-03     18.2073E-03
            4802            4974     17.2130E-03     18.2073E-03
            4784            4974     17.2130E-03     18.2073E-03
            4801            4974     17.2130E-03     18.2073E-03
            4803            4975     15.4926E-03     16.4864E-03
            4784            4975     15.4926E-03     16.4864E-03
            4802            4975     15.4926E-03     16.4864E-03
            4785            4975     15.4926E-03     16.4864E-03
            4804            4976     13.9742E-03     14.9580E-03
            4785            4976     13.9742E-03     14.9580E-03
            4786            4976     13.9742E-03     14.9580E-03
            4803            4976     13.9742E-03     14.9580E-03
            4805            4977     12.6171E-03     13.5808E-03
            4786            4977     12.6171E-03     13.5808E-03
            4804            4977     12.6171E-03     13.5808E-03
            4787            4977     12.6171E-03     13.5808E-03
            4788            4978     11.3681E-03     12.2871E-03
            4806            4978     11.3681E-03     12.2871E-03
            4805            4978     11.3681E-03     12.2871E-03
            4787            4978     11.3681E-03     12.2871E-03
            4806            4979     10.2262E-03     11.0787E-03
            4788            4979     10.2262E-03     11.0787E-03
            4807            4979     10.2262E-03     11.0787E-03
            4789            4979     10.2262E-03     11.0787E-03
            4790            4980     9.19788E-03     9.94505E-03
            4808            4980     9.19788E-03     9.94505E-03
            4807            4980     9.19788E-03     9.94505E-03
            4789            4980     9.19788E-03     9.94505E-03
            4790            4981     8.32461E-03     8.92133E-03
            4791            4981     8.32461E-03     8.92133E-03
            4808            4981     8.32461E-03     8.92133E-03
            4809            4981     8.32461E-03     8.92133E-03
            4792            4982     7.65594E-03     8.04359E-03
            4810            4982     7.65594E-03     8.04359E-03
            4809            4982     7.65594E-03     8.04359E-03
            4791            4982     7.65594E-03     8.04359E-03
            4810            4983     7.32779E-03     7.44327E-03
            4792            4983     7.32779E-03     7.44327E-03
            4811            4983     7.32779E-03     7.44327E-03
            4793            4983     7.32779E-03     7.44327E-03
            4793            4984     7.40840E-03     7.21885E-03
            4811            4984     7.40840E-03     7.21885E-03
            4812            4984     7.40840E-03     7.21885E-03
            4794            4984     7.40840E-03     7.21885E-03
            4795            4985     8.31863E-03     7.85065E-03
            4794            4985     8.31863E-03     7.85065E-03
            4812            4985     8.31863E-03     7.85065E-03
            4813            4985     8.31863E-03     7.85065E-03
            4813            4986     9.92490E-03     9.27684E-03
            4796            4986     9.92490E-03     9.27684E-03
            4795            4986     9.92490E-03     9.27684E-03
            4814            4986     9.92490E-03     9.27684E-03
            4797            4987     30.9873E-03     31.0240E-03
            4798            4987     30.9873E-03     31.0240E-03
            4816            4987     30.9873E-03     31.0240E-03
            4815            4987     30.9873E-03     31.0240E-03
            4816            4988     26.6264E-03     27.0377E-03
            4799            4988     26.6264E-03     27.0377E-03
            4798            4988     26.6264E-03     27.0377E-03
            4817            4988     26.6264E-03     27.0377E-03
            4817            4989     22.6664E-03     23.3996E-03
            4799            4989     22.6664E-03     23.3996E-03
            4818            4989     22.6664E-03     23.3996E-03
            4800            4989     22.6664E-03     23.3996E-03
            4819            4990     19.9805E-03     20.8234E-03
            4818            4990     19.9805E-03     20.8234E-03
            4801            4990     19.9805E-03     20.8234E-03
            4800            4990     19.9805E-03     20.8234E-03
            4801            4991     17.9279E-03     18.7782E-03
            4802            4991     17.9279E-03     18.7782E-03
            4819            4991     17.9279E-03     18.7782E-03
            4820            4991     17.9279E-03     18.7782E-03
            4820            4992     16.2000E-03     17.0622E-03
            4821            4992     16.2000E-03     17.0622E-03
            4802            4992     16.2000E-03     17.0622E-03
            4803            4992     16.2000E-03     17.0622E-03
            4804            4993     14.7177E-03     15.5547E-03
            4821            4993     14.7177E-03     15.5547E-03
            4822            4993     14.7177E-03     15.5547E-03
            4803            4993     14.7177E-03     15.5547E-03
            4822            4994     13.3694E-03     14.1753E-03
            4804            4994     13.3694E-03     14.1753E-03
            4805            4994     13.3694E-03     14.1753E-03
            4823            4994     13.3694E-03     14.1753E-03
            4806            4995     12.1482E-03     12.9028E-03
            4823            4995     12.1482E-03     12.9028E-03
            4805            4995     12.1482E-03     12.9028E-03
            4824            4995     12.1482E-03     12.9028E-03
            4807            4996     11.0300E-03     11.7141E-03
            4825            4996     11.0300E-03     11.7141E-03
            4824            4996     11.0300E-03     11.7141E-03
            4806            4996     11.0300E-03     11.7141E-03
            4825            4997     10.0414E-03     10.6272E-03
            4808            4997     10.0414E-03     10.6272E-03
            4826            4997     10.0414E-03     10.6272E-03
            4807            4997     10.0414E-03     10.6272E-03
            4827            4998     9.19556E-03     9.64645E-03
            4808            4998     9.19556E-03     9.64645E-03
            4809            4998     9.19556E-03     9.64645E-03
            4826            4998     9.19556E-03     9.64645E-03
            4810            4999     8.56214E-03     8.83437E-03
            4827            4999     8.56214E-03     8.83437E-03
            4809            4999     8.56214E-03     8.83437E-03
            4828            4999     8.56214E-03     8.83437E-03
            4828            5000     8.17045E-03     8.22058E-03
            4829            5000     8.17045E-03     8.22058E-03
            4810            5000     8.17045E-03     8.22058E-03
            4811            5000     8.17045E-03     8.22058E-03
            4811            5001     8.17430E-03     7.98545E-03
            4829            5001     8.17430E-03     7.98545E-03
            4830            5001     8.17430E-03     7.98545E-03
            4812            5001     8.17430E-03     7.98545E-03
            4813            5002     8.59796E-03     8.20369E-03
            4812            5002     8.59796E-03     8.20369E-03
            4830            5002     8.59796E-03     8.20369E-03
            4831            5002     8.59796E-03     8.20369E-03
            4831            5003     8.93366E-03     8.40936E-03
            4813            5003     8.93366E-03     8.40936E-03
            4814            5003     8.93366E-03     8.40936E-03
            4832            5003     8.93366E-03     8.40936E-03
            4833            5004     28.2456E-03     28.7635E-03
            4816            5004     28.2456E-03     28.7635E-03
            4834            5004     28.2456E-03     28.7635E-03
            4815            5004     28.2456E-03     28.7635E-03
            4835            5005     25.5240E-03     25.9336E-03
            4816            5005     25.5240E-03     25.9336E-03
            4834            5005     25.5240E-03     25.9336E-03
            4817            5005     25.5240E-03     25.9336E-03
            4817            5006     22.7778E-03     23.2966E-03
            4835            5006     22.7778E-03     23.2966E-03
            4818            5006     22.7778E-03     23.2966E-03
            4836            5006     22.7778E-03     23.2966E-03
            4818            5007     20.3473E-03     21.0256E-03
            4836            5007     20.3473E-03     21.0256E-03
            4837            5007     20.3473E-03     21.0256E-03
            4819            5007     20.3473E-03     21.0256E-03
            4819            5008     18.4595E-03     19.1859E-03
            4837            5008     18.4595E-03     19.1859E-03
            4838            5008     18.4595E-03     19.1859E-03
            4820            5008     18.4595E-03     19.1859E-03
            4838            5009     16.8387E-03     17.5528E-03
            4839            5009     16.8387E-03     17.5528E-03
            4820            5009     16.8387E-03     17.5528E-03
            4821            5009     16.8387E-03     17.5528E-03
            4840            5010     15.3859E-03     16.0833E-03
            4839            5010     15.3859E-03     16.0833E-03
            4821            5010     15.3859E-03     16.0833E-03
            4822            5010     15.3859E-03     16.0833E-03
            4841            5011     14.0717E-03     14.7237E-03
            4840            5011     14.0717E-03     14.7237E-03
            4823            5011     14.0717E-03     14.7237E-03
            4822            5011     14.0717E-03     14.7237E-03
            4841            5012     12.8565E-03     13.4600E-03
            4842            5012     12.8565E-03     13.4600E-03
            4824            5012     12.8565E-03     13.4600E-03
            4823            5012     12.8565E-03     13.4600E-03
            4843            5013     11.7600E-03     12.2952E-03
            4825            5013     11.7600E-03     12.2952E-03
            4824            5013     11.7600E-03     12.2952E-03
            4842            5013     11.7600E-03     12.2952E-03
            4825            5014     10.7792E-03     11.2283E-03
            4844            5014     10.7792E-03     11.2283E-03
            4826            5014     10.7792E-03     11.2283E-03
            4843            5014     10.7792E-03     11.2283E-03
            4827            5015     9.95334E-03     10.2862E-03
            4845            5015     9.95334E-03     10.2862E-03
            4844            5015     9.95334E-03     10.2862E-03
            4826            5015     9.95334E-03     10.2862E-03
            4827            5016     9.28836E-03     9.46909E-03
            4845            5016     9.28836E-03     9.46909E-03
            4846            5016     9.28836E-03     9.46909E-03
            4828            5016     9.28836E-03     9.46909E-03
            4829            5017     8.83260E-03     8.82345E-03
            4846            5017     8.83260E-03     8.82345E-03
            4828            5017     8.83260E-03     8.82345E-03
            4847            5017     8.83260E-03     8.82345E-03
            4847            5018     8.59520E-03     8.37491E-03
            4848            5018     8.59520E-03     8.37491E-03
            4829            5018     8.59520E-03     8.37491E-03
            4830            5018     8.59520E-03     8.37491E-03
            4831            5019     8.42048E-03     7.97587E-03
            4849            5019     8.42048E-03     7.97587E-03
            4848            5019     8.42048E-03     7.97587E-03
            4830            5019     8.42048E-03     7.97587E-03
            4850            5020     8.32331E-03     7.69122E-03
            4832            5020     8.32331E-03     7.69122E-03
            4831            5020     8.32331E-03     7.69122E-03
            4849            5020     8.32331E-03     7.69122E-03
            4834            5021     25.8420E-03     26.1097E-03
            4852            5021     25.8420E-03     26.1097E-03
            4833            5021     25.8420E-03     26.1097E-03
            4851            5021     25.8420E-03     26.1097E-03
            4834            5022     23.7871E-03     24.2688E-03
            4835            5022     23.7871E-03     24.2688E-03
            4852            5022     23.7871E-03     24.2688E-03
            4853            5022     23.7871E-03     24.2688E-03
            4836            5023     22.0111E-03     22.5441E-03
            4835            5023     22.0111E-03     22.5441E-03
            4854            5023     22.0111E-03     22.5441E-03
            4853            5023     22.0111E-03     22.5441E-03
            4836            5024     20.3247E-03     20.8859E-03
            4855            5024     20.3247E-03     20.8859E-03
            4837            5024     20.3247E-03     20.8859E-03
            4854            5024     20.3247E-03     20.8859E-03
            4837            5025     18.7208E-03     19.3211E-03
            4838            5025     18.7208E-03     19.3211E-03
            4855            5025     18.7208E-03     19.3211E-03
            4856            5025     18.7208E-03     19.3211E-03
            4838            5026     17.2820E-03     17.8645E-03
            4857            5026     17.2820E-03     17.8645E-03
            4839            5026     17.2820E-03     17.8645E-03
            4856            5026     17.2820E-03     17.8645E-03
            4840            5027     15.9223E-03     16.4668E-03
            4857            5027     15.9223E-03     16.4668E-03
            4839            5027     15.9223E-03     16.4668E-03
            4858            5027     15.9223E-03     16.4668E-03
            4840            5028     14.6427E-03     15.1483E-03
            4841            5028     14.6427E-03     15.1483E-03
            4858            5028     14.6427E-03     15.1483E-03
            4859            5028     14.6427E-03     15.1483E-03
            4841            5029     13.4554E-03     13.9096E-03
            4842            5029     13.4554E-03     13.9096E-03
            4860            5029     13.4554E-03     13.9096E-03
            4859            5029     13.4554E-03     13.9096E-03
            4842            5030     12.3645E-03     12.7646E-03
            4861            5030     12.3645E-03     12.7646E-03
            4843            5030     12.3645E-03     12.7646E-03
            4860            5030     12.3645E-03     12.7646E-03
            4862            5031     11.3997E-03     11.7292E-03
            4844            5031     11.3997E-03     11.7292E-03
            4861            5031     11.3997E-03     11.7292E-03
            4843            5031     11.3997E-03     11.7292E-03
            4862            5032     10.5650E-03     10.8026E-03
            4863            5032     10.5650E-03     10.8026E-03
            4844            5032     10.5650E-03     10.8026E-03
            4845            5032     10.5650E-03     10.8026E-03
            4845            5033     9.87740E-03     9.99040E-03
            4846            5033     9.87740E-03     9.99040E-03
            4863            5033     9.87740E-03     9.99040E-03
            4864            5033     9.87740E-03     9.99040E-03
            4865            5034     9.32901E-03     9.27879E-03
            4846            5034     9.32901E-03     9.27879E-03
            4847            5034     9.32901E-03     9.27879E-03
            4864            5034     9.32901E-03     9.27879E-03
            4866            5035     8.84317E-03     8.58719E-03
            4847            5035     8.84317E-03     8.58719E-03
            4865            5035     8.84317E-03     8.58719E-03
            4848            5035     8.84317E-03     8.58719E-03
            4849            5036     8.43073E-03     7.96202E-03
            4866            5036     8.43073E-03     7.96202E-03
            4867            5036     8.43073E-03     7.96202E-03
            4848            5036     8.43073E-03     7.96202E-03
            4867            5037     8.11670E-03     7.49293E-03
            4868            5037     8.11670E-03     7.49293E-03
            4849            5037     8.11670E-03     7.49293E-03
            4850            5037     8.11670E-03     7.49293E-03
            4869            5038     23.3417E-03     23.6651E-03
            4870            5038     23.3417E-03     23.6651E-03
            4851            5038     23.3417E-03     23.6651E-03
            4852            5038     23.3417E-03     23.6651E-03
            4852            5039     22.0419E-03     22.4315E-03
            4870            5039     22.0419E-03     22.4315E-03
            4871            5039     22.0419E-03     22.4315E-03
            4853            5039     22.0419E-03     22.4315E-03
            4853            5040     20.9360E-03     21.4406E-03
            4871            5040     20.9360E-03     21.4406E-03
            4872            5040     20.9360E-03     21.4406E-03
            4854            5040     20.9360E-03     21.4406E-03
            4873            5041     19.8709E-03     20.3855E-03
            4854            5041     19.8709E-03     20.3855E-03
            4872            5041     19.8709E-03     20.3855E-03
            4855            5041     19.8709E-03     20.3855E-03
            4874            5042     18.7280E-03     19.2005E-03
            4856            5042     18.7280E-03     19.2005E-03
            4855            5042     18.7280E-03     19.2005E-03
            4873            5042     18.7280E-03     19.2005E-03
            4875            5043     17.4996E-03     17.9382E-03
            4874            5043     17.4996E-03     17.9382E-03
            4857            5043     17.4996E-03     17.9382E-03
            4856            5043     17.4996E-03     17.9382E-03
            4857            5044     16.2702E-03     16.6612E-03
            4875            5044     16.2702E-03     16.6612E-03
            4876            5044     16.2702E-03     16.6612E-03
            4858            5044     16.2702E-03     16.6612E-03
            4858            5045     15.0555E-03     15.4031E-03
            4876            5045     15.0555E-03     15.4031E-03
            4877            5045     15.0555E-03     15.4031E-03
            4859            5045     15.0555E-03     15.4031E-03
            4877            5046     13.9009E-03     14.2102E-03
            4859            5046     13.9009E-03     14.2102E-03
            4878            5046     13.9009E-03     14.2102E-03
            4860            5046     13.9009E-03     14.2102E-03
            4878            5047     12.8370E-03     13.1043E-03
            4879            5047     12.8370E-03     13.1043E-03
            4860            5047     12.8370E-03     13.1043E-03
            4861            5047     12.8370E-03     13.1043E-03
            4879            5048     11.8819E-03     12.1043E-03
            4862            5048     11.8819E-03     12.1043E-03
            4861            5048     11.8819E-03     12.1043E-03
            4880            5048     11.8819E-03     12.1043E-03
            4880            5049     11.0548E-03     11.2163E-03
            4881            5049     11.0548E-03     11.2163E-03
            4862            5049     11.0548E-03     11.2163E-03
            4863            5049     11.0548E-03     11.2163E-03
            4882            5050     10.3529E-03     10.4236E-03
            4863            5050     10.3529E-03     10.4236E-03
            4881            5050     10.3529E-03     10.4236E-03
            4864            5050     10.3529E-03     10.4236E-03
            4883            5051     9.73105E-03     9.66863E-03
            4882            5051     9.73105E-03     9.66863E-03
            4865            5051     9.73105E-03     9.66863E-03
            4864            5051     9.73105E-03     9.66863E-03
            4865            5052     9.16723E-03     8.92810E-03
            4884            5052     9.16723E-03     8.92810E-03
            4883            5052     9.16723E-03     8.92810E-03
            4866            5052     9.16723E-03     8.92810E-03
            4885            5053     8.61032E-03     8.17467E-03
            4866            5053     8.61032E-03     8.17467E-03
            4867            5053     8.61032E-03     8.17467E-03
            4884            5053     8.61032E-03     8.17467E-03
            4885            5054     8.09048E-03     7.49446E-03
            4886            5054     8.09048E-03     7.49446E-03
            4867            5054     8.09048E-03     7.49446E-03
            4868            5054     8.09048E-03     7.49446E-03
            4888            5055     20.9230E-03     21.1442E-03
            4870            5055     20.9230E-03     21.1442E-03
            4887            5055     20.9230E-03     21.1442E-03
            4869            5055     20.9230E-03     21.1442E-03
            4889            5056     20.1814E-03     20.5916E-03
            4888            5056     20.1814E-03     20.5916E-03
            4871            5056     20.1814E-03     20.5916E-03
            4870            5056     20.1814E-03     20.5916E-03
            4872            5057     19.7785E-03     20.2137E-03
            4890            5057     19.7785E-03     20.2137E-03
            4889            5057     19.7785E-03     20.2137E-03
            4871            5057     19.7785E-03     20.2137E-03
            4873            5058     19.2490E-03     19.6590E-03
            4890            5058     19.2490E-03     19.6590E-03
            4872            5058     19.2490E-03     19.6590E-03
            4891            5058     19.2490E-03     19.6590E-03
            4892            5059     18.4888E-03     18.8315E-03
            4874            5059     18.4888E-03     18.8315E-03
            4891            5059     18.4888E-03     18.8315E-03
            4873            5059     18.4888E-03     18.8315E-03
            4874            5060     17.5198E-03     17.7849E-03
            4892            5060     17.5198E-03     17.7849E-03
            4893            5060     17.5198E-03     17.7849E-03
            4875            5060     17.5198E-03     17.7849E-03
            4894            5061     16.4165E-03     16.6379E-03
            4875            5061     16.4165E-03     16.6379E-03
            4876            5061     16.4165E-03     16.6379E-03
            4893            5061     16.4165E-03     16.6379E-03
            4876            5062     15.2940E-03     15.4766E-03
            4895            5062     15.2940E-03     15.4766E-03
            4894            5062     15.2940E-03     15.4766E-03
            4877            5062     15.2940E-03     15.4766E-03
            4877            5063     14.1952E-03     14.3517E-03
            4896            5063     14.1952E-03     14.3517E-03
            4878            5063     14.1952E-03     14.3517E-03
            4895            5063     14.1952E-03     14.3517E-03
            4897            5064     13.1714E-03     13.3087E-03
            4896            5064     13.1714E-03     13.3087E-03
            4879            5064     13.1714E-03     13.3087E-03
            4878            5064     13.1714E-03     13.3087E-03
            4879            5065     12.2488E-03     12.3673E-03
            4880            5065     12.2488E-03     12.3673E-03
            4897            5065     12.2488E-03     12.3673E-03
            4898            5065     12.2488E-03     12.3673E-03
            4898            5066     11.4420E-03     11.5389E-03
            4899            5066     11.4420E-03     11.5389E-03
            4880            5066     11.4420E-03     11.5389E-03
            4881            5066     11.4420E-03     11.5389E-03
            4881            5067     10.7425E-03     10.7998E-03
            4882            5067     10.7425E-03     10.7998E-03
            4899            5067     10.7425E-03     10.7998E-03
            4900            5067     10.7425E-03     10.7998E-03
            4882            5068     10.1324E-03     10.0981E-03
            4901            5068     10.1324E-03     10.0981E-03
            4900            5068     10.1324E-03     10.0981E-03
            4883            5068     10.1324E-03     10.0981E-03
            4902            5069     9.53232E-03     9.35918E-03
            4883            5069     9.53232E-03     9.35918E-03
            4901            5069     9.53232E-03     9.35918E-03
            4884            5069     9.53232E-03     9.35918E-03
            4902            5070     8.90355E-03     8.54892E-03
            4903            5070     8.90355E-03     8.54892E-03
            4885            5070     8.90355E-03     8.54892E-03
            4884            5070     8.90355E-03     8.54892E-03
            4904            5071     8.24054E-03     7.69193E-03
            4903            5071     8.24054E-03     7.69193E-03
            4886            5071     8.24054E-03     7.69193E-03
            4885            5071     8.24054E-03     7.69193E-03
            4887            5072     18.3740E-03     18.5870E-03
            4888            5072     18.3740E-03     18.5870E-03
            4905            5072     18.3740E-03     18.5870E-03
            4906            5072     18.3740E-03     18.5870E-03
            4889            5073     18.3469E-03     18.6829E-03
            4907            5073     18.3469E-03     18.6829E-03
            4906            5073     18.3469E-03     18.6829E-03
            4888            5073     18.3469E-03     18.6829E-03
            4908            5074     18.5686E-03     18.9297E-03
            4907            5074     18.5686E-03     18.9297E-03
            4890            5074     18.5686E-03     18.9297E-03
            4889            5074     18.5686E-03     18.9297E-03
            4891            5075     18.5621E-03     18.8055E-03
            4908            5075     18.5621E-03     18.8055E-03
            4890            5075     18.5621E-03     18.8055E-03
            4909            5075     18.5621E-03     18.8055E-03
            4909            5076     18.1122E-03     18.2468E-03
            4892            5076     18.1122E-03     18.2468E-03
            4891            5076     18.1122E-03     18.2468E-03
            4910            5076     18.1122E-03     18.2468E-03
            4910            5077     17.3327E-03     17.4046E-03
            4911            5077     17.3327E-03     17.4046E-03
            4892            5077     17.3327E-03     17.4046E-03
            4893            5077     17.3327E-03     17.4046E-03
            4894            5078     16.3889E-03     16.4143E-03
            4911            5078     16.3889E-03     16.4143E-03
            4893            5078     16.3889E-03     16.4143E-03
            4912            5078     16.3889E-03     16.4143E-03
            4912            5079     15.3658E-03     15.3737E-03
            4895            5079     15.3658E-03     15.3737E-03
            4894            5079     15.3658E-03     15.3737E-03
            4913            5079     15.3658E-03     15.3737E-03
            4913            5080     14.3562E-03     14.3560E-03
            4914            5080     14.3562E-03     14.3560E-03
            4896            5080     14.3562E-03     14.3560E-03
            4895            5080     14.3562E-03     14.3560E-03
            4897            5081     13.3980E-03     13.4008E-03
            4914            5081     13.3980E-03     13.4008E-03
            4915            5081     13.3980E-03     13.4008E-03
            4896            5081     13.3980E-03     13.4008E-03
            4897            5082     12.5289E-03     12.5448E-03
            4915            5082     12.5289E-03     12.5448E-03
            4916            5082     12.5289E-03     12.5448E-03
            4898            5082     12.5289E-03     12.5448E-03
            4917            5083     11.7608E-03     11.7928E-03
            4898            5083     11.7608E-03     11.7928E-03
            4899            5083     11.7608E-03     11.7928E-03
            4916            5083     11.7608E-03     11.7928E-03
            4900            5084     11.0931E-03     11.1441E-03
            4899            5084     11.0931E-03     11.1441E-03
            4918            5084     11.0931E-03     11.1441E-03
            4917            5084     11.0931E-03     11.1441E-03
            4901            5085     10.5018E-03     10.5509E-03
            4919            5085     10.5018E-03     10.5509E-03
            4918            5085     10.5018E-03     10.5509E-03
            4900            5085     10.5018E-03     10.5509E-03
            4919            5086     9.94373E-03     9.88482E-03
            4920            5086     9.94373E-03     9.88482E-03
            4901            5086     9.94373E-03     9.88482E-03
            4902            5086     9.94373E-03     9.88482E-03
            4920            5087     9.28902E-03     9.05785E-03
            4903            5087     9.28902E-03     9.05785E-03
            4921            5087     9.28902E-03     9.05785E-03
            4902            5087     9.28902E-03     9.05785E-03
            4922            5088     8.49341E-03     8.09693E-03
            4921            5088     8.49341E-03     8.09693E-03
            4904            5088     8.49341E-03     8.09693E-03
            4903            5088     8.49341E-03     8.09693E-03
            4905            5089     15.7265E-03     15.8565E-03
            4923            5089     15.7265E-03     15.8565E-03
            4906            5089     15.7265E-03     15.8565E-03
            4924            5089     15.7265E-03     15.8565E-03
            4906            5090     16.4707E-03     16.7612E-03
            4924            5090     16.4707E-03     16.7612E-03
            4907            5090     16.4707E-03     16.7612E-03
            4925            5090     16.4707E-03     16.7612E-03
            4925            5091     17.4756E-03     17.6004E-03
            4907            5091     17.4756E-03     17.6004E-03
            4908            5091     17.4756E-03     17.6004E-03
            4926            5091     17.4756E-03     17.6004E-03
            4908            5092     17.8280E-03     17.7882E-03
            4909            5092     17.8280E-03     17.7882E-03
            4926            5092     17.8280E-03     17.7882E-03
            4927            5092     17.8280E-03     17.7882E-03
            4928            5093     17.5793E-03     17.4559E-03
            4927            5093     17.5793E-03     17.4559E-03
            4910            5093     17.5793E-03     17.4559E-03
            4909            5093     17.5793E-03     17.4559E-03
            4910            5094     16.9893E-03     16.8201E-03
            4929            5094     16.9893E-03     16.8201E-03
            4928            5094     16.9893E-03     16.8201E-03
            4911            5094     16.9893E-03     16.8201E-03
            4912            5095     16.1929E-03     16.0156E-03
            4930            5095     16.1929E-03     16.0156E-03
            4929            5095     16.1929E-03     16.0156E-03
            4911            5095     16.1929E-03     16.0156E-03
            4930            5096     15.3177E-03     15.1427E-03
            4912            5096     15.3177E-03     15.1427E-03
            4913            5096     15.3177E-03     15.1427E-03
            4931            5096     15.3177E-03     15.1427E-03
            4932            5097     14.4222E-03     14.2658E-03
            4914            5097     14.4222E-03     14.2658E-03
            4913            5097     14.4222E-03     14.2658E-03
            4931            5097     14.4222E-03     14.2658E-03
            4914            5098     13.5661E-03     13.4361E-03
            4933            5098     13.5661E-03     13.4361E-03
            4915            5098     13.5661E-03     13.4361E-03
            4932            5098     13.5661E-03     13.4361E-03
            4915            5099     12.7718E-03     12.6788E-03
            4934            5099     12.7718E-03     12.6788E-03
            4916            5099     12.7718E-03     12.6788E-03
            4933            5099     12.7718E-03     12.6788E-03
            4917            5100     12.0608E-03     12.0221E-03
            4934            5100     12.0608E-03     12.0221E-03
            4935            5100     12.0608E-03     12.0221E-03
            4916            5100     12.0608E-03     12.0221E-03
            4918            5101     11.4315E-03     11.4573E-03
            4935            5101     11.4315E-03     11.4573E-03
            4917            5101     11.4315E-03     11.4573E-03
            4936            5101     11.4315E-03     11.4573E-03
            4937            5102     10.8608E-03     10.9757E-03
            4936            5102     10.8608E-03     10.9757E-03
            4918            5102     10.8608E-03     10.9757E-03
            4919            5102     10.8608E-03     10.9757E-03
            4919            5103     10.3232E-03     10.5000E-03
            4937            5103     10.3232E-03     10.5000E-03
            4938            5103     10.3232E-03     10.5000E-03
            4920            5103     10.3232E-03     10.5000E-03
            4921            5104     9.74775E-03     9.74777E-03
            4938            5104     9.74775E-03     9.74777E-03
            4939            5104     9.74775E-03     9.74777E-03
            4920            5104     9.74775E-03     9.74777E-03
            4922            5105     8.87598E-03     8.59431E-03
            4940            5105     8.87598E-03     8.59431E-03
            4921            5105     8.87598E-03     8.59431E-03
            4939            5105     8.87598E-03     8.59431E-03
            4924            5106     12.8787E-03     12.9674E-03
            4941            5106     12.8787E-03     12.9674E-03
            4923            5106     12.8787E-03     12.9674E-03
            4942            5106     12.8787E-03     12.9674E-03
            4925            5107     14.9004E-03     14.8011E-03
            4942            5107     14.9004E-03     14.8011E-03
            4943            5107     14.9004E-03     14.8011E-03
            4924            5107     14.9004E-03     14.8011E-03
            4925            5108     16.4590E-03     16.1164E-03
            4944            5108     16.4590E-03     16.1164E-03
            4943            5108     16.4590E-03     16.1164E-03
            4926            5108     16.4590E-03     16.1164E-03
            4927            5109     16.9524E-03     16.5297E-03
            4926            5109     16.9524E-03     16.5297E-03
            4944            5109     16.9524E-03     16.5297E-03
            4945            5109     16.9524E-03     16.5297E-03
            4946            5110     16.8940E-03     16.4606E-03
            4928            5110     16.8940E-03     16.4606E-03
            4945            5110     16.8940E-03     16.4606E-03
            4927            5110     16.8940E-03     16.4606E-03
            4929            5111     16.4919E-03     16.0768E-03
            4928            5111     16.4919E-03     16.0768E-03
            4947            5111     16.4919E-03     16.0768E-03
            4946            5111     16.4919E-03     16.0768E-03
            4947            5112     15.8985E-03     15.5141E-03
            4930            5112     15.8985E-03     15.5141E-03
            4929            5112     15.8985E-03     15.5141E-03
            4948            5112     15.8985E-03     15.5141E-03
            4949            5113     15.2015E-03     14.8572E-03
            4948            5113     15.2015E-03     14.8572E-03
            4931            5113     15.2015E-03     14.8572E-03
            4930            5113     15.2015E-03     14.8572E-03
            4949            5114     14.4708E-03     14.1676E-03
            4950            5114     14.4708E-03     14.1676E-03
            4931            5114     14.4708E-03     14.1676E-03
            4932            5114     14.4708E-03     14.1676E-03
            4933            5115     13.7413E-03     13.4869E-03
            4932            5115     13.7413E-03     13.4869E-03
            4951            5115     13.7413E-03     13.4869E-03
            4950            5115     13.7413E-03     13.4869E-03
            4951            5116     13.0491E-03     12.8506E-03
            4934            5116     13.0491E-03     12.8506E-03
            4933            5116     13.0491E-03     12.8506E-03
            4952            5116     13.0491E-03     12.8506E-03
            4953            5117     12.4021E-03     12.2734E-03
            4934            5117     12.4021E-03     12.2734E-03
            4935            5117     12.4021E-03     12.2734E-03
            4952            5117     12.4021E-03     12.2734E-03
            4953            5118     11.8093E-03     11.7794E-03
            4954            5118     11.8093E-03     11.7794E-03
            4935            5118     11.8093E-03     11.7794E-03
            4936            5118     11.8093E-03     11.7794E-03
            4937            5119     11.2548E-03     11.3504E-03
            4955            5119     11.2548E-03     11.3504E-03
            4954            5119     11.2548E-03     11.3504E-03
            4936            5119     11.2548E-03     11.3504E-03
            4955            5120     10.6889E-03     11.0058E-03
            4937            5120     10.6889E-03     11.0058E-03
            4938            5120     10.6889E-03     11.0058E-03
            4956            5120     10.6889E-03     11.0058E-03
            4956            5121     10.0855E-03     10.5921E-03
            4957            5121     10.0855E-03     10.5921E-03
            4939            5121     10.0855E-03     10.5921E-03
            4938            5121     10.0855E-03     10.5921E-03
            4957            5122     9.31717E-03     9.53976E-03
            4958            5122     9.31717E-03     9.53976E-03
            4940            5122     9.31717E-03     9.53976E-03
            4939            5122     9.31717E-03     9.53976E-03
            4941            5123     10.4734E-03     9.58656E-03
            4960            5123     10.4734E-03     9.58656E-03
            4959            5123     10.4734E-03     9.58656E-03
            4942            5123     10.4734E-03     9.58656E-03
            4961            5124     13.6780E-03     12.6573E-03
            4943            5124     13.6780E-03     12.6573E-03
            4942            5124     13.6780E-03     12.6573E-03
            4960            5124     13.6780E-03     12.6573E-03
            4944            5125     15.2313E-03     14.2802E-03
            4943            5125     15.2313E-03     14.2802E-03
            4962            5125     15.2313E-03     14.2802E-03
            4961            5125     15.2313E-03     14.2802E-03
            4963            5126     15.8888E-03     15.0595E-03
            4944            5126     15.8888E-03     15.0595E-03
            4962            5126     15.8888E-03     15.0595E-03
            4945            5126     15.8888E-03     15.0595E-03
            4963            5127     16.0700E-03     15.3423E-03
            4964            5127     16.0700E-03     15.3423E-03
            4946            5127     16.0700E-03     15.3423E-03
            4945            5127     16.0700E-03     15.3423E-03
            4964            5128     15.9300E-03     15.2950E-03
            4947            5128     15.9300E-03     15.2950E-03
            4946            5128     15.9300E-03     15.2950E-03
            4965            5128     15.9300E-03     15.2950E-03
            4947            5129     15.5936E-03     15.0385E-03
            4965            5129     15.5936E-03     15.0385E-03
            4948            5129     15.5936E-03     15.0385E-03
            4966            5129     15.5936E-03     15.0385E-03
            4966            5130     15.1297E-03     14.6428E-03
            4948            5130     15.1297E-03     14.6428E-03
            4967            5130     15.1297E-03     14.6428E-03
            4949            5130     15.1297E-03     14.6428E-03
            4967            5131     14.5906E-03     14.1709E-03
            4968            5131     14.5906E-03     14.1709E-03
            4950            5131     14.5906E-03     14.1709E-03
            4949            5131     14.5906E-03     14.1709E-03
            4968            5132     14.0191E-03     13.6602E-03
            4950            5132     14.0191E-03     13.6602E-03
            4969            5132     14.0191E-03     13.6602E-03
            4951            5132     14.0191E-03     13.6602E-03
            4970            5133     13.4344E-03     13.1431E-03
            4952            5133     13.4344E-03     13.1431E-03
            4969            5133     13.4344E-03     13.1431E-03
            4951            5133     13.4344E-03     13.1431E-03
            4971            5134     12.8631E-03     12.6413E-03
            4970            5134     12.8631E-03     12.6413E-03
            4953            5134     12.8631E-03     12.6413E-03
            4952            5134     12.8631E-03     12.6413E-03
            4971            5135     12.2972E-03     12.1668E-03
            4953            5135     12.2972E-03     12.1668E-03
            4972            5135     12.2972E-03     12.1668E-03
            4954            5135     12.2972E-03     12.1668E-03
            4954            5136     11.7459E-03     11.7346E-03
            4973            5136     11.7459E-03     11.7346E-03
            4955            5136     11.7459E-03     11.7346E-03
            4972            5136     11.7459E-03     11.7346E-03
            4956            5137     11.1541E-03     11.3271E-03
            4974            5137     11.1541E-03     11.3271E-03
            4955            5137     11.1541E-03     11.3271E-03
            4973            5137     11.1541E-03     11.3271E-03
            4957            5138     10.4664E-03     11.0418E-03
            4974            5138     10.4664E-03     11.0418E-03
            4956            5138     10.4664E-03     11.0418E-03
            4975            5138     10.4664E-03     11.0418E-03
            4958            5139     9.52864E-03     10.5063E-03
            4975            5139     9.52864E-03     10.5063E-03
            4957            5139     9.52864E-03     10.5063E-03
            4976            5139     9.52864E-03     10.5063E-03
            4978            5140     10.2202E-03     10.0666E-03
            4977            5140     10.2202E-03     10.0666E-03
            4960            5140     10.2202E-03     10.0666E-03
            4959            5140     10.2202E-03     10.0666E-03
            4960            5141     10.9990E-03     10.6656E-03
            4978            5141     10.9990E-03     10.6656E-03
            4979            5141     10.9990E-03     10.6656E-03
            4961            5141     10.9990E-03     10.6656E-03
            4962            5142     11.5609E-03     11.3451E-03
            4961            5142     11.5609E-03     11.3451E-03
            4979            5142     11.5609E-03     11.3451E-03
            4980            5142     11.5609E-03     11.3451E-03
            4963            5143     11.9853E-03     11.8257E-03
            4980            5143     11.9853E-03     11.8257E-03
            4981            5143     11.9853E-03     11.8257E-03
            4962            5143     11.9853E-03     11.8257E-03
            4963            5144     12.0862E-03     11.9885E-03
            4964            5144     12.0862E-03     11.9885E-03
            4982            5144     12.0862E-03     11.9885E-03
            4981            5144     12.0862E-03     11.9885E-03
            4983            5145     12.0410E-03     11.9777E-03
            4964            5145     12.0410E-03     11.9777E-03
            4982            5145     12.0410E-03     11.9777E-03
            4965            5145     12.0410E-03     11.9777E-03
            4984            5146     11.8725E-03     11.8359E-03
            4966            5146     11.8725E-03     11.8359E-03
            4965            5146     11.8725E-03     11.8359E-03
            4983            5146     11.8725E-03     11.8359E-03
            4984            5147     11.6490E-03     11.6248E-03
            4967            5147     11.6490E-03     11.6248E-03
            4985            5147     11.6490E-03     11.6248E-03
            4966            5147     11.6490E-03     11.6248E-03
            4986            5148     11.3850E-03     11.3676E-03
            4968            5148     11.3850E-03     11.3676E-03
            4967            5148     11.3850E-03     11.3676E-03
            4985            5148     11.3850E-03     11.3676E-03
            4969            5149     11.1070E-03     11.0912E-03
            4986            5149     11.1070E-03     11.0912E-03
            4987            5149     11.1070E-03     11.0912E-03
            4968            5149     11.1070E-03     11.0912E-03
            4988            5150     10.8242E-03     10.8081E-03
            4987            5150     10.8242E-03     10.8081E-03
            4969            5150     10.8242E-03     10.8081E-03
            4970            5150     10.8242E-03     10.8081E-03
            4971            5151     10.5463E-03     10.5311E-03
            4988            5151     10.5463E-03     10.5311E-03
            4989            5151     10.5463E-03     10.5311E-03
            4970            5151     10.5463E-03     10.5311E-03
            4989            5152     10.2644E-03     10.2507E-03
            4971            5152     10.2644E-03     10.2507E-03
            4990            5152     10.2644E-03     10.2507E-03
            4972            5152     10.2644E-03     10.2507E-03
            4991            5153     9.98371E-03     9.98155E-03
            4973            5153     9.98371E-03     9.98155E-03
            4972            5153     9.98371E-03     9.98155E-03
            4990            5153     9.98371E-03     9.98155E-03
            4974            5154     9.61519E-03     9.61604E-03
            4991            5154     9.61519E-03     9.61604E-03
            4973            5154     9.61519E-03     9.61604E-03
            4992            5154     9.61519E-03     9.61604E-03
            4975            5155     9.24560E-03     9.34640E-03
            4992            5155     9.24560E-03     9.34640E-03
            4974            5155     9.24560E-03     9.34640E-03
            4993            5155     9.24560E-03     9.34640E-03
            4975            5156     8.67334E-03     9.04259E-03
            4976            5156     8.67334E-03     9.04259E-03
            4994            5156     8.67334E-03     9.04259E-03
            4993            5156     8.67334E-03     9.04259E-03
            4996            5157     10.4159E-03     11.0425E-03
            4977            5157     10.4159E-03     11.0425E-03
            4995            5157     10.4159E-03     11.0425E-03
            4978            5157     10.4159E-03     11.0425E-03
            4997            5158     9.27057E-03     9.88910E-03
            4978            5158     9.27057E-03     9.88910E-03
            4996            5158     9.27057E-03     9.88910E-03
            4979            5158     9.27057E-03     9.88910E-03
            4997            5159     8.93346E-03     9.57105E-03
            4998            5159     8.93346E-03     9.57105E-03
            4979            5159     8.93346E-03     9.57105E-03
            4980            5159     8.93346E-03     9.57105E-03
            4998            5160     8.92416E-03     9.46643E-03
            4999            5160     8.92416E-03     9.46643E-03
            4980            5160     8.92416E-03     9.46643E-03
            4981            5160     8.92416E-03     9.46643E-03
            5000            5161     8.74949E-03     9.25150E-03
            4981            5161     8.74949E-03     9.25150E-03
            4982            5161     8.74949E-03     9.25150E-03
            4999            5161     8.74949E-03     9.25150E-03
            4983            5162     8.59603E-03     9.06005E-03
            5001            5162     8.59603E-03     9.06005E-03
            5000            5162     8.59603E-03     9.06005E-03
            4982            5162     8.59603E-03     9.06005E-03
            5002            5163     8.44878E-03     8.86985E-03
            4983            5163     8.44878E-03     8.86985E-03
            5001            5163     8.44878E-03     8.86985E-03
            4984            5163     8.44878E-03     8.86985E-03
            4984            5164     8.32530E-03     8.70622E-03
            5003            5164     8.32530E-03     8.70622E-03
            5002            5164     8.32530E-03     8.70622E-03
            4985            5164     8.32530E-03     8.70622E-03
            5004            5165     8.23034E-03     8.56028E-03
            4985            5165     8.23034E-03     8.56028E-03
            5003            5165     8.23034E-03     8.56028E-03
            4986            5165     8.23034E-03     8.56028E-03
            4986            5166     8.15794E-03     8.44138E-03
            4987            5166     8.15794E-03     8.44138E-03
            5005            5166     8.15794E-03     8.44138E-03
            5004            5166     8.15794E-03     8.44138E-03
            4988            5167     8.11255E-03     8.34187E-03
            4987            5167     8.11255E-03     8.34187E-03
            5006            5167     8.11255E-03     8.34187E-03
            5005            5167     8.11255E-03     8.34187E-03
            4988            5168     8.09067E-03     8.26984E-03
            5006            5168     8.09067E-03     8.26984E-03
            4989            5168     8.09067E-03     8.26984E-03
            5007            5168     8.09067E-03     8.26984E-03
            4989            5169     8.08429E-03     8.20876E-03
            5008            5169     8.08429E-03     8.20876E-03
            4990            5169     8.08429E-03     8.20876E-03
            5007            5169     8.08429E-03     8.20876E-03
            4991            5170     8.09757E-03     8.16452E-03
            5008            5170     8.09757E-03     8.16452E-03
            5009            5170     8.09757E-03     8.16452E-03
            4990            5170     8.09757E-03     8.16452E-03
            5010            5171     8.02725E-03     8.00600E-03
            5009            5171     8.02725E-03     8.00600E-03
            4991            5171     8.02725E-03     8.00600E-03
            4992            5171     8.02725E-03     8.00600E-03
            4992            5172     7.92397E-03     7.80751E-03
            5011            5172     7.92397E-03     7.80751E-03
            4993            5172     7.92397E-03     7.80751E-03
            5010            5172     7.92397E-03     7.80751E-03
            4994            5173     7.45780E-03     7.20594E-03
            4993            5173     7.45780E-03     7.20594E-03
            5012            5173     7.45780E-03     7.20594E-03
            5011            5173     7.45780E-03     7.20594E-03
            4995            5174     8.28596E-03     8.41918E-03
            5013            5174     8.28596E-03     8.41918E-03
            4996            5174     8.28596E-03     8.41918E-03
            5014            5174     8.28596E-03     8.41918E-03
            5015            5175     9.31088E-03     9.64310E-03
            4996            5175     9.31088E-03     9.64310E-03
            4997            5175     9.31088E-03     9.64310E-03
            5014            5175     9.31088E-03     9.64310E-03
            4997            5176     9.57736E-03     9.78772E-03
            5015            5176     9.57736E-03     9.78772E-03
            5016            5176     9.57736E-03     9.78772E-03
            4998            5176     9.57736E-03     9.78772E-03
            4999            5177     9.36156E-03     9.56719E-03
            4998            5177     9.36156E-03     9.56719E-03
            5016            5177     9.36156E-03     9.56719E-03
            5017            5177     9.36156E-03     9.56719E-03
            5017            5178     9.12522E-03     9.31421E-03
            4999            5178     9.12522E-03     9.31421E-03
            5018            5178     9.12522E-03     9.31421E-03
            5000            5178     9.12522E-03     9.31421E-03
            5000            5179     8.91101E-03     9.08749E-03
            5018            5179     8.91101E-03     9.08749E-03
            5001            5179     8.91101E-03     9.08749E-03
            5019            5179     8.91101E-03     9.08749E-03
            5020            5180     8.74867E-03     8.90956E-03
            5001            5180     8.74867E-03     8.90956E-03
            5019            5180     8.74867E-03     8.90956E-03
            5002            5180     8.74867E-03     8.90956E-03
            5003            5181     8.61798E-03     8.76078E-03
            5021            5181     8.61798E-03     8.76078E-03
            5002            5181     8.61798E-03     8.76078E-03
            5020            5181     8.61798E-03     8.76078E-03
            5004            5182     8.51373E-03     8.64046E-03
            5003            5182     8.51373E-03     8.64046E-03
            5022            5182     8.51373E-03     8.64046E-03
            5021            5182     8.51373E-03     8.64046E-03
            5022            5183     8.43194E-03     8.53884E-03
            5005            5183     8.43194E-03     8.53884E-03
            5004            5183     8.43194E-03     8.53884E-03
            5023            5183     8.43194E-03     8.53884E-03
            5005            5184     8.37331E-03     8.46221E-03
            5023            5184     8.37331E-03     8.46221E-03
            5006            5184     8.37331E-03     8.46221E-03
            5024            5184     8.37331E-03     8.46221E-03
            5006            5185     8.34005E-03     8.40868E-03
            5025            5185     8.34005E-03     8.40868E-03
            5007            5185     8.34005E-03     8.40868E-03
            5024            5185     8.34005E-03     8.40868E-03
            5007            5186     8.34445E-03     8.39250E-03
            5025            5186     8.34445E-03     8.39250E-03
            5008            5186     8.34445E-03     8.39250E-03
            5026            5186     8.34445E-03     8.39250E-03
            5027            5187     8.36241E-03     8.39356E-03
            5008            5187     8.36241E-03     8.39356E-03
            5026            5187     8.36241E-03     8.39356E-03
            5009            5187     8.36241E-03     8.39356E-03
            5010            5188     8.38161E-03     8.40579E-03
            5009            5188     8.38161E-03     8.40579E-03
            5028            5188     8.38161E-03     8.40579E-03
            5027            5188     8.38161E-03     8.40579E-03
            5011            5189     8.14021E-03     8.02513E-03
            5028            5189     8.14021E-03     8.02513E-03
            5010            5189     8.14021E-03     8.02513E-03
            5029            5189     8.14021E-03     8.02513E-03
            5030            5190     7.00194E-03     6.59583E-03
            5029            5190     7.00194E-03     6.59583E-03
            5011            5190     7.00194E-03     6.59583E-03
            5012            5190     7.00194E-03     6.59583E-03
            5013            5191     5.75739E-03     6.19337E-03
            5032            5191     5.75739E-03     6.19337E-03
            5031            5191     5.75739E-03     6.19337E-03
            5014            5191     5.75739E-03     6.19337E-03
            5014            5192     8.77804E-03     8.83374E-03
            5032            5192     8.77804E-03     8.83374E-03
            5033            5192     8.77804E-03     8.83374E-03
            5015            5192     8.77804E-03     8.83374E-03
            5015            5193     9.73155E-03     9.55706E-03
            5016            5193     9.73155E-03     9.55706E-03
            5034            5193     9.73155E-03     9.55706E-03
            5033            5193     9.73155E-03     9.55706E-03
            5016            5194     9.57702E-03     9.43211E-03
            5035            5194     9.57702E-03     9.43211E-03
            5034            5194     9.57702E-03     9.43211E-03
            5017            5194     9.57702E-03     9.43211E-03
            5017            5195     9.37625E-03     9.25751E-03
            5035            5195     9.37625E-03     9.25751E-03
            5018            5195     9.37625E-03     9.25751E-03
            5036            5195     9.37625E-03     9.25751E-03
            5036            5196     9.18493E-03     9.07488E-03
            5019            5196     9.18493E-03     9.07488E-03
            5037            5196     9.18493E-03     9.07488E-03
            5018            5196     9.18493E-03     9.07488E-03
            5037            5197     9.03181E-03     8.93411E-03
            5038            5197     9.03181E-03     8.93411E-03
            5020            5197     9.03181E-03     8.93411E-03
            5019            5197     9.03181E-03     8.93411E-03
            5039            5198     8.90789E-03     8.82159E-03
            5038            5198     8.90789E-03     8.82159E-03
            5020            5198     8.90789E-03     8.82159E-03
            5021            5198     8.90789E-03     8.82159E-03
            5021            5199     8.80028E-03     8.72684E-03
            5040            5199     8.80028E-03     8.72684E-03
            5039            5199     8.80028E-03     8.72684E-03
            5022            5199     8.80028E-03     8.72684E-03
            5022            5200     8.71092E-03     8.64920E-03
            5041            5200     8.71092E-03     8.64920E-03
            5040            5200     8.71092E-03     8.64920E-03
            5023            5200     8.71092E-03     8.64920E-03
            5023            5201     8.63559E-03     8.58730E-03
            5041            5201     8.63559E-03     8.58730E-03
            5042            5201     8.63559E-03     8.58730E-03
            5024            5201     8.63559E-03     8.58730E-03
            5025            5202     8.58233E-03     8.54576E-03
            5042            5202     8.58233E-03     8.54576E-03
            5024            5202     8.58233E-03     8.54576E-03
            5043            5202     8.58233E-03     8.54576E-03
            5025            5203     8.55344E-03     8.53142E-03
            5044            5203     8.55344E-03     8.53142E-03
            5026            5203     8.55344E-03     8.53142E-03
            5043            5203     8.55344E-03     8.53142E-03
            5045            5204     8.53757E-03     8.53150E-03
            5027            5204     8.53757E-03     8.53150E-03
            5026            5204     8.53757E-03     8.53150E-03
            5044            5204     8.53757E-03     8.53150E-03
            5027            5205     8.49324E-03     8.52898E-03
            5028            5205     8.49324E-03     8.52898E-03
            5046            5205     8.49324E-03     8.52898E-03
            5045            5205     8.49324E-03     8.52898E-03
            5028            5206     8.13480E-03     8.10133E-03
            5046            5206     8.13480E-03     8.10133E-03
            5047            5206     8.13480E-03     8.10133E-03
            5029            5206     8.13480E-03     8.10133E-03
            5048            5207     6.93568E-03     6.58696E-03
            5047            5207     6.93568E-03     6.58696E-03
            5029            5207     6.93568E-03     6.58696E-03
            5030            5207     6.93568E-03     6.58696E-03
            5049            5208     5.05431E-03     5.22810E-03
            5031            5208     5.05431E-03     5.22810E-03
            5050            5208     5.05431E-03     5.22810E-03
            5032            5208     5.05431E-03     5.22810E-03
            5050            5209     8.22367E-03     7.67817E-03
            5051            5209     8.22367E-03     7.67817E-03
            5032            5209     8.22367E-03     7.67817E-03
            5033            5209     8.22367E-03     7.67817E-03
            5034            5210     9.21199E-03     8.72139E-03
            5051            5210     9.21199E-03     8.72139E-03
            5052            5210     9.21199E-03     8.72139E-03
            5033            5210     9.21199E-03     8.72139E-03
            5052            5211     9.54594E-03     9.06528E-03
            5034            5211     9.54594E-03     9.06528E-03
            5053            5211     9.54594E-03     9.06528E-03
            5035            5211     9.54594E-03     9.06528E-03
            5053            5212     9.51396E-03     9.08682E-03
            5035            5212     9.51396E-03     9.08682E-03
            5036            5212     9.51396E-03     9.08682E-03
            5054            5212     9.51396E-03     9.08682E-03
            5037            5213     9.42775E-03     9.03791E-03
            5054            5213     9.42775E-03     9.03791E-03
            5055            5213     9.42775E-03     9.03791E-03
            5036            5213     9.42775E-03     9.03791E-03
            5055            5214     9.31702E-03     8.96875E-03
            5037            5214     9.31702E-03     8.96875E-03
            5056            5214     9.31702E-03     8.96875E-03
            5038            5214     9.31702E-03     8.96875E-03
            5039            5215     9.20545E-03     8.89962E-03
            5038            5215     9.20545E-03     8.89962E-03
            5057            5215     9.20545E-03     8.89962E-03
            5056            5215     9.20545E-03     8.89962E-03
            5057            5216     9.10236E-03     8.83509E-03
            5058            5216     9.10236E-03     8.83509E-03
            5040            5216     9.10236E-03     8.83509E-03
            5039            5216     9.10236E-03     8.83509E-03
            5040            5217     9.00224E-03     8.77942E-03
            5059            5217     9.00224E-03     8.77942E-03
            5041            5217     9.00224E-03     8.77942E-03
            5058            5217     9.00224E-03     8.77942E-03
            5059            5218     8.91258E-03     8.73070E-03
            5060            5218     8.91258E-03     8.73070E-03
            5041            5218     8.91258E-03     8.73070E-03
            5042            5218     8.91258E-03     8.73070E-03
            5060            5219     8.82650E-03     8.69050E-03
            5042            5219     8.82650E-03     8.69050E-03
            5061            5219     8.82650E-03     8.69050E-03
            5043            5219     8.82650E-03     8.69050E-03
            5043            5220     8.73769E-03     8.64611E-03
            5061            5220     8.73769E-03     8.64611E-03
            5062            5220     8.73769E-03     8.64611E-03
            5044            5220     8.73769E-03     8.64611E-03
            5044            5221     8.63937E-03     8.59313E-03
            5045            5221     8.63937E-03     8.59313E-03
            5063            5221     8.63937E-03     8.59313E-03
            5062            5221     8.63937E-03     8.59313E-03
            5045            5222     8.41515E-03     8.40199E-03
            5063            5222     8.41515E-03     8.40199E-03
            5064            5222     8.41515E-03     8.40199E-03
            5046            5222     8.41515E-03     8.40199E-03
            5047            5223     8.04011E-03     8.08811E-03
            5065            5223     8.04011E-03     8.08811E-03
            5064            5223     8.04011E-03     8.08811E-03
            5046            5223     8.04011E-03     8.08811E-03
            5066            5224     7.12815E-03     7.18005E-03
            5065            5224     7.12815E-03     7.18005E-03
            5047            5224     7.12815E-03     7.18005E-03
            5048            5224     7.12815E-03     7.18005E-03
            5175            5310     103.509E-03     104.943E-03
            5194            5310     103.509E-03     104.943E-03
            5176            5310     103.509E-03     104.943E-03
            5193            5310     103.509E-03     104.943E-03
            5194            5311     91.6921E-03     94.1591E-03
            5176            5311     91.6921E-03     94.1591E-03
            5177            5311     91.6921E-03     94.1591E-03
            5195            5311     91.6921E-03     94.1591E-03
            5177            5312     82.8384E-03     85.6364E-03
            5196            5312     82.8384E-03     85.6364E-03
            5178            5312     82.8384E-03     85.6364E-03
            5195            5312     82.8384E-03     85.6364E-03
            5197            5313     75.6653E-03     78.5556E-03
            5179            5313     75.6653E-03     78.5556E-03
            5196            5313     75.6653E-03     78.5556E-03
            5178            5313     75.6653E-03     78.5556E-03
            5198            5314     68.6313E-03     71.7027E-03
            5180            5314     68.6313E-03     71.7027E-03
            5197            5314     68.6313E-03     71.7027E-03
            5179            5314     68.6313E-03     71.7027E-03
            5181            5315     61.8920E-03     65.0762E-03
            5199            5315     61.8920E-03     65.0762E-03
            5180            5315     61.8920E-03     65.0762E-03
            5198            5315     61.8920E-03     65.0762E-03
            5182            5316     55.2079E-03     58.4869E-03
            5199            5316     55.2079E-03     58.4869E-03
            5181            5316     55.2079E-03     58.4869E-03
            5200            5316     55.2079E-03     58.4869E-03
            5182            5317     48.6434E-03     52.0068E-03
            5183            5317     48.6434E-03     52.0068E-03
            5200            5317     48.6434E-03     52.0068E-03
            5201            5317     48.6434E-03     52.0068E-03
            5201            5318     42.2163E-03     45.6256E-03
            5183            5318     42.2163E-03     45.6256E-03
            5184            5318     42.2163E-03     45.6256E-03
            5202            5318     42.2163E-03     45.6256E-03
            5203            5319     36.0065E-03     39.4358E-03
            5202            5319     36.0065E-03     39.4358E-03
            5184            5319     36.0065E-03     39.4358E-03
            5185            5319     36.0065E-03     39.4358E-03
            5185            5320     30.1635E-03     33.5294E-03
            5204            5320     30.1635E-03     33.5294E-03
            5203            5320     30.1635E-03     33.5294E-03
            5186            5320     30.1635E-03     33.5294E-03
            5204            5321     24.9518E-03     28.1032E-03
            5187            5321     24.9518E-03     28.1032E-03
            5205            5321     24.9518E-03     28.1032E-03
            5186            5321     24.9518E-03     28.1032E-03
            5187            5322     20.8263E-03     23.4488E-03
            5188            5322     20.8263E-03     23.4488E-03
            5205            5322     20.8263E-03     23.4488E-03
            5206            5322     20.8263E-03     23.4488E-03
            5189            5323     18.6078E-03     20.1219E-03
            5188            5323     18.6078E-03     20.1219E-03
            5206            5323     18.6078E-03     20.1219E-03
            5207            5323     18.6078E-03     20.1219E-03
            5189            5324     18.6616E-03     18.5120E-03
            5208            5324     18.6616E-03     18.5120E-03
            5190            5324     18.6616E-03     18.5120E-03
            5207            5324     18.6616E-03     18.5120E-03
            5191            5325     22.0216E-03     20.1997E-03
            5208            5325     22.0216E-03     20.1997E-03
            5190            5325     22.0216E-03     20.1997E-03
            5209            5325     22.0216E-03     20.1997E-03
            5192            5326     27.8397E-03     24.9487E-03
            5210            5326     27.8397E-03     24.9487E-03
            5209            5326     27.8397E-03     24.9487E-03
            5191            5326     27.8397E-03     24.9487E-03
            5194            5327     102.656E-03     103.149E-03
            5193            5327     102.656E-03     103.149E-03
            5211            5327     102.656E-03     103.149E-03
            5212            5327     102.656E-03     103.149E-03
            5194            5328     94.3621E-03     96.2295E-03
            5195            5328     94.3621E-03     96.2295E-03
            5213            5328     94.3621E-03     96.2295E-03
            5212            5328     94.3621E-03     96.2295E-03
            5196            5329     85.3627E-03     87.7081E-03
            5213            5329     85.3627E-03     87.7081E-03
            5214            5329     85.3627E-03     87.7081E-03
            5195            5329     85.3627E-03     87.7081E-03
            5196            5330     77.8317E-03     80.2132E-03
            5197            5330     77.8317E-03     80.2132E-03
            5214            5330     77.8317E-03     80.2132E-03
            5215            5330     77.8317E-03     80.2132E-03
            5198            5331     70.7502E-03     73.0528E-03
            5216            5331     70.7502E-03     73.0528E-03
            5215            5331     70.7502E-03     73.0528E-03
            5197            5331     70.7502E-03     73.0528E-03
            5199            5332     63.8812E-03     66.1848E-03
            5216            5332     63.8812E-03     66.1848E-03
            5217            5332     63.8812E-03     66.1848E-03
            5198            5332     63.8812E-03     66.1848E-03
            5217            5333     57.1936E-03     59.5031E-03
            5218            5333     57.1936E-03     59.5031E-03
            5200            5333     57.1936E-03     59.5031E-03
            5199            5333     57.1936E-03     59.5031E-03
            5200            5334     50.6581E-03     52.9850E-03
            5219            5334     50.6581E-03     52.9850E-03
            5218            5334     50.6581E-03     52.9850E-03
            5201            5334     50.6581E-03     52.9850E-03
            5201            5335     44.3296E-03     46.6646E-03
            5202            5335     44.3296E-03     46.6646E-03
            5219            5335     44.3296E-03     46.6646E-03
            5220            5335     44.3296E-03     46.6646E-03
            5203            5336     38.2792E-03     40.5858E-03
            5220            5336     38.2792E-03     40.5858E-03
            5221            5336     38.2792E-03     40.5858E-03
            5202            5336     38.2792E-03     40.5858E-03
            5221            5337     32.6603E-03     34.8890E-03
            5203            5337     32.6603E-03     34.8890E-03
            5204            5337     32.6603E-03     34.8890E-03
            5222            5337     32.6603E-03     34.8890E-03
            5204            5338     27.7234E-03     29.7525E-03
            5205            5338     27.7234E-03     29.7525E-03
            5222            5338     27.7234E-03     29.7525E-03
            5223            5338     27.7234E-03     29.7525E-03
            5205            5339     23.9388E-03     25.5888E-03
            5206            5339     23.9388E-03     25.5888E-03
            5223            5339     23.9388E-03     25.5888E-03
            5224            5339     23.9388E-03     25.5888E-03
            5224            5340     21.7861E-03     22.7412E-03
            5225            5340     21.7861E-03     22.7412E-03
            5206            5340     21.7861E-03     22.7412E-03
            5207            5340     21.7861E-03     22.7412E-03
            5207            5341     21.9831E-03     21.7597E-03
            5226            5341     21.9831E-03     21.7597E-03
            5208            5341     21.9831E-03     21.7597E-03
            5225            5341     21.9831E-03     21.7597E-03
            5209            5342     24.0598E-03     22.5070E-03
            5227            5342     24.0598E-03     22.5070E-03
            5226            5342     24.0598E-03     22.5070E-03
            5208            5342     24.0598E-03     22.5070E-03
            5227            5343     25.7037E-03     23.1045E-03
            5209            5343     25.7037E-03     23.1045E-03
            5210            5343     25.7037E-03     23.1045E-03
            5228            5343     25.7037E-03     23.1045E-03
            5211            5344     98.1075E-03     100.215E-03
            5212            5344     98.1075E-03     100.215E-03
            5229            5344     98.1075E-03     100.215E-03
            5230            5344     98.1075E-03     100.215E-03
            5230            5345     93.3087E-03     94.9088E-03
            5213            5345     93.3087E-03     94.9088E-03
            5212            5345     93.3087E-03     94.9088E-03
            5231            5345     93.3087E-03     94.9088E-03
            5231            5346     86.2839E-03     87.8743E-03
            5214            5346     86.2839E-03     87.8743E-03
            5213            5346     86.2839E-03     87.8743E-03
            5232            5346     86.2839E-03     87.8743E-03
            5215            5347     78.8525E-03     80.4692E-03
            5233            5347     78.8525E-03     80.4692E-03
            5232            5347     78.8525E-03     80.4692E-03
            5214            5347     78.8525E-03     80.4692E-03
            5234            5348     72.0447E-03     73.4967E-03
            5215            5348     72.0447E-03     73.4967E-03
            5216            5348     72.0447E-03     73.4967E-03
            5233            5348     72.0447E-03     73.4967E-03
            5234            5349     65.3291E-03     66.7094E-03
            5235            5349     65.3291E-03     66.7094E-03
            5217            5349     65.3291E-03     66.7094E-03
            5216            5349     65.3291E-03     66.7094E-03
            5235            5350     58.8214E-03     60.1656E-03
            5236            5350     58.8214E-03     60.1656E-03
            5218            5350     58.8214E-03     60.1656E-03
            5217            5350     58.8214E-03     60.1656E-03
            5218            5351     52.4914E-03     53.8131E-03
            5237            5351     52.4914E-03     53.8131E-03
            5236            5351     52.4914E-03     53.8131E-03
            5219            5351     52.4914E-03     53.8131E-03
            5220            5352     46.3838E-03     47.6780E-03
            5219            5352     46.3838E-03     47.6780E-03
            5237            5352     46.3838E-03     47.6780E-03
            5238            5352     46.3838E-03     47.6780E-03
            5238            5353     40.5764E-03     41.8343E-03
            5239            5353     40.5764E-03     41.8343E-03
            5220            5353     40.5764E-03     41.8343E-03
            5221            5353     40.5764E-03     41.8343E-03
            5239            5354     35.1977E-03     36.3784E-03
            5240            5354     35.1977E-03     36.3784E-03
            5221            5354     35.1977E-03     36.3784E-03
            5222            5354     35.1977E-03     36.3784E-03
            5240            5355     30.4935E-03     31.5641E-03
            5241            5355     30.4935E-03     31.5641E-03
            5223            5355     30.4935E-03     31.5641E-03
            5222            5355     30.4935E-03     31.5641E-03
            5241            5356     26.7909E-03     27.6583E-03
            5224            5356     26.7909E-03     27.6583E-03
            5223            5356     26.7909E-03     27.6583E-03
            5242            5356     26.7909E-03     27.6583E-03
            5225            5357     24.5328E-03     25.1383E-03
            5224            5357     24.5328E-03     25.1383E-03
            5242            5357     24.5328E-03     25.1383E-03
            5243            5357     24.5328E-03     25.1383E-03
            5244            5358     24.0569E-03     24.1986E-03
            5225            5358     24.0569E-03     24.1986E-03
            5243            5358     24.0569E-03     24.1986E-03
            5226            5358     24.0569E-03     24.1986E-03
            5226            5359     24.5689E-03     23.5025E-03
            5245            5359     24.5689E-03     23.5025E-03
            5227            5359     24.5689E-03     23.5025E-03
            5244            5359     24.5689E-03     23.5025E-03
            5246            5360     24.4762E-03     22.1786E-03
            5245            5360     24.4762E-03     22.1786E-03
            5227            5360     24.4762E-03     22.1786E-03
            5228            5360     24.4762E-03     22.1786E-03
            5248            5361     93.7435E-03     94.2736E-03
            5230            5361     93.7435E-03     94.2736E-03
            5247            5361     93.7435E-03     94.2736E-03
            5229            5361     93.7435E-03     94.2736E-03
            5248            5362     89.9949E-03     91.1909E-03
            5249            5362     89.9949E-03     91.1909E-03
            5230            5362     89.9949E-03     91.1909E-03
            5231            5362     89.9949E-03     91.1909E-03
            5232            5363     84.7158E-03     85.5521E-03
            5250            5363     84.7158E-03     85.5521E-03
            5231            5363     84.7158E-03     85.5521E-03
            5249            5363     84.7158E-03     85.5521E-03
            5250            5364     78.7390E-03     79.2806E-03
            5232            5364     78.7390E-03     79.2806E-03
            5251            5364     78.7390E-03     79.2806E-03
            5233            5364     78.7390E-03     79.2806E-03
            5251            5365     72.4181E-03     72.9124E-03
            5233            5365     72.4181E-03     72.9124E-03
            5252            5365     72.4181E-03     72.9124E-03
            5234            5365     72.4181E-03     72.9124E-03
            5252            5366     66.2552E-03     66.6638E-03
            5253            5366     66.2552E-03     66.6638E-03
            5235            5366     66.2552E-03     66.6638E-03
            5234            5366     66.2552E-03     66.6638E-03
            5254            5367     60.1480E-03     60.5196E-03
            5235            5367     60.1480E-03     60.5196E-03
            5253            5367     60.1480E-03     60.5196E-03
            5236            5367     60.1480E-03     60.5196E-03
            5255            5368     54.2060E-03     54.5318E-03
            5236            5368     54.2060E-03     54.5318E-03
            5254            5368     54.2060E-03     54.5318E-03
            5237            5368     54.2060E-03     54.5318E-03
            5256            5369     48.4511E-03     48.7457E-03
            5255            5369     48.4511E-03     48.7457E-03
            5238            5369     48.4511E-03     48.7457E-03
            5237            5369     48.4511E-03     48.7457E-03
            5239            5370     42.9630E-03     43.2193E-03
            5257            5370     42.9630E-03     43.2193E-03
            5238            5370     42.9630E-03     43.2193E-03
            5256            5370     42.9630E-03     43.2193E-03
            5239            5371     37.8670E-03     38.0950E-03
            5257            5371     37.8670E-03     38.0950E-03
            5240            5371     37.8670E-03     38.0950E-03
            5258            5371     37.8670E-03     38.0950E-03
            5240            5372     33.3304E-03     33.5284E-03
            5258            5372     33.3304E-03     33.5284E-03
            5241            5372     33.3304E-03     33.5284E-03
            5259            5372     33.3304E-03     33.5284E-03
            5242            5373     29.6034E-03     29.8138E-03
            5260            5373     29.6034E-03     29.8138E-03
            5241            5373     29.6034E-03     29.8138E-03
            5259            5373     29.6034E-03     29.8138E-03
            5261            5374     26.9863E-03     27.2422E-03
            5242            5374     26.9863E-03     27.2422E-03
            5243            5374     26.9863E-03     27.2422E-03
            5260            5374     26.9863E-03     27.2422E-03
            5244            5375     25.3174E-03     25.8191E-03
            5261            5375     25.3174E-03     25.8191E-03
            5243            5375     25.3174E-03     25.8191E-03
            5262            5375     25.3174E-03     25.8191E-03
            5262            5376     24.6947E-03     25.1362E-03
            5245            5376     24.6947E-03     25.1362E-03
            5244            5376     24.6947E-03     25.1362E-03
            5263            5376     24.6947E-03     25.1362E-03
            5263            5377     24.5437E-03     23.3945E-03
            5245            5377     24.5437E-03     23.3945E-03
            5264            5377     24.5437E-03     23.3945E-03
            5246            5377     24.5437E-03     23.3945E-03
            5266            5378     87.7287E-03     87.5256E-03
            5248            5378     87.7287E-03     87.5256E-03
            5265            5378     87.7287E-03     87.5256E-03
            5247            5378     87.7287E-03     87.5256E-03
            5266            5379     85.5571E-03     85.2642E-03
            5248            5379     85.5571E-03     85.2642E-03
            5267            5379     85.5571E-03     85.2642E-03
            5249            5379     85.5571E-03     85.2642E-03
            5267            5380     81.9615E-03     81.5070E-03
            5250            5380     81.9615E-03     81.5070E-03
            5268            5380     81.9615E-03     81.5070E-03
            5249            5380     81.9615E-03     81.5070E-03
            5268            5381     77.4193E-03     76.8971E-03
            5250            5381     77.4193E-03     76.8971E-03
            5251            5381     77.4193E-03     76.8971E-03
            5269            5381     77.4193E-03     76.8971E-03
            5252            5382     72.2466E-03     71.6963E-03
            5269            5382     72.2466E-03     71.6963E-03
            5251            5382     72.2466E-03     71.6963E-03
            5270            5382     72.2466E-03     71.6963E-03
            5270            5383     66.8339E-03     66.2868E-03
            5253            5383     66.8339E-03     66.2868E-03
            5252            5383     66.8339E-03     66.2868E-03
            5271            5383     66.8339E-03     66.2868E-03
            5253            5384     61.3887E-03     60.7806E-03
            5271            5384     61.3887E-03     60.7806E-03
            5254            5384     61.3887E-03     60.7806E-03
            5272            5384     61.3887E-03     60.7806E-03
            5272            5385     55.9639E-03     55.3229E-03
            5254            5385     55.9639E-03     55.3229E-03
            5273            5385     55.9639E-03     55.3229E-03
            5255            5385     55.9639E-03     55.3229E-03
            5273            5386     50.6631E-03     49.9842E-03
            5274            5386     50.6631E-03     49.9842E-03
            5256            5386     50.6631E-03     49.9842E-03
            5255            5386     50.6631E-03     49.9842E-03
            5275            5387     45.5721E-03     44.8811E-03
            5257            5387     45.5721E-03     44.8811E-03
            5274            5387     45.5721E-03     44.8811E-03
            5256            5387     45.5721E-03     44.8811E-03
            5276            5388     40.7826E-03     40.1206E-03
            5257            5388     40.7826E-03     40.1206E-03
            5275            5388     40.7826E-03     40.1206E-03
            5258            5388     40.7826E-03     40.1206E-03
            5277            5389     36.4434E-03     35.8532E-03
            5276            5389     36.4434E-03     35.8532E-03
            5259            5389     36.4434E-03     35.8532E-03
            5258            5389     36.4434E-03     35.8532E-03
            5260            5390     32.6826E-03     32.2603E-03
            5259            5390     32.6826E-03     32.2603E-03
            5277            5390     32.6826E-03     32.2603E-03
            5278            5390     32.6826E-03     32.2603E-03
            5260            5391     29.5772E-03     29.4342E-03
            5261            5391     29.5772E-03     29.4342E-03
            5278            5391     29.5772E-03     29.4342E-03
            5279            5391     29.5772E-03     29.4342E-03
            5262            5392     27.1425E-03     27.4803E-03
            5261            5392     27.1425E-03     27.4803E-03
            5280            5392     27.1425E-03     27.4803E-03
            5279            5392     27.1425E-03     27.4803E-03
            5280            5393     24.9719E-03     26.4150E-03
            5263            5393     24.9719E-03     26.4150E-03
            5262            5393     24.9719E-03     26.4150E-03
            5281            5393     24.9719E-03     26.4150E-03
            5281            5394     22.8275E-03     25.3183E-03
            5282            5394     22.8275E-03     25.3183E-03
            5263            5394     22.8275E-03     25.3183E-03
            5264            5394     22.8275E-03     25.3183E-03
            5757            5777     488.524E-06     524.295E-06
            5739            5777     488.524E-06     524.295E-06
            5758            5777     488.524E-06     524.295E-06
            5740            5777     488.524E-06     524.295E-06
            5740            5778     369.175E-06     410.445E-06
            5758            5778     369.175E-06     410.445E-06
            5759            5778     369.175E-06     410.445E-06
            5741            5778     369.175E-06     410.445E-06
            5759            5779     328.745E-06     369.229E-06
            5741            5779     328.745E-06     369.229E-06
            5760            5779     328.745E-06     369.229E-06
            5742            5779     328.745E-06     369.229E-06
            5761            5780     318.422E-06     356.975E-06
            5760            5780     318.422E-06     356.975E-06
            5743            5780     318.422E-06     356.975E-06
            5742            5780     318.422E-06     356.975E-06
            5761            5781     310.601E-06     347.027E-06
            5762            5781     310.601E-06     347.027E-06
            5743            5781     310.601E-06     347.027E-06
            5744            5781     310.601E-06     347.027E-06
            5745            5782     303.261E-06     338.404E-06
            5744            5782     303.261E-06     338.404E-06
            5763            5782     303.261E-06     338.404E-06
            5762            5782     303.261E-06     338.404E-06
            5763            5783     295.112E-06     329.009E-06
            5746            5783     295.112E-06     329.009E-06
            5764            5783     295.112E-06     329.009E-06
            5745            5783     295.112E-06     329.009E-06
            5746            5784     287.561E-06     320.089E-06
            5764            5784     287.561E-06     320.089E-06
            5747            5784     287.561E-06     320.089E-06
            5765            5784     287.561E-06     320.089E-06
            5748            5785     280.330E-06     311.222E-06
            5747            5785     280.330E-06     311.222E-06
            5765            5785     280.330E-06     311.222E-06
            5766            5785     280.330E-06     311.222E-06
            5749            5786     274.163E-06     303.082E-06
            5766            5786     274.163E-06     303.082E-06
            5767            5786     274.163E-06     303.082E-06
            5748            5786     274.163E-06     303.082E-06
            5768            5787     268.805E-06     295.484E-06
            5749            5787     268.805E-06     295.484E-06
            5750            5787     268.805E-06     295.484E-06
            5767            5787     268.805E-06     295.484E-06
            5751            5788     264.660E-06     288.554E-06
            5768            5788     264.660E-06     288.554E-06
            5769            5788     264.660E-06     288.554E-06
            5750            5788     264.660E-06     288.554E-06
            5770            5789     261.404E-06     282.389E-06
            5751            5789     261.404E-06     282.389E-06
            5752            5789     261.404E-06     282.389E-06
            5769            5789     261.404E-06     282.389E-06
            5753            5790     259.490E-06     276.635E-06
            5771            5790     259.490E-06     276.635E-06
            5770            5790     259.490E-06     276.635E-06
            5752            5790     259.490E-06     276.635E-06
            5771            5791     257.890E-06     271.378E-06
            5753            5791     257.890E-06     271.378E-06
            5772            5791     257.890E-06     271.378E-06
            5754            5791     257.890E-06     271.378E-06
            5772            5792     254.745E-06     270.690E-06
            5755            5792     254.745E-06     270.690E-06
            5754            5792     254.745E-06     270.690E-06
            5773            5792     254.745E-06     270.690E-06
            5755            5793     253.848E-06     270.947E-06
            5773            5793     253.848E-06     270.947E-06
            5774            5793     253.848E-06     270.947E-06
            5756            5793     253.848E-06     270.947E-06
            5775            5794     401.650E-06     405.809E-06
            5758            5794     401.650E-06     405.809E-06
            5776            5794     401.650E-06     405.809E-06
            5757            5794     401.650E-06     405.809E-06
            5776            5795     365.301E-06     382.338E-06
            5759            5795     365.301E-06     382.338E-06
            5777            5795     365.301E-06     382.338E-06
            5758            5795     365.301E-06     382.338E-06
            5778            5796     347.912E-06     370.832E-06
            5759            5796     347.912E-06     370.832E-06
            5760            5796     347.912E-06     370.832E-06
            5777            5796     347.912E-06     370.832E-06
            5779            5797     340.413E-06     362.998E-06
            5761            5797     340.413E-06     362.998E-06
            5778            5797     340.413E-06     362.998E-06
            5760            5797     340.413E-06     362.998E-06
            5762            5798     331.506E-06     351.992E-06
            5779            5798     331.506E-06     351.992E-06
            5780            5798     331.506E-06     351.992E-06
            5761            5798     331.506E-06     351.992E-06
            5763            5799     320.048E-06     340.542E-06
            5780            5799     320.048E-06     340.542E-06
            5781            5799     320.048E-06     340.542E-06
            5762            5799     320.048E-06     340.542E-06
            5782            5800     310.533E-06     330.047E-06
            5781            5800     310.533E-06     330.047E-06
            5764            5800     310.533E-06     330.047E-06
            5763            5800     310.533E-06     330.047E-06
            5782            5801     301.391E-06     320.336E-06
            5783            5801     301.391E-06     320.336E-06
            5764            5801     301.391E-06     320.336E-06
            5765            5801     301.391E-06     320.336E-06
            5766            5802     293.809E-06     311.836E-06
            5784            5802     293.809E-06     311.836E-06
            5783            5802     293.809E-06     311.836E-06
            5765            5802     293.809E-06     311.836E-06
            5767            5803     287.055E-06     304.055E-06
            5784            5803     287.055E-06     304.055E-06
            5785            5803     287.055E-06     304.055E-06
            5766            5803     287.055E-06     304.055E-06
            5768            5804     281.444E-06     297.284E-06
            5767            5804     281.444E-06     297.284E-06
            5786            5804     281.444E-06     297.284E-06
            5785            5804     281.444E-06     297.284E-06
            5787            5805     276.812E-06     291.164E-06
            5769            5805     276.812E-06     291.164E-06
            5768            5805     276.812E-06     291.164E-06
            5786            5805     276.812E-06     291.164E-06
            5788            5806     273.038E-06     286.124E-06
            5769            5806     273.038E-06     286.124E-06
            5770            5806     273.038E-06     286.124E-06
            5787            5806     273.038E-06     286.124E-06
            5788            5807     270.652E-06     281.678E-06
            5771            5807     270.652E-06     281.678E-06
            5789            5807     270.652E-06     281.678E-06
            5770            5807     270.652E-06     281.678E-06
            5772            5808     269.579E-06     277.877E-06
            5771            5808     269.579E-06     277.877E-06
            5789            5808     269.579E-06     277.877E-06
            5790            5808     269.579E-06     277.877E-06
            5773            5809     270.864E-06     273.371E-06
            5772            5809     270.864E-06     273.371E-06
            5791            5809     270.864E-06     273.371E-06
            5790            5809     270.864E-06     273.371E-06
            5791            5810     279.555E-06     264.570E-06
            5773            5810     279.555E-06     264.570E-06
            5792            5810     279.555E-06     264.570E-06
            5774            5810     279.555E-06     264.570E-06
            5794            5811     278.605E-06     288.392E-06
            5775            5811     278.605E-06     288.392E-06
            5793            5811     278.605E-06     288.392E-06
            5776            5811     278.605E-06     288.392E-06
            5776            5812     311.944E-06     328.248E-06
            5794            5812     311.944E-06     328.248E-06
            5795            5812     311.944E-06     328.248E-06
            5777            5812     311.944E-06     328.248E-06
            5777            5813     353.299E-06     361.834E-06
            5795            5813     353.299E-06     361.834E-06
            5796            5813     353.299E-06     361.834E-06
            5778            5813     353.299E-06     361.834E-06
            5779            5814     356.128E-06     360.576E-06
            5778            5814     356.128E-06     360.576E-06
            5797            5814     356.128E-06     360.576E-06
            5796            5814     356.128E-06     360.576E-06
            5780            5815     345.668E-06     351.269E-06
            5797            5815     345.668E-06     351.269E-06
            5798            5815     345.668E-06     351.269E-06
            5779            5815     345.668E-06     351.269E-06
            5780            5816     334.889E-06     339.574E-06
            5781            5816     334.889E-06     339.574E-06
            5799            5816     334.889E-06     339.574E-06
            5798            5816     334.889E-06     339.574E-06
            5781            5817     323.761E-06     328.884E-06
            5799            5817     323.761E-06     328.884E-06
            5800            5817     323.761E-06     328.884E-06
            5782            5817     323.761E-06     328.884E-06
            5800            5818     314.854E-06     319.725E-06
            5801            5818     314.854E-06     319.725E-06
            5783            5818     314.854E-06     319.725E-06
            5782            5818     314.854E-06     319.725E-06
            5802            5819     306.899E-06     311.772E-06
            5801            5819     306.899E-06     311.772E-06
            5783            5819     306.899E-06     311.772E-06
            5784            5819     306.899E-06     311.772E-06
            5784            5820     300.276E-06     305.071E-06
            5785            5820     300.276E-06     305.071E-06
            5802            5820     300.276E-06     305.071E-06
            5803            5820     300.276E-06     305.071E-06
            5804            5821     294.518E-06     299.108E-06
            5785            5821     294.518E-06     299.108E-06
            5803            5821     294.518E-06     299.108E-06
            5786            5821     294.518E-06     299.108E-06
            5787            5822     289.538E-06     294.272E-06
            5804            5822     289.538E-06     294.272E-06
            5805            5822     289.538E-06     294.272E-06
            5786            5822     289.538E-06     294.272E-06
            5806            5823     285.638E-06     290.007E-06
            5787            5823     285.638E-06     290.007E-06
            5788            5823     285.638E-06     290.007E-06
            5805            5823     285.638E-06     290.007E-06
            5788            5824     282.183E-06     287.206E-06
            5806            5824     282.183E-06     287.206E-06
            5807            5824     282.183E-06     287.206E-06
            5789            5824     282.183E-06     287.206E-06
            5807            5825     281.224E-06     284.983E-06
            5789            5825     281.224E-06     284.983E-06
            5808            5825     281.224E-06     284.983E-06
            5790            5825     281.224E-06     284.983E-06
            5809            5826     287.586E-06     276.371E-06
            5808            5826     287.586E-06     276.371E-06
            5790            5826     287.586E-06     276.371E-06
            5791            5826     287.586E-06     276.371E-06
            5810            5827     293.241E-06     263.843E-06
            5791            5827     293.241E-06     263.843E-06
            5792            5827     293.241E-06     263.843E-06
            5809            5827     293.241E-06     263.843E-06
            5794            5828     185.757E-06     183.206E-06
            5811            5828     185.757E-06     183.206E-06
            5812            5828     185.757E-06     183.206E-06
            5793            5828     185.757E-06     183.206E-06
            5795            5829     272.832E-06     273.619E-06
            5812            5829     272.832E-06     273.619E-06
            5794            5829     272.832E-06     273.619E-06
            5813            5829     272.832E-06     273.619E-06
            5813            5830     341.078E-06     330.262E-06
            5796            5830     341.078E-06     330.262E-06
            5814            5830     341.078E-06     330.262E-06
            5795            5830     341.078E-06     330.262E-06
            5796            5831     354.888E-06     342.629E-06
            5797            5831     354.888E-06     342.629E-06
            5814            5831     354.888E-06     342.629E-06
            5815            5831     354.888E-06     342.629E-06
            5797            5832     351.468E-06     339.564E-06
            5816            5832     351.468E-06     339.564E-06
            5815            5832     351.468E-06     339.564E-06
            5798            5832     351.468E-06     339.564E-06
            5799            5833     343.270E-06     332.356E-06
            5816            5833     343.270E-06     332.356E-06
            5817            5833     343.270E-06     332.356E-06
            5798            5833     343.270E-06     332.356E-06
            5800            5834     334.924E-06     324.693E-06
            5817            5834     334.924E-06     324.693E-06
            5799            5834     334.924E-06     324.693E-06
            5818            5834     334.924E-06     324.693E-06
            5819            5835     327.028E-06     317.618E-06
            5800            5835     327.028E-06     317.618E-06
            5818            5835     327.028E-06     317.618E-06
            5801            5835     327.028E-06     317.618E-06
            5801            5836     320.109E-06     311.539E-06
            5820            5836     320.109E-06     311.539E-06
            5819            5836     320.109E-06     311.539E-06
            5802            5836     320.109E-06     311.539E-06
            5802            5837     313.817E-06     306.143E-06
            5803            5837     313.817E-06     306.143E-06
            5820            5837     313.817E-06     306.143E-06
            5821            5837     313.817E-06     306.143E-06
            5803            5838     308.218E-06     301.608E-06
            5821            5838     308.218E-06     301.608E-06
            5804            5838     308.218E-06     301.608E-06
            5822            5838     308.218E-06     301.608E-06
            5822            5839     303.270E-06     297.630E-06
            5804            5839     303.270E-06     297.630E-06
            5805            5839     303.270E-06     297.630E-06
            5823            5839     303.270E-06     297.630E-06
            5823            5840     298.776E-06     294.710E-06
            5805            5840     298.776E-06     294.710E-06
            5806            5840     298.776E-06     294.710E-06
            5824            5840     298.776E-06     294.710E-06
            5807            5841     295.212E-06     292.393E-06
            5824            5841     295.212E-06     292.393E-06
            5806            5841     295.212E-06     292.393E-06
            5825            5841     295.212E-06     292.393E-06
            5807            5842     292.177E-06     291.207E-06
            5826            5842     292.177E-06     291.207E-06
            5825            5842     292.177E-06     291.207E-06
            5808            5842     292.177E-06     291.207E-06
            5827            5843     290.889E-06     291.016E-06
            5808            5843     290.889E-06     291.016E-06
            5826            5843     290.889E-06     291.016E-06
            5809            5843     290.889E-06     291.016E-06
            5828            5844     298.382E-06     285.029E-06
            5827            5844     298.382E-06     285.029E-06
            5809            5844     298.382E-06     285.029E-06
            5810            5844     298.382E-06     285.029E-06
            5812            5845     152.193E-06     162.930E-06
            5811            5845     152.193E-06     162.930E-06
            5829            5845     152.193E-06     162.930E-06
            5830            5845     152.193E-06     162.930E-06
            5813            5846     251.428E-06     216.487E-06
            5812            5846     251.428E-06     216.487E-06
            5831            5846     251.428E-06     216.487E-06
            5830            5846     251.428E-06     216.487E-06
            5814            5847     313.461E-06     280.364E-06
            5813            5847     313.461E-06     280.364E-06
            5831            5847     313.461E-06     280.364E-06
            5832            5847     313.461E-06     280.364E-06
            5815            5848     340.411E-06     310.197E-06
            5814            5848     340.411E-06     310.197E-06
            5833            5848     340.411E-06     310.197E-06
            5832            5848     340.411E-06     310.197E-06
            5833            5849     349.052E-06     319.671E-06
            5834            5849     349.052E-06     319.671E-06
            5815            5849     349.052E-06     319.671E-06
            5816            5849     349.052E-06     319.671E-06
            5835            5850     348.164E-06     321.136E-06
            5816            5850     348.164E-06     321.136E-06
            5834            5850     348.164E-06     321.136E-06
            5817            5850     348.164E-06     321.136E-06
            5835            5851     344.441E-06     318.798E-06
            5817            5851     344.441E-06     318.798E-06
            5818            5851     344.441E-06     318.798E-06
            5836            5851     344.441E-06     318.798E-06
            5819            5852     339.164E-06     315.375E-06
            5836            5852     339.164E-06     315.375E-06
            5818            5852     339.164E-06     315.375E-06
            5837            5852     339.164E-06     315.375E-06
            5820            5853     333.599E-06     311.573E-06
            5819            5853     333.599E-06     311.573E-06
            5838            5853     333.599E-06     311.573E-06
            5837            5853     333.599E-06     311.573E-06
            5820            5854     328.064E-06     307.948E-06
            5838            5854     328.064E-06     307.948E-06
            5839            5854     328.064E-06     307.948E-06
            5821            5854     328.064E-06     307.948E-06
            5839            5855     322.694E-06     304.719E-06
            5821            5855     322.694E-06     304.719E-06
            5822            5855     322.694E-06     304.719E-06
            5840            5855     322.694E-06     304.719E-06
            5823            5856     317.731E-06     301.917E-06
            5841            5856     317.731E-06     301.917E-06
            5822            5856     317.731E-06     301.917E-06
            5840            5856     317.731E-06     301.917E-06
            5824            5857     312.969E-06     299.821E-06
            5841            5857     312.969E-06     299.821E-06
            5823            5857     312.969E-06     299.821E-06
            5842            5857     312.969E-06     299.821E-06
            5843            5858     308.847E-06     298.188E-06
            5825            5858     308.847E-06     298.188E-06
            5824            5858     308.847E-06     298.188E-06
            5842            5858     308.847E-06     298.188E-06
            5844            5859     304.102E-06     297.506E-06
            5825            5859     304.102E-06     297.506E-06
            5843            5859     304.102E-06     297.506E-06
            5826            5859     304.102E-06     297.506E-06
            5844            5860     297.064E-06     302.078E-06
            5827            5860     297.064E-06     302.078E-06
            5826            5860     297.064E-06     302.078E-06
            5845            5860     297.064E-06     302.078E-06
            5846            5861     291.565E-06     309.545E-06
            5827            5861     291.565E-06     309.545E-06
            5845            5861     291.565E-06     309.545E-06
            5828            5861     291.565E-06     309.545E-06


  Minimum                            59.9919E-06     137.597E-06
      At Element                             856            5811
            Node                             308             197

  Maximum                            203.890E-03     204.663E-03
      At Element                            2475            2475
            Node                             524             524

           Total                         257.708         262.195


