********************************************************************************
Field Output Report, written Tue Feb 19 12:23:16 2019

Source 1
---------

   ODB: C:/Scratch/B737-19.odb
   Step: Rotation
   Frame: Increment      1: Step Time =    1.000

Loc 1 : Element nodal  values at shell < ALUMINIUM > < 5 section points > from source 1 : SNEG, (fraction = -1.0) ( Average criteria = 75%, Not averaged across region boundaries )
Loc 2 : Element nodal  values at shell < ALUMINIUM > < 5 section points > from source 1 : SPOS, (fraction = 1.0) ( Average criteria = 75%, Not averaged across region boundaries )

Output sorted by column "Element Label".

Field Output reported at element nodes for region: B737-1.Region_1
   Computation algorithm: EXTRAPOLATE_COMPUTE_AVERAGE
   Averaged at nodes
   Averaging regions: ODB_REGIONS

   Element Label      Node Label         S.Mises         S.Mises
                                          @Loc 1          @Loc 2
-----------------------------------------------------------------
               1               1     14.8158E-15     16.1652E-15
               1              43     11.1432E-15     13.8179E-15
               1              56     10.6134E-15     9.73007E-15
               1            1034     10.1338E-15     10.6281E-15
               2              43     11.1432E-15     13.8179E-15
               2              44     8.17159E-15     9.65984E-15
               2            1034     10.1338E-15     10.6281E-15
               2            1035     9.90563E-15     10.2351E-15
               3               2     16.8132E-03     16.6306E-03
               3              44     8.17159E-15     9.65984E-15
               3              45     16.1199E-03     15.9736E-03
               3            1035     9.90563E-15     10.2351E-15
               4              55     15.3865E-15     12.4581E-15
               4              56     10.6134E-15     9.73007E-15
               4            1034     10.1338E-15     10.6281E-15
               4            1036     12.3029E-15     11.6103E-15
               5            1034     10.1338E-15     10.6281E-15
               5            1035     9.90563E-15     10.2351E-15
               5            1036     12.3029E-15     11.6103E-15
               5            1037     8.56581E-15     10.2471E-15
               6              45     16.1199E-03     15.9736E-03
               6              46     14.2702E-03     14.1772E-03
               6            1035     9.90563E-15     10.2351E-15
               6            1037     8.56581E-15     10.2471E-15
               7              54     13.6813E-15     10.7163E-15
               7              55     15.3865E-15     12.4581E-15
               7            1036     12.3029E-15     11.6103E-15
               7            1038     12.0091E-15     11.9956E-15
               8            1036     12.3029E-15     11.6103E-15
               8            1037     8.56581E-15     10.2471E-15
               8            1038     12.0091E-15     11.9956E-15
               8            1039     10.1972E-15     13.4769E-15
               9              46     14.2702E-03     14.1772E-03
               9              47     11.1108E-03     11.3797E-03
               9            1037     8.56581E-15     10.2471E-15
               9            1039     10.1972E-15     13.4769E-15
              10              53     7.61609E-15     6.78260E-15
              10              54     13.6813E-15     10.7163E-15
              10            1038     12.0091E-15     11.9956E-15
              10            1040     8.90210E-15     10.1651E-15
              11            1038     12.0091E-15     11.9956E-15
              11            1039     10.1972E-15     13.4769E-15
              11            1040     8.90210E-15     10.1651E-15
              11            1041     11.2364E-15     12.9290E-15
              12              47     11.1108E-03     11.3797E-03
              12              48     7.68379E-03     8.26430E-03
              12            1039     10.1972E-15     13.4769E-15
              12            1041     11.2364E-15     12.9290E-15
              13              52     10.4151E-15     10.8357E-15
              13              53     7.61609E-15     6.78260E-15
              13            1040     8.90210E-15     10.1651E-15
              13            1042     12.4171E-15     13.7890E-15
              14            1040     8.90210E-15     10.1651E-15
              14            1041     11.2364E-15     12.9290E-15
              14            1042     12.4171E-15     13.7890E-15
              14            1043     17.5128E-15     18.1483E-15
              15              48     7.68379E-03     8.26430E-03
              15              49     5.67093E-03     7.10534E-03
              15            1041     11.2364E-15     12.9290E-15
              15            1043     17.5128E-15     18.1483E-15
              16               4     11.2675E-15     12.6424E-15
              16              51     15.5859E-15     16.7963E-15
              16              52     10.4151E-15     10.8357E-15
              16            1042     12.4171E-15     13.7890E-15
              17              50     18.0739E-15     18.8876E-15
              17              51     15.5859E-15     16.7963E-15
              17            1042     12.4171E-15     13.7890E-15
              17            1043     17.5128E-15     18.1483E-15
              18               3     5.10720E-03     7.25800E-03
              18              49     5.67093E-03     7.10534E-03
              18              50     18.0739E-15     18.8876E-15
              18            1043     17.5128E-15     18.1483E-15
              19               2     16.8132E-03     16.6306E-03
              19              45     16.1199E-03     15.9736E-03
              19              57     33.8422E-03     33.4034E-03
              19            1044     32.5389E-03     32.1256E-03
              20              57     33.8422E-03     33.4034E-03
              20              58     33.8981E-03     33.6318E-03
              20            1044     32.5389E-03     32.1256E-03
              20            1045     32.6323E-03     32.3957E-03
              21              58     33.8981E-03     33.6318E-03
              21              59     33.8089E-03     33.6722E-03
              21            1045     32.6323E-03     32.3957E-03
              21            1046     32.5901E-03     32.5177E-03
              22              59     33.8089E-03     33.6722E-03
              22              60     33.8672E-03     33.5886E-03
              22            1046     32.5901E-03     32.5177E-03
              22            1047     32.8172E-03     32.5962E-03
              23              60     33.8672E-03     33.5886E-03
              23              61     33.5885E-03     33.7332E-03
              23            1047     32.8172E-03     32.5962E-03
              23            1048     32.8270E-03     33.1251E-03
              24              61     33.5885E-03     33.7332E-03
              24              62     33.8634E-03     33.8663E-03
              24            1048     32.8270E-03     33.1251E-03
              24            1049     33.6339E-03     33.4501E-03
              25              62     33.8634E-03     33.8663E-03
              25              63     33.8791E-03     33.2022E-03
              25            1049     33.6339E-03     33.4501E-03
              25            1050     33.6758E-03     32.9936E-03
              26              63     33.8791E-03     33.2022E-03
              26              64     33.8549E-03     33.4191E-03
              26            1050     33.6758E-03     32.9936E-03
              26            1051     33.0424E-03     32.9647E-03
              27              64     33.8549E-03     33.4191E-03
              27              65     34.4470E-03     33.9603E-03
              27            1051     33.0424E-03     32.9647E-03
              27            1052     33.5816E-03     33.1653E-03
              28              65     34.4470E-03     33.9603E-03
              28              66     34.7301E-03     33.8217E-03
              28            1052     33.5816E-03     33.1653E-03
              28            1053     34.1588E-03     33.5420E-03
              29              66     34.7301E-03     33.8217E-03
              29              67     34.8343E-03     33.9976E-03
              29            1053     34.1588E-03     33.5420E-03
              29            1054     34.6974E-03     34.2892E-03
              30              67     34.8343E-03     33.9976E-03
              30              68     34.7258E-03     34.1600E-03
              30            1054     34.6974E-03     34.2892E-03
              30            1055     35.1749E-03     35.0663E-03
              31              68     34.7258E-03     34.1600E-03
              31              69     34.6654E-03     34.5418E-03
              31            1055     35.1749E-03     35.0663E-03
              31            1056     35.9036E-03     35.9339E-03
              32              69     34.6654E-03     34.5418E-03
              32              70     34.5903E-03     34.7754E-03
              32            1056     35.9036E-03     35.9339E-03
              32            1057     36.6420E-03     36.4146E-03
              33              70     34.5903E-03     34.7754E-03
              33              71     34.0643E-03     35.1419E-03
              33            1057     36.6420E-03     36.4146E-03
              33            1058     36.6332E-03     37.6759E-03
              34              71     34.0643E-03     35.1419E-03
              34              72     34.8261E-03     35.3895E-03
              34            1058     36.6332E-03     37.6759E-03
              34            1059     38.4539E-03     38.0527E-03
              35              72     34.8261E-03     35.3895E-03
              35              73     34.9930E-03     34.0241E-03
              35            1059     38.4539E-03     38.0527E-03
              35            1060     38.3216E-03     37.0175E-03
              36              73     34.9930E-03     34.0241E-03
              36              74     34.5273E-03     34.2401E-03
              36            1060     38.3216E-03     37.0175E-03
              36            1061     36.2019E-03     37.0077E-03
              37              74     34.5273E-03     34.2401E-03
              37              75     35.3338E-03     34.7804E-03
              37            1061     36.2019E-03     37.0077E-03
              37            1062     37.2698E-03     36.6579E-03
              38              75     35.3338E-03     34.7804E-03
              38              76     35.9436E-03     34.1770E-03
              38            1062     37.2698E-03     36.6579E-03
              38            1063     38.6447E-03     37.2911E-03
              39              76     35.9436E-03     34.1770E-03
              39              77     36.3680E-03     34.7103E-03
              39            1063     38.6447E-03     37.2911E-03
              39            1064     39.4738E-03     38.9979E-03
              40              77     36.3680E-03     34.7103E-03
              40              78     36.3379E-03     35.0965E-03
              40            1064     39.4738E-03     38.9979E-03
              40            1065     40.6800E-03     40.0184E-03
              41              78     36.3379E-03     35.0965E-03
              41              79     36.3049E-03     35.7443E-03
              41            1065     40.6800E-03     40.0184E-03
              41            1066     41.5801E-03     41.3686E-03
              42              79     36.3049E-03     35.7443E-03
              42              80     36.2412E-03     36.6202E-03
              42            1066     41.5801E-03     41.3686E-03
              42            1067     42.6464E-03     42.6369E-03
              43              80     36.2412E-03     36.6202E-03
              43              81     36.1932E-03     36.9755E-03
              43            1067     42.6464E-03     42.6369E-03
              43            1068     43.6114E-03     43.1973E-03
              44              81     36.1932E-03     36.9755E-03
              44              82     35.3809E-03     37.4793E-03
              44            1068     43.6114E-03     43.1973E-03
              44            1069     43.2172E-03     45.1125E-03
              45              82     35.3809E-03     37.4793E-03
              45              83     36.6594E-03     37.6845E-03
              45            1069     43.2172E-03     45.1125E-03
              45            1070     45.9471E-03     45.1839E-03
              46              83     36.6594E-03     37.6845E-03
              46              84     36.8865E-03     35.5539E-03
              46            1070     45.9471E-03     45.1839E-03
              46            1071     45.3736E-03     43.3993E-03
              47              84     36.8865E-03     35.5539E-03
              47              85     35.8203E-03     35.8795E-03
              47            1071     45.3736E-03     43.3993E-03
              47            1072     41.5091E-03     43.6620E-03
              48              85     35.8203E-03     35.8795E-03
              48              86     37.0644E-03     36.4477E-03
              48            1072     41.5091E-03     43.6620E-03
              48            1073     43.7450E-03     42.7416E-03
              49              86     37.0644E-03     36.4477E-03
              49              87     38.0827E-03     35.5117E-03
              49            1073     43.7450E-03     42.7416E-03
              49            1074     46.0298E-03     43.7808E-03
              50              87     38.0827E-03     35.5117E-03
              50              88     38.7518E-03     36.4933E-03
              50            1074     46.0298E-03     43.7808E-03
              50            1075     46.8459E-03     46.4699E-03
              51              88     38.7518E-03     36.4933E-03
              51              89     38.8082E-03     37.1505E-03
              51            1075     46.8459E-03     46.4699E-03
              51            1076     48.6465E-03     47.5546E-03
              52              89     38.8082E-03     37.1505E-03
              52              90     38.8491E-03     38.1409E-03
              52            1076     48.6465E-03     47.5546E-03
              52            1077     49.7485E-03     49.3518E-03
              53              90     38.8491E-03     38.1409E-03
              53              91     38.7614E-03     39.3431E-03
              53            1077     49.7485E-03     49.3518E-03
              53            1078     50.9507E-03     50.9036E-03
              54              91     38.7614E-03     39.3431E-03
              54              92     38.6091E-03     39.7367E-03
              54            1078     50.9507E-03     50.9036E-03
              54            1079     51.9715E-03     51.4104E-03
              55              92     38.6091E-03     39.7367E-03
              55              93     37.3794E-03     40.3141E-03
              55            1079     51.9715E-03     51.4104E-03
              55            1080     51.0315E-03     53.7657E-03
              56              93     37.3794E-03     40.3141E-03
              56              94     39.0480E-03     40.3873E-03
              56            1080     51.0315E-03     53.7657E-03
              56            1081     54.4462E-03     53.3105E-03
              57              94     39.0480E-03     40.3873E-03
              57              95     39.1931E-03     37.5402E-03
              57            1081     54.4462E-03     53.3105E-03
              57            1082     53.2786E-03     50.7015E-03
              58              95     39.1931E-03     37.5402E-03
              58              96     37.9321E-03     38.7487E-03
              58            1082     53.2786E-03     50.7015E-03
              58            1083     48.2503E-03     51.9948E-03
              59              96     37.9321E-03     38.7487E-03
              59              97     40.0061E-03     40.1587E-03
              59            1083     48.2503E-03     51.9948E-03
              59            1084     52.4719E-03     51.3750E-03
              60              97     40.0061E-03     40.1587E-03
              60              98     40.9852E-03     39.2989E-03
              60            1084     52.4719E-03     51.3750E-03
              60            1085     55.1937E-03     53.3295E-03
              61              98     40.9852E-03     39.2989E-03
              61              99     41.1970E-03     40.8872E-03
              61            1085     55.1937E-03     53.3295E-03
              61            1086     55.7187E-03     57.0167E-03
              62              99     41.1970E-03     40.8872E-03
              62             100     40.8931E-03     40.9663E-03
              62            1086     55.7187E-03     57.0167E-03
              62            1087     57.5671E-03     57.1062E-03
              63             100     40.8931E-03     40.9663E-03
              63             101     39.1391E-03     41.4353E-03
              63            1087     57.5671E-03     57.1062E-03
              63            1088     56.4050E-03     59.9205E-03
              64             101     39.1391E-03     41.4353E-03
              64             102     40.5892E-03     41.4638E-03
              64            1088     56.4050E-03     59.9205E-03
              64            1089     59.8110E-03     59.0103E-03
              65             102     40.5892E-03     41.4638E-03
              65             103     40.2364E-03     38.3116E-03
              65            1089     59.8110E-03     59.0103E-03
              65            1090     58.1223E-03     55.4522E-03
              66               5     43.1032E-03     42.8280E-03
              66             103     40.2364E-03     38.3116E-03
              66             104     57.9558E-03     59.5185E-03
              66            1090     58.1223E-03     55.4522E-03
              67              45     16.1199E-03     15.9736E-03
              67              46     14.2702E-03     14.1772E-03
              67            1044     32.5389E-03     32.1256E-03
              67            1091     28.6800E-03     28.4685E-03
              68            1044     32.5389E-03     32.1256E-03
              68            1045     32.6323E-03     32.3957E-03
              68            1091     28.6800E-03     28.4685E-03
              68            1092     28.7940E-03     28.7971E-03
              69            1045     32.6323E-03     32.3957E-03
              69            1046     32.5901E-03     32.5177E-03
              69            1092     28.7940E-03     28.7971E-03
              69            1093     29.1381E-03     29.3331E-03
              70            1046     32.5901E-03     32.5177E-03
              70            1047     32.8172E-03     32.5962E-03
              70            1093     29.1381E-03     29.3331E-03
              70            1094     29.8840E-03     29.9036E-03
              71            1047     32.8172E-03     32.5962E-03
              71            1048     32.8270E-03     33.1251E-03
              71            1094     29.8840E-03     29.9036E-03
              71            1095     30.5230E-03     31.0691E-03
              72            1048     32.8270E-03     33.1251E-03
              72            1049     33.6339E-03     33.4501E-03
              72            1095     30.5230E-03     31.0691E-03
              72            1096     32.8349E-03     31.7426E-03
              73            1049     33.6339E-03     33.4501E-03
              73            1050     33.6758E-03     32.9936E-03
              73            1096     32.8349E-03     31.7426E-03
              73            1097     33.2885E-03     32.3905E-03
              74            1050     33.6758E-03     32.9936E-03
              74            1051     33.0424E-03     32.9647E-03
              74            1097     33.2885E-03     32.3905E-03
              74            1098     31.2936E-03     32.2440E-03
              75            1051     33.0424E-03     32.9647E-03
              75            1052     33.5816E-03     33.1653E-03
              75            1098     31.2936E-03     32.2440E-03
              75            1099     31.6789E-03     31.7197E-03
              76            1052     33.5816E-03     33.1653E-03
              76            1053     34.1588E-03     33.5420E-03
              76            1099     31.6789E-03     31.7197E-03
              76            1100     33.1101E-03     33.4322E-03
              77            1053     34.1588E-03     33.5420E-03
              77            1054     34.6974E-03     34.2892E-03
              77            1100     33.1101E-03     33.4322E-03
              77            1101     34.7270E-03     35.3033E-03
              78            1054     34.6974E-03     34.2892E-03
              78            1055     35.1749E-03     35.0663E-03
              78            1101     34.7270E-03     35.3033E-03
              78            1102     36.5643E-03     36.9514E-03
              79            1055     35.1749E-03     35.0663E-03
              79            1056     35.9036E-03     35.9339E-03
              79            1102     36.5643E-03     36.9514E-03
              79            1103     38.7671E-03     38.6775E-03
              80            1056     35.9036E-03     35.9339E-03
              80            1057     36.6420E-03     36.4146E-03
              80            1103     38.7671E-03     38.6775E-03
              80            1104     41.0014E-03     39.9934E-03
              81            1057     36.6420E-03     36.4146E-03
              81            1058     36.6332E-03     37.6759E-03
              81            1104     41.0014E-03     39.9934E-03
              81            1105     42.1228E-03     43.2317E-03
              82            1058     36.6332E-03     37.6759E-03
              82            1059     38.4539E-03     38.0527E-03
              82            1105     42.1228E-03     43.2317E-03
              82            1106     47.0868E-03     44.3170E-03
              83            1059     38.4539E-03     38.0527E-03
              83            1060     38.3216E-03     37.0175E-03
              83            1106     47.0868E-03     44.3170E-03
              83            1107     47.0241E-03     45.0400E-03
              84            1060     38.3216E-03     37.0175E-03
              84            1061     36.2019E-03     37.0077E-03
              84            1107     47.0241E-03     45.0400E-03
              84            1108     41.1947E-03     45.2744E-03
              85            1061     36.2019E-03     37.0077E-03
              85            1062     37.2698E-03     36.6579E-03
              85            1108     41.1947E-03     45.2744E-03
              85            1109     43.5703E-03     43.0864E-03
              86            1062     37.2698E-03     36.6579E-03
              86            1063     38.6447E-03     37.2911E-03
              86            1109     43.5703E-03     43.0864E-03
              86            1110     46.5009E-03     45.9842E-03
              87            1063     38.6447E-03     37.2911E-03
              87            1064     39.4738E-03     38.9979E-03
              87            1110     46.5009E-03     45.9842E-03
              87            1111     47.6736E-03     49.2455E-03
              88            1064     39.4738E-03     38.9979E-03
              88            1065     40.6800E-03     40.0184E-03
              88            1111     47.6736E-03     49.2455E-03
              88            1112     50.7181E-03     50.4545E-03
              89            1065     40.6800E-03     40.0184E-03
              89            1066     41.5801E-03     41.3686E-03
              89            1112     50.7181E-03     50.4545E-03
              89            1113     52.9172E-03     52.9033E-03
              90            1066     41.5801E-03     41.3686E-03
              90            1067     42.6464E-03     42.6369E-03
              90            1113     52.9172E-03     52.9033E-03
              90            1114     55.7457E-03     55.0950E-03
              91            1067     42.6464E-03     42.6369E-03
              91            1068     43.6114E-03     43.1973E-03
              91            1114     55.7457E-03     55.0950E-03
              91            1115     58.7319E-03     56.5749E-03
              92            1068     43.6114E-03     43.1973E-03
              92            1069     43.2172E-03     45.1125E-03
              92            1115     58.7319E-03     56.5749E-03
              92            1116     59.5425E-03     61.5291E-03
              93            1069     43.2172E-03     45.1125E-03
              93            1070     45.9471E-03     45.1839E-03
              93            1116     59.5425E-03     61.5291E-03
              93            1117     66.6398E-03     62.2642E-03
              94            1070     45.9471E-03     45.1839E-03
              94            1071     45.3736E-03     43.3993E-03
              94            1117     66.6398E-03     62.2642E-03
              94            1118     65.5334E-03     62.5200E-03
              95            1071     45.3736E-03     43.3993E-03
              95            1072     41.5091E-03     43.6620E-03
              95            1118     65.5334E-03     62.5200E-03
              95            1119     55.7634E-03     63.5250E-03
              96            1072     41.5091E-03     43.6620E-03
              96            1073     43.7450E-03     42.7416E-03
              96            1119     55.7634E-03     63.5250E-03
              96            1120     61.0446E-03     59.7219E-03
              97            1073     43.7450E-03     42.7416E-03
              97            1074     46.0298E-03     43.7808E-03
              97            1120     61.0446E-03     59.7219E-03
              97            1121     65.4959E-03     63.6164E-03
              98            1074     46.0298E-03     43.7808E-03
              98            1075     46.8459E-03     46.4699E-03
              98            1121     65.4959E-03     63.6164E-03
              98            1122     65.4881E-03     68.0135E-03
              99            1075     46.8459E-03     46.4699E-03
              99            1076     48.6465E-03     47.5546E-03
              99            1122     65.4881E-03     68.0135E-03
              99            1123     69.4142E-03     68.4710E-03
             100            1076     48.6465E-03     47.5546E-03
             100            1077     49.7485E-03     49.3518E-03
             100            1123     69.4142E-03     68.4710E-03
             100            1124     71.6600E-03     71.3760E-03
             101            1077     49.7485E-03     49.3518E-03
             101            1078     50.9507E-03     50.9036E-03
             101            1124     71.6600E-03     71.3760E-03
             101            1125     74.7282E-03     73.7654E-03
             102            1078     50.9507E-03     50.9036E-03
             102            1079     51.9715E-03     51.4104E-03
             102            1125     74.7282E-03     73.7654E-03
             102            1126     78.1156E-03     75.1385E-03
             103            1079     51.9715E-03     51.4104E-03
             103            1080     51.0315E-03     53.7657E-03
             103            1126     78.1156E-03     75.1385E-03
             103            1127     78.4095E-03     81.3396E-03
             104            1080     51.0315E-03     53.7657E-03
             104            1081     54.4462E-03     53.3105E-03
             104            1127     78.4095E-03     81.3396E-03
             104            1128     87.2383E-03     81.4102E-03
             105            1081     54.4462E-03     53.3105E-03
             105            1082     53.2786E-03     50.7015E-03
             105            1128     87.2383E-03     81.4102E-03
             105            1129     84.9367E-03     80.9655E-03
             106            1082     53.2786E-03     50.7015E-03
             106            1083     48.2503E-03     51.9948E-03
             106            1129     84.9367E-03     80.9655E-03
             106            1130     71.8240E-03     82.8272E-03
             107            1083     48.2503E-03     51.9948E-03
             107            1084     52.4719E-03     51.3750E-03
             107            1130     71.8240E-03     82.8272E-03
             107            1131     80.6131E-03     77.9987E-03
             108            1084     52.4719E-03     51.3750E-03
             108            1085     55.1937E-03     53.3295E-03
             108            1131     80.6131E-03     77.9987E-03
             108            1132     86.4951E-03     83.6668E-03
             109            1085     55.1937E-03     53.3295E-03
             109            1086     55.7187E-03     57.0167E-03
             109            1132     86.4951E-03     83.6668E-03
             109            1133     86.1493E-03     89.3273E-03
             110            1086     55.7187E-03     57.0167E-03
             110            1087     57.5671E-03     57.1062E-03
             110            1133     86.1493E-03     89.3273E-03
             110            1134     91.3040E-03     88.3576E-03
             111            1087     57.5671E-03     57.1062E-03
             111            1088     56.4050E-03     59.9205E-03
             111            1134     91.3040E-03     88.3576E-03
             111            1135     90.9372E-03     95.2094E-03
             112            1088     56.4050E-03     59.9205E-03
             112            1089     59.8110E-03     59.0103E-03
             112            1135     90.9372E-03     95.2094E-03
             112            1136     99.8168E-03     94.2370E-03
             113            1089     59.8110E-03     59.0103E-03
             113            1090     58.1223E-03     55.4522E-03
             113            1136     99.8168E-03     94.2370E-03
             113            1137     96.5959E-03     92.1611E-03
             114             104     57.9558E-03     59.5185E-03
             114             105     89.2527E-03     95.6405E-03
             114            1090     58.1223E-03     55.4522E-03
             114            1137     96.5959E-03     92.1611E-03
             115              46     14.2702E-03     14.1772E-03
             115              47     11.1108E-03     11.3797E-03
             115            1091     28.6800E-03     28.4685E-03
             115            1138     22.4148E-03     22.8918E-03
             116            1091     28.6800E-03     28.4685E-03
             116            1092     28.7940E-03     28.7971E-03
             116            1138     22.4148E-03     22.8918E-03
             116            1139     22.8189E-03     23.3698E-03
             117            1092     28.7940E-03     28.7971E-03
             117            1093     29.1381E-03     29.3331E-03
             117            1139     22.8189E-03     23.3698E-03
             117            1140     23.9655E-03     24.1398E-03
             118            1093     29.1381E-03     29.3331E-03
             118            1094     29.8840E-03     29.9036E-03
             118            1140     23.9655E-03     24.1398E-03
             118            1141     25.5009E-03     25.2463E-03
             119            1094     29.8840E-03     29.9036E-03
             119            1095     30.5230E-03     31.0691E-03
             119            1141     25.5009E-03     25.2463E-03
             119            1142     26.7576E-03     27.8872E-03
             120            1095     30.5230E-03     31.0691E-03
             120            1096     32.8349E-03     31.7426E-03
             120            1142     26.7576E-03     27.8872E-03
             120            1143     31.2031E-03     29.0463E-03
             121            1096     32.8349E-03     31.7426E-03
             121            1097     33.2885E-03     32.3905E-03
             121            1143     31.2031E-03     29.0463E-03
             121            1144     32.3496E-03     31.5275E-03
             122            1097     33.2885E-03     32.3905E-03
             122            1098     31.2936E-03     32.2440E-03
             122            1144     32.3496E-03     31.5275E-03
             122            1145     29.1502E-03     32.7440E-03
             123            1098     31.2936E-03     32.2440E-03
             123            1099     31.6789E-03     31.7197E-03
             123            1145     29.1502E-03     32.7440E-03
             123            1146     30.6048E-03     31.3302E-03
             124            1099     31.6789E-03     31.7197E-03
             124            1100     33.1101E-03     33.4322E-03
             124            1146     30.6048E-03     31.3302E-03
             124            1147     32.9996E-03     33.8377E-03
             125            1100     33.1101E-03     33.4322E-03
             125            1101     34.7270E-03     35.3033E-03
             125            1147     32.9996E-03     33.8377E-03
             125            1148     35.0322E-03     36.0816E-03
             126            1101     34.7270E-03     35.3033E-03
             126            1102     36.5643E-03     36.9514E-03
             126            1148     35.0322E-03     36.0816E-03
             126            1149     37.9023E-03     38.3042E-03
             127            1102     36.5643E-03     36.9514E-03
             127            1103     38.7671E-03     38.6775E-03
             127            1149     37.9023E-03     38.3042E-03
             127            1150     41.3981E-03     41.4064E-03
             128            1103     38.7671E-03     38.6775E-03
             128            1104     41.0014E-03     39.9934E-03
             128            1150     41.3981E-03     41.4064E-03
             128            1151     45.0790E-03     43.9813E-03
             129            1104     41.0014E-03     39.9934E-03
             129            1105     42.1228E-03     43.2317E-03
             129            1151     45.0790E-03     43.9813E-03
             129            1152     47.2262E-03     50.0033E-03
             130            1105     42.1228E-03     43.2317E-03
             130            1106     47.0868E-03     44.3170E-03
             130            1152     47.2262E-03     50.0033E-03
             130            1153     56.2827E-03     51.6135E-03
             131            1106     47.0868E-03     44.3170E-03
             131            1107     47.0241E-03     45.0400E-03
             131            1153     56.2827E-03     51.6135E-03
             131            1154     57.1889E-03     55.2069E-03
             132            1107     47.0241E-03     45.0400E-03
             132            1108     41.1947E-03     45.2744E-03
             132            1154     57.1889E-03     55.2069E-03
             132            1155     48.4862E-03     58.5856E-03
             133            1108     41.1947E-03     45.2744E-03
             133            1109     43.5703E-03     43.0864E-03
             133            1155     48.4862E-03     58.5856E-03
             133            1156     53.6926E-03     53.7580E-03
             134            1109     43.5703E-03     43.0864E-03
             134            1110     46.5009E-03     45.9842E-03
             134            1156     53.6926E-03     53.7580E-03
             134            1157     57.3619E-03     56.4635E-03
             135            1110     46.5009E-03     45.9842E-03
             135            1111     47.6736E-03     49.2455E-03
             135            1157     57.3619E-03     56.4635E-03
             135            1158     56.8020E-03     59.9074E-03
             136            1111     47.6736E-03     49.2455E-03
             136            1112     50.7181E-03     50.4545E-03
             136            1158     56.8020E-03     59.9074E-03
             136            1159     60.8561E-03     60.4675E-03
             137            1112     50.7181E-03     50.4545E-03
             137            1113     52.9172E-03     52.9033E-03
             137            1159     60.8561E-03     60.4675E-03
             137            1160     63.4023E-03     64.3600E-03
             138            1113     52.9172E-03     52.9033E-03
             138            1114     55.7457E-03     55.0950E-03
             138            1160     63.4023E-03     64.3600E-03
             138            1161     67.5966E-03     67.9445E-03
             139            1114     55.7457E-03     55.0950E-03
             139            1115     58.7319E-03     56.5749E-03
             139            1161     67.5966E-03     67.9445E-03
             139            1162     72.4647E-03     70.6491E-03
             140            1115     58.7319E-03     56.5749E-03
             140            1116     59.5425E-03     61.5291E-03
             140            1162     72.4647E-03     70.6491E-03
             140            1163     74.3324E-03     79.1399E-03
             141            1116     59.5425E-03     61.5291E-03
             141            1117     66.6398E-03     62.2642E-03
             141            1163     74.3324E-03     79.1399E-03
             141            1164     87.2900E-03     80.2950E-03
             142            1117     66.6398E-03     62.2642E-03
             142            1118     65.5334E-03     62.5200E-03
             142            1164     87.2900E-03     80.2950E-03
             142            1165     87.3416E-03     84.4385E-03
             143            1118     65.5334E-03     62.5200E-03
             143            1119     55.7634E-03     63.5250E-03
             143            1165     87.3416E-03     84.4385E-03
             143            1166     73.1237E-03     90.2428E-03
             144            1119     55.7634E-03     63.5250E-03
             144            1120     61.0446E-03     59.7219E-03
             144            1166     73.1237E-03     90.2428E-03
             144            1167     82.7863E-03     82.0080E-03
             145            1120     61.0446E-03     59.7219E-03
             145            1121     65.4959E-03     63.6164E-03
             145            1167     82.7863E-03     82.0080E-03
             145            1168     87.6151E-03     84.5605E-03
             146            1121     65.4959E-03     63.6164E-03
             146            1122     65.4881E-03     68.0135E-03
             146            1168     87.6151E-03     84.5605E-03
             146            1169     83.8327E-03     88.7980E-03
             147            1122     65.4881E-03     68.0135E-03
             147            1123     69.4142E-03     68.4710E-03
             147            1169     83.8327E-03     88.7980E-03
             147            1170     88.5415E-03     87.5828E-03
             148            1123     69.4142E-03     68.4710E-03
             148            1124     71.6600E-03     71.3760E-03
             148            1170     88.5415E-03     87.5828E-03
             148            1171     90.6409E-03     91.9461E-03
             149            1124     71.6600E-03     71.3760E-03
             149            1125     74.7282E-03     73.7654E-03
             149            1171     90.6409E-03     91.9461E-03
             149            1172     94.9771E-03     95.6515E-03
             150            1125     74.7282E-03     73.7654E-03
             150            1126     78.1156E-03     75.1385E-03
             150            1172     94.9771E-03     95.6515E-03
             150            1173     100.549E-03     98.1124E-03
             151            1126     78.1156E-03     75.1385E-03
             151            1127     78.4095E-03     81.3396E-03
             151            1173     100.549E-03     98.1124E-03
             151            1174     101.988E-03     108.637E-03
             152            1127     78.4095E-03     81.3396E-03
             152            1128     87.2383E-03     81.4102E-03
             152            1174     101.988E-03     108.637E-03
             152            1175     118.426E-03     109.240E-03
             153            1128     87.2383E-03     81.4102E-03
             153            1129     84.9367E-03     80.9655E-03
             153            1175     118.426E-03     109.240E-03
             153            1176     117.548E-03     113.773E-03
             154            1129     84.9367E-03     80.9655E-03
             154            1130     71.8240E-03     82.8272E-03
             154            1176     117.548E-03     113.773E-03
             154            1177     97.7867E-03     120.926E-03
             155            1130     71.8240E-03     82.8272E-03
             155            1131     80.6131E-03     77.9987E-03
             155            1177     97.7867E-03     120.926E-03
             155            1178     111.547E-03     108.778E-03
             156            1131     80.6131E-03     77.9987E-03
             156            1132     86.4951E-03     83.6668E-03
             156            1178     111.547E-03     108.778E-03
             156            1179     117.714E-03     112.616E-03
             157            1132     86.4951E-03     83.6668E-03
             157            1133     86.1493E-03     89.3273E-03
             157            1179     117.714E-03     112.616E-03
             157            1180     113.110E-03     118.261E-03
             158            1133     86.1493E-03     89.3273E-03
             158            1134     91.3040E-03     88.3576E-03
             158            1180     113.110E-03     118.261E-03
             158            1181     119.997E-03     114.960E-03
             159            1134     91.3040E-03     88.3576E-03
             159            1135     90.9372E-03     95.2094E-03
             159            1181     119.997E-03     114.960E-03
             159            1182     119.677E-03     126.408E-03
             160            1135     90.9372E-03     95.2094E-03
             160            1136     99.8168E-03     94.2370E-03
             160            1182     119.677E-03     126.408E-03
             160            1183     136.379E-03     125.868E-03
             161            1136     99.8168E-03     94.2370E-03
             161            1137     96.5959E-03     92.1611E-03
             161            1183     136.379E-03     125.868E-03
             161            1184     134.712E-03     129.516E-03
             162             105     89.2527E-03     95.6405E-03
             162             106     120.696E-03     134.137E-03
             162            1137     96.5959E-03     92.1611E-03
             162            1184     134.712E-03     129.516E-03
             163              47     11.1108E-03     11.3797E-03
             163              48     7.68379E-03     8.26430E-03
             163            1138     22.4148E-03     22.8918E-03
             163            1185     15.5781E-03     16.3514E-03
             164            1138     22.4148E-03     22.8918E-03
             164            1139     22.8189E-03     23.3698E-03
             164            1185     15.5781E-03     16.3514E-03
             164            1186     15.7344E-03     15.8178E-03
             165            1139     22.8189E-03     23.3698E-03
             165            1140     23.9655E-03     24.1398E-03
             165            1186     15.7344E-03     15.8178E-03
             165            1187     17.0511E-03     16.6897E-03
             166            1140     23.9655E-03     24.1398E-03
             166            1141     25.5009E-03     25.2463E-03
             166            1187     17.0511E-03     16.6897E-03
             166            1188     19.8401E-03     19.3591E-03
             167            1141     25.5009E-03     25.2463E-03
             167            1142     26.7576E-03     27.8872E-03
             167            1188     19.8401E-03     19.3591E-03
             167            1189     22.5121E-03     24.7742E-03
             168            1142     26.7576E-03     27.8872E-03
             168            1143     31.2031E-03     29.0463E-03
             168            1189     22.5121E-03     24.7742E-03
             168            1190     30.1176E-03     27.8099E-03
             169            1143     31.2031E-03     29.0463E-03
             169            1144     32.3496E-03     31.5275E-03
             169            1190     30.1176E-03     27.8099E-03
             169            1191     32.1156E-03     32.0810E-03
             170            1144     32.3496E-03     31.5275E-03
             170            1145     29.1502E-03     32.7440E-03
             170            1191     32.1156E-03     32.0810E-03
             170            1192     28.1334E-03     34.4381E-03
             171            1145     29.1502E-03     32.7440E-03
             171            1146     30.6048E-03     31.3302E-03
             171            1192     28.1334E-03     34.4381E-03
             171            1193     30.9752E-03     31.4684E-03
             172            1146     30.6048E-03     31.3302E-03
             172            1147     32.9996E-03     33.8377E-03
             172            1193     30.9752E-03     31.4684E-03
             172            1194     32.7527E-03     33.4754E-03
             173            1147     32.9996E-03     33.8377E-03
             173            1148     35.0322E-03     36.0816E-03
             173            1194     32.7527E-03     33.4754E-03
             173            1195     34.7437E-03     36.2047E-03
             174            1148     35.0322E-03     36.0816E-03
             174            1149     37.9023E-03     38.3042E-03
             174            1195     34.7437E-03     36.2047E-03
             174            1196     38.7170E-03     39.7834E-03
             175            1149     37.9023E-03     38.3042E-03
             175            1150     41.3981E-03     41.4064E-03
             175            1196     38.7170E-03     39.7834E-03
             175            1197     43.3519E-03     44.9066E-03
             176            1150     41.3981E-03     41.4064E-03
             176            1151     45.0790E-03     43.9813E-03
             176            1197     43.3519E-03     44.9066E-03
             176            1198     48.9486E-03     48.7991E-03
             177            1151     45.0790E-03     43.9813E-03
             177            1152     47.2262E-03     50.0033E-03
             177            1198     48.9486E-03     48.7991E-03
             177            1199     51.7597E-03     57.5281E-03
             178            1152     47.2262E-03     50.0033E-03
             178            1153     56.2827E-03     51.6135E-03
             178            1199     51.7597E-03     57.5281E-03
             178            1200     64.3311E-03     60.3436E-03
             179            1153     56.2827E-03     51.6135E-03
             179            1154     57.1889E-03     55.2069E-03
             179            1200     64.3311E-03     60.3436E-03
             179            1201     66.4195E-03     65.7726E-03
             180            1154     57.1889E-03     55.2069E-03
             180            1155     48.4862E-03     58.5856E-03
             180            1201     66.4195E-03     65.7726E-03
             180            1202     56.2145E-03     71.4959E-03
             181            1155     48.4862E-03     58.5856E-03
             181            1156     53.6926E-03     53.7580E-03
             181            1202     56.2145E-03     71.4959E-03
             181            1203     63.5324E-03     63.7706E-03
             182            1156     53.6926E-03     53.7580E-03
             182            1157     57.3619E-03     56.4635E-03
             182            1203     63.5324E-03     63.7706E-03
             182            1204     65.6281E-03     64.7299E-03
             183            1157     57.3619E-03     56.4635E-03
             183            1158     56.8020E-03     59.9074E-03
             183            1204     65.6281E-03     64.7299E-03
             183            1205     63.3361E-03     68.4349E-03
             184            1158     56.8020E-03     59.9074E-03
             184            1159     60.8561E-03     60.4675E-03
             184            1205     63.3361E-03     68.4349E-03
             184            1206     68.9067E-03     69.7833E-03
             185            1159     60.8561E-03     60.4675E-03
             185            1160     63.4023E-03     64.3600E-03
             185            1206     68.9067E-03     69.7833E-03
             185            1207     71.9641E-03     75.5027E-03
             186            1160     63.4023E-03     64.3600E-03
             186            1161     67.5966E-03     67.9445E-03
             186            1207     71.9641E-03     75.5027E-03
             186            1208     77.3388E-03     80.6944E-03
             187            1161     67.5966E-03     67.9445E-03
             187            1162     72.4647E-03     70.6491E-03
             187            1208     77.3388E-03     80.6944E-03
             187            1209     84.1002E-03     84.3156E-03
             188            1162     72.4647E-03     70.6491E-03
             188            1163     74.3324E-03     79.1399E-03
             188            1209     84.1002E-03     84.3156E-03
             188            1210     85.9656E-03     95.4864E-03
             189            1163     74.3324E-03     79.1399E-03
             189            1164     87.2900E-03     80.2950E-03
             189            1210     85.9656E-03     95.4864E-03
             189            1211     103.422E-03     97.6604E-03
             190            1164     87.2900E-03     80.2950E-03
             190            1165     87.3416E-03     84.4385E-03
             190            1211     103.422E-03     97.6604E-03
             190            1212     105.340E-03     104.331E-03
             191            1165     87.3416E-03     84.4385E-03
             191            1166     73.1237E-03     90.2428E-03
             191            1212     105.340E-03     104.331E-03
             191            1213     88.8463E-03     113.849E-03
             192            1166     73.1237E-03     90.2428E-03
             192            1167     82.7863E-03     82.0080E-03
             192            1213     88.8463E-03     113.849E-03
             192            1214     101.376E-03     101.302E-03
             193            1167     82.7863E-03     82.0080E-03
             193            1168     87.6151E-03     84.5605E-03
             193            1214     101.376E-03     101.302E-03
             193            1215     103.645E-03     101.041E-03
             194            1168     87.6151E-03     84.5605E-03
             194            1169     83.8327E-03     88.7980E-03
             194            1215     103.645E-03     101.041E-03
             194            1216     96.7663E-03     105.375E-03
             195            1169     83.8327E-03     88.7980E-03
             195            1170     88.5415E-03     87.5828E-03
             195            1216     96.7663E-03     105.375E-03
             195            1217     103.357E-03     104.555E-03
             196            1170     88.5415E-03     87.5828E-03
             196            1171     90.6409E-03     91.9461E-03
             196            1217     103.357E-03     104.555E-03
             196            1218     105.633E-03     110.895E-03
             197            1171     90.6409E-03     91.9461E-03
             197            1172     94.9771E-03     95.6515E-03
             197            1218     105.633E-03     110.895E-03
             197            1219     111.067E-03     116.140E-03
             198            1172     94.9771E-03     95.6515E-03
             198            1173     100.549E-03     98.1124E-03
             198            1219     111.067E-03     116.140E-03
             198            1220     118.719E-03     119.241E-03
             199            1173     100.549E-03     98.1124E-03
             199            1174     101.988E-03     108.637E-03
             199            1220     118.719E-03     119.241E-03
             199            1221     119.675E-03     132.704E-03
             200            1174     101.988E-03     108.637E-03
             200            1175     118.426E-03     109.240E-03
             200            1221     119.675E-03     132.704E-03
             200            1222     141.830E-03     134.368E-03
             201            1175     118.426E-03     109.240E-03
             201            1176     117.548E-03     113.773E-03
             201            1222     141.830E-03     134.368E-03
             201            1223     143.667E-03     142.356E-03
             202            1176     117.548E-03     113.773E-03
             202            1177     97.7867E-03     120.926E-03
             202            1223     143.667E-03     142.356E-03
             202            1224     120.223E-03     154.216E-03
             203            1177     97.7867E-03     120.926E-03
             203            1178     111.547E-03     108.778E-03
             203            1224     120.223E-03     154.216E-03
             203            1225     137.365E-03     135.835E-03
             204            1178     111.547E-03     108.778E-03
             204            1179     117.714E-03     112.616E-03
             204            1225     137.365E-03     135.835E-03
             204            1226     139.783E-03     136.018E-03
             205            1179     117.714E-03     112.616E-03
             205            1180     113.110E-03     118.261E-03
             205            1226     139.783E-03     136.018E-03
             205            1227     131.056E-03     142.096E-03
             206            1180     113.110E-03     118.261E-03
             206            1181     119.997E-03     114.960E-03
             206            1227     131.056E-03     142.096E-03
             206            1228     141.051E-03     138.125E-03
             207            1181     119.997E-03     114.960E-03
             207            1182     119.677E-03     126.408E-03
             207            1228     141.051E-03     138.125E-03
             207            1229     139.468E-03     153.828E-03
             208            1182     119.677E-03     126.408E-03
             208            1183     136.379E-03     125.868E-03
             208            1229     139.468E-03     153.828E-03
             208            1230     163.082E-03     154.659E-03
             209            1183     136.379E-03     125.868E-03
             209            1184     134.712E-03     129.516E-03
             209            1230     163.082E-03     154.659E-03
             209            1231     165.371E-03     163.094E-03
             210             106     120.696E-03     134.137E-03
             210             107     146.672E-03     167.166E-03
             210            1184     134.712E-03     129.516E-03
             210            1231     165.371E-03     163.094E-03
             211              48     7.68379E-03     8.26430E-03
             211              49     5.67093E-03     7.10534E-03
             211            1185     15.5781E-03     16.3514E-03
             211            1232     10.2717E-03     11.1770E-03
             212            1185     15.5781E-03     16.3514E-03
             212            1186     15.7344E-03     15.8178E-03
             212            1232     10.2717E-03     11.1770E-03
             212            1233     8.96576E-03     7.55310E-03
             213            1186     15.7344E-03     15.8178E-03
             213            1187     17.0511E-03     16.6897E-03
             213            1233     8.96576E-03     7.55310E-03
             213            1234     10.7525E-03     10.3009E-03
             214            1187     17.0511E-03     16.6897E-03
             214            1188     19.8401E-03     19.3591E-03
             214            1234     10.7525E-03     10.3009E-03
             214            1235     16.1376E-03     15.6870E-03
             215            1188     19.8401E-03     19.3591E-03
             215            1189     22.5121E-03     24.7742E-03
             215            1235     16.1376E-03     15.6870E-03
             215            1236     21.0751E-03     23.2768E-03
             216            1189     22.5121E-03     24.7742E-03
             216            1190     30.1176E-03     27.8099E-03
             216            1236     21.0751E-03     23.2768E-03
             216            1237     30.8323E-03     28.9167E-03
             217            1190     30.1176E-03     27.8099E-03
             217            1191     32.1156E-03     32.0810E-03
             217            1237     30.8323E-03     28.9167E-03
             217            1238     36.0521E-03     36.0911E-03
             218            1191     32.1156E-03     32.0810E-03
             218            1192     28.1334E-03     34.4381E-03
             218            1238     36.0521E-03     36.0911E-03
             218            1239     29.5267E-03     34.6806E-03
             219            1192     28.1334E-03     34.4381E-03
             219            1193     30.9752E-03     31.4684E-03
             219            1239     29.5267E-03     34.6806E-03
             219            1240     28.1192E-03     26.9299E-03
             220            1193     30.9752E-03     31.4684E-03
             220            1194     32.7527E-03     33.4754E-03
             220            1240     28.1192E-03     26.9299E-03
             220            1241     31.0082E-03     30.7040E-03
             221            1194     32.7527E-03     33.4754E-03
             221            1195     34.7437E-03     36.2047E-03
             221            1241     31.0082E-03     30.7040E-03
             221            1242     35.0610E-03     35.9353E-03
             222            1195     34.7437E-03     36.2047E-03
             222            1196     38.7170E-03     39.7834E-03
             222            1242     35.0610E-03     35.9353E-03
             222            1243     40.8678E-03     41.4469E-03
             223            1196     38.7170E-03     39.7834E-03
             223            1197     43.3519E-03     44.9066E-03
             223            1243     40.8678E-03     41.4469E-03
             223            1244     46.6021E-03     48.0726E-03
             224            1197     43.3519E-03     44.9066E-03
             224            1198     48.9486E-03     48.7991E-03
             224            1244     46.6021E-03     48.0726E-03
             224            1245     53.6635E-03     53.1232E-03
             225            1198     48.9486E-03     48.7991E-03
             225            1199     51.7597E-03     57.5281E-03
             225            1245     53.6635E-03     53.1232E-03
             225            1246     57.6368E-03     62.5722E-03
             226            1199     51.7597E-03     57.5281E-03
             226            1200     64.3311E-03     60.3436E-03
             226            1246     57.6368E-03     62.5722E-03
             226            1247     70.6919E-03     67.4618E-03
             227            1200     64.3311E-03     60.3436E-03
             227            1201     66.4195E-03     65.7726E-03
             227            1247     70.6919E-03     67.4618E-03
             227            1248     76.2573E-03     75.4071E-03
             228            1201     66.4195E-03     65.7726E-03
             228            1202     56.2145E-03     71.4959E-03
             228            1248     76.2573E-03     75.4071E-03
             228            1249     64.5968E-03     76.6798E-03
             229            1202     56.2145E-03     71.4959E-03
             229            1203     63.5324E-03     63.7706E-03
             229            1249     64.5968E-03     76.6798E-03
             229            1250     66.3886E-03     64.2815E-03
             230            1203     63.5324E-03     63.7706E-03
             230            1204     65.6281E-03     64.7299E-03
             230            1250     66.3886E-03     64.2815E-03
             230            1251     68.6613E-03     66.9515E-03
             231            1204     65.6281E-03     64.7299E-03
             231            1205     63.3361E-03     68.4349E-03
             231            1251     68.6613E-03     66.9515E-03
             231            1252     69.2155E-03     72.7225E-03
             232            1205     63.3361E-03     68.4349E-03
             232            1206     68.9067E-03     69.7833E-03
             232            1252     69.2155E-03     72.7225E-03
             232            1253     76.1553E-03     76.5116E-03
             233            1206     68.9067E-03     69.7833E-03
             233            1207     71.9641E-03     75.5027E-03
             233            1253     76.1553E-03     76.5116E-03
             233            1254     80.9333E-03     83.1760E-03
             234            1207     71.9641E-03     75.5027E-03
             234            1208     77.3388E-03     80.6944E-03
             234            1254     80.9333E-03     83.1760E-03
             234            1255     86.8821E-03     89.5387E-03
             235            1208     77.3388E-03     80.6944E-03
             235            1209     84.1002E-03     84.3156E-03
             235            1255     86.8821E-03     89.5387E-03
             235            1256     94.6099E-03     94.0219E-03
             236            1209     84.1002E-03     84.3156E-03
             236            1210     85.9656E-03     95.4864E-03
             236            1256     94.6099E-03     94.0219E-03
             236            1257     97.3872E-03     105.139E-03
             237            1210     85.9656E-03     95.4864E-03
             237            1211     103.422E-03     97.6604E-03
             237            1257     97.3872E-03     105.139E-03
             237            1258     114.146E-03     109.389E-03
             238            1211     103.422E-03     97.6604E-03
             238            1212     105.340E-03     104.331E-03
             238            1258     114.146E-03     109.389E-03
             238            1259     120.323E-03     118.549E-03
             239            1212     105.340E-03     104.331E-03
             239            1213     88.8463E-03     113.849E-03
             239            1259     120.323E-03     118.549E-03
             239            1260     103.728E-03     123.395E-03
             240            1213     88.8463E-03     113.849E-03
             240            1214     101.376E-03     101.302E-03
             240            1260     103.728E-03     123.395E-03
             240            1261     109.422E-03     106.417E-03
             241            1214     101.376E-03     101.302E-03
             241            1215     103.645E-03     101.041E-03
             241            1261     109.422E-03     106.417E-03
             241            1262     110.983E-03     107.782E-03
             242            1215     103.645E-03     101.041E-03
             242            1216     96.7663E-03     105.375E-03
             242            1262     110.983E-03     107.782E-03
             242            1263     107.847E-03     114.069E-03
             243            1216     96.7663E-03     105.375E-03
             243            1217     103.357E-03     104.555E-03
             243            1263     107.847E-03     114.069E-03
             243            1264     115.857E-03     116.188E-03
             244            1217     103.357E-03     104.555E-03
             244            1218     105.633E-03     110.895E-03
             244            1264     115.857E-03     116.188E-03
             244            1265     119.980E-03     123.404E-03
             245            1218     105.633E-03     110.895E-03
             245            1219     111.067E-03     116.140E-03
             245            1265     119.980E-03     123.404E-03
             245            1266     125.939E-03     129.777E-03
             246            1219     111.067E-03     116.140E-03
             246            1220     118.719E-03     119.241E-03
             246            1266     125.939E-03     129.777E-03
             246            1267     134.349E-03     133.729E-03
             247            1220     118.719E-03     119.241E-03
             247            1221     119.675E-03     132.704E-03
             247            1267     134.349E-03     133.729E-03
             247            1268     136.092E-03     146.546E-03
             248            1221     119.675E-03     132.704E-03
             248            1222     141.830E-03     134.368E-03
             248            1268     136.092E-03     146.546E-03
             248            1269     156.596E-03     150.338E-03
             249            1222     141.830E-03     134.368E-03
             249            1223     143.667E-03     142.356E-03
             249            1269     156.596E-03     150.338E-03
             249            1270     163.558E-03     160.889E-03
             250            1223     143.667E-03     142.356E-03
             250            1224     120.223E-03     154.216E-03
             250            1270     163.558E-03     160.889E-03
             250            1271     141.365E-03     168.449E-03
             251            1224     120.223E-03     154.216E-03
             251            1225     137.365E-03     135.835E-03
             251            1271     141.365E-03     168.449E-03
             251            1272     150.437E-03     146.498E-03
             252            1225     137.365E-03     135.835E-03
             252            1226     139.783E-03     136.018E-03
             252            1272     150.437E-03     146.498E-03
             252            1273     151.912E-03     147.692E-03
             253            1226     139.783E-03     136.018E-03
             253            1227     131.056E-03     142.096E-03
             253            1273     151.912E-03     147.692E-03
             253            1274     146.549E-03     156.154E-03
             254            1227     131.056E-03     142.096E-03
             254            1228     141.051E-03     138.125E-03
             254            1274     146.549E-03     156.154E-03
             254            1275     158.522E-03     155.141E-03
             255            1228     141.051E-03     138.125E-03
             255            1229     139.468E-03     153.828E-03
             255            1275     158.522E-03     155.141E-03
             255            1276     158.210E-03     170.762E-03
             256            1229     139.468E-03     153.828E-03
             256            1230     163.082E-03     154.659E-03
             256            1276     158.210E-03     170.762E-03
             256            1277     180.941E-03     173.912E-03
             257            1230     163.082E-03     154.659E-03
             257            1231     165.371E-03     163.094E-03
             257            1277     180.941E-03     173.912E-03
             257            1278     188.972E-03     185.671E-03
             258             107     146.672E-03     167.166E-03
             258             108     168.393E-03     185.649E-03
             258            1231     165.371E-03     163.094E-03
             258            1278     188.972E-03     185.671E-03
             259               3     5.10720E-03     7.25800E-03
             259              49     5.67093E-03     7.10534E-03
             259             155     9.51254E-03     10.8952E-03
             259            1232     10.2717E-03     11.1770E-03
             260             154     9.29635E-03     7.72523E-03
             260             155     9.51254E-03     10.8952E-03
             260            1232     10.2717E-03     11.1770E-03
             260            1233     8.96576E-03     7.55310E-03
             261             153     11.8064E-03     11.5409E-03
             261             154     9.29635E-03     7.72523E-03
             261            1233     8.96576E-03     7.55310E-03
             261            1234     10.7525E-03     10.3009E-03
             262             152     17.4310E-03     16.9815E-03
             262             153     11.8064E-03     11.5409E-03
             262            1234     10.7525E-03     10.3009E-03
             262            1235     16.1376E-03     15.6870E-03
             263             151     22.5958E-03     23.5740E-03
             263             152     17.4310E-03     16.9815E-03
             263            1235     16.1376E-03     15.6870E-03
             263            1236     21.0751E-03     23.2768E-03
             264             150     30.2701E-03     29.2292E-03
             264             151     22.5958E-03     23.5740E-03
             264            1236     21.0751E-03     23.2768E-03
             264            1237     30.8323E-03     28.9167E-03
             265             149     36.7696E-03     37.3096E-03
             265             150     30.2701E-03     29.2292E-03
             265            1237     30.8323E-03     28.9167E-03
             265            1238     36.0521E-03     36.0911E-03
             266             148     30.7166E-03     33.0646E-03
             266             149     36.7696E-03     37.3096E-03
             266            1238     36.0521E-03     36.0911E-03
             266            1239     29.5267E-03     34.6806E-03
             267             147     27.0271E-03     25.2052E-03
             267             148     30.7166E-03     33.0646E-03
             267            1239     29.5267E-03     34.6806E-03
             267            1240     28.1192E-03     26.9299E-03
             268             146     32.8013E-03     32.0204E-03
             268             147     27.0271E-03     25.2052E-03
             268            1240     28.1192E-03     26.9299E-03
             268            1241     31.0082E-03     30.7040E-03
             269             145     38.6190E-03     38.5037E-03
             269             146     32.8013E-03     32.0204E-03
             269            1241     31.0082E-03     30.7040E-03
             269            1242     35.0610E-03     35.9353E-03
             270             144     44.5860E-03     44.3577E-03
             270             145     38.6190E-03     38.5037E-03
             270            1242     35.0610E-03     35.9353E-03
             270            1243     40.8678E-03     41.4469E-03
             271             143     50.1066E-03     50.5205E-03
             271             144     44.5860E-03     44.3577E-03
             271            1243     40.8678E-03     41.4469E-03
             271            1244     46.6021E-03     48.0726E-03
             272             142     56.3408E-03     55.6954E-03
             272             143     50.1066E-03     50.5205E-03
             272            1244     46.6021E-03     48.0726E-03
             272            1245     53.6635E-03     53.1232E-03
             273             141     61.1124E-03     63.1336E-03
             273             142     56.3408E-03     55.6954E-03
             273            1245     53.6635E-03     53.1232E-03
             273            1246     57.6368E-03     62.5722E-03
             274             140     69.9943E-03     68.1203E-03
             274             141     61.1124E-03     63.1336E-03
             274            1246     57.6368E-03     62.5722E-03
             274            1247     70.6919E-03     67.4618E-03
             275             139     76.6843E-03     76.3906E-03
             275             140     69.9943E-03     68.1203E-03
             275            1247     70.6919E-03     67.4618E-03
             275            1248     76.2573E-03     75.4071E-03
             276             138     68.0396E-03     72.8216E-03
             276             139     76.6843E-03     76.3906E-03
             276            1248     76.2573E-03     75.4071E-03
             276            1249     64.5968E-03     76.6798E-03
             277             137     65.1131E-03     62.0934E-03
             277             138     68.0396E-03     72.8216E-03
             277            1249     64.5968E-03     76.6798E-03
             277            1250     66.3886E-03     64.2815E-03
             278             136     70.5457E-03     68.9178E-03
             278             137     65.1131E-03     62.0934E-03
             278            1250     66.3886E-03     64.2815E-03
             278            1251     68.6613E-03     66.9515E-03
             279             135     75.3724E-03     75.8711E-03
             279             136     70.5457E-03     68.9178E-03
             279            1251     68.6613E-03     66.9515E-03
             279            1252     69.2155E-03     72.7225E-03
             280             134     81.5430E-03     81.1726E-03
             280             135     75.3724E-03     75.8711E-03
             280            1252     69.2155E-03     72.7225E-03
             280            1253     76.1553E-03     76.5116E-03
             281             133     87.1450E-03     87.2379E-03
             281             134     81.5430E-03     81.1726E-03
             281            1253     76.1553E-03     76.5116E-03
             281            1254     80.9333E-03     83.1760E-03
             282             132     92.5126E-03     93.2268E-03
             282             133     87.1450E-03     87.2379E-03
             282            1254     80.9333E-03     83.1760E-03
             282            1255     86.8821E-03     89.5387E-03
             283             131     98.9219E-03     98.0214E-03
             283             132     92.5126E-03     93.2268E-03
             283            1255     86.8821E-03     89.5387E-03
             283            1256     94.6099E-03     94.0219E-03
             284             130     103.179E-03     106.117E-03
             284             131     98.9219E-03     98.0214E-03
             284            1256     94.6099E-03     94.0219E-03
             284            1257     97.3872E-03     105.139E-03
             285             129     113.268E-03     110.412E-03
             285             130     103.179E-03     106.117E-03
             285            1257     97.3872E-03     105.139E-03
             285            1258     114.146E-03     109.389E-03
             286             128     120.244E-03     118.962E-03
             286             129     113.268E-03     110.412E-03
             286            1258     114.146E-03     109.389E-03
             286            1259     120.323E-03     118.549E-03
             287             127     109.379E-03     117.034E-03
             287             128     120.244E-03     118.962E-03
             287            1259     120.323E-03     118.549E-03
             287            1260     103.728E-03     123.395E-03
             288             126     107.838E-03     103.784E-03
             288             127     109.379E-03     117.034E-03
             288            1260     103.728E-03     123.395E-03
             288            1261     109.422E-03     106.417E-03
             289             125     112.959E-03     110.339E-03
             289             126     107.838E-03     103.784E-03
             289            1261     109.422E-03     106.417E-03
             289            1262     110.983E-03     107.782E-03
             290             124     116.597E-03     117.933E-03
             290             125     112.959E-03     110.339E-03
             290            1262     110.983E-03     107.782E-03
             290            1263     107.847E-03     114.069E-03
             291             123     123.225E-03     122.584E-03
             291             124     116.597E-03     117.933E-03
             291            1263     107.847E-03     114.069E-03
             291            1264     115.857E-03     116.188E-03
             292             122     128.658E-03     128.963E-03
             292             123     123.225E-03     122.584E-03
             292            1264     115.857E-03     116.188E-03
             292            1265     119.980E-03     123.404E-03
             293             121     134.044E-03     134.972E-03
             293             122     128.658E-03     128.963E-03
             293            1265     119.980E-03     123.404E-03
             293            1266     125.939E-03     129.777E-03
             294             120     140.664E-03     139.490E-03
             294             121     134.044E-03     134.972E-03
             294            1266     125.939E-03     129.777E-03
             294            1267     134.349E-03     133.729E-03
             295             119     144.500E-03     148.274E-03
             295             120     140.664E-03     139.490E-03
             295            1267     134.349E-03     133.729E-03
             295            1268     136.092E-03     146.546E-03
             296             118     155.832E-03     151.969E-03
             296             119     144.500E-03     148.274E-03
             296            1268     136.092E-03     146.546E-03
             296            1269     156.596E-03     150.338E-03
             297             117     163.179E-03     160.888E-03
             297             118     155.832E-03     151.969E-03
             297            1269     156.596E-03     150.338E-03
             297            1270     163.558E-03     160.889E-03
             298             116     149.809E-03     160.444E-03
             298             117     163.179E-03     160.888E-03
             298            1270     163.558E-03     160.889E-03
             298            1271     141.365E-03     168.449E-03
             299             115     149.370E-03     144.811E-03
             299             116     149.809E-03     160.444E-03
             299            1271     141.365E-03     168.449E-03
             299            1272     150.437E-03     146.498E-03
             300             114     155.217E-03     151.646E-03
             300             115     149.370E-03     144.811E-03
             300            1272     150.437E-03     146.498E-03
             300            1273     151.912E-03     147.692E-03
             301             113     157.843E-03     161.175E-03
             301             114     155.217E-03     151.646E-03
             301            1273     151.912E-03     147.692E-03
             301            1274     146.549E-03     156.154E-03
             302             112     166.697E-03     164.114E-03
             302             113     157.843E-03     161.175E-03
             302            1274     146.549E-03     156.154E-03
             302            1275     158.522E-03     155.141E-03
             303             111     169.963E-03     174.752E-03
             303             112     166.697E-03     164.114E-03
             303            1275     158.522E-03     155.141E-03
             303            1276     158.210E-03     170.762E-03
             304             110     182.557E-03     177.876E-03
             304             111     169.963E-03     174.752E-03
             304            1276     158.210E-03     170.762E-03
             304            1277     180.941E-03     173.912E-03
             305             109     190.200E-03     187.359E-03
             305             110     182.557E-03     177.876E-03
             305            1277     180.941E-03     173.912E-03
             305            1278     188.972E-03     185.671E-03
             306               6     176.740E-03     183.696E-03
             306             108     168.393E-03     185.649E-03
             306             109     190.200E-03     187.359E-03
             306            1278     188.972E-03     185.671E-03
             307               5     43.1032E-03     42.8280E-03
             307             104     57.9558E-03     59.5185E-03
             307             156     39.5689E-03     40.1119E-03
             307            1279     56.8494E-03     57.2537E-03
             308             156     39.5689E-03     40.1119E-03
             308             157     35.1699E-03     38.6791E-03
             308            1279     56.8494E-03     57.2537E-03
             308            1280     52.7382E-03     57.4878E-03
             309             157     35.1699E-03     38.6791E-03
             309             158     41.6256E-03     43.2509E-03
             309            1280     52.7382E-03     57.4878E-03
             309            1281     60.8904E-03     60.0994E-03
             310             158     41.6256E-03     43.2509E-03
             310             159     40.8520E-03     41.6451E-03
             310            1281     60.8904E-03     60.0994E-03
             310            1282     61.5712E-03     62.9213E-03
             311             159     40.8520E-03     41.6451E-03
             311             160     43.2661E-03     42.7097E-03
             311            1282     61.5712E-03     62.9213E-03
             311            1283     64.2265E-03     64.5116E-03
             312             160     43.2661E-03     42.7097E-03
             312             161     43.0321E-03     39.8479E-03
             312            1283     64.2265E-03     64.5116E-03
             312            1284     63.3997E-03     60.4940E-03
             313               7     43.2010E-03     42.0126E-03
             313             161     43.0321E-03     39.8479E-03
             313             162     59.3224E-03     64.5496E-03
             313            1284     63.3997E-03     60.4940E-03
             314             104     57.9558E-03     59.5185E-03
             314             105     89.2527E-03     95.6405E-03
             314            1279     56.8494E-03     57.2537E-03
             314            1285     91.6051E-03     92.9861E-03
             315            1279     56.8494E-03     57.2537E-03
             315            1280     52.7382E-03     57.4878E-03
             315            1285     91.6051E-03     92.9861E-03
             315            1286     87.2844E-03     95.5120E-03
             316            1280     52.7382E-03     57.4878E-03
             316            1281     60.8904E-03     60.0994E-03
             316            1286     87.2844E-03     95.5120E-03
             316            1287     100.039E-03     95.4292E-03
             317            1281     60.8904E-03     60.0994E-03
             317            1282     61.5712E-03     62.9213E-03
             317            1287     100.039E-03     95.4292E-03
             317            1288     104.470E-03     105.601E-03
             318            1282     61.5712E-03     62.9213E-03
             318            1283     64.2265E-03     64.5116E-03
             318            1288     104.470E-03     105.601E-03
             318            1289     108.872E-03     107.963E-03
             319            1283     64.2265E-03     64.5116E-03
             319            1284     63.3997E-03     60.4940E-03
             319            1289     108.872E-03     107.963E-03
             319            1290     106.520E-03     101.973E-03
             320             162     59.3224E-03     64.5496E-03
             320             163     93.1505E-03     109.517E-03
             320            1284     63.3997E-03     60.4940E-03
             320            1290     106.520E-03     101.973E-03
             321             105     89.2527E-03     95.6405E-03
             321             106     120.696E-03     134.137E-03
             321            1285     91.6051E-03     92.9861E-03
             321            1291     124.673E-03     126.496E-03
             322            1285     91.6051E-03     92.9861E-03
             322            1286     87.2844E-03     95.5120E-03
             322            1291     124.673E-03     126.496E-03
             322            1292     119.809E-03     134.006E-03
             323            1286     87.2844E-03     95.5120E-03
             323            1287     100.039E-03     95.4292E-03
             323            1292     119.809E-03     134.006E-03
             323            1293     137.598E-03     130.924E-03
             324            1287     100.039E-03     95.4292E-03
             324            1288     104.470E-03     105.601E-03
             324            1293     137.598E-03     130.924E-03
             324            1294     143.764E-03     142.587E-03
             325            1288     104.470E-03     105.601E-03
             325            1289     108.872E-03     107.963E-03
             325            1294     143.764E-03     142.587E-03
             325            1295     150.084E-03     144.294E-03
             326            1289     108.872E-03     107.963E-03
             326            1290     106.520E-03     101.973E-03
             326            1295     150.084E-03     144.294E-03
             326            1296     148.093E-03     140.209E-03
             327             163     93.1505E-03     109.517E-03
             327             164     126.833E-03     157.194E-03
             327            1290     106.520E-03     101.973E-03
             327            1296     148.093E-03     140.209E-03
             328             106     120.696E-03     134.137E-03
             328             107     146.672E-03     167.166E-03
             328            1291     124.673E-03     126.496E-03
             328            1297     150.742E-03     153.012E-03
             329            1291     124.673E-03     126.496E-03
             329            1292     119.809E-03     134.006E-03
             329            1297     150.742E-03     153.012E-03
             329            1298     145.952E-03     166.928E-03
             330            1292     119.809E-03     134.006E-03
             330            1293     137.598E-03     130.924E-03
             330            1298     145.952E-03     166.928E-03
             330            1299     168.108E-03     161.484E-03
             331            1293     137.598E-03     130.924E-03
             331            1294     143.764E-03     142.587E-03
             331            1299     168.108E-03     161.484E-03
             331            1300     169.095E-03     171.439E-03
             332            1294     143.764E-03     142.587E-03
             332            1295     150.084E-03     144.294E-03
             332            1300     169.095E-03     171.439E-03
             332            1301     177.059E-03     173.807E-03
             333            1295     150.084E-03     144.294E-03
             333            1296     148.093E-03     140.209E-03
             333            1301     177.059E-03     173.807E-03
             333            1302     180.759E-03     173.997E-03
             334             164     126.833E-03     157.194E-03
             334             165     153.929E-03     200.847E-03
             334            1296     148.093E-03     140.209E-03
             334            1302     180.759E-03     173.997E-03
             335             107     146.672E-03     167.166E-03
             335             108     168.393E-03     185.649E-03
             335            1297     150.742E-03     153.012E-03
             335            1303     167.004E-03     169.786E-03
             336            1297     150.742E-03     153.012E-03
             336            1298     145.952E-03     166.928E-03
             336            1303     167.004E-03     169.786E-03
             336            1304     165.982E-03     184.410E-03
             337            1298     145.952E-03     166.928E-03
             337            1299     168.108E-03     161.484E-03
             337            1304     165.982E-03     184.410E-03
             337            1305     185.451E-03     177.035E-03
             338            1299     168.108E-03     161.484E-03
             338            1300     169.095E-03     171.439E-03
             338            1305     185.451E-03     177.035E-03
             338            1306     183.984E-03     186.796E-03
             339            1300     169.095E-03     171.439E-03
             339            1301     177.059E-03     173.807E-03
             339            1306     183.984E-03     186.796E-03
             339            1307     194.644E-03     192.719E-03
             340            1301     177.059E-03     173.807E-03
             340            1302     180.759E-03     173.997E-03
             340            1307     194.644E-03     192.719E-03
             340            1308     206.172E-03     199.406E-03
             341             165     153.929E-03     200.847E-03
             341             166     186.992E-03     228.948E-03
             341            1302     180.759E-03     173.997E-03
             341            1308     206.172E-03     199.406E-03
             342               6     176.740E-03     183.696E-03
             342             108     168.393E-03     185.649E-03
             342             172     172.249E-03     174.369E-03
             342            1303     167.004E-03     169.786E-03
             343             171     175.129E-03     184.021E-03
             343             172     172.249E-03     174.369E-03
             343            1303     167.004E-03     169.786E-03
             343            1304     165.982E-03     184.410E-03
             344             170     186.084E-03     179.802E-03
             344             171     175.129E-03     184.021E-03
             344            1304     165.982E-03     184.410E-03
             344            1305     185.451E-03     177.035E-03
             345             169     190.484E-03     191.045E-03
             345             170     186.084E-03     179.802E-03
             345            1305     185.451E-03     177.035E-03
             345            1306     183.984E-03     186.796E-03
             346             168     200.373E-03     198.149E-03
             346             169     190.484E-03     191.045E-03
             346            1306     183.984E-03     186.796E-03
             346            1307     194.644E-03     192.719E-03
             347             167     210.194E-03     206.333E-03
             347             168     200.373E-03     198.149E-03
             347            1307     194.644E-03     192.719E-03
             347            1308     206.172E-03     199.406E-03
             348               8     205.716E-03     226.350E-03
             348             166     186.992E-03     228.948E-03
             348             167     210.194E-03     206.333E-03
             348            1308     206.172E-03     199.406E-03
             349               7     43.2010E-03     42.0126E-03
             349             162     59.3224E-03     64.5496E-03
             349             173     51.6456E-03     48.4829E-03
             349            1309     70.0277E-03     67.2092E-03
             350             173     51.6456E-03     48.4829E-03
             350             174     51.7543E-03     51.6266E-03
             350            1309     70.0277E-03     67.2092E-03
             350            1310     71.3493E-03     70.1650E-03
             351             174     51.7543E-03     51.6266E-03
             351             175     49.9375E-03     51.6491E-03
             351            1310     71.3493E-03     70.1650E-03
             351            1311     66.2727E-03     71.2500E-03
             352             175     49.9375E-03     51.6491E-03
             352             176     51.4142E-03     50.4894E-03
             352            1311     66.2727E-03     71.2500E-03
             352            1312     68.5454E-03     66.2312E-03
             353             176     51.4142E-03     50.4894E-03
             353             177     50.5036E-03     52.3842E-03
             353            1312     68.5454E-03     66.2312E-03
             353            1313     65.5628E-03     65.3689E-03
             354             177     50.5036E-03     52.3842E-03
             354             178     42.6243E-03     45.0865E-03
             354            1313     65.5628E-03     65.3689E-03
             354            1314     56.3079E-03     59.7611E-03
             355               9     40.9855E-03     40.3602E-03
             355             178     42.6243E-03     45.0865E-03
             355             179     54.9885E-03     56.8510E-03
             355            1314     56.3079E-03     59.7611E-03
             356             162     59.3224E-03     64.5496E-03
             356             163     93.1505E-03     109.517E-03
             356            1309     70.0277E-03     67.2092E-03
             356            1315     110.408E-03     106.270E-03
             357            1309     70.0277E-03     67.2092E-03
             357            1310     71.3493E-03     70.1650E-03
             357            1315     110.408E-03     106.270E-03
             357            1316     113.971E-03     107.662E-03
             358            1310     71.3493E-03     70.1650E-03
             358            1311     66.2727E-03     71.2500E-03
             358            1316     113.971E-03     107.662E-03
             358            1317     101.499E-03     110.745E-03
             359            1311     66.2727E-03     71.2500E-03
             359            1312     68.5454E-03     66.2312E-03
             359            1317     101.499E-03     110.745E-03
             359            1318     105.405E-03     100.305E-03
             360            1312     68.5454E-03     66.2312E-03
             360            1313     65.5628E-03     65.3689E-03
             360            1318     105.405E-03     100.305E-03
             360            1319     97.9328E-03     94.9177E-03
             361            1313     65.5628E-03     65.3689E-03
             361            1314     56.3079E-03     59.7611E-03
             361            1319     97.9328E-03     94.9177E-03
             361            1320     85.3338E-03     91.3537E-03
             362             179     54.9885E-03     56.8510E-03
             362             180     85.0087E-03     92.6749E-03
             362            1314     56.3079E-03     59.7611E-03
             362            1320     85.3338E-03     91.3537E-03
             363             163     93.1505E-03     109.517E-03
             363             164     126.833E-03     157.194E-03
             363            1315     110.408E-03     106.270E-03
             363            1321     151.058E-03     144.739E-03
             364            1315     110.408E-03     106.270E-03
             364            1316     113.971E-03     107.662E-03
             364            1321     151.058E-03     144.739E-03
             364            1322     154.255E-03     139.999E-03
             365            1316     113.971E-03     107.662E-03
             365            1317     101.499E-03     110.745E-03
             365            1322     154.255E-03     139.999E-03
             365            1323     132.840E-03     146.045E-03
             366            1317     101.499E-03     110.745E-03
             366            1318     105.405E-03     100.305E-03
             366            1323     132.840E-03     146.045E-03
             366            1324     141.386E-03     132.004E-03
             367            1318     105.405E-03     100.305E-03
             367            1319     97.9328E-03     94.9177E-03
             367            1324     141.386E-03     132.004E-03
             367            1325     131.949E-03     128.004E-03
             368            1319     97.9328E-03     94.9177E-03
             368            1320     85.3338E-03     91.3537E-03
             368            1325     131.949E-03     128.004E-03
             368            1326     114.319E-03     126.101E-03
             369             180     85.0087E-03     92.6749E-03
             369             181     115.248E-03     131.148E-03
             369            1320     85.3338E-03     91.3537E-03
             369            1326     114.319E-03     126.101E-03
             370             164     126.833E-03     157.194E-03
             370             165     153.929E-03     200.847E-03
             370            1321     151.058E-03     144.739E-03
             370            1327     183.441E-03     180.713E-03
             371            1321     151.058E-03     144.739E-03
             371            1322     154.255E-03     139.999E-03
             371            1327     183.441E-03     180.713E-03
             371            1328     182.965E-03     169.123E-03
             372            1322     154.255E-03     139.999E-03
             372            1323     132.840E-03     146.045E-03
             372            1328     182.965E-03     169.123E-03
             372            1329     152.389E-03     174.141E-03
             373            1323     132.840E-03     146.045E-03
             373            1324     141.386E-03     132.004E-03
             373            1329     152.389E-03     174.141E-03
             373            1330     166.800E-03     157.415E-03
             374            1324     141.386E-03     132.004E-03
             374            1325     131.949E-03     128.004E-03
             374            1330     166.800E-03     157.415E-03
             374            1331     160.017E-03     158.110E-03
             375            1325     131.949E-03     128.004E-03
             375            1326     114.319E-03     126.101E-03
             375            1331     160.017E-03     158.110E-03
             375            1332     139.023E-03     156.297E-03
             376             181     115.248E-03     131.148E-03
             376             182     139.538E-03     163.007E-03
             376            1326     114.319E-03     126.101E-03
             376            1332     139.023E-03     156.297E-03
             377             165     153.929E-03     200.847E-03
             377             166     186.992E-03     228.948E-03
             377            1327     183.441E-03     180.713E-03
             377            1333     210.052E-03     207.309E-03
             378            1327     183.441E-03     180.713E-03
             378            1328     182.965E-03     169.123E-03
             378            1333     210.052E-03     207.309E-03
             378            1334     201.908E-03     190.452E-03
             379            1328     182.965E-03     169.123E-03
             379            1329     152.389E-03     174.141E-03
             379            1334     201.908E-03     190.452E-03
             379            1335     171.117E-03     190.063E-03
             380            1329     152.389E-03     174.141E-03
             380            1330     166.800E-03     157.415E-03
             380            1335     171.117E-03     190.063E-03
             380            1336     180.545E-03     171.366E-03
             381            1330     166.800E-03     157.415E-03
             381            1331     160.017E-03     158.110E-03
             381            1336     180.545E-03     171.366E-03
             381            1337     174.073E-03     170.563E-03
             382            1331     160.017E-03     158.110E-03
             382            1332     139.023E-03     156.297E-03
             382            1337     174.073E-03     170.563E-03
             382            1338     156.425E-03     169.613E-03
             383             182     139.538E-03     163.007E-03
             383             183     162.010E-03     182.474E-03
             383            1332     139.023E-03     156.297E-03
             383            1338     156.425E-03     169.613E-03
             384               8     205.716E-03     226.350E-03
             384             166     186.992E-03     228.948E-03
             384             189     213.839E-03     211.593E-03
             384            1333     210.052E-03     207.309E-03
             385             188     204.248E-03     197.587E-03
             385             189     213.839E-03     211.593E-03
             385            1333     210.052E-03     207.309E-03
             385            1334     201.908E-03     190.452E-03
             386             187     186.473E-03     194.116E-03
             386             188     204.248E-03     197.587E-03
             386            1334     201.908E-03     190.452E-03
             386            1335     171.117E-03     190.063E-03
             387             186     183.600E-03     177.835E-03
             387             187     186.473E-03     194.116E-03
             387            1335     171.117E-03     190.063E-03
             387            1336     180.545E-03     171.366E-03
             388             185     173.611E-03     169.312E-03
             388             186     183.600E-03     177.835E-03
             388            1336     180.545E-03     171.366E-03
             388            1337     174.073E-03     170.563E-03
             389             184     162.593E-03     166.884E-03
             389             185     173.611E-03     169.312E-03
             389            1337     174.073E-03     170.563E-03
             389            1338     156.425E-03     169.613E-03
             390              10     171.135E-03     181.925E-03
             390             183     162.010E-03     182.474E-03
             390             184     162.593E-03     166.884E-03
             390            1338     156.425E-03     169.613E-03
             391              11     32.0258E-15     35.7280E-15
             391             190     20.9729E-15     22.6826E-15
             391             211     29.9740E-15     32.4824E-15
             391            1339     19.5175E-15     21.1486E-15
             392             190     20.9729E-15     22.6826E-15
             392             191     12.4550E-15     13.6400E-15
             392            1339     19.5175E-15     21.1486E-15
             392            1340     8.34939E-15     8.77197E-15
             393             191     12.4550E-15     13.6400E-15
             393             192     12.6637E-15     13.5071E-15
             393            1340     8.34939E-15     8.77197E-15
             393            1341     7.00381E-15     7.29351E-15
             394             192     12.6637E-15     13.5071E-15
             394             193     9.62714E-15     7.83641E-15
             394            1341     7.00381E-15     7.29351E-15
             394            1342     8.48441E-15     7.26596E-15
             395             193     9.62714E-15     7.83641E-15
             395             194     10.4154E-15     9.29104E-15
             395            1342     8.48441E-15     7.26596E-15
             395            1343     10.7774E-15     9.27218E-15
             396             194     10.4154E-15     9.29104E-15
             396             195     9.43047E-15     11.5924E-15
             396            1343     10.7774E-15     9.27218E-15
             396            1344     10.2166E-15     10.6229E-15
             397              12     21.5121E-03     21.3608E-03
             397             195     9.43047E-15     11.5924E-15
             397             196     20.7215E-03     20.5485E-03
             397            1344     10.2166E-15     10.6229E-15
             398             210     22.1209E-15     21.3006E-15
             398             211     29.9740E-15     32.4824E-15
             398            1339     19.5175E-15     21.1486E-15
             398            1345     16.7910E-15     16.9109E-15
             399            1339     19.5175E-15     21.1486E-15
             399            1340     8.34939E-15     8.77197E-15
             399            1345     16.7910E-15     16.9109E-15
             399            1346     10.6533E-15     11.6897E-15
             400            1340     8.34939E-15     8.77197E-15
             400            1341     7.00381E-15     7.29351E-15
             400            1346     10.6533E-15     11.6897E-15
             400            1347     9.07811E-15     8.04886E-15
             401            1341     7.00381E-15     7.29351E-15
             401            1342     8.48441E-15     7.26596E-15
             401            1347     9.07811E-15     8.04886E-15
             401            1348     9.65328E-15     7.88918E-15
             402            1342     8.48441E-15     7.26596E-15
             402            1343     10.7774E-15     9.27218E-15
             402            1348     9.65328E-15     7.88918E-15
             402            1349     13.3103E-15     13.0386E-15
             403            1343     10.7774E-15     9.27218E-15
             403            1344     10.2166E-15     10.6229E-15
             403            1349     13.3103E-15     13.0386E-15
             403            1350     14.5625E-15     12.8480E-15
             404             196     20.7215E-03     20.5485E-03
             404             197     18.6453E-03     18.4853E-03
             404            1344     10.2166E-15     10.6229E-15
             404            1350     14.5625E-15     12.8480E-15
             405             209     12.9133E-15     13.0724E-15
             405             210     22.1209E-15     21.3006E-15
             405            1345     16.7910E-15     16.9109E-15
             405            1351     11.6155E-15     11.7123E-15
             406            1345     16.7910E-15     16.9109E-15
             406            1346     10.6533E-15     11.6897E-15
             406            1351     11.6155E-15     11.7123E-15
             406            1352     10.5437E-15     11.4389E-15
             407            1346     10.6533E-15     11.6897E-15
             407            1347     9.07811E-15     8.04886E-15
             407            1352     10.5437E-15     11.4389E-15
             407            1353     10.6466E-15     11.2601E-15
             408            1347     9.07811E-15     8.04886E-15
             408            1348     9.65328E-15     7.88918E-15
             408            1353     10.6466E-15     11.2601E-15
             408            1354     9.97520E-15     10.3354E-15
             409            1348     9.65328E-15     7.88918E-15
             409            1349     13.3103E-15     13.0386E-15
             409            1354     9.97520E-15     10.3354E-15
             409            1355     13.7356E-15     13.0720E-15
             410            1349     13.3103E-15     13.0386E-15
             410            1350     14.5625E-15     12.8480E-15
             410            1355     13.7356E-15     13.0720E-15
             410            1356     17.7474E-15     14.4276E-15
             411             197     18.6453E-03     18.4853E-03
             411             198     15.1397E-03     14.9746E-03
             411            1350     14.5625E-15     12.8480E-15
             411            1356     17.7474E-15     14.4276E-15
             412             208     13.7583E-15     15.3727E-15
             412             209     12.9133E-15     13.0724E-15
             412            1351     11.6155E-15     11.7123E-15
             412            1357     12.2402E-15     12.0265E-15
             413            1351     11.6155E-15     11.7123E-15
             413            1352     10.5437E-15     11.4389E-15
             413            1357     12.2402E-15     12.0265E-15
             413            1358     8.80435E-15     7.53586E-15
             414            1352     10.5437E-15     11.4389E-15
             414            1353     10.6466E-15     11.2601E-15
             414            1358     8.80435E-15     7.53586E-15
             414            1359     7.87866E-15     9.32170E-15
             415            1353     10.6466E-15     11.2601E-15
             415            1354     9.97520E-15     10.3354E-15
             415            1359     7.87866E-15     9.32170E-15
             415            1360     8.53760E-15     10.0587E-15
             416            1354     9.97520E-15     10.3354E-15
             416            1355     13.7356E-15     13.0720E-15
             416            1360     8.53760E-15     10.0587E-15
             416            1361     10.5557E-15     8.75157E-15
             417            1355     13.7356E-15     13.0720E-15
             417            1356     17.7474E-15     14.4276E-15
             417            1361     10.5557E-15     8.75157E-15
             417            1362     13.6541E-15     10.1824E-15
             418             198     15.1397E-03     14.9746E-03
             418             199     10.7323E-03     10.4398E-03
             418            1356     17.7474E-15     14.4276E-15
             418            1362     13.6541E-15     10.1824E-15
             419             207     21.5565E-15     20.5092E-15
             419             208     13.7583E-15     15.3727E-15
             419            1357     12.2402E-15     12.0265E-15
             419            1363     16.9137E-15     14.8639E-15
             420            1357     12.2402E-15     12.0265E-15
             420            1358     8.80435E-15     7.53586E-15
             420            1363     16.9137E-15     14.8639E-15
             420            1364     11.5438E-15     9.73703E-15
             421            1358     8.80435E-15     7.53586E-15
             421            1359     7.87866E-15     9.32170E-15
             421            1364     11.5438E-15     9.73703E-15
             421            1365     11.5191E-15     11.3523E-15
             422            1359     7.87866E-15     9.32170E-15
             422            1360     8.53760E-15     10.0587E-15
             422            1365     11.5191E-15     11.3523E-15
             422            1366     8.22522E-15     7.96595E-15
             423            1360     8.53760E-15     10.0587E-15
             423            1361     10.5557E-15     8.75157E-15
             423            1366     8.22522E-15     7.96595E-15
             423            1367     4.38680E-15     3.07385E-15
             424            1361     10.5557E-15     8.75157E-15
             424            1362     13.6541E-15     10.1824E-15
             424            1367     4.38680E-15     3.07385E-15
             424            1368     4.49619E-15     2.72590E-15
             425             199     10.7323E-03     10.4398E-03
             425             200     6.04289E-03     7.65198E-03
             425            1362     13.6541E-15     10.1824E-15
             425            1368     4.49619E-15     2.72590E-15
             426              14     16.7238E-15     15.8061E-15
             426             206     13.4416E-15     13.0696E-15
             426             207     21.5565E-15     20.5092E-15
             426            1363     16.9137E-15     14.8639E-15
             427             205     11.5746E-15     11.9867E-15
             427             206     13.4416E-15     13.0696E-15
             427            1363     16.9137E-15     14.8639E-15
             427            1364     11.5438E-15     9.73703E-15
             428             204     14.4258E-15     14.2773E-15
             428             205     11.5746E-15     11.9867E-15
             428            1364     11.5438E-15     9.73703E-15
             428            1365     11.5191E-15     11.3523E-15
             429             203     13.4015E-15     12.6257E-15
             429             204     14.4258E-15     14.2773E-15
             429            1365     11.5191E-15     11.3523E-15
             429            1366     8.22522E-15     7.96595E-15
             430             202     7.88470E-15     7.68917E-15
             430             203     13.4015E-15     12.6257E-15
             430            1366     8.22522E-15     7.96595E-15
             430            1367     4.38680E-15     3.07385E-15
             431             201     4.77730E-15     5.74295E-15
             431             202     7.88470E-15     7.68917E-15
             431            1367     4.38680E-15     3.07385E-15
             431            1368     4.49619E-15     2.72590E-15
             432              13     3.32713E-03     6.53520E-03
             432             200     6.04289E-03     7.65198E-03
             432             201     4.77730E-15     5.74295E-15
             432            1368     4.49619E-15     2.72590E-15
             433               9     40.9855E-03     40.3602E-03
             433             179     54.9885E-03     56.8510E-03
             433             212     49.8249E-03     47.8999E-03
             433            1369     64.5562E-03     61.6403E-03
             434             212     49.8249E-03     47.8999E-03
             434             213     49.7244E-03     51.1538E-03
             434            1369     64.5562E-03     61.6403E-03
             434            1370     65.8932E-03     64.7081E-03
             435             213     49.7244E-03     51.1538E-03
             435             214     47.9165E-03     51.0063E-03
             435            1370     65.8932E-03     64.7081E-03
             435            1371     61.9893E-03     65.1534E-03
             436             214     47.9165E-03     51.0063E-03
             436             215     49.4716E-03     50.3487E-03
             436            1371     61.9893E-03     65.1534E-03
             436            1372     62.8295E-03     62.5283E-03
             437             215     49.4716E-03     50.3487E-03
             437             216     49.7842E-03     49.8021E-03
             437            1372     62.8295E-03     62.5283E-03
             437            1373     61.6955E-03     61.6344E-03
             438             216     49.7842E-03     49.8021E-03
             438             217     49.9097E-03     48.7515E-03
             438            1373     61.6955E-03     61.6344E-03
             438            1374     59.9903E-03     59.6137E-03
             439             217     49.9097E-03     48.7515E-03
             439             218     50.1579E-03     47.9531E-03
             439            1374     59.9903E-03     59.6137E-03
             439            1375     58.3931E-03     57.9673E-03
             440             218     50.1579E-03     47.9531E-03
             440             219     49.5367E-03     46.9380E-03
             440            1375     58.3931E-03     57.9673E-03
             440            1376     57.2235E-03     54.9405E-03
             441             219     49.5367E-03     46.9380E-03
             441             220     48.4490E-03     47.9512E-03
             441            1376     57.2235E-03     54.9405E-03
             441            1377     54.6865E-03     53.6582E-03
             442             220     48.4490E-03     47.9512E-03
             442             221     46.8552E-03     46.7581E-03
             442            1377     54.6865E-03     53.6582E-03
             442            1378     52.0185E-03     54.1790E-03
             443             221     46.8552E-03     46.7581E-03
             443             222     47.5449E-03     45.9914E-03
             443            1378     52.0185E-03     54.1790E-03
             443            1379     55.8528E-03     53.6397E-03
             444             222     47.5449E-03     45.9914E-03
             444             223     47.3499E-03     48.3923E-03
             444            1379     55.8528E-03     53.6397E-03
             444            1380     56.4729E-03     55.6846E-03
             445             223     47.3499E-03     48.3923E-03
             445             224     46.0064E-03     48.1123E-03
             445            1380     56.4729E-03     55.6846E-03
             445            1381     53.3971E-03     55.5229E-03
             446             224     46.0064E-03     48.1123E-03
             446             225     47.0323E-03     47.5370E-03
             446            1381     53.3971E-03     55.5229E-03
             446            1382     53.6886E-03     53.3919E-03
             447             225     47.0323E-03     47.5370E-03
             447             226     47.2318E-03     47.1216E-03
             447            1382     53.6886E-03     53.3919E-03
             447            1383     52.5954E-03     52.5837E-03
             448             226     47.2318E-03     47.1216E-03
             448             227     47.3397E-03     46.4143E-03
             448            1383     52.5954E-03     52.5837E-03
             448            1384     51.2632E-03     51.0505E-03
             449             227     47.3397E-03     46.4143E-03
             449             228     47.5681E-03     45.9719E-03
             449            1384     51.2632E-03     51.0505E-03
             449            1385     50.2359E-03     49.6654E-03
             450             228     47.5681E-03     45.9719E-03
             450             229     47.2033E-03     45.4549E-03
             450            1385     50.2359E-03     49.6654E-03
             450            1386     49.1856E-03     47.8452E-03
             451             229     47.2033E-03     45.4549E-03
             451             230     46.5656E-03     46.0332E-03
             451            1386     49.1856E-03     47.8452E-03
             451            1387     47.7393E-03     47.0810E-03
             452             230     46.5656E-03     46.0332E-03
             452             231     45.7628E-03     45.2652E-03
             452            1387     47.7393E-03     47.0810E-03
             452            1388     46.6868E-03     47.3851E-03
             453             231     45.7628E-03     45.2652E-03
             453             232     46.2876E-03     45.0114E-03
             453            1388     46.6868E-03     47.3851E-03
             453            1389     49.0081E-03     47.4336E-03
             454             232     46.2876E-03     45.0114E-03
             454             233     46.0808E-03     46.5870E-03
             454            1389     49.0081E-03     47.4336E-03
             454            1390     49.0938E-03     48.5164E-03
             455             233     46.0808E-03     46.5870E-03
             455             234     45.1071E-03     46.3188E-03
             455            1390     49.0938E-03     48.5164E-03
             455            1391     46.9486E-03     47.9850E-03
             456             234     45.1071E-03     46.3188E-03
             456             235     45.5870E-03     45.8861E-03
             456            1391     46.9486E-03     47.9850E-03
             456            1392     46.8527E-03     46.5757E-03
             457             235     45.5870E-03     45.8861E-03
             457             236     45.5522E-03     45.6495E-03
             457            1392     46.8527E-03     46.5757E-03
             457            1393     46.0338E-03     46.0941E-03
             458             236     45.5522E-03     45.6495E-03
             458             237     45.5944E-03     45.1810E-03
             458            1393     46.0338E-03     46.0941E-03
             458            1394     45.2467E-03     45.2699E-03
             459             237     45.5944E-03     45.1810E-03
             459             238     45.7052E-03     44.8863E-03
             459            1394     45.2467E-03     45.2699E-03
             459            1395     44.7581E-03     44.4627E-03
             460             238     45.7052E-03     44.8863E-03
             460             239     45.6956E-03     44.8389E-03
             460            1395     44.7581E-03     44.4627E-03
             460            1396     44.2660E-03     43.8235E-03
             461             239     45.6956E-03     44.8389E-03
             461             240     45.7097E-03     44.7300E-03
             461            1396     44.2660E-03     43.8235E-03
             461            1397     43.9767E-03     43.3223E-03
             462             240     45.7097E-03     44.7300E-03
             462             241     45.4799E-03     44.6794E-03
             462            1397     43.9767E-03     43.3223E-03
             462            1398     43.5466E-03     42.9732E-03
             463             241     45.4799E-03     44.6794E-03
             463             242     44.0554E-03     43.4846E-03
             463            1398     43.5466E-03     42.9732E-03
             463            1399     42.3229E-03     41.9655E-03
             464             242     44.0554E-03     43.4846E-03
             464             243     43.3478E-03     42.7202E-03
             464            1399     42.3229E-03     41.9655E-03
             464            1400     41.9527E-03     41.4612E-03
             465             243     43.3478E-03     42.7202E-03
             465             244     43.4883E-03     43.1803E-03
             465            1400     41.9527E-03     41.4612E-03
             465            1401     42.1850E-03     41.8894E-03
             466             244     43.4883E-03     43.1803E-03
             466             245     43.1180E-03     42.9392E-03
             466            1401     42.1850E-03     41.8894E-03
             466            1402     41.6574E-03     41.5067E-03
             467              12     21.5121E-03     21.3608E-03
             467             245     43.1180E-03     42.9392E-03
             467             246     20.7215E-03     20.5485E-03
             467            1402     41.6574E-03     41.5067E-03
             468             179     54.9885E-03     56.8510E-03
             468             180     85.0087E-03     92.6749E-03
             468            1369     64.5562E-03     61.6403E-03
             468            1403     98.3132E-03     93.7805E-03
             469            1369     64.5562E-03     61.6403E-03
             469            1370     65.8932E-03     64.7081E-03
             469            1403     98.3132E-03     93.7805E-03
             469            1404     100.964E-03     94.1859E-03
             470            1370     65.8932E-03     64.7081E-03
             470            1371     61.9893E-03     65.1534E-03
             470            1404     100.964E-03     94.1859E-03
             470            1405     90.6807E-03     94.0090E-03
             471            1371     61.9893E-03     65.1534E-03
             471            1372     62.8295E-03     62.5283E-03
             471            1405     90.6807E-03     94.0090E-03
             471            1406     89.7459E-03     87.2348E-03
             472            1372     62.8295E-03     62.5283E-03
             472            1373     61.6955E-03     61.6344E-03
             472            1406     89.7459E-03     87.2348E-03
             472            1407     86.1216E-03     85.1617E-03
             473            1373     61.6955E-03     61.6344E-03
             473            1374     59.9903E-03     59.6137E-03
             473            1407     86.1216E-03     85.1617E-03
             473            1408     82.0240E-03     81.8549E-03
             474            1374     59.9903E-03     59.6137E-03
             474            1375     58.3931E-03     57.9673E-03
             474            1408     82.0240E-03     81.8549E-03
             474            1409     77.6930E-03     80.1333E-03
             475            1375     58.3931E-03     57.9673E-03
             475            1376     57.2235E-03     54.9405E-03
             475            1409     77.6930E-03     80.1333E-03
             475            1410     76.8498E-03     74.9027E-03
             476            1376     57.2235E-03     54.9405E-03
             476            1377     54.6865E-03     53.6582E-03
             476            1410     76.8498E-03     74.9027E-03
             476            1411     71.4509E-03     70.1234E-03
             477            1377     54.6865E-03     53.6582E-03
             477            1378     52.0185E-03     54.1790E-03
             477            1411     71.4509E-03     70.1234E-03
             477            1412     65.6116E-03     73.8299E-03
             478            1378     52.0185E-03     54.1790E-03
             478            1379     55.8528E-03     53.6397E-03
             478            1412     65.6116E-03     73.8299E-03
             478            1413     76.1430E-03     72.7313E-03
             479            1379     55.8528E-03     53.6397E-03
             479            1380     56.4729E-03     55.6846E-03
             479            1413     76.1430E-03     72.7313E-03
             479            1414     77.2859E-03     72.2736E-03
             480            1380     56.4729E-03     55.6846E-03
             480            1381     53.3971E-03     55.5229E-03
             480            1414     77.2859E-03     72.2736E-03
             480            1415     69.0849E-03     71.3105E-03
             481            1381     53.3971E-03     55.5229E-03
             481            1382     53.6886E-03     53.3919E-03
             481            1415     69.0849E-03     71.3105E-03
             481            1416     67.7112E-03     65.8927E-03
             482            1382     53.6886E-03     53.3919E-03
             482            1383     52.5954E-03     52.5837E-03
             482            1416     67.7112E-03     65.8927E-03
             482            1417     64.3654E-03     63.8872E-03
             483            1383     52.5954E-03     52.5837E-03
             483            1384     51.2632E-03     51.0505E-03
             483            1417     64.3654E-03     63.8872E-03
             483            1418     60.7958E-03     61.0934E-03
             484            1384     51.2632E-03     51.0505E-03
             484            1385     50.2359E-03     49.6654E-03
             484            1418     60.7958E-03     61.0934E-03
             484            1419     57.4715E-03     58.8653E-03
             485            1385     50.2359E-03     49.6654E-03
             485            1386     49.1856E-03     47.8452E-03
             485            1419     57.4715E-03     58.8653E-03
             485            1420     55.5093E-03     55.1301E-03
             486            1386     49.1856E-03     47.8452E-03
             486            1387     47.7393E-03     47.0810E-03
             486            1420     55.5093E-03     55.1301E-03
             486            1421     52.1088E-03     51.6919E-03
             487            1387     47.7393E-03     47.0810E-03
             487            1388     46.6868E-03     47.3851E-03
             487            1421     52.1088E-03     51.6919E-03
             487            1422     50.0805E-03     54.2667E-03
             488            1388     46.6868E-03     47.3851E-03
             488            1389     49.0081E-03     47.4336E-03
             488            1422     50.0805E-03     54.2667E-03
             488            1423     56.6008E-03     54.4103E-03
             489            1389     49.0081E-03     47.4336E-03
             489            1390     49.0938E-03     48.5164E-03
             489            1423     56.6008E-03     54.4103E-03
             489            1424     56.4617E-03     53.2300E-03
             490            1390     49.0938E-03     48.5164E-03
             490            1391     46.9486E-03     47.9850E-03
             490            1424     56.4617E-03     53.2300E-03
             490            1425     50.6920E-03     51.8138E-03
             491            1391     46.9486E-03     47.9850E-03
             491            1392     46.8527E-03     46.5757E-03
             491            1425     50.6920E-03     51.8138E-03
             491            1426     49.2841E-03     48.1014E-03
             492            1392     46.8527E-03     46.5757E-03
             492            1393     46.0338E-03     46.0941E-03
             492            1426     49.2841E-03     48.1014E-03
             492            1427     46.8032E-03     46.5552E-03
             493            1393     46.0338E-03     46.0941E-03
             493            1394     45.2467E-03     45.2699E-03
             493            1427     46.8032E-03     46.5552E-03
             493            1428     44.3800E-03     44.7397E-03
             494            1394     45.2467E-03     45.2699E-03
             494            1395     44.7581E-03     44.4627E-03
             494            1428     44.3800E-03     44.7397E-03
             494            1429     42.5067E-03     42.9626E-03
             495            1395     44.7581E-03     44.4627E-03
             495            1396     44.2660E-03     43.8235E-03
             495            1429     42.5067E-03     42.9626E-03
             495            1430     40.7295E-03     41.3851E-03
             496            1396     44.2660E-03     43.8235E-03
             496            1397     43.9767E-03     43.3223E-03
             496            1430     40.7295E-03     41.3851E-03
             496            1431     39.2544E-03     39.8068E-03
             497            1397     43.9767E-03     43.3223E-03
             497            1398     43.5466E-03     42.9732E-03
             497            1431     39.2544E-03     39.8068E-03
             497            1432     38.4213E-03     38.5821E-03
             498            1398     43.5466E-03     42.9732E-03
             498            1399     42.3229E-03     41.9655E-03
             498            1432     38.4213E-03     38.5821E-03
             498            1433     37.9294E-03     38.1895E-03
             499            1399     42.3229E-03     41.9655E-03
             499            1400     41.9527E-03     41.4612E-03
             499            1433     37.9294E-03     38.1895E-03
             499            1434     38.3336E-03     37.9959E-03
             500            1400     41.9527E-03     41.4612E-03
             500            1401     42.1850E-03     41.8894E-03
             500            1434     38.3336E-03     37.9959E-03
             500            1435     38.2912E-03     37.7411E-03
             501            1401     42.1850E-03     41.8894E-03
             501            1402     41.6574E-03     41.5067E-03
             501            1435     38.2912E-03     37.7411E-03
             501            1436     37.4325E-03     37.3645E-03
             502             246     20.7215E-03     20.5485E-03
             502             247     18.6453E-03     18.4853E-03
             502            1402     41.6574E-03     41.5067E-03
             502            1436     37.4325E-03     37.3645E-03
             503             180     85.0087E-03     92.6749E-03
             503             181     115.248E-03     131.148E-03
             503            1403     98.3132E-03     93.7805E-03
             503            1437     133.705E-03     129.270E-03
             504            1403     98.3132E-03     93.7805E-03
             504            1404     100.964E-03     94.1859E-03
             504            1437     133.705E-03     129.270E-03
             504            1438     134.844E-03     123.620E-03
             505            1404     100.964E-03     94.1859E-03
             505            1405     90.6807E-03     94.0090E-03
             505            1438     134.844E-03     123.620E-03
             505            1439     115.770E-03     122.651E-03
             506            1405     90.6807E-03     94.0090E-03
             506            1406     89.7459E-03     87.2348E-03
             506            1439     115.770E-03     122.651E-03
             506            1440     113.189E-03     110.961E-03
             507            1406     89.7459E-03     87.2348E-03
             507            1407     86.1216E-03     85.1617E-03
             507            1440     113.189E-03     110.961E-03
             507            1441     107.759E-03     107.552E-03
             508            1407     86.1216E-03     85.1617E-03
             508            1408     82.0240E-03     81.8549E-03
             508            1441     107.759E-03     107.552E-03
             508            1442     102.439E-03     102.452E-03
             509            1408     82.0240E-03     81.8549E-03
             509            1409     77.6930E-03     80.1333E-03
             509            1442     102.439E-03     102.452E-03
             509            1443     97.2679E-03     101.893E-03
             510            1409     77.6930E-03     80.1333E-03
             510            1410     76.8498E-03     74.9027E-03
             510            1443     97.2679E-03     101.893E-03
             510            1444     100.118E-03     96.8404E-03
             511            1410     76.8498E-03     74.9027E-03
             511            1411     71.4509E-03     70.1234E-03
             511            1444     100.118E-03     96.8404E-03
             511            1445     93.7448E-03     93.0805E-03
             512            1411     71.4509E-03     70.1234E-03
             512            1412     65.6116E-03     73.8299E-03
             512            1445     93.7448E-03     93.0805E-03
             512            1446     82.9917E-03     101.843E-03
             513            1412     65.6116E-03     73.8299E-03
             513            1413     76.1430E-03     72.7313E-03
             513            1446     82.9917E-03     101.843E-03
             513            1447     98.6172E-03     95.2376E-03
             514            1413     76.1430E-03     72.7313E-03
             514            1414     77.2859E-03     72.2736E-03
             514            1447     98.6172E-03     95.2376E-03
             514            1448     98.4781E-03     90.0440E-03
             515            1414     77.2859E-03     72.2736E-03
             515            1415     69.0849E-03     71.3105E-03
             515            1448     98.4781E-03     90.0440E-03
             515            1449     83.4971E-03     88.4501E-03
             516            1415     69.0849E-03     71.3105E-03
             516            1416     67.7112E-03     65.8927E-03
             516            1449     83.4971E-03     88.4501E-03
             516            1450     80.6534E-03     78.9016E-03
             517            1416     67.7112E-03     65.8927E-03
             517            1417     64.3654E-03     63.8872E-03
             517            1450     80.6534E-03     78.9016E-03
             517            1451     75.4967E-03     75.3730E-03
             518            1417     64.3654E-03     63.8872E-03
             518            1418     60.7958E-03     61.0934E-03
             518            1451     75.4967E-03     75.3730E-03
             518            1452     70.4078E-03     70.7854E-03
             519            1418     60.7958E-03     61.0934E-03
             519            1419     57.4715E-03     58.8653E-03
             519            1452     70.4078E-03     70.7854E-03
             519            1453     65.8960E-03     68.5872E-03
             520            1419     57.4715E-03     58.8653E-03
             520            1420     55.5093E-03     55.1301E-03
             520            1453     65.8960E-03     68.5872E-03
             520            1454     65.1683E-03     64.5645E-03
             521            1420     55.5093E-03     55.1301E-03
             521            1421     52.1088E-03     51.6919E-03
             521            1454     65.1683E-03     64.5645E-03
             521            1455     60.4843E-03     60.7915E-03
             522            1421     52.1088E-03     51.6919E-03
             522            1422     50.0805E-03     54.2667E-03
             522            1455     60.4843E-03     60.7915E-03
             522            1456     55.7481E-03     66.6032E-03
             523            1422     50.0805E-03     54.2667E-03
             523            1423     56.6008E-03     54.4103E-03
             523            1456     55.7481E-03     66.6032E-03
             523            1457     65.8307E-03     63.7711E-03
             524            1423     56.6008E-03     54.4103E-03
             524            1424     56.4617E-03     53.2300E-03
             524            1457     65.8307E-03     63.7711E-03
             524            1458     64.6362E-03     59.2679E-03
             525            1424     56.4617E-03     53.2300E-03
             525            1425     50.6920E-03     51.8138E-03
             525            1458     64.6362E-03     59.2679E-03
             525            1459     54.0550E-03     57.3017E-03
             526            1425     50.6920E-03     51.8138E-03
             526            1426     49.2841E-03     48.1014E-03
             526            1459     54.0550E-03     57.3017E-03
             526            1460     51.3138E-03     50.1624E-03
             527            1426     49.2841E-03     48.1014E-03
             527            1427     46.8032E-03     46.5552E-03
             527            1460     51.3138E-03     50.1624E-03
             527            1461     46.8750E-03     46.7081E-03
             528            1427     46.8032E-03     46.5552E-03
             528            1428     44.3800E-03     44.7397E-03
             528            1461     46.8750E-03     46.7081E-03
             528            1462     42.5198E-03     43.0430E-03
             529            1428     44.3800E-03     44.7397E-03
             529            1429     42.5067E-03     42.9626E-03
             529            1462     42.5198E-03     43.0430E-03
             529            1463     39.4397E-03     39.6692E-03
             530            1429     42.5067E-03     42.9626E-03
             530            1430     40.7295E-03     41.3851E-03
             530            1463     39.4397E-03     39.6692E-03
             530            1464     36.2818E-03     37.4335E-03
             531            1430     40.7295E-03     41.3851E-03
             531            1431     39.2544E-03     39.8068E-03
             531            1464     36.2818E-03     37.4335E-03
             531            1465     33.6892E-03     35.4004E-03
             532            1431     39.2544E-03     39.8068E-03
             532            1432     38.4213E-03     38.5821E-03
             532            1465     33.6892E-03     35.4004E-03
             532            1466     31.9231E-03     33.2575E-03
             533            1432     38.4213E-03     38.5821E-03
             533            1433     37.9294E-03     38.1895E-03
             533            1466     31.9231E-03     33.2575E-03
             533            1467     31.4353E-03     32.9133E-03
             534            1433     37.9294E-03     38.1895E-03
             534            1434     38.3336E-03     37.9959E-03
             534            1467     31.4353E-03     32.9133E-03
             534            1468     32.6231E-03     32.4443E-03
             535            1434     38.3336E-03     37.9959E-03
             535            1435     38.2912E-03     37.7411E-03
             535            1468     32.6231E-03     32.4443E-03
             535            1469     32.0783E-03     31.5997E-03
             536            1435     38.2912E-03     37.7411E-03
             536            1436     37.4325E-03     37.3645E-03
             536            1469     32.0783E-03     31.5997E-03
             536            1470     30.4301E-03     30.9575E-03
             537             247     18.6453E-03     18.4853E-03
             537             248     15.1397E-03     14.9746E-03
             537            1436     37.4325E-03     37.3645E-03
             537            1470     30.4301E-03     30.9575E-03
             538             181     115.248E-03     131.148E-03
             538             182     139.538E-03     163.007E-03
             538            1437     133.705E-03     129.270E-03
             538            1471     162.623E-03     161.155E-03
             539            1437     133.705E-03     129.270E-03
             539            1438     134.844E-03     123.620E-03
             539            1471     162.623E-03     161.155E-03
             539            1472     160.617E-03     151.356E-03
             540            1438     134.844E-03     123.620E-03
             540            1439     115.770E-03     122.651E-03
             540            1472     160.617E-03     151.356E-03
             540            1473     134.718E-03     148.858E-03
             541            1439     115.770E-03     122.651E-03
             541            1440     113.189E-03     110.961E-03
             541            1473     134.718E-03     148.858E-03
             541            1474     132.111E-03     133.189E-03
             542            1440     113.189E-03     110.961E-03
             542            1441     107.759E-03     107.552E-03
             542            1474     132.111E-03     133.189E-03
             542            1475     124.096E-03     128.938E-03
             543            1441     107.759E-03     107.552E-03
             543            1442     102.439E-03     102.452E-03
             543            1475     124.096E-03     128.938E-03
             543            1476     118.094E-03     120.818E-03
             544            1442     102.439E-03     102.452E-03
             544            1443     97.2679E-03     101.893E-03
             544            1476     118.094E-03     120.818E-03
             544            1477     111.181E-03     119.594E-03
             545            1443     97.2679E-03     101.893E-03
             545            1444     100.118E-03     96.8404E-03
             545            1477     111.181E-03     119.594E-03
             545            1478     117.080E-03     114.420E-03
             546            1444     100.118E-03     96.8404E-03
             546            1445     93.7448E-03     93.0805E-03
             546            1478     117.080E-03     114.420E-03
             546            1479     113.726E-03     113.658E-03
             547            1445     93.7448E-03     93.0805E-03
             547            1446     82.9917E-03     101.843E-03
             547            1479     113.726E-03     113.658E-03
             547            1480     99.3654E-03     127.586E-03
             548            1446     82.9917E-03     101.843E-03
             548            1447     98.6172E-03     95.2376E-03
             548            1480     99.3654E-03     127.586E-03
             548            1481     117.743E-03     116.656E-03
             549            1447     98.6172E-03     95.2376E-03
             549            1448     98.4781E-03     90.0440E-03
             549            1481     117.743E-03     116.656E-03
             549            1482     115.493E-03     108.377E-03
             550            1448     98.4781E-03     90.0440E-03
             550            1449     83.4971E-03     88.4501E-03
             550            1482     115.493E-03     108.377E-03
             550            1483     95.0316E-03     105.318E-03
             551            1449     83.4971E-03     88.4501E-03
             551            1450     80.6534E-03     78.9016E-03
             551            1483     95.0316E-03     105.318E-03
             551            1484     91.7160E-03     92.0975E-03
             552            1450     80.6534E-03     78.9016E-03
             552            1451     75.4967E-03     75.3730E-03
             552            1484     91.7160E-03     92.0975E-03
             552            1485     84.1128E-03     87.2443E-03
             553            1451     75.4967E-03     75.3730E-03
             553            1452     70.4078E-03     70.7854E-03
             553            1485     84.1128E-03     87.2443E-03
             553            1486     77.9230E-03     79.9118E-03
             554            1452     70.4078E-03     70.7854E-03
             554            1453     65.8960E-03     68.5872E-03
             554            1486     77.9230E-03     79.9118E-03
             554            1487     71.8997E-03     76.4796E-03
             555            1453     65.8960E-03     68.5872E-03
             555            1454     65.1683E-03     64.5645E-03
             555            1487     71.8997E-03     76.4796E-03
             555            1488     72.5911E-03     72.0644E-03
             556            1454     65.1683E-03     64.5645E-03
             556            1455     60.4843E-03     60.7915E-03
             556            1488     72.5911E-03     72.0644E-03
             556            1489     69.6556E-03     69.9754E-03
             557            1455     60.4843E-03     60.7915E-03
             557            1456     55.7481E-03     66.6032E-03
             557            1489     69.6556E-03     69.9754E-03
             557            1490     62.5499E-03     79.3007E-03
             558            1456     55.7481E-03     66.6032E-03
             558            1457     65.8307E-03     63.7711E-03
             558            1490     62.5499E-03     79.3007E-03
             558            1491     74.7710E-03     74.1575E-03
             559            1457     65.8307E-03     63.7711E-03
             559            1458     64.6362E-03     59.2679E-03
             559            1491     74.7710E-03     74.1575E-03
             559            1492     72.4807E-03     67.6291E-03
             560            1458     64.6362E-03     59.2679E-03
             560            1459     54.0550E-03     57.3017E-03
             560            1492     72.4807E-03     67.6291E-03
             560            1493     57.6134E-03     64.1322E-03
             561            1459     54.0550E-03     57.3017E-03
             561            1460     51.3138E-03     50.1624E-03
             561            1493     57.6134E-03     64.1322E-03
             561            1494     53.7415E-03     53.5397E-03
             562            1460     51.3138E-03     50.1624E-03
             562            1461     46.8750E-03     46.7081E-03
             562            1494     53.7415E-03     53.5397E-03
             562            1495     46.7952E-03     48.0972E-03
             563            1461     46.8750E-03     46.7081E-03
             563            1462     42.5198E-03     43.0430E-03
             563            1495     46.7952E-03     48.0972E-03
             563            1496     40.3339E-03     41.9142E-03
             564            1462     42.5198E-03     43.0430E-03
             564            1463     39.4397E-03     39.6692E-03
             564            1496     40.3339E-03     41.9142E-03
             564            1497     35.7378E-03     36.1493E-03
             565            1463     39.4397E-03     39.6692E-03
             565            1464     36.2818E-03     37.4335E-03
             565            1497     35.7378E-03     36.1493E-03
             565            1498     31.1468E-03     31.9842E-03
             566            1464     36.2818E-03     37.4335E-03
             566            1465     33.6892E-03     35.4004E-03
             566            1498     31.1468E-03     31.9842E-03
             566            1499     28.1810E-03     29.4824E-03
             567            1465     33.6892E-03     35.4004E-03
             567            1466     31.9231E-03     33.2575E-03
             567            1499     28.1810E-03     29.4824E-03
             567            1500     26.7720E-03     27.7778E-03
             568            1466     31.9231E-03     33.2575E-03
             568            1467     31.4353E-03     32.9133E-03
             568            1500     26.7720E-03     27.7778E-03
             568            1501     24.7729E-03     27.7725E-03
             569            1467     31.4353E-03     32.9133E-03
             569            1468     32.6231E-03     32.4443E-03
             569            1501     24.7729E-03     27.7725E-03
             569            1502     25.4836E-03     25.5378E-03
             570            1468     32.6231E-03     32.4443E-03
             570            1469     32.0783E-03     31.5997E-03
             570            1502     25.4836E-03     25.5378E-03
             570            1503     24.4145E-03     23.2104E-03
             571            1469     32.0783E-03     31.5997E-03
             571            1470     30.4301E-03     30.9575E-03
             571            1503     24.4145E-03     23.2104E-03
             571            1504     21.3329E-03     22.4438E-03
             572             248     15.1397E-03     14.9746E-03
             572             249     10.7323E-03     10.4398E-03
             572            1470     30.4301E-03     30.9575E-03
             572            1504     21.3329E-03     22.4438E-03
             573             182     139.538E-03     163.007E-03
             573             183     162.010E-03     182.474E-03
             573            1471     162.623E-03     161.155E-03
             573            1505     186.025E-03     183.229E-03
             574            1471     162.623E-03     161.155E-03
             574            1472     160.617E-03     151.356E-03
             574            1505     186.025E-03     183.229E-03
             574            1506     177.635E-03     169.981E-03
             575            1472     160.617E-03     151.356E-03
             575            1473     134.718E-03     148.858E-03
             575            1506     177.635E-03     169.981E-03
             575            1507     152.913E-03     164.718E-03
             576            1473     134.718E-03     148.858E-03
             576            1474     132.111E-03     133.189E-03
             576            1507     152.913E-03     164.718E-03
             576            1508     149.419E-03     149.015E-03
             577            1474     132.111E-03     133.189E-03
             577            1475     124.096E-03     128.938E-03
             577            1508     149.419E-03     149.015E-03
             577            1509     139.240E-03     143.654E-03
             578            1475     124.096E-03     128.938E-03
             578            1476     118.094E-03     120.818E-03
             578            1509     139.240E-03     143.654E-03
             578            1510     132.496E-03     133.551E-03
             579            1476     118.094E-03     120.818E-03
             579            1477     111.181E-03     119.594E-03
             579            1510     132.496E-03     133.551E-03
             579            1511     122.929E-03     129.392E-03
             580            1477     111.181E-03     119.594E-03
             580            1478     117.080E-03     114.420E-03
             580            1511     122.929E-03     129.392E-03
             580            1512     124.730E-03     121.223E-03
             581            1478     117.080E-03     114.420E-03
             581            1479     113.726E-03     113.658E-03
             581            1512     124.730E-03     121.223E-03
             581            1513     121.836E-03     118.422E-03
             582            1479     113.726E-03     113.658E-03
             582            1480     99.3654E-03     127.586E-03
             582            1513     121.836E-03     118.422E-03
             582            1514     115.810E-03     138.249E-03
             583            1480     99.3654E-03     127.586E-03
             583            1481     117.743E-03     116.656E-03
             583            1514     115.810E-03     138.249E-03
             583            1515     135.131E-03     133.369E-03
             584            1481     117.743E-03     116.656E-03
             584            1482     115.493E-03     108.377E-03
             584            1515     135.131E-03     133.369E-03
             584            1516     127.555E-03     121.756E-03
             585            1482     115.493E-03     108.377E-03
             585            1483     95.0316E-03     105.318E-03
             585            1516     127.555E-03     121.756E-03
             585            1517     107.223E-03     115.924E-03
             586            1483     95.0316E-03     105.318E-03
             586            1484     91.7160E-03     92.0975E-03
             586            1517     107.223E-03     115.924E-03
             586            1518     102.681E-03     102.142E-03
             587            1484     91.7160E-03     92.0975E-03
             587            1485     84.1128E-03     87.2443E-03
             587            1518     102.681E-03     102.142E-03
             587            1519     93.0770E-03     95.9831E-03
             588            1485     84.1128E-03     87.2443E-03
             588            1486     77.9230E-03     79.9118E-03
             588            1519     93.0770E-03     95.9831E-03
             588            1520     85.8066E-03     86.7175E-03
             589            1486     77.9230E-03     79.9118E-03
             589            1487     71.8997E-03     76.4796E-03
             589            1520     85.8066E-03     86.7175E-03
             589            1521     77.3465E-03     80.6903E-03
             590            1487     71.8997E-03     76.4796E-03
             590            1488     72.5911E-03     72.0644E-03
             590            1521     77.3465E-03     80.6903E-03
             590            1522     74.8522E-03     73.1843E-03
             591            1488     72.5911E-03     72.0644E-03
             591            1489     69.6556E-03     69.9754E-03
             591            1522     74.8522E-03     73.1843E-03
             591            1523     71.2592E-03     68.8934E-03
             592            1489     69.6556E-03     69.9754E-03
             592            1490     62.5499E-03     79.3007E-03
             592            1523     71.2592E-03     68.8934E-03
             592            1524     70.9703E-03     84.3386E-03
             593            1490     62.5499E-03     79.3007E-03
             593            1491     74.7710E-03     74.1575E-03
             593            1524     70.9703E-03     84.3386E-03
             593            1525     85.7105E-03     84.9321E-03
             594            1491     74.7710E-03     74.1575E-03
             594            1492     72.4807E-03     67.6291E-03
             594            1525     85.7105E-03     84.9321E-03
             594            1526     79.0761E-03     75.1117E-03
             595            1492     72.4807E-03     67.6291E-03
             595            1493     57.6134E-03     64.1322E-03
             595            1526     79.0761E-03     75.1117E-03
             595            1527     63.2451E-03     68.8670E-03
             596            1493     57.6134E-03     64.1322E-03
             596            1494     53.7415E-03     53.5397E-03
             596            1527     63.2451E-03     68.8670E-03
             596            1528     57.8058E-03     57.1232E-03
             597            1494     53.7415E-03     53.5397E-03
             597            1495     46.7952E-03     48.0972E-03
             597            1528     57.8058E-03     57.1232E-03
             597            1529     48.9423E-03     50.3275E-03
             598            1495     46.7952E-03     48.0972E-03
             598            1496     40.3339E-03     41.9142E-03
             598            1529     48.9423E-03     50.3275E-03
             598            1530     41.2249E-03     42.1510E-03
             599            1496     40.3339E-03     41.9142E-03
             599            1497     35.7378E-03     36.1493E-03
             599            1530     41.2249E-03     42.1510E-03
             599            1531     34.1280E-03     34.5238E-03
             600            1497     35.7378E-03     36.1493E-03
             600            1498     31.1468E-03     31.9842E-03
             600            1531     34.1280E-03     34.5238E-03
             600            1532     27.2939E-03     27.1856E-03
             601            1498     31.1468E-03     31.9842E-03
             601            1499     28.1810E-03     29.4824E-03
             601            1532     27.2939E-03     27.1856E-03
             601            1533     21.4676E-03     21.4009E-03
             602            1499     28.1810E-03     29.4824E-03
             602            1500     26.7720E-03     27.7778E-03
             602            1533     21.4676E-03     21.4009E-03
             602            1534     18.9262E-03     18.3929E-03
             603            1500     26.7720E-03     27.7778E-03
             603            1501     24.7729E-03     27.7725E-03
             603            1534     18.9262E-03     18.3929E-03
             603            1535     20.5744E-03     24.0819E-03
             604            1501     24.7729E-03     27.7725E-03
             604            1502     25.4836E-03     25.5378E-03
             604            1535     20.5744E-03     24.0819E-03
             604            1536     22.9411E-03     23.0423E-03
             605            1502     25.4836E-03     25.5378E-03
             605            1503     24.4145E-03     23.2104E-03
             605            1536     22.9411E-03     23.0423E-03
             605            1537     16.5882E-03     14.5802E-03
             606            1503     24.4145E-03     23.2104E-03
             606            1504     21.3329E-03     22.4438E-03
             606            1537     16.5882E-03     14.5802E-03
             606            1538     10.7846E-03     14.5411E-03
             607             249     10.7323E-03     10.4398E-03
             607             250     6.04289E-03     7.65198E-03
             607            1504     21.3329E-03     22.4438E-03
             607            1538     10.7846E-03     14.5411E-03
             608              10     171.135E-03     181.925E-03
             608             183     162.010E-03     182.474E-03
             608             284     186.358E-03     184.053E-03
             608            1505     186.025E-03     183.229E-03
             609             283     177.029E-03     172.324E-03
             609             284     186.358E-03     184.053E-03
             609            1505     186.025E-03     183.229E-03
             609            1506     177.635E-03     169.981E-03
             610             282     162.650E-03     167.119E-03
             610             283     177.029E-03     172.324E-03
             610            1506     177.635E-03     169.981E-03
             610            1507     152.913E-03     164.718E-03
             611             281     157.275E-03     155.864E-03
             611             282     162.650E-03     167.119E-03
             611            1507     152.913E-03     164.718E-03
             611            1508     149.419E-03     149.015E-03
             612             280     148.455E-03     149.776E-03
             612             281     157.275E-03     155.864E-03
             612            1508     149.419E-03     149.015E-03
             612            1509     139.240E-03     143.654E-03
             613             279     141.620E-03     140.764E-03
             613             280     148.455E-03     149.776E-03
             613            1509     139.240E-03     143.654E-03
             613            1510     132.496E-03     133.551E-03
             614             278     132.673E-03     134.306E-03
             614             279     141.620E-03     140.764E-03
             614            1510     132.496E-03     133.551E-03
             614            1511     122.929E-03     129.392E-03
             615             277     127.342E-03     124.240E-03
             615             278     132.673E-03     134.306E-03
             615            1511     122.929E-03     129.392E-03
             615            1512     124.730E-03     121.223E-03
             616             276     119.973E-03     115.319E-03
             616             277     127.342E-03     124.240E-03
             616            1512     124.730E-03     121.223E-03
             616            1513     121.836E-03     118.422E-03
             617             275     122.538E-03     131.340E-03
             617             276     119.973E-03     115.319E-03
             617            1513     121.836E-03     118.422E-03
             617            1514     115.810E-03     138.249E-03
             618             274     135.665E-03     134.524E-03
             618             275     122.538E-03     131.340E-03
             618            1514     115.810E-03     138.249E-03
             618            1515     135.131E-03     133.369E-03
             619             273     126.695E-03     123.254E-03
             619             274     135.665E-03     134.524E-03
             619            1515     135.131E-03     133.369E-03
             619            1516     127.555E-03     121.756E-03
             620             272     113.854E-03     117.276E-03
             620             273     126.695E-03     123.254E-03
             620            1516     127.555E-03     121.756E-03
             620            1517     107.223E-03     115.924E-03
             621             271     107.922E-03     106.864E-03
             621             272     113.854E-03     117.276E-03
             621            1517     107.223E-03     115.924E-03
             621            1518     102.681E-03     102.142E-03
             622             270     99.4615E-03     100.316E-03
             622             271     107.922E-03     106.864E-03
             622            1518     102.681E-03     102.142E-03
             622            1519     93.0770E-03     95.9831E-03
             623             269     92.3345E-03     91.8262E-03
             623             270     99.4615E-03     100.316E-03
             623            1519     93.0770E-03     95.9831E-03
             623            1520     85.8066E-03     86.7175E-03
             624             268     84.0076E-03     84.5897E-03
             624             269     92.3345E-03     91.8262E-03
             624            1520     85.8066E-03     86.7175E-03
             624            1521     77.3465E-03     80.6903E-03
             625             267     77.2233E-03     75.3667E-03
             625             268     84.0076E-03     84.5897E-03
             625            1521     77.3465E-03     80.6903E-03
             625            1522     74.8522E-03     73.1843E-03
             626             266     69.5926E-03     66.1504E-03
             626             267     77.2233E-03     75.3667E-03
             626            1522     74.8522E-03     73.1843E-03
             626            1523     71.2592E-03     68.8934E-03
             627             265     74.6212E-03     80.0744E-03
             627             266     69.5926E-03     66.1504E-03
             627            1523     71.2592E-03     68.8934E-03
             627            1524     70.9703E-03     84.3386E-03
             628             264     86.1584E-03     86.2047E-03
             628             265     74.6212E-03     80.0744E-03
             628            1524     70.9703E-03     84.3386E-03
             628            1525     85.7105E-03     84.9321E-03
             629             263     77.7896E-03     75.5867E-03
             629             264     86.1584E-03     86.2047E-03
             629            1525     85.7105E-03     84.9321E-03
             629            1526     79.0761E-03     75.1117E-03
             630             262     66.6536E-03     69.0959E-03
             630             263     77.7896E-03     75.5867E-03
             630            1526     79.0761E-03     75.1117E-03
             630            1527     63.2451E-03     68.8670E-03
             631             261     60.4765E-03     59.7382E-03
             631             262     66.6536E-03     69.0959E-03
             631            1527     63.2451E-03     68.8670E-03
             631            1528     57.8058E-03     57.1232E-03
             632             260     52.5870E-03     53.1079E-03
             632             261     60.4765E-03     59.7382E-03
             632            1528     57.8058E-03     57.1232E-03
             632            1529     48.9423E-03     50.3275E-03
             633             259     45.7482E-03     45.4949E-03
             633             260     52.5870E-03     53.1079E-03
             633            1529     48.9423E-03     50.3275E-03
             633            1530     41.2249E-03     42.1510E-03
             634             258     38.3847E-03     38.2911E-03
             634             259     45.7482E-03     45.4949E-03
             634            1530     41.2249E-03     42.1510E-03
             634            1531     34.1280E-03     34.5238E-03
             635             257     31.3606E-03     30.5812E-03
             635             258     38.3847E-03     38.2911E-03
             635            1531     34.1280E-03     34.5238E-03
             635            1532     27.2939E-03     27.1856E-03
             636             256     23.8491E-03     23.1374E-03
             636             257     31.3606E-03     30.5812E-03
             636            1532     27.2939E-03     27.1856E-03
             636            1533     21.4676E-03     21.4009E-03
             637             255     17.9155E-03     17.1575E-03
             637             256     23.8491E-03     23.1374E-03
             637            1533     21.4676E-03     21.4009E-03
             637            1534     18.9262E-03     18.3929E-03
             638             254     20.2340E-03     23.4342E-03
             638             255     17.9155E-03     17.1575E-03
             638            1534     18.9262E-03     18.3929E-03
             638            1535     20.5744E-03     24.0819E-03
             639             253     22.3743E-03     23.2439E-03
             639             254     20.2340E-03     23.4342E-03
             639            1535     20.5744E-03     24.0819E-03
             639            1536     22.9411E-03     23.0423E-03
             640             252     13.0960E-03     11.3909E-03
             640             253     22.3743E-03     23.2439E-03
             640            1536     22.9411E-03     23.0423E-03
             640            1537     16.5882E-03     14.5802E-03
             641             251     6.21144E-03     10.8485E-03
             641             252     13.0960E-03     11.3909E-03
             641            1537     16.5882E-03     14.5802E-03
             641            1538     10.7846E-03     14.5411E-03
             642              15     3.32713E-03     6.53520E-03
             642             250     6.04289E-03     7.65198E-03
             642             251     6.21144E-03     10.8485E-03
             642            1538     10.7846E-03     14.5411E-03
             643              16     4.02340E-03     5.07694E-03
             643             285     4.30333E-03     4.91812E-03
             643             324     15.1843E-15     13.6190E-15
             643            1539     19.9704E-15     17.6151E-15
             644             285     4.30333E-03     4.91812E-03
             644             286     4.67088E-03     4.68150E-03
             644            1539     19.9704E-15     17.6151E-15
             644            1540     22.8624E-15     20.6463E-15
             645             286     4.67088E-03     4.68150E-03
             645             287     4.82884E-03     4.63492E-03
             645            1540     22.8624E-15     20.6463E-15
             645            1541     16.9563E-15     14.7646E-15
             646             287     4.82884E-03     4.63492E-03
             646             288     4.97555E-03     4.68274E-03
             646            1541     16.9563E-15     14.7646E-15
             646            1542     8.36857E-15     6.20353E-15
             647             288     4.97555E-03     4.68274E-03
             647             289     5.12798E-03     4.74878E-03
             647            1542     8.36857E-15     6.20353E-15
             647            1543     9.86906E-15     14.2173E-15
             648             289     5.12798E-03     4.74878E-03
             648             290     5.28597E-03     4.84215E-03
             648            1543     9.86906E-15     14.2173E-15
             648            1544     9.24550E-15     16.5055E-15
             649             290     5.28597E-03     4.84215E-03
             649             291     5.46078E-03     4.95334E-03
             649            1544     9.24550E-15     16.5055E-15
             649            1545     11.6791E-15     13.4237E-15
             650             291     5.46078E-03     4.95334E-03
             650             292     5.63885E-03     5.07619E-03
             650            1545     11.6791E-15     13.4237E-15
             650            1546     11.3913E-15     13.4164E-15
             651             292     5.63885E-03     5.07619E-03
             651             293     5.82867E-03     5.21372E-03
             651            1546     11.3913E-15     13.4164E-15
             651            1547     11.5636E-15     12.3414E-15
             652             293     5.82867E-03     5.21372E-03
             652             294     6.01269E-03     5.34943E-03
             652            1547     11.5636E-15     12.3414E-15
             652            1548     14.9270E-15     14.8165E-15
             653             294     6.01269E-03     5.34943E-03
             653             295     6.19855E-03     5.48870E-03
             653            1548     14.9270E-15     14.8165E-15
             653            1549     18.1768E-15     17.0310E-15
             654             295     6.19855E-03     5.48870E-03
             654             296     6.35690E-03     5.60393E-03
             654            1549     18.1768E-15     17.0310E-15
             654            1550     22.0189E-15     19.2246E-15
             655             296     6.35690E-03     5.60393E-03
             655             297     6.49462E-03     5.69141E-03
             655            1550     22.0189E-15     19.2246E-15
             655            1551     19.6714E-15     20.4572E-15
             656             297     6.49462E-03     5.69141E-03
             656             298     6.55365E-03     5.70978E-03
             656            1551     19.6714E-15     20.4572E-15
             656            1552     15.7026E-15     18.8297E-15
             657             298     6.55365E-03     5.70978E-03
             657             299     6.53203E-03     5.61868E-03
             657            1552     15.7026E-15     18.8297E-15
             657            1553     13.1720E-15     14.6504E-15
             658             299     6.53203E-03     5.61868E-03
             658             300     6.32008E-03     5.35137E-03
             658            1553     13.1720E-15     14.6504E-15
             658            1554     10.9912E-15     12.8013E-15
             659             300     6.32008E-03     5.35137E-03
             659             301     5.88677E-03     4.80357E-03
             659            1554     10.9912E-15     12.8013E-15
             659            1555     11.0454E-15     14.7241E-15
             660             301     5.88677E-03     4.80357E-03
             660             302     5.02339E-03     3.78713E-03
             660            1555     11.0454E-15     14.7241E-15
             660            1556     10.2501E-15     12.6259E-15
             661              17     3.60039E-03     2.42620E-03
             661             302     5.02339E-03     3.78713E-03
             661             303     8.26382E-15     8.61280E-15
             661            1556     10.2501E-15     12.6259E-15
             662             323     21.2681E-15     20.9094E-15
             662             324     15.1843E-15     13.6190E-15
             662            1539     19.9704E-15     17.6151E-15
             662            1557     19.6397E-15     18.2043E-15
             663            1539     19.9704E-15     17.6151E-15
             663            1540     22.8624E-15     20.6463E-15
             663            1557     19.6397E-15     18.2043E-15
             663            1558     14.3628E-15     13.4354E-15
             664            1540     22.8624E-15     20.6463E-15
             664            1541     16.9563E-15     14.7646E-15
             664            1558     14.3628E-15     13.4354E-15
             664            1559     12.8653E-15     13.2659E-15
             665            1541     16.9563E-15     14.7646E-15
             665            1542     8.36857E-15     6.20353E-15
             665            1559     12.8653E-15     13.2659E-15
             665            1560     7.01693E-15     10.2025E-15
             666            1542     8.36857E-15     6.20353E-15
             666            1543     9.86906E-15     14.2173E-15
             666            1560     7.01693E-15     10.2025E-15
             666            1561     9.49746E-15     15.5666E-15
             667            1543     9.86906E-15     14.2173E-15
             667            1544     9.24550E-15     16.5055E-15
             667            1561     9.49746E-15     15.5666E-15
             667            1562     11.4796E-15     14.6989E-15
             668            1544     9.24550E-15     16.5055E-15
             668            1545     11.6791E-15     13.4237E-15
             668            1562     11.4796E-15     14.6989E-15
             668            1563     12.6804E-15     12.2178E-15
             669            1545     11.6791E-15     13.4237E-15
             669            1546     11.3913E-15     13.4164E-15
             669            1563     12.6804E-15     12.2178E-15
             669            1564     11.7224E-15     15.5784E-15
             670            1546     11.3913E-15     13.4164E-15
             670            1547     11.5636E-15     12.3414E-15
             670            1564     11.7224E-15     15.5784E-15
             670            1565     9.68334E-15     12.7439E-15
             671            1547     11.5636E-15     12.3414E-15
             671            1548     14.9270E-15     14.8165E-15
             671            1565     9.68334E-15     12.7439E-15
             671            1566     15.5316E-15     16.0552E-15
             672            1548     14.9270E-15     14.8165E-15
             672            1549     18.1768E-15     17.0310E-15
             672            1566     15.5316E-15     16.0552E-15
             672            1567     19.6253E-15     19.2255E-15
             673            1549     18.1768E-15     17.0310E-15
             673            1550     22.0189E-15     19.2246E-15
             673            1567     19.6253E-15     19.2255E-15
             673            1568     15.1066E-15     15.0068E-15
             674            1550     22.0189E-15     19.2246E-15
             674            1551     19.6714E-15     20.4572E-15
             674            1568     15.1066E-15     15.0068E-15
             674            1569     11.9932E-15     12.0669E-15
             675            1551     19.6714E-15     20.4572E-15
             675            1552     15.7026E-15     18.8297E-15
             675            1569     11.9932E-15     12.0669E-15
             675            1570     9.83295E-15     10.2994E-15
             676            1552     15.7026E-15     18.8297E-15
             676            1553     13.1720E-15     14.6504E-15
             676            1570     9.83295E-15     10.2994E-15
             676            1571     8.09567E-15     8.81427E-15
             677            1553     13.1720E-15     14.6504E-15
             677            1554     10.9912E-15     12.8013E-15
             677            1571     8.09567E-15     8.81427E-15
             677            1572     5.93496E-15     7.68012E-15
             678            1554     10.9912E-15     12.8013E-15
             678            1555     11.0454E-15     14.7241E-15
             678            1572     5.93496E-15     7.68012E-15
             678            1573     7.91616E-15     10.3906E-15
             679            1555     11.0454E-15     14.7241E-15
             679            1556     10.2501E-15     12.6259E-15
             679            1573     7.91616E-15     10.3906E-15
             679            1574     11.3712E-15     11.1890E-15
             680             303     8.26382E-15     8.61280E-15
             680             304     13.7827E-15     13.2468E-15
             680            1556     10.2501E-15     12.6259E-15
             680            1574     11.3712E-15     11.1890E-15
             681              19     28.1007E-15     32.6319E-15
             681             322     24.0930E-15     24.7942E-15
             681             323     21.2681E-15     20.9094E-15
             681            1557     19.6397E-15     18.2043E-15
             682             321     9.56821E-15     10.9270E-15
             682             322     24.0930E-15     24.7942E-15
             682            1557     19.6397E-15     18.2043E-15
             682            1558     14.3628E-15     13.4354E-15
             683             320     9.21804E-15     12.8205E-15
             683             321     9.56821E-15     10.9270E-15
             683            1558     14.3628E-15     13.4354E-15
             683            1559     12.8653E-15     13.2659E-15
             684             319     5.39289E-15     12.8334E-15
             684             320     9.21804E-15     12.8205E-15
             684            1559     12.8653E-15     13.2659E-15
             684            1560     7.01693E-15     10.2025E-15
             685             318     8.85553E-15     14.4591E-15
             685             319     5.39289E-15     12.8334E-15
             685            1560     7.01693E-15     10.2025E-15
             685            1561     9.49746E-15     15.5666E-15
             686             317     14.5825E-15     11.7932E-15
             686             318     8.85553E-15     14.4591E-15
             686            1561     9.49746E-15     15.5666E-15
             686            1562     11.4796E-15     14.6989E-15
             687             316     14.1703E-15     12.9927E-15
             687             317     14.5825E-15     11.7932E-15
             687            1562     11.4796E-15     14.6989E-15
             687            1563     12.6804E-15     12.2178E-15
             688             315     12.1576E-15     13.9105E-15
             688             316     14.1703E-15     12.9927E-15
             688            1563     12.6804E-15     12.2178E-15
             688            1564     11.7224E-15     15.5784E-15
             689             314     9.13985E-15     9.70261E-15
             689             315     12.1576E-15     13.9105E-15
             689            1564     11.7224E-15     15.5784E-15
             689            1565     9.68334E-15     12.7439E-15
             690             313     15.6018E-15     16.0710E-15
             690             314     9.13985E-15     9.70261E-15
             690            1565     9.68334E-15     12.7439E-15
             690            1566     15.5316E-15     16.0552E-15
             691             312     17.8874E-15     17.4079E-15
             691             313     15.6018E-15     16.0710E-15
             691            1566     15.5316E-15     16.0552E-15
             691            1567     19.6253E-15     19.2255E-15
             692             311     9.88529E-15     11.8428E-15
             692             312     17.8874E-15     17.4079E-15
             692            1567     19.6253E-15     19.2255E-15
             692            1568     15.1066E-15     15.0068E-15
             693             310     10.3988E-15     9.91335E-15
             693             311     9.88529E-15     11.8428E-15
             693            1568     15.1066E-15     15.0068E-15
             693            1569     11.9932E-15     12.0669E-15
             694             309     10.6502E-15     10.1685E-15
             694             310     10.3988E-15     9.91335E-15
             694            1569     11.9932E-15     12.0669E-15
             694            1570     9.83295E-15     10.2994E-15
             695             308     7.41842E-15     9.40934E-15
             695             309     10.6502E-15     10.1685E-15
             695            1570     9.83295E-15     10.2994E-15
             695            1571     8.09567E-15     8.81427E-15
             696             307     6.86030E-15     8.86039E-15
             696             308     7.41842E-15     9.40934E-15
             696            1571     8.09567E-15     8.81427E-15
             696            1572     5.93496E-15     7.68012E-15
             697             306     10.7282E-15     14.0355E-15
             697             307     6.86030E-15     8.86039E-15
             697            1572     5.93496E-15     7.68012E-15
             697            1573     7.91616E-15     10.3906E-15
             698             305     12.1739E-15     11.2976E-15
             698             306     10.7282E-15     14.0355E-15
             698            1573     7.91616E-15     10.3906E-15
             698            1574     11.3712E-15     11.1890E-15
             699              18     17.2008E-15     15.5415E-15
             699             304     13.7827E-15     13.2468E-15
             699             305     12.1739E-15     11.2976E-15
             699            1574     11.3712E-15     11.1890E-15
             700              16     4.02340E-03     5.07694E-03
             700             325     4.30333E-03     4.91812E-03
             700             454     8.60631E-03     9.79993E-03
             700            1575     8.70197E-03     9.61984E-03
             701             325     4.30333E-03     4.91812E-03
             701             326     4.67088E-03     4.68150E-03
             701            1575     8.70197E-03     9.61984E-03
             701            1576     8.99722E-03     9.27919E-03
             702             326     4.67088E-03     4.68150E-03
             702             327     4.82884E-03     4.63492E-03
             702            1576     8.99722E-03     9.27919E-03
             702            1577     9.36970E-03     9.13163E-03
             703             327     4.82884E-03     4.63492E-03
             703             328     4.97555E-03     4.68274E-03
             703            1577     9.36970E-03     9.13163E-03
             703            1578     9.68051E-03     9.20316E-03
             704             328     4.97555E-03     4.68274E-03
             704             329     5.12798E-03     4.74878E-03
             704            1578     9.68051E-03     9.20316E-03
             704            1579     9.98403E-03     9.34620E-03
             705             329     5.12798E-03     4.74878E-03
             705             330     5.28597E-03     4.84215E-03
             705            1579     9.98403E-03     9.34620E-03
             705            1580     10.3144E-03     9.54748E-03
             706             330     5.28597E-03     4.84215E-03
             706             331     5.46078E-03     4.95334E-03
             706            1580     10.3144E-03     9.54748E-03
             706            1581     10.6625E-03     9.79299E-03
             707             331     5.46078E-03     4.95334E-03
             707             332     5.63885E-03     5.07619E-03
             707            1581     10.6625E-03     9.79299E-03
             707            1582     11.0368E-03     10.0701E-03
             708             332     5.63885E-03     5.07619E-03
             708             333     5.82867E-03     5.21372E-03
             708            1582     11.0368E-03     10.0701E-03
             708            1583     11.4267E-03     10.3744E-03
             709             333     5.82867E-03     5.21372E-03
             709             334     6.01269E-03     5.34943E-03
             709            1583     11.4267E-03     10.3744E-03
             709            1584     11.8295E-03     10.6953E-03
             710             334     6.01269E-03     5.34943E-03
             710             335     6.19855E-03     5.48870E-03
             710            1584     11.8295E-03     10.6953E-03
             710            1585     12.2301E-03     11.0218E-03
             711             335     6.19855E-03     5.48870E-03
             711             336     6.35690E-03     5.60393E-03
             711            1585     12.2301E-03     11.0218E-03
             711            1586     12.6201E-03     11.3339E-03
             712             336     6.35690E-03     5.60393E-03
             712             337     6.49462E-03     5.69141E-03
             712            1586     12.6201E-03     11.3339E-03
             712            1587     12.9606E-03     11.6069E-03
             713             337     6.49462E-03     5.69141E-03
             713             338     6.55365E-03     5.70978E-03
             713            1587     12.9606E-03     11.6069E-03
             713            1588     13.2275E-03     11.7847E-03
             714             338     6.55365E-03     5.70978E-03
             714             339     6.53203E-03     5.61868E-03
             714            1588     13.2275E-03     11.7847E-03
             714            1589     13.3133E-03     11.7999E-03
             715             339     6.53203E-03     5.61868E-03
             715             340     6.32008E-03     5.35137E-03
             715            1589     13.3133E-03     11.7999E-03
             715            1590     13.1306E-03     11.4984E-03
             716             340     6.32008E-03     5.35137E-03
             716             341     5.88677E-03     4.80357E-03
             716            1590     13.1306E-03     11.4984E-03
             716            1591     12.4131E-03     10.6761E-03
             717             341     5.88677E-03     4.80357E-03
             717             342     5.02339E-03     3.78713E-03
             717            1591     12.4131E-03     10.6761E-03
             717            1592     10.8835E-03     8.99357E-03
             718              20     3.60039E-03     2.42620E-03
             718             342     5.02339E-03     3.78713E-03
             718             343     7.61134E-03     5.95168E-03
             718            1592     10.8835E-03     8.99357E-03
             719             453     8.96159E-03     8.48436E-03
             719             454     8.60631E-03     9.79993E-03
             719            1575     8.70197E-03     9.61984E-03
             719            1593     8.78120E-03     8.66880E-03
             720            1575     8.70197E-03     9.61984E-03
             720            1576     8.99722E-03     9.27919E-03
             720            1593     8.78120E-03     8.66880E-03
             720            1594     8.64865E-03     8.83953E-03
             721            1576     8.99722E-03     9.27919E-03
             721            1577     9.36970E-03     9.13163E-03
             721            1594     8.64865E-03     8.83953E-03
             721            1595     8.85551E-03     8.81311E-03
             722            1577     9.36970E-03     9.13163E-03
             722            1578     9.68051E-03     9.20316E-03
             722            1595     8.85551E-03     8.81311E-03
             722            1596     9.15732E-03     8.87679E-03
             723            1578     9.68051E-03     9.20316E-03
             723            1579     9.98403E-03     9.34620E-03
             723            1596     9.15732E-03     8.87679E-03
             723            1597     9.46044E-03     9.05634E-03
             724            1579     9.98403E-03     9.34620E-03
             724            1580     10.3144E-03     9.54748E-03
             724            1597     9.46044E-03     9.05634E-03
             724            1598     9.79355E-03     9.29607E-03
             725            1580     10.3144E-03     9.54748E-03
             725            1581     10.6625E-03     9.79299E-03
             725            1598     9.79355E-03     9.29607E-03
             725            1599     10.1568E-03     9.58929E-03
             726            1581     10.6625E-03     9.79299E-03
             726            1582     11.0368E-03     10.0701E-03
             726            1599     10.1568E-03     9.58929E-03
             726            1600     10.5531E-03     9.92446E-03
             727            1582     11.0368E-03     10.0701E-03
             727            1583     11.4267E-03     10.3744E-03
             727            1600     10.5531E-03     9.92446E-03
             727            1601     10.9787E-03     10.2972E-03
             728            1583     11.4267E-03     10.3744E-03
             728            1584     11.8295E-03     10.6953E-03
             728            1601     10.9787E-03     10.2972E-03
             728            1602     11.4322E-03     10.7026E-03
             729            1584     11.8295E-03     10.6953E-03
             729            1585     12.2301E-03     11.0218E-03
             729            1602     11.4322E-03     10.7026E-03
             729            1603     11.9106E-03     11.1354E-03
             730            1585     12.2301E-03     11.0218E-03
             730            1586     12.6201E-03     11.3339E-03
             730            1603     11.9106E-03     11.1354E-03
             730            1604     12.4044E-03     11.5891E-03
             731            1586     12.6201E-03     11.3339E-03
             731            1587     12.9606E-03     11.6069E-03
             731            1604     12.4044E-03     11.5891E-03
             731            1605     12.9065E-03     12.0469E-03
             732            1587     12.9606E-03     11.6069E-03
             732            1588     13.2275E-03     11.7847E-03
             732            1605     12.9065E-03     12.0469E-03
             732            1606     13.3729E-03     12.4804E-03
             733            1588     13.2275E-03     11.7847E-03
             733            1589     13.3133E-03     11.7999E-03
             733            1606     13.3729E-03     12.4804E-03
             733            1607     13.7574E-03     12.8182E-03
             734            1589     13.3133E-03     11.7999E-03
             734            1590     13.1306E-03     11.4984E-03
             734            1607     13.7574E-03     12.8182E-03
             734            1608     13.8909E-03     12.9443E-03
             735            1590     13.1306E-03     11.4984E-03
             735            1591     12.4131E-03     10.6761E-03
             735            1608     13.8909E-03     12.9443E-03
             735            1609     13.4977E-03     12.5646E-03
             736            1591     12.4131E-03     10.6761E-03
             736            1592     10.8835E-03     8.99357E-03
             736            1609     13.4977E-03     12.5646E-03
             736            1610     12.1719E-03     11.3485E-03
             737             343     7.61134E-03     5.95168E-03
             737             344     8.91903E-03     8.59265E-03
             737            1592     10.8835E-03     8.99357E-03
             737            1610     12.1719E-03     11.3485E-03
             738             452     8.51943E-03     7.58675E-03
             738             453     8.96159E-03     8.48436E-03
             738            1593     8.78120E-03     8.66880E-03
             738            1611     8.52428E-03     7.76518E-03
             739            1593     8.78120E-03     8.66880E-03
             739            1594     8.64865E-03     8.83953E-03
             739            1611     8.52428E-03     7.76518E-03
             739            1612     8.47224E-03     8.12207E-03
             740            1594     8.64865E-03     8.83953E-03
             740            1595     8.85551E-03     8.81311E-03
             740            1612     8.47224E-03     8.12207E-03
             740            1613     8.47847E-03     8.37590E-03
             741            1595     8.85551E-03     8.81311E-03
             741            1596     9.15732E-03     8.87679E-03
             741            1613     8.47847E-03     8.37590E-03
             741            1614     8.67558E-03     8.55262E-03
             742            1596     9.15732E-03     8.87679E-03
             742            1597     9.46044E-03     9.05634E-03
             742            1614     8.67558E-03     8.55262E-03
             742            1615     8.95366E-03     8.79014E-03
             743            1597     9.46044E-03     9.05634E-03
             743            1598     9.79355E-03     9.29607E-03
             743            1615     8.95366E-03     8.79014E-03
             743            1616     9.27905E-03     9.08050E-03
             744            1598     9.79355E-03     9.29607E-03
             744            1599     10.1568E-03     9.58929E-03
             744            1616     9.27905E-03     9.08050E-03
             744            1617     9.65653E-03     9.42209E-03
             745            1599     10.1568E-03     9.58929E-03
             745            1600     10.5531E-03     9.92446E-03
             745            1617     9.65653E-03     9.42209E-03
             745            1618     10.0710E-03     9.81376E-03
             746            1600     10.5531E-03     9.92446E-03
             746            1601     10.9787E-03     10.2972E-03
             746            1618     10.0710E-03     9.81376E-03
             746            1619     10.5289E-03     10.2490E-03
             747            1601     10.9787E-03     10.2972E-03
             747            1602     11.4322E-03     10.7026E-03
             747            1619     10.5289E-03     10.2490E-03
             747            1620     11.0238E-03     10.7271E-03
             748            1602     11.4322E-03     10.7026E-03
             748            1603     11.9106E-03     11.1354E-03
             748            1620     11.0238E-03     10.7271E-03
             748            1621     11.5600E-03     11.2468E-03
             749            1603     11.9106E-03     11.1354E-03
             749            1604     12.4044E-03     11.5891E-03
             749            1621     11.5600E-03     11.2468E-03
             749            1622     12.1320E-03     11.8061E-03
             750            1604     12.4044E-03     11.5891E-03
             750            1605     12.9065E-03     12.0469E-03
             750            1622     12.1320E-03     11.8061E-03
             750            1623     12.7364E-03     12.3971E-03
             751            1605     12.9065E-03     12.0469E-03
             751            1606     13.3729E-03     12.4804E-03
             751            1623     12.7364E-03     12.3971E-03
             751            1624     13.3460E-03     13.0018E-03
             752            1606     13.3729E-03     12.4804E-03
             752            1607     13.7574E-03     12.8182E-03
             752            1624     13.3460E-03     13.0018E-03
             752            1625     13.9050E-03     13.5599E-03
             753            1607     13.7574E-03     12.8182E-03
             753            1608     13.8909E-03     12.9443E-03
             753            1625     13.9050E-03     13.5599E-03
             753            1626     14.2771E-03     13.9638E-03
             754            1608     13.8909E-03     12.9443E-03
             754            1609     13.4977E-03     12.5646E-03
             754            1626     14.2771E-03     13.9638E-03
             754            1627     14.1885E-03     13.9714E-03
             755            1609     13.4977E-03     12.5646E-03
             755            1610     12.1719E-03     11.3485E-03
             755            1627     14.1885E-03     13.9714E-03
             755            1628     13.0617E-03     13.1267E-03
             756             344     8.91903E-03     8.59265E-03
             756             345     11.4631E-03     11.6132E-03
             756            1610     12.1719E-03     11.3485E-03
             756            1628     13.0617E-03     13.1267E-03
             757             451     8.11775E-03     7.30680E-03
             757             452     8.51943E-03     7.58675E-03
             757            1611     8.52428E-03     7.76518E-03
             757            1629     8.08476E-03     7.35567E-03
             758            1611     8.52428E-03     7.76518E-03
             758            1612     8.47224E-03     8.12207E-03
             758            1629     8.08476E-03     7.35567E-03
             758            1630     8.07047E-03     7.56082E-03
             759            1612     8.47224E-03     8.12207E-03
             759            1613     8.47847E-03     8.37590E-03
             759            1630     8.07047E-03     7.56082E-03
             759            1631     8.10326E-03     7.90946E-03
             760            1613     8.47847E-03     8.37590E-03
             760            1614     8.67558E-03     8.55262E-03
             760            1631     8.10326E-03     7.90946E-03
             760            1632     8.20352E-03     8.24427E-03
             761            1614     8.67558E-03     8.55262E-03
             761            1615     8.95366E-03     8.79014E-03
             761            1632     8.20352E-03     8.24427E-03
             761            1633     8.44399E-03     8.54178E-03
             762            1615     8.95366E-03     8.79014E-03
             762            1616     9.27905E-03     9.08050E-03
             762            1633     8.44399E-03     8.54178E-03
             762            1634     8.77009E-03     8.88504E-03
             763            1616     9.27905E-03     9.08050E-03
             763            1617     9.65653E-03     9.42209E-03
             763            1634     8.77009E-03     8.88504E-03
             763            1635     9.14688E-03     9.27736E-03
             764            1617     9.65653E-03     9.42209E-03
             764            1618     10.0710E-03     9.81376E-03
             764            1635     9.14688E-03     9.27736E-03
             764            1636     9.57896E-03     9.71623E-03
             765            1618     10.0710E-03     9.81376E-03
             765            1619     10.5289E-03     10.2490E-03
             765            1636     9.57896E-03     9.71623E-03
             765            1637     10.0521E-03     10.2007E-03
             766            1619     10.5289E-03     10.2490E-03
             766            1620     11.0238E-03     10.7271E-03
             766            1637     10.0521E-03     10.2007E-03
             766            1638     10.5731E-03     10.7288E-03
             767            1620     11.0238E-03     10.7271E-03
             767            1621     11.5600E-03     11.2468E-03
             767            1638     10.5731E-03     10.7288E-03
             767            1639     11.1336E-03     11.2991E-03
             768            1621     11.5600E-03     11.2468E-03
             768            1622     12.1320E-03     11.8061E-03
             768            1639     11.1336E-03     11.2991E-03
             768            1640     11.7420E-03     11.9124E-03
             769            1622     12.1320E-03     11.8061E-03
             769            1623     12.7364E-03     12.3971E-03
             769            1640     11.7420E-03     11.9124E-03
             769            1641     12.3810E-03     12.5662E-03
             770            1623     12.7364E-03     12.3971E-03
             770            1624     13.3460E-03     13.0018E-03
             770            1641     12.3810E-03     12.5662E-03
             770            1642     13.0542E-03     13.2435E-03
             771            1624     13.3460E-03     13.0018E-03
             771            1625     13.9050E-03     13.5599E-03
             771            1642     13.0542E-03     13.2435E-03
             771            1643     13.6978E-03     13.9238E-03
             772            1625     13.9050E-03     13.5599E-03
             772            1626     14.2771E-03     13.9638E-03
             772            1643     13.6978E-03     13.9238E-03
             772            1644     14.2453E-03     14.5012E-03
             773            1626     14.2771E-03     13.9638E-03
             773            1627     14.1885E-03     13.9714E-03
             773            1644     14.2453E-03     14.5012E-03
             773            1645     14.5439E-03     14.8851E-03
             774            1627     14.1885E-03     13.9714E-03
             774            1628     13.0617E-03     13.1267E-03
             774            1645     14.5439E-03     14.8851E-03
             774            1646     14.3514E-03     14.8265E-03
             775             345     11.4631E-03     11.6132E-03
             775             346     14.4478E-03     14.8106E-03
             775            1628     13.0617E-03     13.1267E-03
             775            1646     14.3514E-03     14.8265E-03
             776             450     7.66403E-03     6.68112E-03
             776             451     8.11775E-03     7.30680E-03
             776            1629     8.08476E-03     7.35567E-03
             776            1647     7.65493E-03     6.85465E-03
             777            1629     8.08476E-03     7.35567E-03
             777            1630     8.07047E-03     7.56082E-03
             777            1647     7.65493E-03     6.85465E-03
             777            1648     7.58526E-03     7.23243E-03
             778            1630     8.07047E-03     7.56082E-03
             778            1631     8.10326E-03     7.90946E-03
             778            1648     7.58526E-03     7.23243E-03
             778            1649     7.55623E-03     7.61019E-03
             779            1631     8.10326E-03     7.90946E-03
             779            1632     8.20352E-03     8.24427E-03
             779            1649     7.55623E-03     7.61019E-03
             779            1650     7.68944E-03     7.95287E-03
             780            1632     8.20352E-03     8.24427E-03
             780            1633     8.44399E-03     8.54178E-03
             780            1650     7.68944E-03     7.95287E-03
             780            1651     7.92739E-03     8.31123E-03
             781            1633     8.44399E-03     8.54178E-03
             781            1634     8.77009E-03     8.88504E-03
             781            1651     7.92739E-03     8.31123E-03
             781            1652     8.24288E-03     8.70427E-03
             782            1634     8.77009E-03     8.88504E-03
             782            1635     9.14688E-03     9.27736E-03
             782            1652     8.24288E-03     8.70427E-03
             782            1653     8.62691E-03     9.14038E-03
             783            1635     9.14688E-03     9.27736E-03
             783            1636     9.57896E-03     9.71623E-03
             783            1653     8.62691E-03     9.14038E-03
             783            1654     9.05925E-03     9.61904E-03
             784            1636     9.57896E-03     9.71623E-03
             784            1637     10.0521E-03     10.2007E-03
             784            1654     9.05925E-03     9.61904E-03
             784            1655     9.54199E-03     10.1378E-03
             785            1637     10.0521E-03     10.2007E-03
             785            1638     10.5731E-03     10.7288E-03
             785            1655     9.54199E-03     10.1378E-03
             785            1656     10.0629E-03     10.6915E-03
             786            1638     10.5731E-03     10.7288E-03
             786            1639     11.1336E-03     11.2991E-03
             786            1656     10.0629E-03     10.6915E-03
             786            1657     10.6273E-03     11.2809E-03
             787            1639     11.1336E-03     11.2991E-03
             787            1640     11.7420E-03     11.9124E-03
             787            1657     10.6273E-03     11.2809E-03
             787            1658     11.2207E-03     11.9020E-03
             788            1640     11.7420E-03     11.9124E-03
             788            1641     12.3810E-03     12.5662E-03
             788            1658     11.2207E-03     11.9020E-03
             788            1659     11.8567E-03     12.5547E-03
             789            1641     12.3810E-03     12.5662E-03
             789            1642     13.0542E-03     13.2435E-03
             789            1659     11.8567E-03     12.5547E-03
             789            1660     12.5040E-03     13.2388E-03
             790            1642     13.0542E-03     13.2435E-03
             790            1643     13.6978E-03     13.9238E-03
             790            1660     12.5040E-03     13.2388E-03
             790            1661     13.1882E-03     13.9373E-03
             791            1643     13.6978E-03     13.9238E-03
             791            1644     14.2453E-03     14.5012E-03
             791            1661     13.1882E-03     13.9373E-03
             791            1662     13.8542E-03     14.6632E-03
             792            1644     14.2453E-03     14.5012E-03
             792            1645     14.5439E-03     14.8851E-03
             792            1662     13.8542E-03     14.6632E-03
             792            1663     14.5273E-03     15.3554E-03
             793            1645     14.5439E-03     14.8851E-03
             793            1646     14.3514E-03     14.8265E-03
             793            1663     14.5273E-03     15.3554E-03
             793            1664     15.6371E-03     16.3104E-03
             794             346     14.4478E-03     14.8106E-03
             794             347     17.5001E-03     17.9433E-03
             794            1646     14.3514E-03     14.8265E-03
             794            1664     15.6371E-03     16.3104E-03
             795             449     7.17050E-03     6.51677E-03
             795             450     7.66403E-03     6.68112E-03
             795            1647     7.65493E-03     6.85465E-03
             795            1665     7.02870E-03     6.72115E-03
             796            1647     7.65493E-03     6.85465E-03
             796            1648     7.58526E-03     7.23243E-03
             796            1665     7.02870E-03     6.72115E-03
             796            1666     6.86905E-03     7.09179E-03
             797            1648     7.58526E-03     7.23243E-03
             797            1649     7.55623E-03     7.61019E-03
             797            1666     6.86905E-03     7.09179E-03
             797            1667     6.93808E-03     7.38251E-03
             798            1649     7.55623E-03     7.61019E-03
             798            1650     7.68944E-03     7.95287E-03
             798            1667     6.93808E-03     7.38251E-03
             798            1668     7.13290E-03     7.69962E-03
             799            1650     7.68944E-03     7.95287E-03
             799            1651     7.92739E-03     8.31123E-03
             799            1668     7.13290E-03     7.69962E-03
             799            1669     7.38296E-03     8.09841E-03
             800            1651     7.92739E-03     8.31123E-03
             800            1652     8.24288E-03     8.70427E-03
             800            1669     7.38296E-03     8.09841E-03
             800            1670     7.70234E-03     8.53412E-03
             801            1652     8.24288E-03     8.70427E-03
             801            1653     8.62691E-03     9.14038E-03
             801            1670     7.70234E-03     8.53412E-03
             801            1671     8.08172E-03     9.00912E-03
             802            1653     8.62691E-03     9.14038E-03
             802            1654     9.05925E-03     9.61904E-03
             802            1671     8.08172E-03     9.00912E-03
             802            1672     8.51586E-03     9.52071E-03
             803            1654     9.05925E-03     9.61904E-03
             803            1655     9.54199E-03     10.1378E-03
             803            1672     8.51586E-03     9.52071E-03
             803            1673     8.99242E-03     10.0603E-03
             804            1655     9.54199E-03     10.1378E-03
             804            1656     10.0629E-03     10.6915E-03
             804            1673     8.99242E-03     10.0603E-03
             804            1674     9.50854E-03     10.6282E-03
             805            1656     10.0629E-03     10.6915E-03
             805            1657     10.6273E-03     11.2809E-03
             805            1674     9.50854E-03     10.6282E-03
             805            1675     10.0507E-03     11.2141E-03
             806            1657     10.6273E-03     11.2809E-03
             806            1658     11.2207E-03     11.9020E-03
             806            1675     10.0507E-03     11.2141E-03
             806            1676     10.6220E-03     11.8207E-03
             807            1658     11.2207E-03     11.9020E-03
             807            1659     11.8567E-03     12.5547E-03
             807            1676     10.6220E-03     11.8207E-03
             807            1677     11.2049E-03     12.4408E-03
             808            1659     11.8567E-03     12.5547E-03
             808            1660     12.5040E-03     13.2388E-03
             808            1677     11.2049E-03     12.4408E-03
             808            1678     11.8212E-03     13.0857E-03
             809            1660     12.5040E-03     13.2388E-03
             809            1661     13.1882E-03     13.9373E-03
             809            1678     11.8212E-03     13.0857E-03
             809            1679     12.4603E-03     13.7686E-03
             810            1661     13.1882E-03     13.9373E-03
             810            1662     13.8542E-03     14.6632E-03
             810            1679     12.4603E-03     13.7686E-03
             810            1680     13.2135E-03     14.5496E-03
             811            1662     13.8542E-03     14.6632E-03
             811            1663     14.5273E-03     15.3554E-03
             811            1680     13.2135E-03     14.5496E-03
             811            1681     14.2031E-03     15.5618E-03
             812            1663     14.5273E-03     15.3554E-03
             812            1664     15.6371E-03     16.3104E-03
             812            1681     14.2031E-03     15.5618E-03
             812            1682     15.8759E-03     17.1489E-03
             813             347     17.5001E-03     17.9433E-03
             813             348     19.6580E-03     20.3952E-03
             813            1664     15.6371E-03     16.3104E-03
             813            1682     15.8759E-03     17.1489E-03
             814             448     6.12292E-03     6.71261E-03
             814             449     7.17050E-03     6.51677E-03
             814            1665     7.02870E-03     6.72115E-03
             814            1683     6.09269E-03     6.78768E-03
             815            1665     7.02870E-03     6.72115E-03
             815            1666     6.86905E-03     7.09179E-03
             815            1683     6.09269E-03     6.78768E-03
             815            1684     6.16058E-03     6.89768E-03
             816            1666     6.86905E-03     7.09179E-03
             816            1667     6.93808E-03     7.38251E-03
             816            1684     6.16058E-03     6.89768E-03
             816            1685     6.35803E-03     7.10269E-03
             817            1667     6.93808E-03     7.38251E-03
             817            1668     7.13290E-03     7.69962E-03
             817            1685     6.35803E-03     7.10269E-03
             817            1686     6.56269E-03     7.47398E-03
             818            1668     7.13290E-03     7.69962E-03
             818            1669     7.38296E-03     8.09841E-03
             818            1686     6.56269E-03     7.47398E-03
             818            1687     6.81861E-03     7.90129E-03
             819            1669     7.38296E-03     8.09841E-03
             819            1670     7.70234E-03     8.53412E-03
             819            1687     6.81861E-03     7.90129E-03
             819            1688     7.13782E-03     8.37601E-03
             820            1670     7.70234E-03     8.53412E-03
             820            1671     8.08172E-03     9.00912E-03
             820            1688     7.13782E-03     8.37601E-03
             820            1689     7.51381E-03     8.88713E-03
             821            1671     8.08172E-03     9.00912E-03
             821            1672     8.51586E-03     9.52071E-03
             821            1689     7.51381E-03     8.88713E-03
             821            1690     7.94358E-03     9.42177E-03
             822            1672     8.51586E-03     9.52071E-03
             822            1673     8.99242E-03     10.0603E-03
             822            1690     7.94358E-03     9.42177E-03
             822            1691     8.41577E-03     9.98232E-03
             823            1673     8.99242E-03     10.0603E-03
             823            1674     9.50854E-03     10.6282E-03
             823            1691     8.41577E-03     9.98232E-03
             823            1692     8.91962E-03     10.5557E-03
             824            1674     9.50854E-03     10.6282E-03
             824            1675     10.0507E-03     11.2141E-03
             824            1692     8.91962E-03     10.5557E-03
             824            1693     9.44847E-03     11.1438E-03
             825            1675     10.0507E-03     11.2141E-03
             825            1676     10.6220E-03     11.8207E-03
             825            1693     9.44847E-03     11.1438E-03
             825            1694     9.98918E-03     11.7332E-03
             826            1676     10.6220E-03     11.8207E-03
             826            1677     11.2049E-03     12.4408E-03
             826            1694     9.98918E-03     11.7332E-03
             826            1695     10.5448E-03     12.3340E-03
             827            1677     11.2049E-03     12.4408E-03
             827            1678     11.8212E-03     13.0857E-03
             827            1695     10.5448E-03     12.3340E-03
             827            1696     11.1138E-03     12.9426E-03
             828            1678     11.8212E-03     13.0857E-03
             828            1679     12.4603E-03     13.7686E-03
             828            1696     11.1138E-03     12.9426E-03
             828            1697     11.7428E-03     13.6177E-03
             829            1679     12.4603E-03     13.7686E-03
             829            1680     13.2135E-03     14.5496E-03
             829            1697     11.7428E-03     13.6177E-03
             829            1698     12.5093E-03     14.4235E-03
             830            1680     13.2135E-03     14.5496E-03
             830            1681     14.2031E-03     15.5618E-03
             830            1698     12.5093E-03     14.4235E-03
             830            1699     13.6778E-03     15.6482E-03
             831            1681     14.2031E-03     15.5618E-03
             831            1682     15.8759E-03     17.1489E-03
             831            1699     13.6778E-03     15.6482E-03
             831            1700     15.5783E-03     17.6252E-03
             832             348     19.6580E-03     20.3952E-03
             832             349     19.4963E-03     21.6595E-03
             832            1682     15.8759E-03     17.1489E-03
             832            1700     15.5783E-03     17.6252E-03
             833             447     8.90170E-03     11.3393E-03
             833             448     6.12292E-03     6.71261E-03
             833            1683     6.09269E-03     6.78768E-03
             833            1701     9.55962E-03     11.1061E-03
             834            1683     6.09269E-03     6.78768E-03
             834            1684     6.16058E-03     6.89768E-03
             834            1701     9.55962E-03     11.1061E-03
             834            1702     10.5094E-03     10.9090E-03
             835            1684     6.16058E-03     6.89768E-03
             835            1685     6.35803E-03     7.10269E-03
             835            1702     10.5094E-03     10.9090E-03
             835            1703     11.1134E-03     11.2834E-03
             836            1685     6.35803E-03     7.10269E-03
             836            1686     6.56269E-03     7.47398E-03
             836            1703     11.1134E-03     11.2834E-03
             836            1704     11.7974E-03     11.9813E-03
             837            1686     6.56269E-03     7.47398E-03
             837            1687     6.81861E-03     7.90129E-03
             837            1704     11.7974E-03     11.9813E-03
             837            1705     12.5826E-03     12.7975E-03
             838            1687     6.81861E-03     7.90129E-03
             838            1688     7.13782E-03     8.37601E-03
             838            1705     12.5826E-03     12.7975E-03
             838            1706     13.4565E-03     13.7277E-03
             839            1688     7.13782E-03     8.37601E-03
             839            1689     7.51381E-03     8.88713E-03
             839            1706     13.4565E-03     13.7277E-03
             839            1707     14.4215E-03     14.7281E-03
             840            1689     7.51381E-03     8.88713E-03
             840            1690     7.94358E-03     9.42177E-03
             840            1707     14.4215E-03     14.7281E-03
             840            1708     15.4385E-03     15.7771E-03
             841            1690     7.94358E-03     9.42177E-03
             841            1691     8.41577E-03     9.98232E-03
             841            1708     15.4385E-03     15.7771E-03
             841            1709     16.5047E-03     16.8613E-03
             842            1691     8.41577E-03     9.98232E-03
             842            1692     8.91962E-03     10.5557E-03
             842            1709     16.5047E-03     16.8613E-03
             842            1710     17.5840E-03     17.9519E-03
             843            1692     8.91962E-03     10.5557E-03
             843            1693     9.44847E-03     11.1438E-03
             843            1710     17.5840E-03     17.9519E-03
             843            1711     18.6705E-03     19.0398E-03
             844            1693     9.44847E-03     11.1438E-03
             844            1694     9.98918E-03     11.7332E-03
             844            1711     18.6705E-03     19.0398E-03
             844            1712     19.7272E-03     20.0913E-03
             845            1694     9.98918E-03     11.7332E-03
             845            1695     10.5448E-03     12.3340E-03
             845            1712     19.7272E-03     20.0913E-03
             845            1713     20.7462E-03     21.0908E-03
             846            1695     10.5448E-03     12.3340E-03
             846            1696     11.1138E-03     12.9426E-03
             846            1713     20.7462E-03     21.0908E-03
             846            1714     21.6896E-03     22.0061E-03
             847            1696     11.1138E-03     12.9426E-03
             847            1697     11.7428E-03     13.6177E-03
             847            1714     21.6896E-03     22.0061E-03
             847            1715     22.5540E-03     22.8221E-03
             848            1697     11.7428E-03     13.6177E-03
             848            1698     12.5093E-03     14.4235E-03
             848            1715     22.5540E-03     22.8221E-03
             848            1716     23.3430E-03     23.5371E-03
             849            1698     12.5093E-03     14.4235E-03
             849            1699     13.6778E-03     15.6482E-03
             849            1716     23.3430E-03     23.5371E-03
             849            1717     24.0795E-03     24.2078E-03
             850            1699     13.6778E-03     15.6482E-03
             850            1700     15.5783E-03     17.6252E-03
             850            1717     24.0795E-03     24.2078E-03
             850            1718     24.9541E-03     24.9683E-03
             851             349     19.4963E-03     21.6595E-03
             851             350     25.9739E-03     26.0973E-03
             851            1700     15.5783E-03     17.6252E-03
             851            1718     24.9541E-03     24.9683E-03
             852             446     12.8764E-03     15.2795E-03
             852             447     8.90170E-03     11.3393E-03
             852            1701     9.55962E-03     11.1061E-03
             852            1719     13.2313E-03     15.0135E-03
             853            1701     9.55962E-03     11.1061E-03
             853            1702     10.5094E-03     10.9090E-03
             853            1719     13.2313E-03     15.0135E-03
             853            1720     14.1691E-03     14.7673E-03
             854            1702     10.5094E-03     10.9090E-03
             854            1703     11.1134E-03     11.2834E-03
             854            1720     14.1691E-03     14.7673E-03
             854            1721     15.3825E-03     15.1914E-03
             855            1703     11.1134E-03     11.2834E-03
             855            1704     11.7974E-03     11.9813E-03
             855            1721     15.3825E-03     15.1914E-03
             855            1722     16.6675E-03     16.1601E-03
             856            1704     11.7974E-03     11.9813E-03
             856            1705     12.5826E-03     12.7975E-03
             856            1722     16.6675E-03     16.1601E-03
             856            1723     18.0680E-03     17.3995E-03
             857            1705     12.5826E-03     12.7975E-03
             857            1706     13.4565E-03     13.7277E-03
             857            1723     18.0680E-03     17.3995E-03
             857            1724     19.6011E-03     18.8313E-03
             858            1706     13.4565E-03     13.7277E-03
             858            1707     14.4215E-03     14.7281E-03
             858            1724     19.6011E-03     18.8313E-03
             858            1725     21.2269E-03     20.3924E-03
             859            1707     14.4215E-03     14.7281E-03
             859            1708     15.4385E-03     15.7771E-03
             859            1725     21.2269E-03     20.3924E-03
             859            1726     22.9311E-03     22.0405E-03
             860            1708     15.4385E-03     15.7771E-03
             860            1709     16.5047E-03     16.8613E-03
             860            1726     22.9311E-03     22.0405E-03
             860            1727     24.6790E-03     23.7426E-03
             861            1709     16.5047E-03     16.8613E-03
             861            1710     17.5840E-03     17.9519E-03
             861            1727     24.6790E-03     23.7426E-03
             861            1728     26.4526E-03     25.4679E-03
             862            1710     17.5840E-03     17.9519E-03
             862            1711     18.6705E-03     19.0398E-03
             862            1728     26.4526E-03     25.4679E-03
             862            1729     28.2177E-03     27.1878E-03
             863            1711     18.6705E-03     19.0398E-03
             863            1712     19.7272E-03     20.0913E-03
             863            1729     28.2177E-03     27.1878E-03
             863            1730     29.9514E-03     28.8636E-03
             864            1712     19.7272E-03     20.0913E-03
             864            1713     20.7462E-03     21.0908E-03
             864            1730     29.9514E-03     28.8636E-03
             864            1731     31.6035E-03     30.4572E-03
             865            1713     20.7462E-03     21.0908E-03
             865            1714     21.6896E-03     22.0061E-03
             865            1731     31.6035E-03     30.4572E-03
             865            1732     33.1292E-03     31.9006E-03
             866            1714     21.6896E-03     22.0061E-03
             866            1715     22.5540E-03     22.8221E-03
             866            1732     33.1292E-03     31.9006E-03
             866            1733     34.4391E-03     33.1207E-03
             867            1715     22.5540E-03     22.8221E-03
             867            1716     23.3430E-03     23.5371E-03
             867            1733     34.4391E-03     33.1207E-03
             867            1734     35.4282E-03     33.9977E-03
             868            1716     23.3430E-03     23.5371E-03
             868            1717     24.0795E-03     24.2078E-03
             868            1734     35.4282E-03     33.9977E-03
             868            1735     35.9097E-03     34.3540E-03
             869            1717     24.0795E-03     24.2078E-03
             869            1718     24.9541E-03     24.9683E-03
             869            1735     35.9097E-03     34.3540E-03
             869            1736     35.6498E-03     33.9950E-03
             870             350     25.9739E-03     26.0973E-03
             870             351     33.9606E-03     32.3125E-03
             870            1718     24.9541E-03     24.9683E-03
             870            1736     35.6498E-03     33.9950E-03
             871             445     12.6024E-03     12.6890E-03
             871             446     12.8764E-03     15.2795E-03
             871            1719     13.2313E-03     15.0135E-03
             871            1737     12.4846E-03     13.1215E-03
             872            1719     13.2313E-03     15.0135E-03
             872            1720     14.1691E-03     14.7673E-03
             872            1737     12.4846E-03     13.1215E-03
             872            1738     12.8151E-03     13.7383E-03
             873            1720     14.1691E-03     14.7673E-03
             873            1721     15.3825E-03     15.1914E-03
             873            1738     12.8151E-03     13.7383E-03
             873            1739     13.9743E-03     14.3101E-03
             874            1721     15.3825E-03     15.1914E-03
             874            1722     16.6675E-03     16.1601E-03
             874            1739     13.9743E-03     14.3101E-03
             874            1740     15.4317E-03     15.3205E-03
             875            1722     16.6675E-03     16.1601E-03
             875            1723     18.0680E-03     17.3995E-03
             875            1740     15.4317E-03     15.3205E-03
             875            1741     17.0030E-03     16.6826E-03
             876            1723     18.0680E-03     17.3995E-03
             876            1724     19.6011E-03     18.8313E-03
             876            1741     17.0030E-03     16.6826E-03
             876            1742     18.7001E-03     18.2567E-03
             877            1724     19.6011E-03     18.8313E-03
             877            1725     21.2269E-03     20.3924E-03
             877            1742     18.7001E-03     18.2567E-03
             877            1743     20.4919E-03     19.9857E-03
             878            1725     21.2269E-03     20.3924E-03
             878            1726     22.9311E-03     22.0405E-03
             878            1743     20.4919E-03     19.9857E-03
             878            1744     22.3619E-03     21.8160E-03
             879            1726     22.9311E-03     22.0405E-03
             879            1727     24.6790E-03     23.7426E-03
             879            1744     22.3619E-03     21.8160E-03
             879            1745     24.2923E-03     23.7183E-03
             880            1727     24.6790E-03     23.7426E-03
             880            1728     26.4526E-03     25.4679E-03
             880            1745     24.2923E-03     23.7183E-03
             880            1746     26.2625E-03     25.6664E-03
             881            1728     26.4526E-03     25.4679E-03
             881            1729     28.2177E-03     27.1878E-03
             881            1746     26.2625E-03     25.6664E-03
             881            1747     28.2584E-03     27.6378E-03
             882            1729     28.2177E-03     27.1878E-03
             882            1730     29.9514E-03     28.8636E-03
             882            1747     28.2584E-03     27.6378E-03
             882            1748     30.2479E-03     29.6082E-03
             883            1730     29.9514E-03     28.8636E-03
             883            1731     31.6035E-03     30.4572E-03
             883            1748     30.2479E-03     29.6082E-03
             883            1749     32.2066E-03     31.5398E-03
             884            1731     31.6035E-03     30.4572E-03
             884            1732     33.1292E-03     31.9006E-03
             884            1749     32.2066E-03     31.5398E-03
             884            1750     34.0653E-03     33.3862E-03
             885            1732     33.1292E-03     31.9006E-03
             885            1733     34.4391E-03     33.1207E-03
             885            1750     34.0653E-03     33.3862E-03
             885            1751     35.7473E-03     35.0567E-03
             886            1733     34.4391E-03     33.1207E-03
             886            1734     35.4282E-03     33.9977E-03
             886            1751     35.7473E-03     35.0567E-03
             886            1752     37.1024E-03     36.4376E-03
             887            1734     35.4282E-03     33.9977E-03
             887            1735     35.9097E-03     34.3540E-03
             887            1752     37.1024E-03     36.4376E-03
             887            1753     37.8932E-03     37.3214E-03
             888            1735     35.9097E-03     34.3540E-03
             888            1736     35.6498E-03     33.9950E-03
             888            1753     37.8932E-03     37.3214E-03
             888            1754     37.8402E-03     37.4538E-03
             889             351     33.9606E-03     32.3125E-03
             889             352     36.3031E-03     36.3358E-03
             889            1736     35.6498E-03     33.9950E-03
             889            1754     37.8402E-03     37.4538E-03
             890             444     11.1635E-03     10.6662E-03
             890             445     12.6024E-03     12.6890E-03
             890            1737     12.4846E-03     13.1215E-03
             890            1755     11.3523E-03     11.1453E-03
             891            1737     12.4846E-03     13.1215E-03
             891            1738     12.8151E-03     13.7383E-03
             891            1755     11.3523E-03     11.1453E-03
             891            1756     11.8731E-03     12.1987E-03
             892            1738     12.8151E-03     13.7383E-03
             892            1739     13.9743E-03     14.3101E-03
             892            1756     11.8731E-03     12.1987E-03
             892            1757     12.8548E-03     13.3044E-03
             893            1739     13.9743E-03     14.3101E-03
             893            1740     15.4317E-03     15.3205E-03
             893            1757     12.8548E-03     13.3044E-03
             893            1758     14.3298E-03     14.5344E-03
             894            1740     15.4317E-03     15.3205E-03
             894            1741     17.0030E-03     16.6826E-03
             894            1758     14.3298E-03     14.5344E-03
             894            1759     16.0355E-03     16.0572E-03
             895            1741     17.0030E-03     16.6826E-03
             895            1742     18.7001E-03     18.2567E-03
             895            1759     16.0355E-03     16.0572E-03
             895            1760     17.8684E-03     17.7904E-03
             896            1742     18.7001E-03     18.2567E-03
             896            1743     20.4919E-03     19.9857E-03
             896            1760     17.8684E-03     17.7904E-03
             896            1761     19.8083E-03     19.6733E-03
             897            1743     20.4919E-03     19.9857E-03
             897            1744     22.3619E-03     21.8160E-03
             897            1761     19.8083E-03     19.6733E-03
             897            1762     21.8251E-03     21.6650E-03
             898            1744     22.3619E-03     21.8160E-03
             898            1745     24.2923E-03     23.7183E-03
             898            1762     21.8251E-03     21.6650E-03
             898            1763     23.9078E-03     23.7347E-03
             899            1745     24.2923E-03     23.7183E-03
             899            1746     26.2625E-03     25.6664E-03
             899            1763     23.9078E-03     23.7347E-03
             899            1764     26.0424E-03     25.8644E-03
             900            1746     26.2625E-03     25.6664E-03
             900            1747     28.2584E-03     27.6378E-03
             900            1764     26.0424E-03     25.8644E-03
             900            1765     28.2128E-03     28.0362E-03
             901            1747     28.2584E-03     27.6378E-03
             901            1748     30.2479E-03     29.6082E-03
             901            1765     28.2128E-03     28.0362E-03
             901            1766     30.4065E-03     30.2331E-03
             902            1748     30.2479E-03     29.6082E-03
             902            1749     32.2066E-03     31.5398E-03
             902            1766     30.4065E-03     30.2331E-03
             902            1767     32.5836E-03     32.4284E-03
             903            1749     32.2066E-03     31.5398E-03
             903            1750     34.0653E-03     33.3862E-03
             903            1767     32.5836E-03     32.4284E-03
             903            1768     34.7077E-03     34.5763E-03
             904            1750     34.0653E-03     33.3862E-03
             904            1751     35.7473E-03     35.0567E-03
             904            1768     34.7077E-03     34.5763E-03
             904            1769     36.6735E-03     36.6079E-03
             905            1751     35.7473E-03     35.0567E-03
             905            1752     37.1024E-03     36.4376E-03
             905            1769     36.6735E-03     36.6079E-03
             905            1770     38.3381E-03     38.3769E-03
             906            1752     37.1024E-03     36.4376E-03
             906            1753     37.8932E-03     37.3214E-03
             906            1770     38.3381E-03     38.3769E-03
             906            1771     39.5093E-03     39.7205E-03
             907            1753     37.8932E-03     37.3214E-03
             907            1754     37.8402E-03     37.4538E-03
             907            1771     39.5093E-03     39.7205E-03
             907            1772     39.8164E-03     40.3224E-03
             908             352     36.3031E-03     36.3358E-03
             908             353     39.6473E-03     40.2637E-03
             908            1754     37.8402E-03     37.4538E-03
             908            1772     39.8164E-03     40.3224E-03
             909             443     9.93316E-03     9.52255E-03
             909             444     11.1635E-03     10.6662E-03
             909            1755     11.3523E-03     11.1453E-03
             909            1773     10.1134E-03     9.84812E-03
             910            1755     11.3523E-03     11.1453E-03
             910            1756     11.8731E-03     12.1987E-03
             910            1773     10.1134E-03     9.84812E-03
             910            1774     10.7552E-03     10.8118E-03
             911            1756     11.8731E-03     12.1987E-03
             911            1757     12.8548E-03     13.3044E-03
             911            1774     10.7552E-03     10.8118E-03
             911            1775     11.8657E-03     12.2052E-03
             912            1757     12.8548E-03     13.3044E-03
             912            1758     14.3298E-03     14.5344E-03
             912            1775     11.8657E-03     12.2052E-03
             912            1776     13.3520E-03     13.7628E-03
             913            1758     14.3298E-03     14.5344E-03
             913            1759     16.0355E-03     16.0572E-03
             913            1776     13.3520E-03     13.7628E-03
             913            1777     15.1366E-03     15.4775E-03
             914            1759     16.0355E-03     16.0572E-03
             914            1760     17.8684E-03     17.7904E-03
             914            1777     15.1366E-03     15.4775E-03
             914            1778     17.0824E-03     17.3724E-03
             915            1760     17.8684E-03     17.7904E-03
             915            1761     19.8083E-03     19.6733E-03
             915            1778     17.0824E-03     17.3724E-03
             915            1779     19.1324E-03     19.3933E-03
             916            1761     19.8083E-03     19.6733E-03
             916            1762     21.8251E-03     21.6650E-03
             916            1779     19.1324E-03     19.3933E-03
             916            1780     21.2645E-03     21.5129E-03
             917            1762     21.8251E-03     21.6650E-03
             917            1763     23.9078E-03     23.7347E-03
             917            1780     21.2645E-03     21.5129E-03
             917            1781     23.4584E-03     23.7083E-03
             918            1763     23.9078E-03     23.7347E-03
             918            1764     26.0424E-03     25.8644E-03
             918            1781     23.4584E-03     23.7083E-03
             918            1782     25.7056E-03     25.9642E-03
             919            1764     26.0424E-03     25.8644E-03
             919            1765     28.2128E-03     28.0362E-03
             919            1782     25.7056E-03     25.9642E-03
             919            1783     27.9966E-03     28.2716E-03
             920            1765     28.2128E-03     28.0362E-03
             920            1766     30.4065E-03     30.2331E-03
             920            1783     27.9966E-03     28.2716E-03
             920            1784     30.3160E-03     30.6171E-03
             921            1766     30.4065E-03     30.2331E-03
             921            1767     32.5836E-03     32.4284E-03
             921            1784     30.3160E-03     30.6171E-03
             921            1785     32.6508E-03     32.9876E-03
             922            1767     32.5836E-03     32.4284E-03
             922            1768     34.7077E-03     34.5763E-03
             922            1785     32.6508E-03     32.9876E-03
             922            1786     34.9510E-03     35.3492E-03
             923            1768     34.7077E-03     34.5763E-03
             923            1769     36.6735E-03     36.6079E-03
             923            1786     34.9510E-03     35.3492E-03
             923            1787     37.1730E-03     37.6467E-03
             924            1769     36.6735E-03     36.6079E-03
             924            1770     38.3381E-03     38.3769E-03
             924            1787     37.1730E-03     37.6467E-03
             924            1788     39.1815E-03     39.7880E-03
             925            1770     38.3381E-03     38.3769E-03
             925            1771     39.5093E-03     39.7205E-03
             925            1788     39.1815E-03     39.7880E-03
             925            1789     40.8130E-03     41.5811E-03
             926            1771     39.5093E-03     39.7205E-03
             926            1772     39.8164E-03     40.3224E-03
             926            1789     40.8130E-03     41.5811E-03
             926            1790     42.0433E-03     42.9125E-03
             927             353     39.6473E-03     40.2637E-03
             927             354     43.2018E-03     44.0154E-03
             927            1772     39.8164E-03     40.3224E-03
             927            1790     42.0433E-03     42.9125E-03
             928             442     8.71320E-03     7.95762E-03
             928             443     9.93316E-03     9.52255E-03
             928            1773     10.1134E-03     9.84812E-03
             928            1791     8.92092E-03     8.48447E-03
             929            1773     10.1134E-03     9.84812E-03
             929            1774     10.7552E-03     10.8118E-03
             929            1791     8.92092E-03     8.48447E-03
             929            1792     9.61420E-03     9.68849E-03
             930            1774     10.7552E-03     10.8118E-03
             930            1775     11.8657E-03     12.2052E-03
             930            1792     9.61420E-03     9.68849E-03
             930            1793     10.8283E-03     11.2168E-03
             931            1775     11.8657E-03     12.2052E-03
             931            1776     13.3520E-03     13.7628E-03
             931            1793     10.8283E-03     11.2168E-03
             931            1794     12.4267E-03     13.0051E-03
             932            1776     13.3520E-03     13.7628E-03
             932            1777     15.1366E-03     15.4775E-03
             932            1794     12.4267E-03     13.0051E-03
             932            1795     14.2769E-03     14.9304E-03
             933            1777     15.1366E-03     15.4775E-03
             933            1778     17.0824E-03     17.3724E-03
             933            1795     14.2769E-03     14.9304E-03
             933            1796     16.3040E-03     16.9662E-03
             934            1778     17.0824E-03     17.3724E-03
             934            1779     19.1324E-03     19.3933E-03
             934            1796     16.3040E-03     16.9662E-03
             934            1797     18.4370E-03     19.1033E-03
             935            1779     19.1324E-03     19.3933E-03
             935            1780     21.2645E-03     21.5129E-03
             935            1797     18.4370E-03     19.1033E-03
             935            1798     20.6433E-03     21.3156E-03
             936            1780     21.2645E-03     21.5129E-03
             936            1781     23.4584E-03     23.7083E-03
             936            1798     20.6433E-03     21.3156E-03
             936            1799     22.9078E-03     23.5913E-03
             937            1781     23.4584E-03     23.7083E-03
             937            1782     25.7056E-03     25.9642E-03
             937            1799     22.9078E-03     23.5913E-03
             937            1800     25.2183E-03     25.9205E-03
             938            1782     25.7056E-03     25.9642E-03
             938            1783     27.9966E-03     28.2716E-03
             938            1800     25.2183E-03     25.9205E-03
             938            1801     27.5708E-03     28.2969E-03
             939            1783     27.9966E-03     28.2716E-03
             939            1784     30.3160E-03     30.6171E-03
             939            1801     27.5708E-03     28.2969E-03
             939            1802     29.9587E-03     30.7204E-03
             940            1784     30.3160E-03     30.6171E-03
             940            1785     32.6508E-03     32.9876E-03
             940            1802     29.9587E-03     30.7204E-03
             940            1803     32.3734E-03     33.1807E-03
             941            1785     32.6508E-03     32.9876E-03
             941            1786     34.9510E-03     35.3492E-03
             941            1803     32.3734E-03     33.1807E-03
             941            1804     34.8104E-03     35.6781E-03
             942            1786     34.9510E-03     35.3492E-03
             942            1787     37.1730E-03     37.6467E-03
             942            1804     34.8104E-03     35.6781E-03
             942            1805     37.2282E-03     38.1780E-03
             943            1787     37.1730E-03     37.6467E-03
             943            1788     39.1815E-03     39.7880E-03
             943            1805     37.2282E-03     38.1780E-03
             943            1806     39.6397E-03     40.6557E-03
             944            1788     39.1815E-03     39.7880E-03
             944            1789     40.8130E-03     41.5811E-03
             944            1806     39.6397E-03     40.6557E-03
             944            1807     41.9346E-03     43.0399E-03
             945            1789     40.8130E-03     41.5811E-03
             945            1790     42.0433E-03     42.9125E-03
             945            1807     41.9346E-03     43.0399E-03
             945            1808     44.1742E-03     45.2685E-03
             946             354     43.2018E-03     44.0154E-03
             946             355     46.6133E-03     47.4745E-03
             946            1790     42.0433E-03     42.9125E-03
             946            1808     44.1742E-03     45.2685E-03
             947             441     7.35503E-03     6.77664E-03
             947             442     8.71320E-03     7.95762E-03
             947            1791     8.92092E-03     8.48447E-03
             947            1809     7.62283E-03     7.28033E-03
             948            1791     8.92092E-03     8.48447E-03
             948            1792     9.61420E-03     9.68849E-03
             948            1809     7.62283E-03     7.28033E-03
             948            1810     8.45098E-03     8.61183E-03
             949            1792     9.61420E-03     9.68849E-03
             949            1793     10.8283E-03     11.2168E-03
             949            1810     8.45098E-03     8.61183E-03
             949            1811     9.78353E-03     10.3727E-03
             950            1793     10.8283E-03     11.2168E-03
             950            1794     12.4267E-03     13.0051E-03
             950            1811     9.78353E-03     10.3727E-03
             950            1812     11.4827E-03     12.3276E-03
             951            1794     12.4267E-03     13.0051E-03
             951            1795     14.2769E-03     14.9304E-03
             951            1812     11.4827E-03     12.3276E-03
             951            1813     13.4239E-03     14.4110E-03
             952            1795     14.2769E-03     14.9304E-03
             952            1796     16.3040E-03     16.9662E-03
             952            1813     13.4239E-03     14.4110E-03
             952            1814     15.5147E-03     16.5683E-03
             953            1796     16.3040E-03     16.9662E-03
             953            1797     18.4370E-03     19.1033E-03
             953            1814     15.5147E-03     16.5683E-03
             953            1815     17.7030E-03     18.7881E-03
             954            1797     18.4370E-03     19.1033E-03
             954            1798     20.6433E-03     21.3156E-03
             954            1815     17.7030E-03     18.7881E-03
             954            1816     19.9541E-03     21.0609E-03
             955            1798     20.6433E-03     21.3156E-03
             955            1799     22.9078E-03     23.5913E-03
             955            1816     19.9541E-03     21.0609E-03
             955            1817     22.2501E-03     23.3763E-03
             956            1799     22.9078E-03     23.5913E-03
             956            1800     25.2183E-03     25.9205E-03
             956            1817     22.2501E-03     23.3763E-03
             956            1818     24.5848E-03     25.7311E-03
             957            1800     25.2183E-03     25.9205E-03
             957            1801     27.5708E-03     28.2969E-03
             957            1818     24.5848E-03     25.7311E-03
             957            1819     26.9514E-03     28.1247E-03
             958            1801     27.5708E-03     28.2969E-03
             958            1802     29.9587E-03     30.7204E-03
             958            1819     26.9514E-03     28.1247E-03
             958            1820     29.3558E-03     30.5591E-03
             959            1802     29.9587E-03     30.7204E-03
             959            1803     32.3734E-03     33.1807E-03
             959            1820     29.3558E-03     30.5591E-03
             959            1821     31.8001E-03     33.0482E-03
             960            1803     32.3734E-03     33.1807E-03
             960            1804     34.8104E-03     35.6781E-03
             960            1821     31.8001E-03     33.0482E-03
             960            1822     34.3017E-03     35.5958E-03
             961            1804     34.8104E-03     35.6781E-03
             961            1805     37.2282E-03     38.1780E-03
             961            1822     34.3017E-03     35.5958E-03
             961            1823     36.8996E-03     38.2448E-03
             962            1805     37.2282E-03     38.1780E-03
             962            1806     39.6397E-03     40.6557E-03
             962            1823     36.8996E-03     38.2448E-03
             962            1824     39.6118E-03     40.9977E-03
             963            1806     39.6397E-03     40.6557E-03
             963            1807     41.9346E-03     43.0399E-03
             963            1824     39.6118E-03     40.9977E-03
             963            1825     42.6769E-03     43.9809E-03
             964            1807     41.9346E-03     43.0399E-03
             964            1808     44.1742E-03     45.2685E-03
             964            1825     42.6769E-03     43.9809E-03
             964            1826     46.0181E-03     47.2353E-03
             965             355     46.6133E-03     47.4745E-03
             965             356     49.6752E-03     50.7712E-03
             965            1808     44.1742E-03     45.2685E-03
             965            1826     46.0181E-03     47.2353E-03
             966             440     6.02994E-03     5.43663E-03
             966             441     7.35503E-03     6.77664E-03
             966            1809     7.62283E-03     7.28033E-03
             966            1827     6.32195E-03     6.10687E-03
             967            1809     7.62283E-03     7.28033E-03
             967            1810     8.45098E-03     8.61183E-03
             967            1827     6.32195E-03     6.10687E-03
             967            1828     7.23993E-03     7.68444E-03
             968            1810     8.45098E-03     8.61183E-03
             968            1811     9.78353E-03     10.3727E-03
             968            1828     7.23993E-03     7.68444E-03
             968            1829     8.70952E-03     9.63797E-03
             969            1811     9.78353E-03     10.3727E-03
             969            1812     11.4827E-03     12.3276E-03
             969            1829     8.70952E-03     9.63797E-03
             969            1830     10.5280E-03     11.7570E-03
             970            1812     11.4827E-03     12.3276E-03
             970            1813     13.4239E-03     14.4110E-03
             970            1830     10.5280E-03     11.7570E-03
             970            1831     12.5583E-03     13.9443E-03
             971            1813     13.4239E-03     14.4110E-03
             971            1814     15.5147E-03     16.5683E-03
             971            1831     12.5583E-03     13.9443E-03
             971            1832     14.7092E-03     16.1870E-03
             972            1814     15.5147E-03     16.5683E-03
             972            1815     17.7030E-03     18.7881E-03
             972            1832     14.7092E-03     16.1870E-03
             972            1833     16.9335E-03     18.4611E-03
             973            1815     17.7030E-03     18.7881E-03
             973            1816     19.9541E-03     21.0609E-03
             973            1833     16.9335E-03     18.4611E-03
             973            1834     19.2049E-03     20.7621E-03
             974            1816     19.9541E-03     21.0609E-03
             974            1817     22.2501E-03     23.3763E-03
             974            1834     19.2049E-03     20.7621E-03
             974            1835     21.5088E-03     23.0867E-03
             975            1817     22.2501E-03     23.3763E-03
             975            1818     24.5848E-03     25.7311E-03
             975            1835     21.5088E-03     23.0867E-03
             975            1836     23.8357E-03     25.4317E-03
             976            1818     24.5848E-03     25.7311E-03
             976            1819     26.9514E-03     28.1247E-03
             976            1836     23.8357E-03     25.4317E-03
             976            1837     26.1897E-03     27.8019E-03
             977            1819     26.9514E-03     28.1247E-03
             977            1820     29.3558E-03     30.5591E-03
             977            1837     26.1897E-03     27.8019E-03
             977            1838     28.5705E-03     30.2060E-03
             978            1820     29.3558E-03     30.5591E-03
             978            1821     31.8001E-03     33.0482E-03
             978            1838     28.5705E-03     30.2060E-03
             978            1839     31.0062E-03     32.6617E-03
             979            1821     31.8001E-03     33.0482E-03
             979            1822     34.3017E-03     35.5958E-03
             979            1839     31.0062E-03     32.6617E-03
             979            1840     33.5209E-03     35.2105E-03
             980            1822     34.3017E-03     35.5958E-03
             980            1823     36.8996E-03     38.2448E-03
             980            1840     33.5209E-03     35.2105E-03
             980            1841     36.1971E-03     37.8998E-03
             981            1823     36.8996E-03     38.2448E-03
             981            1824     39.6118E-03     40.9977E-03
             981            1841     36.1971E-03     37.8998E-03
             981            1842     39.1665E-03     40.8694E-03
             982            1824     39.6118E-03     40.9977E-03
             982            1825     42.6769E-03     43.9809E-03
             982            1842     39.1665E-03     40.8694E-03
             982            1843     42.6000E-03     44.2348E-03
             983            1825     42.6769E-03     43.9809E-03
             983            1826     46.0181E-03     47.2353E-03
             983            1843     42.6000E-03     44.2348E-03
             983            1844     47.1404E-03     48.4421E-03
             984             356     49.6752E-03     50.7712E-03
             984             357     52.5525E-03     53.5465E-03
             984            1826     46.0181E-03     47.2353E-03
             984            1844     47.1404E-03     48.4421E-03
             985             439     4.57648E-03     4.24867E-03
             985             440     6.02994E-03     5.43663E-03
             985            1827     6.32195E-03     6.10687E-03
             985            1845     4.91335E-03     5.07063E-03
             986            1827     6.32195E-03     6.10687E-03
             986            1828     7.23993E-03     7.68444E-03
             986            1845     4.91335E-03     5.07063E-03
             986            1846     5.96344E-03     6.93987E-03
             987            1828     7.23993E-03     7.68444E-03
             987            1829     8.70952E-03     9.63797E-03
             987            1846     5.96344E-03     6.93987E-03
             987            1847     7.61270E-03     9.07008E-03
             988            1829     8.70952E-03     9.63797E-03
             988            1830     10.5280E-03     11.7570E-03
             988            1847     7.61270E-03     9.07008E-03
             988            1848     9.58227E-03     11.2881E-03
             989            1830     10.5280E-03     11.7570E-03
             989            1831     12.5583E-03     13.9443E-03
             989            1848     9.58227E-03     11.2881E-03
             989            1849     11.6980E-03     13.5598E-03
             990            1831     12.5583E-03     13.9443E-03
             990            1832     14.7092E-03     16.1870E-03
             990            1849     11.6980E-03     13.5598E-03
             990            1850     13.8989E-03     15.8476E-03
             991            1832     14.7092E-03     16.1870E-03
             991            1833     16.9335E-03     18.4611E-03
             991            1850     13.8989E-03     15.8476E-03
             991            1851     16.1470E-03     18.1481E-03
             992            1833     16.9335E-03     18.4611E-03
             992            1834     19.2049E-03     20.7621E-03
             992            1851     16.1470E-03     18.1481E-03
             992            1852     18.4241E-03     20.4544E-03
             993            1834     19.2049E-03     20.7621E-03
             993            1835     21.5088E-03     23.0867E-03
             993            1852     18.4241E-03     20.4544E-03
             993            1853     20.7181E-03     22.7636E-03
             994            1835     21.5088E-03     23.0867E-03
             994            1836     23.8357E-03     25.4317E-03
             994            1853     20.7181E-03     22.7636E-03
             994            1854     23.0266E-03     25.0796E-03
             995            1836     23.8357E-03     25.4317E-03
             995            1837     26.1897E-03     27.8019E-03
             995            1854     23.0266E-03     25.0796E-03
             995            1855     25.3472E-03     27.4036E-03
             996            1837     26.1897E-03     27.8019E-03
             996            1838     28.5705E-03     30.2060E-03
             996            1855     25.3472E-03     27.4036E-03
             996            1856     27.6977E-03     29.7524E-03
             997            1838     28.5705E-03     30.2060E-03
             997            1839     31.0062E-03     32.6617E-03
             997            1856     27.6977E-03     29.7524E-03
             997            1857     30.0911E-03     32.1469E-03
             998            1839     31.0062E-03     32.6617E-03
             998            1840     33.5209E-03     35.2105E-03
             998            1857     30.0911E-03     32.1469E-03
             998            1858     32.5938E-03     34.6398E-03
             999            1840     33.5209E-03     35.2105E-03
             999            1841     36.1971E-03     37.8998E-03
             999            1858     32.5938E-03     34.6398E-03
             999            1859     35.2670E-03     37.3124E-03
            1000            1841     36.1971E-03     37.8998E-03
            1000            1842     39.1665E-03     40.8694E-03
            1000            1859     35.2670E-03     37.3124E-03
            1000            1860     38.3080E-03     40.3158E-03
            1001            1842     39.1665E-03     40.8694E-03
            1001            1843     42.6000E-03     44.2348E-03
            1001            1860     38.3080E-03     40.3158E-03
            1001            1861     41.9448E-03     43.9154E-03
            1002            1843     42.6000E-03     44.2348E-03
            1002            1844     47.1404E-03     48.4421E-03
            1002            1861     41.9448E-03     43.9154E-03
            1002            1862     46.6796E-03     48.4948E-03
            1003             357     52.5525E-03     53.5465E-03
            1003             358     54.0069E-03     55.1671E-03
            1003            1844     47.1404E-03     48.4421E-03
            1003            1862     46.6796E-03     48.4948E-03
            1004             438     2.88067E-03     3.34405E-03
            1004             439     4.57648E-03     4.24867E-03
            1004            1845     4.91335E-03     5.07063E-03
            1004            1863     3.32121E-03     4.34051E-03
            1005            1845     4.91335E-03     5.07063E-03
            1005            1846     5.96344E-03     6.93987E-03
            1005            1863     3.32121E-03     4.34051E-03
            1005            1864     4.65855E-03     6.42876E-03
            1006            1846     5.96344E-03     6.93987E-03
            1006            1847     7.61270E-03     9.07008E-03
            1006            1864     4.65855E-03     6.42876E-03
            1006            1865     6.58067E-03     8.66785E-03
            1007            1847     7.61270E-03     9.07008E-03
            1007            1848     9.58227E-03     11.2881E-03
            1007            1865     6.58067E-03     8.66785E-03
            1007            1866     8.68717E-03     10.9661E-03
            1008            1848     9.58227E-03     11.2881E-03
            1008            1849     11.6980E-03     13.5598E-03
            1008            1866     8.68717E-03     10.9661E-03
            1008            1867     10.8810E-03     13.2765E-03
            1009            1849     11.6980E-03     13.5598E-03
            1009            1850     13.8989E-03     15.8476E-03
            1009            1867     10.8810E-03     13.2765E-03
            1009            1868     13.1158E-03     15.5854E-03
            1010            1850     13.8989E-03     15.8476E-03
            1010            1851     16.1470E-03     18.1481E-03
            1010            1868     13.1158E-03     15.5854E-03
            1010            1869     15.3758E-03     17.8861E-03
            1011            1851     16.1470E-03     18.1481E-03
            1011            1852     18.4241E-03     20.4544E-03
            1011            1869     15.3758E-03     17.8861E-03
            1011            1870     17.6474E-03     20.1767E-03
            1012            1852     18.4241E-03     20.4544E-03
            1012            1853     20.7181E-03     22.7636E-03
            1012            1870     17.6474E-03     20.1767E-03
            1012            1871     19.9254E-03     22.4594E-03
            1013            1853     20.7181E-03     22.7636E-03
            1013            1854     23.0266E-03     25.0796E-03
            1013            1871     19.9254E-03     22.4594E-03
            1013            1872     22.2074E-03     24.7335E-03
            1014            1854     23.0266E-03     25.0796E-03
            1014            1855     25.3472E-03     27.4036E-03
            1014            1872     22.2074E-03     24.7335E-03
            1014            1873     24.5003E-03     27.0109E-03
            1015            1855     25.3472E-03     27.4036E-03
            1015            1856     27.6977E-03     29.7524E-03
            1015            1873     24.5003E-03     27.0109E-03
            1015            1874     26.8136E-03     29.2976E-03
            1016            1856     27.6977E-03     29.7524E-03
            1016            1857     30.0911E-03     32.1469E-03
            1016            1874     26.8136E-03     29.2976E-03
            1016            1875     29.1841E-03     31.6323E-03
            1017            1857     30.0911E-03     32.1469E-03
            1017            1858     32.5938E-03     34.6398E-03
            1017            1875     29.1841E-03     31.6323E-03
            1017            1876     31.6480E-03     34.0491E-03
            1018            1858     32.5938E-03     34.6398E-03
            1018            1859     35.2670E-03     37.3124E-03
            1018            1876     31.6480E-03     34.0491E-03
            1018            1877     34.3217E-03     36.6654E-03
            1019            1859     35.2670E-03     37.3124E-03
            1019            1860     38.3080E-03     40.3158E-03
            1019            1877     34.3217E-03     36.6654E-03
            1019            1878     37.3037E-03     39.5960E-03
            1020            1860     38.3080E-03     40.3158E-03
            1020            1861     41.9448E-03     43.9154E-03
            1020            1878     37.3037E-03     39.5960E-03
            1020            1879     40.9507E-03     43.1989E-03
            1021            1861     41.9448E-03     43.9154E-03
            1021            1862     46.6796E-03     48.4948E-03
            1021            1879     40.9507E-03     43.1989E-03
            1021            1880     45.5110E-03     47.8027E-03
            1022             358     54.0069E-03     55.1671E-03
            1022             359     52.4427E-03     54.8619E-03
            1022            1862     46.6796E-03     48.4948E-03
            1022            1880     45.5110E-03     47.8027E-03
            1023             437     9.81900E-03     12.7884E-03
            1023             438     2.88067E-03     3.34405E-03
            1023            1863     3.32121E-03     4.34051E-03
            1023            1881     10.9278E-03     13.0910E-03
            1024            1863     3.32121E-03     4.34051E-03
            1024            1864     4.65855E-03     6.42876E-03
            1024            1881     10.9278E-03     13.0910E-03
            1024            1882     12.9971E-03     14.1435E-03
            1025            1864     4.65855E-03     6.42876E-03
            1025            1865     6.58067E-03     8.66785E-03
            1025            1882     12.9971E-03     14.1435E-03
            1025            1883     15.0258E-03     16.0028E-03
            1026            1865     6.58067E-03     8.66785E-03
            1026            1866     8.68717E-03     10.9661E-03
            1026            1883     15.0258E-03     16.0028E-03
            1026            1884     17.2718E-03     18.3038E-03
            1027            1866     8.68717E-03     10.9661E-03
            1027            1867     10.8810E-03     13.2765E-03
            1027            1884     17.2718E-03     18.3038E-03
            1027            1885     19.6880E-03     20.7641E-03
            1028            1867     10.8810E-03     13.2765E-03
            1028            1868     13.1158E-03     15.5854E-03
            1028            1885     19.6880E-03     20.7641E-03
            1028            1886     22.2413E-03     23.3608E-03
            1029            1868     13.1158E-03     15.5854E-03
            1029            1869     15.3758E-03     17.8861E-03
            1029            1886     22.2413E-03     23.3608E-03
            1029            1887     24.8900E-03     26.0252E-03
            1030            1869     15.3758E-03     17.8861E-03
            1030            1870     17.6474E-03     20.1767E-03
            1030            1887     24.8900E-03     26.0252E-03
            1030            1888     27.6006E-03     28.7335E-03
            1031            1870     17.6474E-03     20.1767E-03
            1031            1871     19.9254E-03     22.4594E-03
            1031            1888     27.6006E-03     28.7335E-03
            1031            1889     30.3436E-03     31.4581E-03
            1032            1871     19.9254E-03     22.4594E-03
            1032            1872     22.2074E-03     24.7335E-03
            1032            1889     30.3436E-03     31.4581E-03
            1032            1890     33.0990E-03     34.1776E-03
            1033            1872     22.2074E-03     24.7335E-03
            1033            1873     24.5003E-03     27.0109E-03
            1033            1890     33.0990E-03     34.1776E-03
            1033            1891     35.8446E-03     36.8770E-03
            1034            1873     24.5003E-03     27.0109E-03
            1034            1874     26.8136E-03     29.2976E-03
            1034            1891     35.8446E-03     36.8770E-03
            1034            1892     38.5739E-03     39.5319E-03
            1035            1874     26.8136E-03     29.2976E-03
            1035            1875     29.1841E-03     31.6323E-03
            1035            1892     38.5739E-03     39.5319E-03
            1035            1893     41.2689E-03     42.1428E-03
            1036            1875     29.1841E-03     31.6323E-03
            1036            1876     31.6480E-03     34.0491E-03
            1036            1893     41.2689E-03     42.1428E-03
            1036            1894     43.9434E-03     44.6828E-03
            1037            1876     31.6480E-03     34.0491E-03
            1037            1877     34.3217E-03     36.6654E-03
            1037            1894     43.9434E-03     44.6828E-03
            1037            1895     46.5847E-03     47.1875E-03
            1038            1877     34.3217E-03     36.6654E-03
            1038            1878     37.3037E-03     39.5960E-03
            1038            1895     46.5847E-03     47.1875E-03
            1038            1896     49.2621E-03     49.6554E-03
            1039            1878     37.3037E-03     39.5960E-03
            1039            1879     40.9507E-03     43.1989E-03
            1039            1896     49.2621E-03     49.6554E-03
            1039            1897     51.9637E-03     52.1967E-03
            1040            1879     40.9507E-03     43.1989E-03
            1040            1880     45.5110E-03     47.8027E-03
            1040            1897     51.9637E-03     52.1967E-03
            1040            1898     54.9440E-03     54.9834E-03
            1041             359     52.4427E-03     54.8619E-03
            1041             360     58.1686E-03     58.2882E-03
            1041            1880     45.5110E-03     47.8027E-03
            1041            1898     54.9440E-03     54.9834E-03
            1042             436     17.9260E-03     21.6367E-03
            1042             437     9.81900E-03     12.7884E-03
            1042            1881     10.9278E-03     13.0910E-03
            1042            1899     18.6113E-03     21.3651E-03
            1043            1881     10.9278E-03     13.0910E-03
            1043            1882     12.9971E-03     14.1435E-03
            1043            1899     18.6113E-03     21.3651E-03
            1043            1900     20.3911E-03     21.4451E-03
            1044            1882     12.9971E-03     14.1435E-03
            1044            1883     15.0258E-03     16.0028E-03
            1044            1900     20.3911E-03     21.4451E-03
            1044            1901     22.7230E-03     22.7953E-03
            1045            1883     15.0258E-03     16.0028E-03
            1045            1884     17.2718E-03     18.3038E-03
            1045            1901     22.7230E-03     22.7953E-03
            1045            1902     25.2853E-03     25.0627E-03
            1046            1884     17.2718E-03     18.3038E-03
            1046            1885     19.6880E-03     20.7641E-03
            1046            1902     25.2853E-03     25.0627E-03
            1046            1903     28.0936E-03     27.7807E-03
            1047            1885     19.6880E-03     20.7641E-03
            1047            1886     22.2413E-03     23.3608E-03
            1047            1903     28.0936E-03     27.7807E-03
            1047            1904     31.1365E-03     30.7903E-03
            1048            1886     22.2413E-03     23.3608E-03
            1048            1887     24.8900E-03     26.0252E-03
            1048            1904     31.1365E-03     30.7903E-03
            1048            1905     34.3372E-03     33.9801E-03
            1049            1887     24.8900E-03     26.0252E-03
            1049            1888     27.6006E-03     28.7335E-03
            1049            1905     34.3372E-03     33.9801E-03
            1049            1906     37.6561E-03     37.2801E-03
            1050            1888     27.6006E-03     28.7335E-03
            1050            1889     30.3436E-03     31.4581E-03
            1050            1906     37.6561E-03     37.2801E-03
            1050            1907     41.0432E-03     40.6394E-03
            1051            1889     30.3436E-03     31.4581E-03
            1051            1890     33.0990E-03     34.1776E-03
            1051            1907     41.0432E-03     40.6394E-03
            1051            1908     44.4599E-03     44.0174E-03
            1052            1890     33.0990E-03     34.1776E-03
            1052            1891     35.8446E-03     36.8770E-03
            1052            1908     44.4599E-03     44.0174E-03
            1052            1909     47.8721E-03     47.3712E-03
            1053            1891     35.8446E-03     36.8770E-03
            1053            1892     38.5739E-03     39.5319E-03
            1053            1909     47.8721E-03     47.3712E-03
            1053            1910     51.2364E-03     50.6655E-03
            1054            1892     38.5739E-03     39.5319E-03
            1054            1893     41.2689E-03     42.1428E-03
            1054            1910     51.2364E-03     50.6655E-03
            1054            1911     54.5134E-03     53.8424E-03
            1055            1893     41.2689E-03     42.1428E-03
            1055            1894     43.9434E-03     44.6828E-03
            1055            1911     54.5134E-03     53.8424E-03
            1055            1912     57.6439E-03     56.8562E-03
            1056            1894     43.9434E-03     44.6828E-03
            1056            1895     46.5847E-03     47.1875E-03
            1056            1912     57.6439E-03     56.8562E-03
            1056            1913     60.5542E-03     59.6178E-03
            1057            1895     46.5847E-03     47.1875E-03
            1057            1896     49.2621E-03     49.6554E-03
            1057            1913     60.5542E-03     59.6178E-03
            1057            1914     63.1544E-03     62.0477E-03
            1058            1896     49.2621E-03     49.6554E-03
            1058            1897     51.9637E-03     52.1967E-03
            1058            1914     63.1544E-03     62.0477E-03
            1058            1915     65.2841E-03     64.0080E-03
            1059            1897     51.9637E-03     52.1967E-03
            1059            1898     54.9440E-03     54.9834E-03
            1059            1915     65.2841E-03     64.0080E-03
            1059            1916     66.7652E-03     65.3333E-03
            1060             360     58.1686E-03     58.2882E-03
            1060             361     67.1056E-03     65.6732E-03
            1060            1898     54.9440E-03     54.9834E-03
            1060            1916     66.7652E-03     65.3333E-03
            1061             435     16.9585E-03     17.6195E-03
            1061             436     17.9260E-03     21.6367E-03
            1061            1899     18.6113E-03     21.3651E-03
            1061            1917     16.9719E-03     18.4254E-03
            1062            1899     18.6113E-03     21.3651E-03
            1062            1900     20.3911E-03     21.4451E-03
            1062            1917     16.9719E-03     18.4254E-03
            1062            1918     18.0003E-03     19.8027E-03
            1063            1900     20.3911E-03     21.4451E-03
            1063            1901     22.7230E-03     22.7953E-03
            1063            1918     18.0003E-03     19.8027E-03
            1063            1919     20.4564E-03     21.3868E-03
            1064            1901     22.7230E-03     22.7953E-03
            1064            1902     25.2853E-03     25.0627E-03
            1064            1919     20.4564E-03     21.3868E-03
            1064            1920     23.4282E-03     23.7873E-03
            1065            1902     25.2853E-03     25.0627E-03
            1065            1903     28.0936E-03     27.7807E-03
            1065            1920     23.4282E-03     23.7873E-03
            1065            1921     26.6169E-03     26.7452E-03
            1066            1903     28.0936E-03     27.7807E-03
            1066            1904     31.1365E-03     30.7903E-03
            1066            1921     26.6169E-03     26.7452E-03
            1066            1922     30.0048E-03     30.0191E-03
            1067            1904     31.1365E-03     30.7903E-03
            1067            1905     34.3372E-03     33.9801E-03
            1067            1922     30.0048E-03     30.0191E-03
            1067            1923     33.5291E-03     33.5005E-03
            1068            1905     34.3372E-03     33.9801E-03
            1068            1906     37.6561E-03     37.2801E-03
            1068            1923     33.5291E-03     33.5005E-03
            1068            1924     37.1610E-03     37.1077E-03
            1069            1906     37.6561E-03     37.2801E-03
            1069            1907     41.0432E-03     40.6394E-03
            1069            1924     37.1610E-03     37.1077E-03
            1069            1925     40.8632E-03     40.7960E-03
            1070            1907     41.0432E-03     40.6394E-03
            1070            1908     44.4599E-03     44.0174E-03
            1070            1925     40.8632E-03     40.7960E-03
            1070            1926     44.6147E-03     44.5275E-03
            1071            1908     44.4599E-03     44.0174E-03
            1071            1909     47.8721E-03     47.3712E-03
            1071            1926     44.6147E-03     44.5275E-03
            1071            1927     48.3805E-03     48.2758E-03
            1072            1909     47.8721E-03     47.3712E-03
            1072            1910     51.2364E-03     50.6655E-03
            1072            1927     48.3805E-03     48.2758E-03
            1072            1928     52.1388E-03     52.0036E-03
            1073            1910     51.2364E-03     50.6655E-03
            1073            1911     54.5134E-03     53.8424E-03
            1073            1928     52.1388E-03     52.0036E-03
            1073            1929     55.8372E-03     55.6811E-03
            1074            1911     54.5134E-03     53.8424E-03
            1074            1912     57.6439E-03     56.8562E-03
            1074            1929     55.8372E-03     55.6811E-03
            1074            1930     59.4282E-03     59.2426E-03
            1075            1912     57.6439E-03     56.8562E-03
            1075            1913     60.5542E-03     59.6178E-03
            1075            1930     59.4282E-03     59.2426E-03
            1075            1931     62.8173E-03     62.6309E-03
            1076            1913     60.5542E-03     59.6178E-03
            1076            1914     63.1544E-03     62.0477E-03
            1076            1931     62.8173E-03     62.6309E-03
            1076            1932     65.8806E-03     65.7210E-03
            1077            1914     63.1544E-03     62.0477E-03
            1077            1915     65.2841E-03     64.0080E-03
            1077            1932     65.8806E-03     65.7210E-03
            1077            1933     68.4432E-03     68.3809E-03
            1078            1915     65.2841E-03     64.0080E-03
            1078            1916     66.7652E-03     65.3333E-03
            1078            1933     68.4432E-03     68.3809E-03
            1078            1934     70.2278E-03     70.3913E-03
            1079             361     67.1056E-03     65.6732E-03
            1079             362     70.9086E-03     71.3412E-03
            1079            1916     66.7652E-03     65.3333E-03
            1079            1934     70.2278E-03     70.3913E-03
            1080             434     14.4415E-03     14.3174E-03
            1080             435     16.9585E-03     17.6195E-03
            1080            1917     16.9719E-03     18.4254E-03
            1080            1935     14.9146E-03     15.3025E-03
            1081            1917     16.9719E-03     18.4254E-03
            1081            1918     18.0003E-03     19.8027E-03
            1081            1935     14.9146E-03     15.3025E-03
            1081            1936     16.2948E-03     17.4909E-03
            1082            1918     18.0003E-03     19.8027E-03
            1082            1919     20.4564E-03     21.3868E-03
            1082            1936     16.2948E-03     17.4909E-03
            1082            1937     18.6643E-03     19.9230E-03
            1083            1919     20.4564E-03     21.3868E-03
            1083            1920     23.4282E-03     23.7873E-03
            1083            1937     18.6643E-03     19.9230E-03
            1083            1938     21.8402E-03     22.6809E-03
            1084            1920     23.4282E-03     23.7873E-03
            1084            1921     26.6169E-03     26.7452E-03
            1084            1938     21.8402E-03     22.6809E-03
            1084            1939     25.3478E-03     25.9181E-03
            1085            1921     26.6169E-03     26.7452E-03
            1085            1922     30.0048E-03     30.0191E-03
            1085            1939     25.3478E-03     25.9181E-03
            1085            1940     29.0266E-03     29.4544E-03
            1086            1922     30.0048E-03     30.0191E-03
            1086            1923     33.5291E-03     33.5005E-03
            1086            1940     29.0266E-03     29.4544E-03
            1086            1941     32.8369E-03     33.1907E-03
            1087            1923     33.5291E-03     33.5005E-03
            1087            1924     37.1610E-03     37.1077E-03
            1087            1941     32.8369E-03     33.1907E-03
            1087            1942     36.7334E-03     37.0592E-03
            1088            1924     37.1610E-03     37.1077E-03
            1088            1925     40.8632E-03     40.7960E-03
            1088            1942     36.7334E-03     37.0592E-03
            1088            1943     40.7046E-03     41.0178E-03
            1089            1925     40.8632E-03     40.7960E-03
            1089            1926     44.6147E-03     44.5275E-03
            1089            1943     40.7046E-03     41.0178E-03
            1089            1944     44.7228E-03     45.0401E-03
            1090            1926     44.6147E-03     44.5275E-03
            1090            1927     48.3805E-03     48.2758E-03
            1090            1944     44.7228E-03     45.0401E-03
            1090            1945     48.7795E-03     49.1021E-03
            1091            1927     48.3805E-03     48.2758E-03
            1091            1928     52.1388E-03     52.0036E-03
            1091            1945     48.7795E-03     49.1021E-03
            1091            1946     52.8384E-03     53.1841E-03
            1092            1928     52.1388E-03     52.0036E-03
            1092            1929     55.8372E-03     55.6811E-03
            1092            1946     52.8384E-03     53.1841E-03
            1092            1947     56.8794E-03     57.2497E-03
            1093            1929     55.8372E-03     55.6811E-03
            1093            1930     59.4282E-03     59.2426E-03
            1093            1947     56.8794E-03     57.2497E-03
            1093            1948     60.8283E-03     61.2609E-03
            1094            1930     59.4282E-03     59.2426E-03
            1094            1931     62.8173E-03     62.6309E-03
            1094            1948     60.8283E-03     61.2609E-03
            1094            1949     64.6133E-03     65.1287E-03
            1095            1931     62.8173E-03     62.6309E-03
            1095            1932     65.8806E-03     65.7210E-03
            1095            1949     64.6133E-03     65.1287E-03
            1095            1950     68.0916E-03     68.7509E-03
            1096            1932     65.8806E-03     65.7210E-03
            1096            1933     68.4432E-03     68.3809E-03
            1096            1950     68.0916E-03     68.7509E-03
            1096            1951     71.0701E-03     71.9494E-03
            1097            1933     68.4432E-03     68.3809E-03
            1097            1934     70.2278E-03     70.3913E-03
            1097            1951     71.0701E-03     71.9494E-03
            1097            1952     73.3683E-03     74.4604E-03
            1098             362     70.9086E-03     71.3412E-03
            1098             363     74.9896E-03     76.2158E-03
            1098            1934     70.2278E-03     70.3913E-03
            1098            1952     73.3683E-03     74.4604E-03
            1099             433     12.2667E-03     12.3774E-03
            1099             434     14.4415E-03     14.3174E-03
            1099            1935     14.9146E-03     15.3025E-03
            1099            1953     12.7946E-03     13.1828E-03
            1100            1935     14.9146E-03     15.3025E-03
            1100            1936     16.2948E-03     17.4909E-03
            1100            1953     12.7946E-03     13.1828E-03
            1100            1954     14.4855E-03     15.3903E-03
            1101            1936     16.2948E-03     17.4909E-03
            1101            1937     18.6643E-03     19.9230E-03
            1101            1954     14.4855E-03     15.3903E-03
            1101            1955     17.1746E-03     18.3861E-03
            1102            1937     18.6643E-03     19.9230E-03
            1102            1938     21.8402E-03     22.6809E-03
            1102            1955     17.1746E-03     18.3861E-03
            1102            1956     20.5052E-03     21.6632E-03
            1103            1938     21.8402E-03     22.6809E-03
            1103            1939     25.3478E-03     25.9181E-03
            1103            1956     20.5052E-03     21.6632E-03
            1103            1957     24.2396E-03     25.1973E-03
            1104            1939     25.3478E-03     25.9181E-03
            1104            1940     29.0266E-03     29.4544E-03
            1104            1957     24.2396E-03     25.1973E-03
            1104            1958     28.1537E-03     28.9850E-03
            1105            1940     29.0266E-03     29.4544E-03
            1105            1941     32.8369E-03     33.1907E-03
            1105            1958     28.1537E-03     28.9850E-03
            1105            1959     32.1768E-03     32.9335E-03
            1106            1941     32.8369E-03     33.1907E-03
            1106            1942     36.7334E-03     37.0592E-03
            1106            1959     32.1768E-03     32.9335E-03
            1106            1960     36.2820E-03     37.0054E-03
            1107            1942     36.7334E-03     37.0592E-03
            1107            1943     40.7046E-03     41.0178E-03
            1107            1960     36.2820E-03     37.0054E-03
            1107            1961     40.4454E-03     41.1658E-03
            1108            1943     40.7046E-03     41.0178E-03
            1108            1944     44.7228E-03     45.0401E-03
            1108            1961     40.4454E-03     41.1658E-03
            1108            1962     44.6642E-03     45.3972E-03
            1109            1944     44.7228E-03     45.0401E-03
            1109            1945     48.7795E-03     49.1021E-03
            1109            1962     44.6642E-03     45.3972E-03
            1109            1963     48.9180E-03     49.6847E-03
            1110            1945     48.7795E-03     49.1021E-03
            1110            1946     52.8384E-03     53.1841E-03
            1110            1963     48.9180E-03     49.6847E-03
            1110            1964     53.2040E-03     54.0151E-03
            1111            1946     52.8384E-03     53.1841E-03
            1111            1947     56.8794E-03     57.2497E-03
            1111            1964     53.2040E-03     54.0151E-03
            1111            1965     57.4805E-03     58.3671E-03
            1112            1947     56.8794E-03     57.2497E-03
            1112            1948     60.8283E-03     61.2609E-03
            1112            1965     57.4805E-03     58.3671E-03
            1112            1966     61.7276E-03     62.7030E-03
            1113            1948     60.8283E-03     61.2609E-03
            1113            1949     64.6133E-03     65.1287E-03
            1113            1966     61.7276E-03     62.7030E-03
            1113            1967     65.8456E-03     66.9610E-03
            1114            1949     64.6133E-03     65.1287E-03
            1114            1950     68.0916E-03     68.7509E-03
            1114            1967     65.8456E-03     66.9610E-03
            1114            1968     69.7394E-03     71.0182E-03
            1115            1950     68.0916E-03     68.7509E-03
            1115            1951     71.0701E-03     71.9494E-03
            1115            1968     69.7394E-03     71.0182E-03
            1115            1969     73.2615E-03     74.7047E-03
            1116            1951     71.0701E-03     71.9494E-03
            1116            1952     73.3683E-03     74.4604E-03
            1116            1969     73.2615E-03     74.7047E-03
            1116            1970     76.2623E-03     77.8449E-03
            1117             363     74.9896E-03     76.2158E-03
            1117             364     79.0247E-03     80.4204E-03
            1117            1952     73.3683E-03     74.4604E-03
            1117            1970     76.2623E-03     77.8449E-03
            1118             432     10.1851E-03     9.81074E-03
            1118             433     12.2667E-03     12.3774E-03
            1118            1953     12.7946E-03     13.1828E-03
            1118            1971     10.8133E-03     11.0205E-03
            1119            1953     12.7946E-03     13.1828E-03
            1119            1954     14.4855E-03     15.3903E-03
            1119            1971     10.8133E-03     11.0205E-03
            1119            1972     12.7426E-03     13.7388E-03
            1120            1954     14.4855E-03     15.3903E-03
            1120            1955     17.1746E-03     18.3861E-03
            1120            1972     12.7426E-03     13.7388E-03
            1120            1973     15.7504E-03     17.0258E-03
            1121            1955     17.1746E-03     18.3861E-03
            1121            1956     20.5052E-03     21.6632E-03
            1121            1973     15.7504E-03     17.0258E-03
            1121            1974     19.3459E-03     20.6950E-03
            1122            1956     20.5052E-03     21.6632E-03
            1122            1957     24.2396E-03     25.1973E-03
            1122            1974     19.3459E-03     20.6950E-03
            1122            1975     23.2459E-03     24.5386E-03
            1123            1957     24.2396E-03     25.1973E-03
            1123            1958     28.1537E-03     28.9850E-03
            1123            1975     23.2459E-03     24.5386E-03
            1123            1976     27.3278E-03     28.5284E-03
            1124            1958     28.1537E-03     28.9850E-03
            1124            1959     32.1768E-03     32.9335E-03
            1124            1976     27.3278E-03     28.5284E-03
            1124            1977     31.5008E-03     32.6482E-03
            1125            1959     32.1768E-03     32.9335E-03
            1125            1960     36.2820E-03     37.0054E-03
            1125            1977     31.5008E-03     32.6482E-03
            1125            1978     35.7377E-03     36.8606E-03
            1126            1960     36.2820E-03     37.0054E-03
            1126            1961     40.4454E-03     41.1658E-03
            1126            1978     35.7377E-03     36.8606E-03
            1126            1979     40.0280E-03     41.1528E-03
            1127            1961     40.4454E-03     41.1658E-03
            1127            1962     44.6642E-03     45.3972E-03
            1127            1979     40.0280E-03     41.1528E-03
            1127            1980     44.3619E-03     45.5109E-03
            1128            1962     44.6642E-03     45.3972E-03
            1128            1963     48.9180E-03     49.6847E-03
            1128            1980     44.3619E-03     45.5109E-03
            1128            1981     48.7420E-03     49.9332E-03
            1129            1963     48.9180E-03     49.6847E-03
            1129            1964     53.2040E-03     54.0151E-03
            1129            1981     48.7420E-03     49.9332E-03
            1129            1982     53.1546E-03     54.4109E-03
            1130            1964     53.2040E-03     54.0151E-03
            1130            1965     57.4805E-03     58.3671E-03
            1130            1982     53.1546E-03     54.4109E-03
            1130            1983     57.6056E-03     58.9438E-03
            1131            1965     57.4805E-03     58.3671E-03
            1131            1966     61.7276E-03     62.7030E-03
            1131            1983     57.6056E-03     58.9438E-03
            1131            1984     62.0533E-03     63.5057E-03
            1132            1966     61.7276E-03     62.7030E-03
            1132            1967     65.8456E-03     66.9610E-03
            1132            1984     62.0533E-03     63.5057E-03
            1132            1985     66.4995E-03     68.0661E-03
            1133            1967     65.8456E-03     66.9610E-03
            1133            1968     69.7394E-03     71.0182E-03
            1133            1985     66.4995E-03     68.0661E-03
            1133            1986     70.8347E-03     72.5430E-03
            1134            1968     69.7394E-03     71.0182E-03
            1134            1969     73.2615E-03     74.7047E-03
            1134            1986     70.8347E-03     72.5430E-03
            1134            1987     74.9865E-03     76.7870E-03
            1135            1969     73.2615E-03     74.7047E-03
            1135            1970     76.2623E-03     77.8449E-03
            1135            1987     74.9865E-03     76.7870E-03
            1135            1988     78.9329E-03     80.6664E-03
            1136             364     79.0247E-03     80.4204E-03
            1136             365     82.6306E-03     84.1650E-03
            1136            1970     76.2623E-03     77.8449E-03
            1136            1988     78.9329E-03     80.6664E-03
            1137             431     7.92539E-03     7.88018E-03
            1137             432     10.1851E-03     9.81074E-03
            1137            1971     10.8133E-03     11.0205E-03
            1137            1989     8.75822E-03     9.15619E-03
            1138            1971     10.8133E-03     11.0205E-03
            1138            1972     12.7426E-03     13.7388E-03
            1138            1989     8.75822E-03     9.15619E-03
            1138            1990     11.1036E-03     12.2216E-03
            1139            1972     12.7426E-03     13.7388E-03
            1139            1973     15.7504E-03     17.0258E-03
            1139            1990     11.1036E-03     12.2216E-03
            1139            1991     14.4442E-03     15.9219E-03
            1140            1973     15.7504E-03     17.0258E-03
            1140            1974     19.3459E-03     20.6950E-03
            1140            1991     14.4442E-03     15.9219E-03
            1140            1992     18.2685E-03     19.8419E-03
            1141            1974     19.3459E-03     20.6950E-03
            1141            1975     23.2459E-03     24.5386E-03
            1141            1992     18.2685E-03     19.8419E-03
            1141            1993     22.3328E-03     23.9090E-03
            1142            1975     23.2459E-03     24.5386E-03
            1142            1976     27.3278E-03     28.5284E-03
            1142            1993     22.3328E-03     23.9090E-03
            1142            1994     26.5168E-03     28.0629E-03
            1143            1976     27.3278E-03     28.5284E-03
            1143            1977     31.5008E-03     32.6482E-03
            1143            1994     26.5168E-03     28.0629E-03
            1143            1995     30.7758E-03     32.2943E-03
            1144            1977     31.5008E-03     32.6482E-03
            1144            1978     35.7377E-03     36.8606E-03
            1144            1995     30.7758E-03     32.2943E-03
            1144            1996     35.0808E-03     36.5915E-03
            1145            1978     35.7377E-03     36.8606E-03
            1145            1979     40.0280E-03     41.1528E-03
            1145            1996     35.0808E-03     36.5915E-03
            1145            1997     39.4259E-03     40.9455E-03
            1146            1979     40.0280E-03     41.1528E-03
            1146            1980     44.3619E-03     45.5109E-03
            1146            1997     39.4259E-03     40.9455E-03
            1146            1998     43.8091E-03     45.3572E-03
            1147            1980     44.3619E-03     45.5109E-03
            1147            1981     48.7420E-03     49.9332E-03
            1147            1998     43.8091E-03     45.3572E-03
            1147            1999     48.2327E-03     49.8249E-03
            1148            1981     48.7420E-03     49.9332E-03
            1148            1982     53.1546E-03     54.4109E-03
            1148            1999     48.2327E-03     49.8249E-03
            1148            2000     52.7059E-03     54.3627E-03
            1149            1982     53.1546E-03     54.4109E-03
            1149            1983     57.6056E-03     58.9438E-03
            1149            2000     52.7059E-03     54.3627E-03
            1149            2001     57.2313E-03     58.9687E-03
            1150            1983     57.6056E-03     58.9438E-03
            1150            1984     62.0533E-03     63.5057E-03
            1150            2001     57.2313E-03     58.9687E-03
            1150            2002     61.8390E-03     63.6693E-03
            1151            1984     62.0533E-03     63.5057E-03
            1151            1985     66.4995E-03     68.0661E-03
            1151            2002     61.8390E-03     63.6693E-03
            1151            2003     66.5108E-03     68.4460E-03
            1152            1985     66.4995E-03     68.0661E-03
            1152            1986     70.8347E-03     72.5430E-03
            1152            2003     66.5108E-03     68.4460E-03
            1152            2004     71.3342E-03     73.3129E-03
            1153            1986     70.8347E-03     72.5430E-03
            1153            1987     74.9865E-03     76.7870E-03
            1153            2004     71.3342E-03     73.3129E-03
            1153            2005     76.2096E-03     78.2183E-03
            1154            1987     74.9865E-03     76.7870E-03
            1154            1988     78.9329E-03     80.6664E-03
            1154            2005     76.2096E-03     78.2183E-03
            1154            2006     81.0911E-03     82.9978E-03
            1155             365     82.6306E-03     84.1650E-03
            1155             366     86.0090E-03     87.5587E-03
            1155            1988     78.9329E-03     80.6664E-03
            1155            2006     81.0911E-03     82.9978E-03
            1156             430     5.78323E-03     5.79344E-03
            1156             431     7.92539E-03     7.88018E-03
            1156            1989     8.75822E-03     9.15619E-03
            1156            2007     6.82073E-03     7.43860E-03
            1157            1989     8.75822E-03     9.15619E-03
            1157            1990     11.1036E-03     12.2216E-03
            1157            2007     6.82073E-03     7.43860E-03
            1157            2008     9.58039E-03     11.0209E-03
            1158            1990     11.1036E-03     12.2216E-03
            1158            1991     14.4442E-03     15.9219E-03
            1158            2008     9.58039E-03     11.0209E-03
            1158            2009     13.2704E-03     15.0085E-03
            1159            1991     14.4442E-03     15.9219E-03
            1159            1992     18.2685E-03     19.8419E-03
            1159            2009     13.2704E-03     15.0085E-03
            1159            2010     17.3012E-03     19.1355E-03
            1160            1992     18.2685E-03     19.8419E-03
            1160            1993     22.3328E-03     23.9090E-03
            1160            2010     17.3012E-03     19.1355E-03
            1160            2011     21.4733E-03     23.3347E-03
            1161            1993     22.3328E-03     23.9090E-03
            1161            1994     26.5168E-03     28.0629E-03
            1161            2011     21.4733E-03     23.3347E-03
            1161            2012     25.7151E-03     27.5936E-03
            1162            1994     26.5168E-03     28.0629E-03
            1162            1995     30.7758E-03     32.2943E-03
            1162            2012     25.7151E-03     27.5936E-03
            1162            2013     29.9999E-03     31.8820E-03
            1163            1995     30.7758E-03     32.2943E-03
            1163            1996     35.0808E-03     36.5915E-03
            1163            2013     29.9999E-03     31.8820E-03
            1163            2014     34.3174E-03     36.2060E-03
            1164            1996     35.0808E-03     36.5915E-03
            1164            1997     39.4259E-03     40.9455E-03
            1164            2014     34.3174E-03     36.2060E-03
            1164            2015     38.6585E-03     40.5637E-03
            1165            1997     39.4259E-03     40.9455E-03
            1165            1998     43.8091E-03     45.3572E-03
            1165            2015     38.6585E-03     40.5637E-03
            1165            2016     43.0301E-03     44.9585E-03
            1166            1998     43.8091E-03     45.3572E-03
            1166            1999     48.2327E-03     49.8249E-03
            1166            2016     43.0301E-03     44.9585E-03
            1166            2017     47.4354E-03     49.4034E-03
            1167            1999     48.2327E-03     49.8249E-03
            1167            2000     52.7059E-03     54.3627E-03
            1167            2017     47.4354E-03     49.4034E-03
            1167            2018     51.8943E-03     53.9079E-03
            1168            2000     52.7059E-03     54.3627E-03
            1168            2001     57.2313E-03     58.9687E-03
            1168            2018     51.8943E-03     53.9079E-03
            1168            2019     56.4297E-03     58.5095E-03
            1169            2001     57.2313E-03     58.9687E-03
            1169            2002     61.8390E-03     63.6693E-03
            1169            2019     56.4297E-03     58.5095E-03
            1169            2020     61.0829E-03     63.2266E-03
            1170            2002     61.8390E-03     63.6693E-03
            1170            2003     66.5108E-03     68.4460E-03
            1170            2020     61.0829E-03     63.2266E-03
            1170            2021     65.9406E-03     68.1430E-03
            1171            2003     66.5108E-03     68.4460E-03
            1171            2004     71.3342E-03     73.3129E-03
            1171            2021     65.9406E-03     68.1430E-03
            1171            2022     71.0500E-03     73.2878E-03
            1172            2004     71.3342E-03     73.3129E-03
            1172            2005     76.2096E-03     78.2183E-03
            1172            2022     71.0500E-03     73.2878E-03
            1172            2023     76.7071E-03     78.8100E-03
            1173            2005     76.2096E-03     78.2183E-03
            1173            2006     81.0911E-03     82.9978E-03
            1173            2023     76.7071E-03     78.8100E-03
            1173            2024     82.7250E-03     84.7036E-03
            1174             366     86.0090E-03     87.5587E-03
            1174             367     88.8726E-03     90.7007E-03
            1174            2006     81.0911E-03     82.9978E-03
            1174            2024     82.7250E-03     84.7036E-03
            1175             429     3.54126E-03     4.15681E-03
            1175             430     5.78323E-03     5.79344E-03
            1175            2007     6.82073E-03     7.43860E-03
            1175            2025     4.93439E-03     6.15065E-03
            1176            2007     6.82073E-03     7.43860E-03
            1176            2008     9.58039E-03     11.0209E-03
            1176            2025     4.93439E-03     6.15065E-03
            1176            2026     8.28707E-03     10.1950E-03
            1177            2008     9.58039E-03     11.0209E-03
            1177            2009     13.2704E-03     15.0085E-03
            1177            2026     8.28707E-03     10.1950E-03
            1177            2027     12.3185E-03     14.3376E-03
            1178            2009     13.2704E-03     15.0085E-03
            1178            2010     17.3012E-03     19.1355E-03
            1178            2027     12.3185E-03     14.3376E-03
            1178            2028     16.4836E-03     18.5821E-03
            1179            2010     17.3012E-03     19.1355E-03
            1179            2011     21.4733E-03     23.3347E-03
            1179            2028     16.4836E-03     18.5821E-03
            1179            2029     20.6915E-03     22.8724E-03
            1180            2011     21.4733E-03     23.3347E-03
            1180            2012     25.7151E-03     27.5936E-03
            1180            2029     20.6915E-03     22.8724E-03
            1180            2030     24.9362E-03     27.1580E-03
            1181            2012     25.7151E-03     27.5936E-03
            1181            2013     29.9999E-03     31.8820E-03
            1181            2030     24.9362E-03     27.1580E-03
            1181            2031     29.2017E-03     31.4541E-03
            1182            2013     29.9999E-03     31.8820E-03
            1182            2014     34.3174E-03     36.2060E-03
            1182            2031     29.2017E-03     31.4541E-03
            1182            2032     33.4799E-03     35.7519E-03
            1183            2014     34.3174E-03     36.2060E-03
            1183            2015     38.6585E-03     40.5637E-03
            1183            2032     33.4799E-03     35.7519E-03
            1183            2033     37.7749E-03     40.0607E-03
            1184            2015     38.6585E-03     40.5637E-03
            1184            2016     43.0301E-03     44.9585E-03
            1184            2033     37.7749E-03     40.0607E-03
            1184            2034     42.0838E-03     44.3872E-03
            1185            2016     43.0301E-03     44.9585E-03
            1185            2017     47.4354E-03     49.4034E-03
            1185            2034     42.0838E-03     44.3872E-03
            1185            2035     46.4258E-03     48.7436E-03
            1186            2017     47.4354E-03     49.4034E-03
            1186            2018     51.8943E-03     53.9079E-03
            1186            2035     46.4258E-03     48.7436E-03
            1186            2036     50.8108E-03     53.1561E-03
            1187            2018     51.8943E-03     53.9079E-03
            1187            2019     56.4297E-03     58.5095E-03
            1187            2036     50.8108E-03     53.1561E-03
            1187            2037     55.2892E-03     57.6546E-03
            1188            2019     56.4297E-03     58.5095E-03
            1188            2020     61.0829E-03     63.2266E-03
            1188            2037     55.2892E-03     57.6546E-03
            1188            2038     59.9068E-03     62.3116E-03
            1189            2020     61.0829E-03     63.2266E-03
            1189            2021     65.9406E-03     68.1430E-03
            1189            2038     59.9068E-03     62.3116E-03
            1189            2039     64.7821E-03     67.1979E-03
            1190            2021     65.9406E-03     68.1430E-03
            1190            2022     71.0500E-03     73.2878E-03
            1190            2039     64.7821E-03     67.1979E-03
            1190            2040     70.0888E-03     72.5023E-03
            1191            2022     71.0500E-03     73.2878E-03
            1191            2023     76.7071E-03     78.8100E-03
            1191            2040     70.0888E-03     72.5023E-03
            1191            2041     76.0155E-03     78.3622E-03
            1192            2023     76.7071E-03     78.8100E-03
            1192            2024     82.7250E-03     84.7036E-03
            1192            2041     76.0155E-03     78.3622E-03
            1192            2042     83.2994E-03     85.2540E-03
            1193             367     88.8726E-03     90.7007E-03
            1193             368     91.4083E-03     93.0440E-03
            1193            2024     82.7250E-03     84.7036E-03
            1193            2042     83.2994E-03     85.2540E-03
            1194             428     1.63995E-03     3.86206E-03
            1194             429     3.54126E-03     4.15681E-03
            1194            2025     4.93439E-03     6.15065E-03
            1194            2043     3.55291E-03     5.76710E-03
            1195            2025     4.93439E-03     6.15065E-03
            1195            2026     8.28707E-03     10.1950E-03
            1195            2043     3.55291E-03     5.76710E-03
            1195            2044     7.56048E-03     9.73796E-03
            1196            2026     8.28707E-03     10.1950E-03
            1196            2027     12.3185E-03     14.3376E-03
            1196            2044     7.56048E-03     9.73796E-03
            1196            2045     11.7181E-03     13.9725E-03
            1197            2027     12.3185E-03     14.3376E-03
            1197            2028     16.4836E-03     18.5821E-03
            1197            2045     11.7181E-03     13.9725E-03
            1197            2046     15.8645E-03     18.2821E-03
            1198            2028     16.4836E-03     18.5821E-03
            1198            2029     20.6915E-03     22.8724E-03
            1198            2046     15.8645E-03     18.2821E-03
            1198            2047     20.0401E-03     22.5643E-03
            1199            2029     20.6915E-03     22.8724E-03
            1199            2030     24.9362E-03     27.1580E-03
            1199            2047     20.0401E-03     22.5643E-03
            1199            2048     24.2285E-03     26.8311E-03
            1200            2030     24.9362E-03     27.1580E-03
            1200            2031     29.2017E-03     31.4541E-03
            1200            2048     24.2285E-03     26.8311E-03
            1200            2049     28.4261E-03     31.0736E-03
            1201            2031     29.2017E-03     31.4541E-03
            1201            2032     33.4799E-03     35.7519E-03
            1201            2049     28.4261E-03     31.0736E-03
            1201            2050     32.6310E-03     35.3027E-03
            1202            2032     33.4799E-03     35.7519E-03
            1202            2033     37.7749E-03     40.0607E-03
            1202            2050     32.6310E-03     35.3027E-03
            1202            2051     36.8384E-03     39.5199E-03
            1203            2033     37.7749E-03     40.0607E-03
            1203            2034     42.0838E-03     44.3872E-03
            1203            2051     36.8384E-03     39.5199E-03
            1203            2052     41.0593E-03     43.7368E-03
            1204            2034     42.0838E-03     44.3872E-03
            1204            2035     46.4258E-03     48.7436E-03
            1204            2052     41.0593E-03     43.7368E-03
            1204            2053     45.2956E-03     47.9652E-03
            1205            2035     46.4258E-03     48.7436E-03
            1205            2036     50.8108E-03     53.1561E-03
            1205            2053     45.2956E-03     47.9652E-03
            1205            2054     49.5826E-03     52.2318E-03
            1206            2036     50.8108E-03     53.1561E-03
            1206            2037     55.2892E-03     57.6546E-03
            1206            2054     49.5826E-03     52.2318E-03
            1206            2055     53.9415E-03     56.5755E-03
            1207            2037     55.2892E-03     57.6546E-03
            1207            2038     59.9068E-03     62.3116E-03
            1207            2055     53.9415E-03     56.5755E-03
            1207            2056     58.4678E-03     61.0675E-03
            1208            2038     59.9068E-03     62.3116E-03
            1208            2039     64.7821E-03     67.1979E-03
            1208            2056     58.4678E-03     61.0675E-03
            1208            2057     63.2349E-03     65.8201E-03
            1209            2039     64.7821E-03     67.1979E-03
            1209            2040     70.0888E-03     72.5023E-03
            1209            2057     63.2349E-03     65.8201E-03
            1209            2058     68.4879E-03     71.0171E-03
            1210            2040     70.0888E-03     72.5023E-03
            1210            2041     76.0155E-03     78.3622E-03
            1210            2058     68.4879E-03     71.0171E-03
            1210            2059     74.4808E-03     76.9793E-03
            1211            2041     76.0155E-03     78.3622E-03
            1211            2042     83.2994E-03     85.2540E-03
            1211            2059     74.4808E-03     76.9793E-03
            1211            2060     81.7689E-03     84.1269E-03
            1212             368     91.4083E-03     93.0440E-03
            1212             369     92.0807E-03     93.6887E-03
            1212            2042     83.2994E-03     85.2540E-03
            1212            2060     81.7689E-03     84.1269E-03
            1213             427     1.98469E-03     4.37892E-03
            1213             428     1.63995E-03     3.86206E-03
            1213            2043     3.55291E-03     5.76710E-03
            1213            2061     3.89269E-03     6.05138E-03
            1214            2043     3.55291E-03     5.76710E-03
            1214            2044     7.56048E-03     9.73796E-03
            1214            2061     3.89269E-03     6.05138E-03
            1214            2062     7.68701E-03     9.83080E-03
            1215            2044     7.56048E-03     9.73796E-03
            1215            2045     11.7181E-03     13.9725E-03
            1215            2062     7.68701E-03     9.83080E-03
            1215            2063     11.5575E-03     14.0626E-03
            1216            2045     11.7181E-03     13.9725E-03
            1216            2046     15.8645E-03     18.2821E-03
            1216            2063     11.5575E-03     14.0626E-03
            1216            2064     15.5494E-03     18.2995E-03
            1217            2046     15.8645E-03     18.2821E-03
            1217            2047     20.0401E-03     22.5643E-03
            1217            2064     15.5494E-03     18.2995E-03
            1217            2065     19.5888E-03     22.5064E-03
            1218            2047     20.0401E-03     22.5643E-03
            1218            2048     24.2285E-03     26.8311E-03
            1218            2065     19.5888E-03     22.5064E-03
            1218            2066     23.6609E-03     26.6811E-03
            1219            2048     24.2285E-03     26.8311E-03
            1219            2049     28.4261E-03     31.0736E-03
            1219            2066     23.6609E-03     26.6811E-03
            1219            2067     27.7472E-03     30.8259E-03
            1220            2049     28.4261E-03     31.0736E-03
            1220            2050     32.6310E-03     35.3027E-03
            1220            2067     27.7472E-03     30.8259E-03
            1220            2068     31.8400E-03     34.9419E-03
            1221            2050     32.6310E-03     35.3027E-03
            1221            2051     36.8384E-03     39.5199E-03
            1221            2068     31.8400E-03     34.9419E-03
            1221            2069     35.9385E-03     39.0376E-03
            1222            2051     36.8384E-03     39.5199E-03
            1222            2052     41.0593E-03     43.7368E-03
            1222            2069     35.9385E-03     39.0376E-03
            1222            2070     40.0404E-03     43.1159E-03
            1223            2052     41.0593E-03     43.7368E-03
            1223            2053     45.2956E-03     47.9652E-03
            1223            2070     40.0404E-03     43.1159E-03
            1223            2071     44.1643E-03     47.1956E-03
            1224            2053     45.2956E-03     47.9652E-03
            1224            2054     49.5826E-03     52.2318E-03
            1224            2071     44.1643E-03     47.1956E-03
            1224            2072     48.3211E-03     51.2904E-03
            1225            2054     49.5826E-03     52.2318E-03
            1225            2055     53.9415E-03     56.5755E-03
            1225            2072     48.3211E-03     51.2904E-03
            1225            2073     52.5664E-03     55.4520E-03
            1226            2055     53.9415E-03     56.5755E-03
            1226            2056     58.4678E-03     61.0675E-03
            1226            2073     52.5664E-03     55.4520E-03
            1226            2074     56.9392E-03     59.7255E-03
            1227            2056     58.4678E-03     61.0675E-03
            1227            2057     63.2349E-03     65.8201E-03
            1227            2074     56.9392E-03     59.7255E-03
            1227            2075     61.5872E-03     64.2565E-03
            1228            2057     63.2349E-03     65.8201E-03
            1228            2058     68.4879E-03     71.0171E-03
            1228            2075     61.5872E-03     64.2565E-03
            1228            2076     66.6066E-03     69.1720E-03
            1229            2058     68.4879E-03     71.0171E-03
            1229            2059     74.4808E-03     76.9793E-03
            1229            2076     66.6066E-03     69.1720E-03
            1229            2077     72.4214E-03     74.8987E-03
            1230            2059     74.4808E-03     76.9793E-03
            1230            2060     81.7689E-03     84.1269E-03
            1230            2077     72.4214E-03     74.8987E-03
            1230            2078     79.2644E-03     81.7780E-03
            1231             369     92.0807E-03     93.6887E-03
            1231             370     88.8744E-03     91.5526E-03
            1231            2060     81.7689E-03     84.1269E-03
            1231            2078     79.2644E-03     81.7780E-03
            1232             426     12.9012E-03     16.6439E-03
            1232             427     1.98469E-03     4.37892E-03
            1232            2061     3.89269E-03     6.05138E-03
            1232            2079     14.7728E-03     17.3037E-03
            1233            2061     3.89269E-03     6.05138E-03
            1233            2062     7.68701E-03     9.83080E-03
            1233            2079     14.7728E-03     17.3037E-03
            1233            2080     18.2535E-03     19.4239E-03
            1234            2062     7.68701E-03     9.83080E-03
            1234            2063     11.5575E-03     14.0626E-03
            1234            2080     18.2535E-03     19.4239E-03
            1234            2081     21.6558E-03     22.7991E-03
            1235            2063     11.5575E-03     14.0626E-03
            1235            2064     15.5494E-03     18.2995E-03
            1235            2081     21.6558E-03     22.7991E-03
            1235            2082     25.4156E-03     26.7629E-03
            1236            2064     15.5494E-03     18.2995E-03
            1236            2065     19.5888E-03     22.5064E-03
            1236            2082     25.4156E-03     26.7629E-03
            1236            2083     29.4473E-03     30.9459E-03
            1237            2065     19.5888E-03     22.5064E-03
            1237            2066     23.6609E-03     26.6811E-03
            1237            2083     29.4473E-03     30.9459E-03
            1237            2084     33.6812E-03     35.2911E-03
            1238            2066     23.6609E-03     26.6811E-03
            1238            2067     27.7472E-03     30.8259E-03
            1238            2084     33.6812E-03     35.2911E-03
            1238            2085     38.0493E-03     39.7176E-03
            1239            2067     27.7472E-03     30.8259E-03
            1239            2068     31.8400E-03     34.9419E-03
            1239            2085     38.0493E-03     39.7176E-03
            1239            2086     42.5046E-03     44.1885E-03
            1240            2068     31.8400E-03     34.9419E-03
            1240            2069     35.9385E-03     39.0376E-03
            1240            2086     42.5046E-03     44.1885E-03
            1240            2087     47.0028E-03     48.6730E-03
            1241            2069     35.9385E-03     39.0376E-03
            1241            2070     40.0404E-03     43.1159E-03
            1241            2087     47.0028E-03     48.6730E-03
            1241            2088     51.5251E-03     53.1453E-03
            1242            2070     40.0404E-03     43.1159E-03
            1242            2071     44.1643E-03     47.1956E-03
            1242            2088     51.5251E-03     53.1453E-03
            1242            2089     56.0391E-03     57.5906E-03
            1243            2071     44.1643E-03     47.1956E-03
            1243            2072     48.3211E-03     51.2904E-03
            1243            2089     56.0391E-03     57.5906E-03
            1243            2090     60.5499E-03     61.9833E-03
            1244            2072     48.3211E-03     51.2904E-03
            1244            2073     52.5664E-03     55.4520E-03
            1244            2090     60.5499E-03     61.9833E-03
            1244            2091     65.0290E-03     66.3300E-03
            1245            2073     52.5664E-03     55.4520E-03
            1245            2074     56.9392E-03     59.7255E-03
            1245            2091     65.0290E-03     66.3300E-03
            1245            2092     69.5158E-03     70.6044E-03
            1246            2074     56.9392E-03     59.7255E-03
            1246            2075     61.5872E-03     64.2565E-03
            1246            2092     69.5158E-03     70.6044E-03
            1246            2093     73.9792E-03     74.8593E-03
            1247            2075     61.5872E-03     64.2565E-03
            1247            2076     66.6066E-03     69.1720E-03
            1247            2093     73.9792E-03     74.8593E-03
            1247            2094     78.5402E-03     79.1028E-03
            1248            2076     66.6066E-03     69.1720E-03
            1248            2077     72.4214E-03     74.8987E-03
            1248            2094     78.5402E-03     79.1028E-03
            1248            2095     83.1546E-03     83.4822E-03
            1249            2077     72.4214E-03     74.8987E-03
            1249            2078     79.2644E-03     81.7780E-03
            1249            2095     83.1546E-03     83.4822E-03
            1249            2096     88.2011E-03     88.2478E-03
            1250             370     88.8744E-03     91.5526E-03
            1250             371     93.6266E-03     93.7696E-03
            1250            2078     79.2644E-03     81.7780E-03
            1250            2096     88.2011E-03     88.2478E-03
            1251             425     22.5269E-03     27.4583E-03
            1251             426     12.9012E-03     16.6439E-03
            1251            2079     14.7728E-03     17.3037E-03
            1251            2097     23.6004E-03     27.2523E-03
            1252            2079     14.7728E-03     17.3037E-03
            1252            2080     18.2535E-03     19.4239E-03
            1252            2097     23.6004E-03     27.2523E-03
            1252            2098     26.3615E-03     27.8531E-03
            1253            2080     18.2535E-03     19.4239E-03
            1253            2081     21.6558E-03     22.7991E-03
            1253            2098     26.3615E-03     27.8531E-03
            1253            2099     29.9915E-03     30.3724E-03
            1254            2081     21.6558E-03     22.7991E-03
            1254            2082     25.4156E-03     26.7629E-03
            1254            2099     29.9915E-03     30.3724E-03
            1254            2100     34.0303E-03     34.1669E-03
            1255            2082     25.4156E-03     26.7629E-03
            1255            2083     29.4473E-03     30.9459E-03
            1255            2100     34.0303E-03     34.1669E-03
            1255            2101     38.4438E-03     38.5662E-03
            1256            2083     29.4473E-03     30.9459E-03
            1256            2084     33.6812E-03     35.2911E-03
            1256            2101     38.4438E-03     38.5662E-03
            1256            2102     43.1850E-03     43.3360E-03
            1257            2084     33.6812E-03     35.2911E-03
            1257            2085     38.0493E-03     39.7176E-03
            1257            2102     43.1850E-03     43.3360E-03
            1257            2103     48.1393E-03     48.3223E-03
            1258            2085     38.0493E-03     39.7176E-03
            1258            2086     42.5046E-03     44.1885E-03
            1258            2103     48.1393E-03     48.3223E-03
            1258            2104     53.2460E-03     53.4357E-03
            1259            2086     42.5046E-03     44.1885E-03
            1259            2087     47.0028E-03     48.6730E-03
            1259            2104     53.2460E-03     53.4357E-03
            1259            2105     58.4407E-03     58.6133E-03
            1260            2087     47.0028E-03     48.6730E-03
            1260            2088     51.5251E-03     53.1453E-03
            1260            2105     58.4407E-03     58.6133E-03
            1260            2106     63.6738E-03     63.8075E-03
            1261            2088     51.5251E-03     53.1453E-03
            1261            2089     56.0391E-03     57.5906E-03
            1261            2106     63.6738E-03     63.8075E-03
            1261            2107     68.9083E-03     68.9706E-03
            1262            2089     56.0391E-03     57.5906E-03
            1262            2090     60.5499E-03     61.9833E-03
            1262            2107     68.9083E-03     68.9706E-03
            1262            2108     74.0939E-03     74.0651E-03
            1263            2090     60.5499E-03     61.9833E-03
            1263            2091     65.0290E-03     66.3300E-03
            1263            2108     74.0939E-03     74.0651E-03
            1263            2109     79.1964E-03     79.0322E-03
            1264            2091     65.0290E-03     66.3300E-03
            1264            2092     69.5158E-03     70.6044E-03
            1264            2109     79.1964E-03     79.0322E-03
            1264            2110     84.1521E-03     83.8279E-03
            1265            2092     69.5158E-03     70.6044E-03
            1265            2093     73.9792E-03     74.8593E-03
            1265            2110     84.1521E-03     83.8279E-03
            1265            2111     88.9042E-03     88.3752E-03
            1266            2093     73.9792E-03     74.8593E-03
            1266            2094     78.5402E-03     79.1028E-03
            1266            2111     88.9042E-03     88.3752E-03
            1266            2112     93.3609E-03     92.6027E-03
            1267            2094     78.5402E-03     79.1028E-03
            1267            2095     83.1546E-03     83.4822E-03
            1267            2112     93.3609E-03     92.6027E-03
            1267            2113     97.4199E-03     96.4326E-03
            1268            2095     83.1546E-03     83.4822E-03
            1268            2096     88.2011E-03     88.2478E-03
            1268            2113     97.4199E-03     96.4326E-03
            1268            2114     100.898E-03     99.7208E-03
            1269             371     93.6266E-03     93.7696E-03
            1269             372     103.580E-03     102.403E-03
            1269            2096     88.2011E-03     88.2478E-03
            1269            2114     100.898E-03     99.7208E-03
            1270             424     20.7530E-03     21.9705E-03
            1270             425     22.5269E-03     27.4583E-03
            1270            2097     23.6004E-03     27.2523E-03
            1270            2115     20.9805E-03     23.2263E-03
            1271            2097     23.6004E-03     27.2523E-03
            1271            2098     26.3615E-03     27.8531E-03
            1271            2115     20.9805E-03     23.2263E-03
            1271            2116     22.9103E-03     25.5655E-03
            1272            2098     26.3615E-03     27.8531E-03
            1272            2099     29.9915E-03     30.3724E-03
            1272            2116     22.9103E-03     25.5655E-03
            1272            2117     26.8880E-03     28.4224E-03
            1273            2099     29.9915E-03     30.3724E-03
            1273            2100     34.0303E-03     34.1669E-03
            1273            2117     26.8880E-03     28.4224E-03
            1273            2118     31.5763E-03     32.4587E-03
            1274            2100     34.0303E-03     34.1669E-03
            1274            2101     38.4438E-03     38.5662E-03
            1274            2118     31.5763E-03     32.4587E-03
            1274            2119     36.5661E-03     37.2170E-03
            1275            2101     38.4438E-03     38.5662E-03
            1275            2102     43.1850E-03     43.3360E-03
            1275            2119     36.5661E-03     37.2170E-03
            1275            2120     41.8092E-03     42.3646E-03
            1276            2102     43.1850E-03     43.3360E-03
            1276            2103     48.1393E-03     48.3223E-03
            1276            2120     41.8092E-03     42.3646E-03
            1276            2121     47.2194E-03     47.7521E-03
            1277            2103     48.1393E-03     48.3223E-03
            1277            2104     53.2460E-03     53.4357E-03
            1277            2121     47.2194E-03     47.7521E-03
            1277            2122     52.7579E-03     53.2798E-03
            1278            2104     53.2460E-03     53.4357E-03
            1278            2105     58.4407E-03     58.6133E-03
            1278            2122     52.7579E-03     53.2798E-03
            1278            2123     58.3772E-03     58.8950E-03
            1279            2105     58.4407E-03     58.6133E-03
            1279            2106     63.6738E-03     63.8075E-03
            1279            2123     58.3772E-03     58.8950E-03
            1279            2124     64.0554E-03     64.5552E-03
            1280            2106     63.6738E-03     63.8075E-03
            1280            2107     68.9083E-03     68.9706E-03
            1280            2124     64.0554E-03     64.5552E-03
            1280            2125     69.7515E-03     70.2344E-03
            1281            2107     68.9083E-03     68.9706E-03
            1281            2108     74.0939E-03     74.0651E-03
            1281            2125     69.7515E-03     70.2344E-03
            1281            2126     75.4488E-03     75.8943E-03
            1282            2108     74.0939E-03     74.0651E-03
            1282            2109     79.1964E-03     79.0322E-03
            1282            2126     75.4488E-03     75.8943E-03
            1282            2127     81.0902E-03     81.5111E-03
            1283            2109     79.1964E-03     79.0322E-03
            1283            2110     84.1521E-03     83.8279E-03
            1283            2127     81.0902E-03     81.5111E-03
            1283            2128     86.6411E-03     87.0214E-03
            1284            2110     84.1521E-03     83.8279E-03
            1284            2111     88.9042E-03     88.3752E-03
            1284            2128     86.6411E-03     87.0214E-03
            1284            2129     92.0061E-03     92.3860E-03
            1285            2111     88.9042E-03     88.3752E-03
            1285            2112     93.3609E-03     92.6027E-03
            1285            2129     92.0061E-03     92.3860E-03
            1285            2130     97.0896E-03     97.4923E-03
            1286            2112     93.3609E-03     92.6027E-03
            1286            2113     97.4199E-03     96.4326E-03
            1286            2130     97.0896E-03     97.4923E-03
            1286            2131     101.740E-03     102.256E-03
            1287            2113     97.4199E-03     96.4326E-03
            1287            2114     100.898E-03     99.7208E-03
            1287            2131     101.740E-03     102.256E-03
            1287            2132     105.733E-03     106.488E-03
            1288             372     103.580E-03     102.403E-03
            1288             373     108.990E-03     109.902E-03
            1288            2114     100.898E-03     99.7208E-03
            1288            2132     105.733E-03     106.488E-03
            1289             423     17.0757E-03     17.3058E-03
            1289             424     20.7530E-03     21.9705E-03
            1289            2115     20.9805E-03     23.2263E-03
            1289            2133     17.9263E-03     18.9223E-03
            1290            2115     20.9805E-03     23.2263E-03
            1290            2116     22.9103E-03     25.5655E-03
            1290            2133     17.9263E-03     18.9223E-03
            1290            2134     20.4076E-03     22.5040E-03
            1291            2116     22.9103E-03     25.5655E-03
            1291            2117     26.8880E-03     28.4224E-03
            1291            2134     20.4076E-03     22.5040E-03
            1291            2135     24.4384E-03     26.5263E-03
            1292            2117     26.8880E-03     28.4224E-03
            1292            2118     31.5763E-03     32.4587E-03
            1292            2135     24.4384E-03     26.5263E-03
            1292            2136     29.5294E-03     31.0531E-03
            1293            2118     31.5763E-03     32.4587E-03
            1293            2119     36.5661E-03     37.2170E-03
            1293            2136     29.5294E-03     31.0531E-03
            1293            2137     35.0034E-03     36.2006E-03
            1294            2119     36.5661E-03     37.2170E-03
            1294            2120     41.8092E-03     42.3646E-03
            1294            2137     35.0034E-03     36.2006E-03
            1294            2138     40.6690E-03     41.6989E-03
            1295            2120     41.8092E-03     42.3646E-03
            1295            2121     47.2194E-03     47.7521E-03
            1295            2138     40.6690E-03     41.6989E-03
            1295            2139     46.4755E-03     47.4261E-03
            1296            2121     47.2194E-03     47.7521E-03
            1296            2122     52.7579E-03     53.2798E-03
            1296            2139     46.4755E-03     47.4261E-03
            1296            2140     52.3724E-03     53.2970E-03
            1297            2122     52.7579E-03     53.2798E-03
            1297            2123     58.3772E-03     58.8950E-03
            1297            2140     52.3724E-03     53.2970E-03
            1297            2141     58.3506E-03     59.2664E-03
            1298            2123     58.3772E-03     58.8950E-03
            1298            2124     64.0554E-03     64.5552E-03
            1298            2141     58.3506E-03     59.2664E-03
            1298            2142     64.3793E-03     65.3073E-03
            1299            2124     64.0554E-03     64.5552E-03
            1299            2125     69.7515E-03     70.2344E-03
            1299            2142     64.3793E-03     65.3073E-03
            1299            2143     70.4559E-03     71.3960E-03
            1300            2125     69.7515E-03     70.2344E-03
            1300            2126     75.4488E-03     75.8943E-03
            1300            2143     70.4559E-03     71.3960E-03
            1300            2144     76.5419E-03     77.5189E-03
            1301            2126     75.4488E-03     75.8943E-03
            1301            2127     81.0902E-03     81.5111E-03
            1301            2144     76.5419E-03     77.5189E-03
            1301            2145     82.6275E-03     83.6412E-03
            1302            2127     81.0902E-03     81.5111E-03
            1302            2128     86.6411E-03     87.0214E-03
            1302            2145     82.6275E-03     83.6412E-03
            1302            2146     88.6392E-03     89.7398E-03
            1303            2128     86.6411E-03     87.0214E-03
            1303            2129     92.0061E-03     92.3860E-03
            1303            2146     88.6392E-03     89.7398E-03
            1303            2147     94.5191E-03     95.7259E-03
            1304            2129     92.0061E-03     92.3860E-03
            1304            2130     97.0896E-03     97.4923E-03
            1304            2147     94.5191E-03     95.7259E-03
            1304            2148     100.144E-03     101.526E-03
            1305            2130     97.0896E-03     97.4923E-03
            1305            2131     101.740E-03     102.256E-03
            1305            2148     100.144E-03     101.526E-03
            1305            2149     105.317E-03     106.953E-03
            1306            2131     101.740E-03     102.256E-03
            1306            2132     105.733E-03     106.488E-03
            1306            2149     105.317E-03     106.953E-03
            1306            2150     109.967E-03     111.773E-03
            1307             373     108.990E-03     109.902E-03
            1307             374     113.840E-03     115.751E-03
            1307            2132     105.733E-03     106.488E-03
            1307            2150     109.967E-03     111.773E-03
            1308             422     13.8410E-03     14.5066E-03
            1308             423     17.0757E-03     17.3058E-03
            1308            2133     17.9263E-03     18.9223E-03
            1308            2151     14.8540E-03     15.9604E-03
            1309            2133     17.9263E-03     18.9223E-03
            1309            2134     20.4076E-03     22.5040E-03
            1309            2151     14.8540E-03     15.9604E-03
            1309            2152     17.9094E-03     19.7410E-03
            1310            2134     20.4076E-03     22.5040E-03
            1310            2135     24.4384E-03     26.5263E-03
            1310            2152     17.9094E-03     19.7410E-03
            1310            2153     22.4814E-03     24.6236E-03
            1311            2135     24.4384E-03     26.5263E-03
            1311            2136     29.5294E-03     31.0531E-03
            1311            2153     22.4814E-03     24.6236E-03
            1311            2154     27.8669E-03     29.8406E-03
            1312            2136     29.5294E-03     31.0531E-03
            1312            2137     35.0034E-03     36.2006E-03
            1312            2154     27.8669E-03     29.8406E-03
            1312            2155     33.6971E-03     35.3671E-03
            1313            2137     35.0034E-03     36.2006E-03
            1313            2138     40.6690E-03     41.6989E-03
            1313            2155     33.6971E-03     35.3671E-03
            1313            2156     39.6934E-03     41.1876E-03
            1314            2138     40.6690E-03     41.6989E-03
            1314            2139     46.4755E-03     47.4261E-03
            1314            2156     39.6934E-03     41.1876E-03
            1314            2157     45.7908E-03     47.1819E-03
            1315            2139     46.4755E-03     47.4261E-03
            1315            2140     52.3724E-03     53.2970E-03
            1315            2157     45.7908E-03     47.1819E-03
            1315            2158     51.9655E-03     53.3127E-03
            1316            2140     52.3724E-03     53.2970E-03
            1316            2141     58.3506E-03     59.2664E-03
            1316            2158     51.9655E-03     53.3127E-03
            1316            2159     58.1961E-03     59.5415E-03
            1317            2141     58.3506E-03     59.2664E-03
            1317            2142     64.3793E-03     65.3073E-03
            1317            2159     58.1961E-03     59.5415E-03
            1317            2160     64.4869E-03     65.8524E-03
            1318            2142     64.3793E-03     65.3073E-03
            1318            2143     70.4559E-03     71.3960E-03
            1318            2160     64.4869E-03     65.8524E-03
            1318            2161     70.8191E-03     72.2351E-03
            1319            2143     70.4559E-03     71.3960E-03
            1319            2144     76.5419E-03     77.5189E-03
            1319            2161     70.8191E-03     72.2351E-03
            1319            2162     77.1986E-03     78.6796E-03
            1320            2144     76.5419E-03     77.5189E-03
            1320            2145     82.6275E-03     83.6412E-03
            1320            2162     77.1986E-03     78.6796E-03
            1320            2163     83.5865E-03     85.1752E-03
            1321            2145     82.6275E-03     83.6412E-03
            1321            2146     88.6392E-03     89.7398E-03
            1321            2163     83.5865E-03     85.1752E-03
            1321            2164     89.9742E-03     91.6862E-03
            1322            2146     88.6392E-03     89.7398E-03
            1322            2147     94.5191E-03     95.7259E-03
            1322            2164     89.9742E-03     91.6862E-03
            1322            2165     96.2726E-03     98.1666E-03
            1323            2147     94.5191E-03     95.7259E-03
            1323            2148     100.144E-03     101.526E-03
            1323            2165     96.2726E-03     98.1666E-03
            1323            2166     102.381E-03     104.482E-03
            1324            2148     100.144E-03     101.526E-03
            1324            2149     105.317E-03     106.953E-03
            1324            2166     102.381E-03     104.482E-03
            1324            2167     108.188E-03     110.454E-03
            1325            2149     105.317E-03     106.953E-03
            1325            2150     109.967E-03     111.773E-03
            1325            2167     108.188E-03     110.454E-03
            1325            2168     113.424E-03     115.833E-03
            1326             374     113.840E-03     115.751E-03
            1326             375     118.215E-03     120.382E-03
            1326            2150     109.967E-03     111.773E-03
            1326            2168     113.424E-03     115.833E-03
            1327             421     10.7829E-03     10.8988E-03
            1327             422     13.8410E-03     14.5066E-03
            1327            2151     14.8540E-03     15.9604E-03
            1327            2169     12.0379E-03     13.0324E-03
            1328            2151     14.8540E-03     15.9604E-03
            1328            2152     17.9094E-03     19.7410E-03
            1328            2169     12.0379E-03     13.0324E-03
            1328            2170     15.6125E-03     17.6797E-03
            1329            2152     17.9094E-03     19.7410E-03
            1329            2153     22.4814E-03     24.6236E-03
            1329            2170     15.6125E-03     17.6797E-03
            1329            2171     20.7367E-03     23.0082E-03
            1330            2153     22.4814E-03     24.6236E-03
            1330            2154     27.8669E-03     29.8406E-03
            1330            2171     20.7367E-03     23.0082E-03
            1330            2172     26.5180E-03     28.7466E-03
            1331            2154     27.8669E-03     29.8406E-03
            1331            2155     33.6971E-03     35.3671E-03
            1331            2172     26.5180E-03     28.7466E-03
            1331            2173     32.5840E-03     34.6528E-03
            1332            2155     33.6971E-03     35.3671E-03
            1332            2156     39.6934E-03     41.1876E-03
            1332            2173     32.5840E-03     34.6528E-03
            1332            2174     38.8079E-03     40.7099E-03
            1333            2156     39.6934E-03     41.1876E-03
            1333            2157     45.7908E-03     47.1819E-03
            1333            2174     38.8079E-03     40.7099E-03
            1333            2175     45.0996E-03     46.9089E-03
            1334            2157     45.7908E-03     47.1819E-03
            1334            2158     51.9655E-03     53.3127E-03
            1334            2175     45.0996E-03     46.9089E-03
            1334            2176     51.4422E-03     53.2087E-03
            1335            2158     51.9655E-03     53.3127E-03
            1335            2159     58.1961E-03     59.5415E-03
            1335            2176     51.4422E-03     53.2087E-03
            1335            2177     57.8336E-03     59.5990E-03
            1336            2159     58.1961E-03     59.5415E-03
            1336            2160     64.4869E-03     65.8524E-03
            1336            2177     57.8336E-03     59.5990E-03
            1336            2178     64.2701E-03     66.0686E-03
            1337            2160     64.4869E-03     65.8524E-03
            1337            2161     70.8191E-03     72.2351E-03
            1337            2178     64.2701E-03     66.0686E-03
            1337            2179     70.7614E-03     72.6202E-03
            1338            2161     70.8191E-03     72.2351E-03
            1338            2162     77.1986E-03     78.6796E-03
            1338            2179     70.7614E-03     72.6202E-03
            1338            2180     77.2998E-03     79.2519E-03
            1339            2162     77.1986E-03     78.6796E-03
            1339            2163     83.5865E-03     85.1752E-03
            1339            2180     77.2998E-03     79.2519E-03
            1339            2181     83.8999E-03     85.9695E-03
            1340            2163     83.5865E-03     85.1752E-03
            1340            2164     89.9742E-03     91.6862E-03
            1340            2181     83.8999E-03     85.9695E-03
            1340            2182     90.5284E-03     92.7566E-03
            1341            2164     89.9742E-03     91.6862E-03
            1341            2165     96.2726E-03     98.1666E-03
            1341            2182     90.5284E-03     92.7566E-03
            1341            2183     97.1946E-03     99.5827E-03
            1342            2165     96.2726E-03     98.1666E-03
            1342            2166     102.381E-03     104.482E-03
            1342            2183     97.1946E-03     99.5827E-03
            1342            2184     103.796E-03     106.360E-03
            1343            2166     102.381E-03     104.482E-03
            1343            2167     108.188E-03     110.454E-03
            1343            2184     103.796E-03     106.360E-03
            1343            2185     110.214E-03     112.892E-03
            1344            2167     108.188E-03     110.454E-03
            1344            2168     113.424E-03     115.833E-03
            1344            2185     110.214E-03     112.892E-03
            1344            2186     116.345E-03     118.924E-03
            1345             375     118.215E-03     120.382E-03
            1345             376     121.988E-03     124.262E-03
            1345            2168     113.424E-03     115.833E-03
            1345            2186     116.345E-03     118.924E-03
            1346             420     7.50527E-03     8.31667E-03
            1346             421     10.7829E-03     10.8988E-03
            1346            2169     12.0379E-03     13.0324E-03
            1346            2187     9.22000E-03     10.6850E-03
            1347            2169     12.0379E-03     13.0324E-03
            1347            2170     15.6125E-03     17.6797E-03
            1347            2187     9.22000E-03     10.6850E-03
            1347            2188     13.6220E-03     15.9440E-03
            1348            2170     15.6125E-03     17.6797E-03
            1348            2171     20.7367E-03     23.0082E-03
            1348            2188     13.6220E-03     15.9440E-03
            1348            2189     19.2848E-03     21.8129E-03
            1349            2171     20.7367E-03     23.0082E-03
            1349            2172     26.5180E-03     28.7466E-03
            1349            2189     19.2848E-03     21.8129E-03
            1349            2190     25.3684E-03     27.8478E-03
            1350            2172     26.5180E-03     28.7466E-03
            1350            2173     32.5840E-03     34.6528E-03
            1350            2190     25.3684E-03     27.8478E-03
            1350            2191     31.6319E-03     33.9995E-03
            1351            2173     32.5840E-03     34.6528E-03
            1351            2174     38.8079E-03     40.7099E-03
            1351            2191     31.6319E-03     33.9995E-03
            1351            2192     37.9726E-03     40.2318E-03
            1352            2174     38.8079E-03     40.7099E-03
            1352            2175     45.0996E-03     46.9089E-03
            1352            2192     37.9726E-03     40.2318E-03
            1352            2193     44.3585E-03     46.5477E-03
            1353            2175     45.0996E-03     46.9089E-03
            1353            2176     51.4422E-03     53.2087E-03
            1353            2193     44.3585E-03     46.5477E-03
            1353            2194     50.7740E-03     52.9353E-03
            1354            2176     51.4422E-03     53.2087E-03
            1354            2177     57.8336E-03     59.5990E-03
            1354            2194     50.7740E-03     52.9353E-03
            1354            2195     57.2232E-03     59.3890E-03
            1355            2177     57.8336E-03     59.5990E-03
            1355            2178     64.2701E-03     66.0686E-03
            1355            2195     57.2232E-03     59.3890E-03
            1355            2196     63.7109E-03     65.9132E-03
            1356            2178     64.2701E-03     66.0686E-03
            1356            2179     70.7614E-03     72.6202E-03
            1356            2196     63.7109E-03     65.9132E-03
            1356            2197     70.2473E-03     72.5108E-03
            1357            2179     70.7614E-03     72.6202E-03
            1357            2180     77.2998E-03     79.2519E-03
            1357            2197     70.2473E-03     72.5108E-03
            1357            2198     76.8473E-03     79.2032E-03
            1358            2180     77.2998E-03     79.2519E-03
            1358            2181     83.8999E-03     85.9695E-03
            1358            2198     76.8473E-03     79.2032E-03
            1358            2199     83.5229E-03     85.9946E-03
            1359            2181     83.8999E-03     85.9695E-03
            1359            2182     90.5284E-03     92.7566E-03
            1359            2199     83.5229E-03     85.9946E-03
            1359            2200     90.3128E-03     92.9211E-03
            1360            2182     90.5284E-03     92.7566E-03
            1360            2183     97.1946E-03     99.5827E-03
            1360            2200     90.3128E-03     92.9211E-03
            1360            2201     97.2058E-03     99.9642E-03
            1361            2183     97.1946E-03     99.5827E-03
            1361            2184     103.796E-03     106.360E-03
            1361            2201     97.2058E-03     99.9642E-03
            1361            2202     104.297E-03     107.132E-03
            1362            2184     103.796E-03     106.360E-03
            1362            2185     110.214E-03     112.892E-03
            1362            2202     104.297E-03     107.132E-03
            1362            2203     111.438E-03     114.325E-03
            1363            2185     110.214E-03     112.892E-03
            1363            2186     116.345E-03     118.924E-03
            1363            2203     111.438E-03     114.325E-03
            1363            2204     118.503E-03     121.256E-03
            1364             376     121.988E-03     124.262E-03
            1364             377     125.370E-03     127.658E-03
            1364            2186     116.345E-03     118.924E-03
            1364            2204     118.503E-03     121.256E-03
            1365             419     4.45590E-03     6.04423E-03
            1365             420     7.50527E-03     8.31667E-03
            1365            2187     9.22000E-03     10.6850E-03
            1365            2205     6.78162E-03     8.88727E-03
            1366            2187     9.22000E-03     10.6850E-03
            1366            2188     13.6220E-03     15.9440E-03
            1366            2205     6.78162E-03     8.88727E-03
            1366            2206     12.0774E-03     14.8066E-03
            1367            2188     13.6220E-03     15.9440E-03
            1367            2189     19.2848E-03     21.8129E-03
            1367            2206     12.0774E-03     14.8066E-03
            1367            2207     18.1689E-03     20.9826E-03
            1368            2189     19.2848E-03     21.8129E-03
            1368            2190     25.3684E-03     27.8478E-03
            1368            2207     18.1689E-03     20.9826E-03
            1368            2208     24.4633E-03     27.1801E-03
            1369            2190     25.3684E-03     27.8478E-03
            1369            2191     31.6319E-03     33.9995E-03
            1369            2208     24.4633E-03     27.1801E-03
            1369            2209     30.8173E-03     33.4360E-03
            1370            2191     31.6319E-03     33.9995E-03
            1370            2192     37.9726E-03     40.2318E-03
            1370            2209     30.8173E-03     33.4360E-03
            1370            2210     37.1839E-03     39.7588E-03
            1371            2192     37.9726E-03     40.2318E-03
            1371            2193     44.3585E-03     46.5477E-03
            1371            2210     37.1839E-03     39.7588E-03
            1371            2211     43.5666E-03     46.1089E-03
            1372            2193     44.3585E-03     46.5477E-03
            1372            2194     50.7740E-03     52.9353E-03
            1372            2211     43.5666E-03     46.1089E-03
            1372            2212     49.9676E-03     52.5005E-03
            1373            2194     50.7740E-03     52.9353E-03
            1373            2195     57.2232E-03     59.3890E-03
            1373            2212     49.9676E-03     52.5005E-03
            1373            2213     56.3849E-03     58.9316E-03
            1374            2195     57.2232E-03     59.3890E-03
            1374            2196     63.7109E-03     65.9132E-03
            1374            2213     56.3849E-03     58.9316E-03
            1374            2214     62.8345E-03     65.4090E-03
            1375            2196     63.7109E-03     65.9132E-03
            1375            2197     70.2473E-03     72.5108E-03
            1375            2214     62.8345E-03     65.4090E-03
            1375            2215     69.3226E-03     71.9512E-03
            1376            2197     70.2473E-03     72.5108E-03
            1376            2198     76.8473E-03     79.2032E-03
            1376            2215     69.3226E-03     71.9512E-03
            1376            2216     75.8785E-03     78.5715E-03
            1377            2198     76.8473E-03     79.2032E-03
            1377            2199     83.5229E-03     85.9946E-03
            1377            2216     75.8785E-03     78.5715E-03
            1377            2217     82.5286E-03     85.3184E-03
            1378            2199     83.5229E-03     85.9946E-03
            1378            2200     90.3128E-03     92.9211E-03
            1378            2217     82.5286E-03     85.3184E-03
            1378            2218     89.3258E-03     92.2124E-03
            1379            2200     90.3128E-03     92.9211E-03
            1379            2201     97.2058E-03     99.9642E-03
            1379            2218     89.3258E-03     92.2124E-03
            1379            2219     96.3676E-03     99.3533E-03
            1380            2201     97.2058E-03     99.9642E-03
            1380            2202     104.297E-03     107.132E-03
            1380            2219     96.3676E-03     99.3533E-03
            1380            2220     103.695E-03     106.757E-03
            1381            2202     104.297E-03     107.132E-03
            1381            2203     111.438E-03     114.325E-03
            1381            2220     103.695E-03     106.757E-03
            1381            2221     111.638E-03     114.565E-03
            1382            2203     111.438E-03     114.325E-03
            1382            2204     118.503E-03     121.256E-03
            1382            2221     111.638E-03     114.565E-03
            1382            2222     119.889E-03     122.694E-03
            1383             377     125.370E-03     127.658E-03
            1383             378     128.072E-03     130.670E-03
            1383            2204     118.503E-03     121.256E-03
            1383            2222     119.889E-03     122.694E-03
            1384             418     2.56093E-03     4.96292E-03
            1384             419     4.45590E-03     6.04423E-03
            1384            2205     6.78162E-03     8.88727E-03
            1384            2223     5.30959E-03     8.20026E-03
            1385            2205     6.78162E-03     8.88727E-03
            1385            2206     12.0774E-03     14.8066E-03
            1385            2223     5.30959E-03     8.20026E-03
            1385            2224     11.2048E-03     14.4663E-03
            1386            2206     12.0774E-03     14.8066E-03
            1386            2207     18.1689E-03     20.9826E-03
            1386            2224     11.2048E-03     14.4663E-03
            1386            2225     17.5430E-03     20.5433E-03
            1387            2207     18.1689E-03     20.9826E-03
            1387            2208     24.4633E-03     27.1801E-03
            1387            2225     17.5430E-03     20.5433E-03
            1387            2226     23.8811E-03     26.7499E-03
            1388            2208     24.4633E-03     27.1801E-03
            1388            2209     30.8173E-03     33.4360E-03
            1388            2226     23.8811E-03     26.7499E-03
            1388            2227     30.1719E-03     33.0470E-03
            1389            2209     30.8173E-03     33.4360E-03
            1389            2210     37.1839E-03     39.7588E-03
            1389            2227     30.1719E-03     33.0470E-03
            1389            2228     36.4666E-03     39.3422E-03
            1390            2210     37.1839E-03     39.7588E-03
            1390            2211     43.5666E-03     46.1089E-03
            1390            2228     36.4666E-03     39.3422E-03
            1390            2229     42.7647E-03     45.6547E-03
            1391            2211     43.5666E-03     46.1089E-03
            1391            2212     49.9676E-03     52.5005E-03
            1391            2229     42.7647E-03     45.6547E-03
            1391            2230     49.0659E-03     51.9691E-03
            1392            2212     49.9676E-03     52.5005E-03
            1392            2213     56.3849E-03     58.9316E-03
            1392            2230     49.0659E-03     51.9691E-03
            1392            2231     55.3825E-03     58.2972E-03
            1393            2213     56.3849E-03     58.9316E-03
            1393            2214     62.8345E-03     65.4090E-03
            1393            2231     55.3825E-03     58.2972E-03
            1393            2232     61.7120E-03     64.6475E-03
            1394            2214     62.8345E-03     65.4090E-03
            1394            2215     69.3226E-03     71.9512E-03
            1394            2232     61.7120E-03     64.6475E-03
            1394            2233     68.0811E-03     71.0343E-03
            1395            2215     69.3226E-03     71.9512E-03
            1395            2216     75.8785E-03     78.5715E-03
            1395            2233     68.0811E-03     71.0343E-03
            1395            2234     74.4991E-03     77.4906E-03
            1396            2216     75.8785E-03     78.5715E-03
            1396            2217     82.5286E-03     85.3184E-03
            1396            2234     74.4991E-03     77.4906E-03
            1396            2235     81.0272E-03     84.0483E-03
            1397            2217     82.5286E-03     85.3184E-03
            1397            2218     89.3258E-03     92.2124E-03
            1397            2235     81.0272E-03     84.0483E-03
            1397            2236     87.7127E-03     90.7954E-03
            1398            2218     89.3258E-03     92.2124E-03
            1398            2219     96.3676E-03     99.3533E-03
            1398            2236     87.7127E-03     90.7954E-03
            1398            2237     94.6881E-03     97.8026E-03
            1399            2219     96.3676E-03     99.3533E-03
            1399            2220     103.695E-03     106.757E-03
            1399            2237     94.6881E-03     97.8026E-03
            1399            2238     102.146E-03     105.287E-03
            1400            2220     103.695E-03     106.757E-03
            1400            2221     111.638E-03     114.565E-03
            1400            2238     102.146E-03     105.287E-03
            1400            2239     110.270E-03     113.375E-03
            1401            2221     111.638E-03     114.565E-03
            1401            2222     119.889E-03     122.694E-03
            1401            2239     110.270E-03     113.375E-03
            1401            2240     119.903E-03     122.571E-03
            1402             378     128.072E-03     130.670E-03
            1402             379     130.272E-03     132.590E-03
            1402            2222     119.889E-03     122.694E-03
            1402            2240     119.903E-03     122.571E-03
            1403             417     3.56588E-03     6.95028E-03
            1403             418     2.56093E-03     4.96292E-03
            1403            2223     5.30959E-03     8.20026E-03
            1403            2241     5.96587E-03     9.45996E-03
            1404            2223     5.30959E-03     8.20026E-03
            1404            2224     11.2048E-03     14.4663E-03
            1404            2241     5.96587E-03     9.45996E-03
            1404            2242     11.4693E-03     14.7238E-03
            1405            2224     11.2048E-03     14.4663E-03
            1405            2225     17.5430E-03     20.5433E-03
            1405            2242     11.4693E-03     14.7238E-03
            1405            2243     17.6029E-03     20.5480E-03
            1406            2225     17.5430E-03     20.5433E-03
            1406            2226     23.8811E-03     26.7499E-03
            1406            2243     17.6029E-03     20.5480E-03
            1406            2244     23.6752E-03     26.7046E-03
            1407            2226     23.8811E-03     26.7499E-03
            1407            2227     30.1719E-03     33.0470E-03
            1407            2244     23.6752E-03     26.7046E-03
            1407            2245     29.7732E-03     32.8966E-03
            1408            2227     30.1719E-03     33.0470E-03
            1408            2228     36.4666E-03     39.3422E-03
            1408            2245     29.7732E-03     32.8966E-03
            1408            2246     35.8887E-03     39.0964E-03
            1409            2228     36.4666E-03     39.3422E-03
            1409            2229     42.7647E-03     45.6547E-03
            1409            2246     35.8887E-03     39.0964E-03
            1409            2247     42.0172E-03     45.2779E-03
            1410            2229     42.7647E-03     45.6547E-03
            1410            2230     49.0659E-03     51.9691E-03
            1410            2247     42.0172E-03     45.2779E-03
            1410            2248     48.1581E-03     51.4471E-03
            1411            2230     49.0659E-03     51.9691E-03
            1411            2231     55.3825E-03     58.2972E-03
            1411            2248     48.1581E-03     51.4471E-03
            1411            2249     54.3023E-03     57.6030E-03
            1412            2231     55.3825E-03     58.2972E-03
            1412            2232     61.7120E-03     64.6475E-03
            1412            2249     54.3023E-03     57.6030E-03
            1412            2250     60.4639E-03     63.7565E-03
            1413            2232     61.7120E-03     64.6475E-03
            1413            2233     68.0811E-03     71.0343E-03
            1413            2250     60.4639E-03     63.7565E-03
            1413            2251     66.6407E-03     69.9212E-03
            1414            2233     68.0811E-03     71.0343E-03
            1414            2234     74.4991E-03     77.4906E-03
            1414            2251     66.6407E-03     69.9212E-03
            1414            2252     72.8750E-03     76.1237E-03
            1415            2234     74.4991E-03     77.4906E-03
            1415            2235     81.0272E-03     84.0483E-03
            1415            2252     72.8750E-03     76.1237E-03
            1415            2253     79.1837E-03     82.4100E-03
            1416            2235     81.0272E-03     84.0483E-03
            1416            2236     87.7127E-03     90.7954E-03
            1416            2253     79.1837E-03     82.4100E-03
            1416            2254     85.6762E-03     88.8537E-03
            1417            2236     87.7127E-03     90.7954E-03
            1417            2237     94.6881E-03     97.8026E-03
            1417            2254     85.6762E-03     88.8537E-03
            1417            2255     92.4245E-03     95.5849E-03
            1418            2237     94.6881E-03     97.8026E-03
            1418            2238     102.146E-03     105.287E-03
            1418            2255     92.4245E-03     95.5849E-03
            1418            2256     99.7023E-03     102.800E-03
            1419            2238     102.146E-03     105.287E-03
            1419            2239     110.270E-03     113.375E-03
            1419            2256     99.7023E-03     102.800E-03
            1419            2257     107.785E-03     110.864E-03
            1420            2239     110.270E-03     113.375E-03
            1420            2240     119.903E-03     122.571E-03
            1420            2257     107.785E-03     110.864E-03
            1420            2258     117.280E-03     120.231E-03
            1421             379     130.272E-03     132.590E-03
            1421             380     130.173E-03     132.261E-03
            1421            2240     119.903E-03     122.571E-03
            1421            2258     117.280E-03     120.231E-03
            1422             416     6.41285E-03     9.73522E-03
            1422             417     3.56588E-03     6.95028E-03
            1422            2241     5.96587E-03     9.45996E-03
            1422            2259     8.48464E-03     11.3058E-03
            1423            2241     5.96587E-03     9.45996E-03
            1423            2242     11.4693E-03     14.7238E-03
            1423            2259     8.48464E-03     11.3058E-03
            1423            2260     13.0867E-03     15.5646E-03
            1424            2242     11.4693E-03     14.7238E-03
            1424            2243     17.6029E-03     20.5480E-03
            1424            2260     13.0867E-03     15.5646E-03
            1424            2261     18.3729E-03     21.1998E-03
            1425            2243     17.6029E-03     20.5480E-03
            1425            2244     23.6752E-03     26.7046E-03
            1425            2261     18.3729E-03     21.1998E-03
            1425            2262     23.9652E-03     27.1384E-03
            1426            2244     23.6752E-03     26.7046E-03
            1426            2245     29.7732E-03     32.8966E-03
            1426            2262     23.9652E-03     27.1384E-03
            1426            2263     29.7067E-03     33.1322E-03
            1427            2245     29.7732E-03     32.8966E-03
            1427            2246     35.8887E-03     39.0964E-03
            1427            2263     29.7067E-03     33.1322E-03
            1427            2264     35.5454E-03     39.1299E-03
            1428            2246     35.8887E-03     39.0964E-03
            1428            2247     42.0172E-03     45.2779E-03
            1428            2264     35.5454E-03     39.1299E-03
            1428            2265     41.4327E-03     45.1093E-03
            1429            2247     42.0172E-03     45.2779E-03
            1429            2248     48.1581E-03     51.4471E-03
            1429            2265     41.4327E-03     45.1093E-03
            1429            2266     47.3464E-03     51.0625E-03
            1430            2248     48.1581E-03     51.4471E-03
            1430            2249     54.3023E-03     57.6030E-03
            1430            2266     47.3464E-03     51.0625E-03
            1430            2267     53.2762E-03     56.9920E-03
            1431            2249     54.3023E-03     57.6030E-03
            1431            2250     60.4639E-03     63.7565E-03
            1431            2267     53.2762E-03     56.9920E-03
            1431            2268     59.2120E-03     62.8970E-03
            1432            2250     60.4639E-03     63.7565E-03
            1432            2251     66.6407E-03     69.9212E-03
            1432            2268     59.2120E-03     62.8970E-03
            1432            2269     65.1715E-03     68.7934E-03
            1433            2251     66.6407E-03     69.9212E-03
            1433            2252     72.8750E-03     76.1237E-03
            1433            2269     65.1715E-03     68.7934E-03
            1433            2270     71.1601E-03     74.6935E-03
            1434            2252     72.8750E-03     76.1237E-03
            1434            2253     79.1837E-03     82.4100E-03
            1434            2270     71.1601E-03     74.6935E-03
            1434            2271     77.2394E-03     80.6492E-03
            1435            2253     79.1837E-03     82.4100E-03
            1435            2254     85.6762E-03     88.8537E-03
            1435            2271     77.2394E-03     80.6492E-03
            1435            2272     83.4442E-03     86.7070E-03
            1436            2254     85.6762E-03     88.8537E-03
            1436            2255     92.4245E-03     95.5849E-03
            1436            2272     83.4442E-03     86.7070E-03
            1436            2273     89.9392E-03     93.0248E-03
            1437            2255     92.4245E-03     95.5849E-03
            1437            2256     99.7023E-03     102.800E-03
            1437            2273     89.9392E-03     93.0248E-03
            1437            2274     96.8180E-03     99.7372E-03
            1438            2256     99.7023E-03     102.800E-03
            1438            2257     107.785E-03     110.864E-03
            1438            2274     96.8180E-03     99.7372E-03
            1438            2275     104.563E-03     107.331E-03
            1439            2257     107.785E-03     110.864E-03
            1439            2258     117.280E-03     120.231E-03
            1439            2275     104.563E-03     107.331E-03
            1439            2276     113.401E-03     116.171E-03
            1440             380     130.173E-03     132.261E-03
            1440             381     125.354E-03     128.297E-03
            1440            2258     117.280E-03     120.231E-03
            1440            2276     113.401E-03     116.171E-03
            1441             415     14.9848E-03     19.0178E-03
            1441             416     6.41285E-03     9.73522E-03
            1441            2259     8.48464E-03     11.3058E-03
            1441            2277     17.3255E-03     19.9096E-03
            1442            2259     8.48464E-03     11.3058E-03
            1442            2260     13.0867E-03     15.5646E-03
            1442            2277     17.3255E-03     19.9096E-03
            1442            2278     21.8831E-03     23.0000E-03
            1443            2260     13.0867E-03     15.5646E-03
            1443            2261     18.3729E-03     21.1998E-03
            1443            2278     21.8831E-03     23.0000E-03
            1443            2279     26.7181E-03     28.0276E-03
            1444            2261     18.3729E-03     21.1998E-03
            1444            2262     23.9652E-03     27.1384E-03
            1444            2279     26.7181E-03     28.0276E-03
            1444            2280     32.1928E-03     33.8552E-03
            1445            2262     23.9652E-03     27.1384E-03
            1445            2263     29.7067E-03     33.1322E-03
            1445            2280     32.1928E-03     33.8552E-03
            1445            2281     38.0795E-03     39.9621E-03
            1446            2263     29.7067E-03     33.1322E-03
            1446            2264     35.5454E-03     39.1299E-03
            1446            2281     38.0795E-03     39.9621E-03
            1446            2282     44.2343E-03     46.2414E-03
            1447            2264     35.5454E-03     39.1299E-03
            1447            2265     41.4327E-03     45.1093E-03
            1447            2282     44.2343E-03     46.2414E-03
            1447            2283     50.5412E-03     52.6130E-03
            1448            2265     41.4327E-03     45.1093E-03
            1448            2266     47.3464E-03     51.0625E-03
            1448            2283     50.5412E-03     52.6130E-03
            1448            2284     56.9402E-03     59.0210E-03
            1449            2266     47.3464E-03     51.0625E-03
            1449            2267     53.2762E-03     56.9920E-03
            1449            2284     56.9402E-03     59.0210E-03
            1449            2285     63.3747E-03     65.4516E-03
            1450            2267     53.2762E-03     56.9920E-03
            1450            2268     59.2120E-03     62.8970E-03
            1450            2285     63.3747E-03     65.4516E-03
            1450            2286     69.8286E-03     71.8594E-03
            1451            2268     59.2120E-03     62.8970E-03
            1451            2269     65.1715E-03     68.7934E-03
            1451            2286     69.8286E-03     71.8594E-03
            1451            2287     76.2639E-03     78.2504E-03
            1452            2269     65.1715E-03     68.7934E-03
            1452            2270     71.1601E-03     74.6935E-03
            1452            2287     76.2639E-03     78.2504E-03
            1452            2288     82.6989E-03     84.5777E-03
            1453            2270     71.1601E-03     74.6935E-03
            1453            2271     77.2394E-03     80.6492E-03
            1453            2288     82.6989E-03     84.5777E-03
            1453            2289     89.0925E-03     90.8627E-03
            1454            2271     77.2394E-03     80.6492E-03
            1454            2272     83.4442E-03     86.7070E-03
            1454            2289     89.0925E-03     90.8627E-03
            1454            2290     95.5130E-03     97.0650E-03
            1455            2272     83.4442E-03     86.7070E-03
            1455            2273     89.9392E-03     93.0248E-03
            1455            2290     95.5130E-03     97.0650E-03
            1455            2291     101.886E-03     103.221E-03
            1456            2273     89.9392E-03     93.0248E-03
            1456            2274     96.8180E-03     99.7372E-03
            1456            2291     101.886E-03     103.221E-03
            1456            2292     108.399E-03     109.347E-03
            1457            2274     96.8180E-03     99.7372E-03
            1457            2275     104.563E-03     107.331E-03
            1457            2292     108.399E-03     109.347E-03
            1457            2293     114.894E-03     115.546E-03
            1458            2275     104.563E-03     107.331E-03
            1458            2276     113.401E-03     116.171E-03
            1458            2293     114.894E-03     115.546E-03
            1458            2294     121.918E-03     122.142E-03
            1459             381     125.354E-03     128.297E-03
            1459             382     129.254E-03     129.561E-03
            1459            2276     113.401E-03     116.171E-03
            1459            2294     121.918E-03     122.142E-03
            1460             414     21.1027E-03     26.1074E-03
            1460             415     14.9848E-03     19.0178E-03
            1460            2277     17.3255E-03     19.9096E-03
            1460            2295     22.8010E-03     26.3487E-03
            1461            2277     17.3255E-03     19.9096E-03
            1461            2278     21.8831E-03     23.0000E-03
            1461            2295     22.8010E-03     26.3487E-03
            1461            2296     27.0260E-03     28.4170E-03
            1462            2278     21.8831E-03     23.0000E-03
            1462            2279     26.7181E-03     28.0276E-03
            1462            2296     27.0260E-03     28.4170E-03
            1462            2297     32.4927E-03     33.0526E-03
            1463            2279     26.7181E-03     28.0276E-03
            1463            2280     32.1928E-03     33.8552E-03
            1463            2297     32.4927E-03     33.0526E-03
            1463            2298     38.5962E-03     39.0345E-03
            1464            2280     32.1928E-03     33.8552E-03
            1464            2281     38.0795E-03     39.9621E-03
            1464            2298     38.5962E-03     39.0345E-03
            1464            2299     45.1490E-03     45.6104E-03
            1465            2281     38.0795E-03     39.9621E-03
            1465            2282     44.2343E-03     46.2414E-03
            1465            2299     45.1490E-03     45.6104E-03
            1465            2300     52.0300E-03     52.5214E-03
            1466            2282     44.2343E-03     46.2414E-03
            1466            2283     50.5412E-03     52.6130E-03
            1466            2300     52.0300E-03     52.5214E-03
            1466            2301     59.1041E-03     59.6107E-03
            1467            2283     50.5412E-03     52.6130E-03
            1467            2284     56.9402E-03     59.0210E-03
            1467            2301     59.1041E-03     59.6107E-03
            1467            2302     66.3061E-03     66.8136E-03
            1468            2284     56.9402E-03     59.0210E-03
            1468            2285     63.3747E-03     65.4516E-03
            1468            2302     66.3061E-03     66.8136E-03
            1468            2303     73.5677E-03     74.0716E-03
            1469            2285     63.3747E-03     65.4516E-03
            1469            2286     69.8286E-03     71.8594E-03
            1469            2303     73.5677E-03     74.0716E-03
            1469            2304     80.8610E-03     81.3491E-03
            1470            2286     69.8286E-03     71.8594E-03
            1470            2287     76.2639E-03     78.2504E-03
            1470            2304     80.8610E-03     81.3491E-03
            1470            2305     88.1425E-03     88.6138E-03
            1471            2287     76.2639E-03     78.2504E-03
            1471            2288     82.6989E-03     84.5777E-03
            1471            2305     88.1425E-03     88.6138E-03
            1471            2306     95.4008E-03     95.8254E-03
            1472            2288     82.6989E-03     84.5777E-03
            1472            2289     89.0925E-03     90.8627E-03
            1472            2306     95.4008E-03     95.8254E-03
            1472            2307     102.590E-03     102.960E-03
            1473            2289     89.0925E-03     90.8627E-03
            1473            2290     95.5130E-03     97.0650E-03
            1473            2307     102.590E-03     102.960E-03
            1473            2308     109.690E-03     109.940E-03
            1474            2290     95.5130E-03     97.0650E-03
            1474            2291     101.886E-03     103.221E-03
            1474            2308     109.690E-03     109.940E-03
            1474            2309     116.637E-03     116.741E-03
            1475            2291     101.886E-03     103.221E-03
            1475            2292     108.399E-03     109.347E-03
            1475            2309     116.637E-03     116.741E-03
            1475            2310     123.307E-03     123.200E-03
            1476            2292     108.399E-03     109.347E-03
            1476            2293     114.894E-03     115.546E-03
            1476            2310     123.307E-03     123.200E-03
            1476            2311     129.658E-03     129.270E-03
            1477            2293     114.894E-03     115.546E-03
            1477            2294     121.918E-03     122.142E-03
            1477            2311     129.658E-03     129.270E-03
            1477            2312     135.271E-03     134.730E-03
            1478             382     129.254E-03     129.561E-03
            1478             383     140.275E-03     139.626E-03
            1478            2294     121.918E-03     122.142E-03
            1478            2312     135.271E-03     134.730E-03
            1479             413     18.0296E-03     19.4596E-03
            1479             414     21.1027E-03     26.1074E-03
            1479            2295     22.8010E-03     26.3487E-03
            1479            2313     18.9383E-03     21.4485E-03
            1480            2295     22.8010E-03     26.3487E-03
            1480            2296     27.0260E-03     28.4170E-03
            1480            2313     18.9383E-03     21.4485E-03
            1480            2314     22.6639E-03     25.5353E-03
            1481            2296     27.0260E-03     28.4170E-03
            1481            2297     32.4927E-03     33.0526E-03
            1481            2314     22.6639E-03     25.5353E-03
            1481            2315     28.8603E-03     30.6009E-03
            1482            2297     32.4927E-03     33.0526E-03
            1482            2298     38.5962E-03     39.0345E-03
            1482            2315     28.8603E-03     30.6009E-03
            1482            2316     35.7376E-03     36.9825E-03
            1483            2298     38.5962E-03     39.0345E-03
            1483            2299     45.1490E-03     45.6104E-03
            1483            2316     35.7376E-03     36.9825E-03
            1483            2317     42.8741E-03     43.9870E-03
            1484            2299     45.1490E-03     45.6104E-03
            1484            2300     52.0300E-03     52.5214E-03
            1484            2317     42.8741E-03     43.9870E-03
            1484            2318     50.2160E-03     51.2865E-03
            1485            2300     52.0300E-03     52.5214E-03
            1485            2301     59.1041E-03     59.6107E-03
            1485            2318     50.2160E-03     51.2865E-03
            1485            2319     57.6807E-03     58.7614E-03
            1486            2301     59.1041E-03     59.6107E-03
            1486            2302     66.3061E-03     66.8136E-03
            1486            2319     57.6807E-03     58.7614E-03
            1486            2320     65.2351E-03     66.3313E-03
            1487            2302     66.3061E-03     66.8136E-03
            1487            2303     73.5677E-03     74.0716E-03
            1487            2320     65.2351E-03     66.3313E-03
            1487            2321     72.8540E-03     73.9629E-03
            1488            2303     73.5677E-03     74.0716E-03
            1488            2304     80.8610E-03     81.3491E-03
            1488            2321     72.8540E-03     73.9629E-03
            1488            2322     80.5162E-03     81.6351E-03
            1489            2304     80.8610E-03     81.3491E-03
            1489            2305     88.1425E-03     88.6138E-03
            1489            2322     80.5162E-03     81.6351E-03
            1489            2323     88.2177E-03     89.3355E-03
            1490            2305     88.1425E-03     88.6138E-03
            1490            2306     95.4008E-03     95.8254E-03
            1490            2323     88.2177E-03     89.3355E-03
            1490            2324     95.9392E-03     97.0610E-03
            1491            2306     95.4008E-03     95.8254E-03
            1491            2307     102.590E-03     102.960E-03
            1491            2324     95.9392E-03     97.0610E-03
            1491            2325     103.690E-03     104.802E-03
            1492            2307     102.590E-03     102.960E-03
            1492            2308     109.690E-03     109.940E-03
            1492            2325     103.690E-03     104.802E-03
            1492            2326     111.428E-03     112.557E-03
            1493            2308     109.690E-03     109.940E-03
            1493            2309     116.637E-03     116.741E-03
            1493            2326     111.428E-03     112.557E-03
            1493            2327     119.152E-03     120.297E-03
            1494            2309     116.637E-03     116.741E-03
            1494            2310     123.307E-03     123.200E-03
            1494            2327     119.152E-03     120.297E-03
            1494            2328     126.747E-03     127.977E-03
            1495            2310     123.307E-03     123.200E-03
            1495            2311     129.658E-03     129.270E-03
            1495            2328     126.747E-03     127.977E-03
            1495            2329     134.036E-03     135.463E-03
            1496            2311     129.658E-03     129.270E-03
            1496            2312     135.271E-03     134.730E-03
            1496            2329     134.036E-03     135.463E-03
            1496            2330     140.819E-03     142.482E-03
            1497             383     140.275E-03     139.626E-03
            1497             384     146.904E-03     148.780E-03
            1497            2312     135.271E-03     134.730E-03
            1497            2330     140.819E-03     142.482E-03
            1498             412     12.9726E-03     13.5874E-03
            1498             413     18.0296E-03     19.4596E-03
            1498            2313     18.9383E-03     21.4485E-03
            1498            2331     14.6828E-03     16.3586E-03
            1499            2313     18.9383E-03     21.4485E-03
            1499            2314     22.6639E-03     25.5353E-03
            1499            2331     14.6828E-03     16.3586E-03
            1499            2332     19.3722E-03     22.2189E-03
            1500            2314     22.6639E-03     25.5353E-03
            1500            2315     28.8603E-03     30.6009E-03
            1500            2332     19.3722E-03     22.2189E-03
            1500            2333     25.9780E-03     28.5830E-03
            1501            2315     28.8603E-03     30.6009E-03
            1501            2316     35.7376E-03     36.9825E-03
            1501            2333     25.9780E-03     28.5830E-03
            1501            2334     33.3995E-03     35.4736E-03
            1502            2316     35.7376E-03     36.9825E-03
            1502            2317     42.8741E-03     43.9870E-03
            1502            2334     33.3995E-03     35.4736E-03
            1502            2335     41.0215E-03     42.8478E-03
            1503            2317     42.8741E-03     43.9870E-03
            1503            2318     50.2160E-03     51.2865E-03
            1503            2335     41.0215E-03     42.8478E-03
            1503            2336     48.7276E-03     50.4621E-03
            1504            2318     50.2160E-03     51.2865E-03
            1504            2319     57.6807E-03     58.7614E-03
            1504            2336     48.7276E-03     50.4621E-03
            1504            2337     56.5004E-03     58.2197E-03
            1505            2319     57.6807E-03     58.7614E-03
            1505            2320     65.2351E-03     66.3313E-03
            1505            2337     56.5004E-03     58.2197E-03
            1505            2338     64.3253E-03     66.0568E-03
            1506            2320     65.2351E-03     66.3313E-03
            1506            2321     72.8540E-03     73.9629E-03
            1506            2338     64.3253E-03     66.0568E-03
            1506            2339     72.2026E-03     73.9544E-03
            1507            2321     72.8540E-03     73.9629E-03
            1507            2322     80.5162E-03     81.6351E-03
            1507            2339     72.2026E-03     73.9544E-03
            1507            2340     80.1298E-03     81.9014E-03
            1508            2322     80.5162E-03     81.6351E-03
            1508            2323     88.2177E-03     89.3355E-03
            1508            2340     80.1298E-03     81.9014E-03
            1508            2341     88.1063E-03     89.9035E-03
            1509            2323     88.2177E-03     89.3355E-03
            1509            2324     95.9392E-03     97.0610E-03
            1509            2341     88.1063E-03     89.9035E-03
            1509            2342     96.1436E-03     97.9720E-03
            1510            2324     95.9392E-03     97.0610E-03
            1510            2325     103.690E-03     104.802E-03
            1510            2342     96.1436E-03     97.9720E-03
            1510            2343     104.231E-03     106.121E-03
            1511            2325     103.690E-03     104.802E-03
            1511            2326     111.428E-03     112.557E-03
            1511            2343     104.231E-03     106.121E-03
            1511            2344     112.405E-03     114.384E-03
            1512            2326     111.428E-03     112.557E-03
            1512            2327     119.152E-03     120.297E-03
            1512            2344     112.405E-03     114.384E-03
            1512            2345     120.602E-03     122.759E-03
            1513            2327     119.152E-03     120.297E-03
            1513            2328     126.747E-03     127.977E-03
            1513            2345     120.602E-03     122.759E-03
            1513            2346     128.912E-03     131.269E-03
            1514            2328     126.747E-03     127.977E-03
            1514            2329     134.036E-03     135.463E-03
            1514            2346     128.912E-03     131.269E-03
            1514            2347     137.050E-03     139.789E-03
            1515            2329     134.036E-03     135.463E-03
            1515            2330     140.819E-03     142.482E-03
            1515            2347     137.050E-03     139.789E-03
            1515            2348     144.915E-03     147.956E-03
            1516             384     146.904E-03     148.780E-03
            1516             385     152.020E-03     155.009E-03
            1516            2330     140.819E-03     142.482E-03
            1516            2348     144.915E-03     147.956E-03
            1517             411     8.33000E-03     10.0995E-03
            1517             412     12.9726E-03     13.5874E-03
            1517            2331     14.6828E-03     16.3586E-03
            1517            2349     10.7183E-03     12.9590E-03
            1518            2331     14.6828E-03     16.3586E-03
            1518            2332     19.3722E-03     22.2189E-03
            1518            2349     10.7183E-03     12.9590E-03
            1518            2350     16.5825E-03     19.5758E-03
            1519            2332     19.3722E-03     22.2189E-03
            1519            2333     25.9780E-03     28.5830E-03
            1519            2350     16.5825E-03     19.5758E-03
            1519            2351     23.8843E-03     27.0056E-03
            1520            2333     25.9780E-03     28.5830E-03
            1520            2334     33.3995E-03     35.4736E-03
            1520            2351     23.8843E-03     27.0056E-03
            1520            2352     31.6737E-03     34.4380E-03
            1521            2334     33.3995E-03     35.4736E-03
            1521            2335     41.0215E-03     42.8478E-03
            1521            2352     31.6737E-03     34.4380E-03
            1521            2353     39.6031E-03     42.1073E-03
            1522            2335     41.0215E-03     42.8478E-03
            1522            2336     48.7276E-03     50.4621E-03
            1522            2353     39.6031E-03     42.1073E-03
            1522            2354     47.5356E-03     49.9575E-03
            1523            2336     48.7276E-03     50.4621E-03
            1523            2337     56.5004E-03     58.2197E-03
            1523            2354     47.5356E-03     49.9575E-03
            1523            2355     55.4918E-03     57.8843E-03
            1524            2337     56.5004E-03     58.2197E-03
            1524            2338     64.3253E-03     66.0568E-03
            1524            2355     55.4918E-03     57.8843E-03
            1524            2356     63.4755E-03     65.8773E-03
            1525            2338     64.3253E-03     66.0568E-03
            1525            2339     72.2026E-03     73.9544E-03
            1525            2356     63.4755E-03     65.8773E-03
            1525            2357     71.4910E-03     73.9105E-03
            1526            2339     72.2026E-03     73.9544E-03
            1526            2340     80.1298E-03     81.9014E-03
            1526            2357     71.4910E-03     73.9105E-03
            1526            2358     79.5476E-03     81.9917E-03
            1527            2340     80.1298E-03     81.9014E-03
            1527            2341     88.1063E-03     89.9035E-03
            1527            2358     79.5476E-03     81.9917E-03
            1527            2359     87.6518E-03     90.1263E-03
            1528            2341     88.1063E-03     89.9035E-03
            1528            2342     96.1436E-03     97.9720E-03
            1528            2359     87.6518E-03     90.1263E-03
            1528            2360     95.8097E-03     98.3336E-03
            1529            2342     96.1436E-03     97.9720E-03
            1529            2343     104.231E-03     106.121E-03
            1529            2360     95.8097E-03     98.3336E-03
            1529            2361     104.045E-03     106.649E-03
            1530            2343     104.231E-03     106.121E-03
            1530            2344     112.405E-03     114.384E-03
            1530            2361     104.045E-03     106.649E-03
            1530            2362     112.354E-03     115.096E-03
            1531            2344     112.405E-03     114.384E-03
            1531            2345     120.602E-03     122.759E-03
            1531            2362     112.354E-03     115.096E-03
            1531            2363     120.832E-03     123.761E-03
            1532            2345     120.602E-03     122.759E-03
            1532            2346     128.912E-03     131.269E-03
            1532            2363     120.832E-03     123.761E-03
            1532            2364     129.391E-03     132.639E-03
            1533            2346     128.912E-03     131.269E-03
            1533            2347     137.050E-03     139.789E-03
            1533            2364     129.391E-03     132.639E-03
            1533            2365     138.397E-03     141.803E-03
            1534            2347     137.050E-03     139.789E-03
            1534            2348     144.915E-03     147.956E-03
            1534            2365     138.397E-03     141.803E-03
            1534            2366     147.303E-03     150.984E-03
            1535             385     152.020E-03     155.009E-03
            1535             386     155.564E-03     159.352E-03
            1535            2348     144.915E-03     147.956E-03
            1535            2366     147.303E-03     150.984E-03
            1536             410     4.51954E-03     6.57698E-03
            1536             411     8.33000E-03     10.0995E-03
            1536            2349     10.7183E-03     12.9590E-03
            1536            2367     7.58389E-03     10.7175E-03
            1537            2349     10.7183E-03     12.9590E-03
            1537            2350     16.5825E-03     19.5758E-03
            1537            2367     7.58389E-03     10.7175E-03
            1537            2368     14.6251E-03     18.5062E-03
            1538            2350     16.5825E-03     19.5758E-03
            1538            2351     23.8843E-03     27.0056E-03
            1538            2368     14.6251E-03     18.5062E-03
            1538            2369     22.6149E-03     26.0441E-03
            1539            2351     23.8843E-03     27.0056E-03
            1539            2352     31.6737E-03     34.4380E-03
            1539            2369     22.6149E-03     26.0441E-03
            1539            2370     30.6199E-03     33.8752E-03
            1540            2352     31.6737E-03     34.4380E-03
            1540            2353     39.6031E-03     42.1073E-03
            1540            2370     30.6199E-03     33.8752E-03
            1540            2371     38.6178E-03     41.7697E-03
            1541            2353     39.6031E-03     42.1073E-03
            1541            2354     47.5356E-03     49.9575E-03
            1541            2371     38.6178E-03     41.7697E-03
            1541            2372     46.6271E-03     49.7190E-03
            1542            2354     47.5356E-03     49.9575E-03
            1542            2355     55.4918E-03     57.8843E-03
            1542            2372     46.6271E-03     49.7190E-03
            1542            2373     54.6315E-03     57.7187E-03
            1543            2355     55.4918E-03     57.8843E-03
            1543            2356     63.4755E-03     65.8773E-03
            1543            2373     54.6315E-03     57.7187E-03
            1543            2374     62.6450E-03     65.7377E-03
            1544            2356     63.4755E-03     65.8773E-03
            1544            2357     71.4910E-03     73.9105E-03
            1544            2374     62.6450E-03     65.7377E-03
            1544            2375     70.6749E-03     73.7834E-03
            1545            2357     71.4910E-03     73.9105E-03
            1545            2358     79.5476E-03     81.9917E-03
            1545            2375     70.6749E-03     73.7834E-03
            1545            2376     78.7255E-03     81.8488E-03
            1546            2358     79.5476E-03     81.9917E-03
            1546            2359     87.6518E-03     90.1263E-03
            1546            2376     78.7255E-03     81.8488E-03
            1546            2377     86.8040E-03     89.9496E-03
            1547            2359     87.6518E-03     90.1263E-03
            1547            2360     95.8097E-03     98.3336E-03
            1547            2377     86.8040E-03     89.9496E-03
            1547            2378     94.9186E-03     98.0988E-03
            1548            2360     95.8097E-03     98.3336E-03
            1548            2361     104.045E-03     106.649E-03
            1548            2378     94.9186E-03     98.0988E-03
            1548            2379     103.084E-03     106.324E-03
            1549            2361     104.045E-03     106.649E-03
            1549            2362     112.354E-03     115.096E-03
            1549            2379     103.084E-03     106.324E-03
            1549            2380     111.336E-03     114.682E-03
            1550            2362     112.354E-03     115.096E-03
            1550            2363     120.832E-03     123.761E-03
            1550            2380     111.336E-03     114.682E-03
            1550            2381     119.713E-03     123.220E-03
            1551            2363     120.832E-03     123.761E-03
            1551            2364     129.391E-03     132.639E-03
            1551            2381     119.713E-03     123.220E-03
            1551            2382     128.397E-03     132.099E-03
            1552            2364     129.391E-03     132.639E-03
            1552            2365     138.397E-03     141.803E-03
            1552            2382     128.397E-03     132.099E-03
            1552            2383     137.421E-03     141.359E-03
            1553            2365     138.397E-03     141.803E-03
            1553            2366     147.303E-03     150.984E-03
            1553            2383     137.421E-03     141.359E-03
            1553            2384     147.637E-03     151.363E-03
            1554             386     155.564E-03     159.352E-03
            1554             387     158.213E-03     161.489E-03
            1554            2366     147.303E-03     150.984E-03
            1554            2384     147.637E-03     151.363E-03
            1555             409     3.34173E-03     8.06483E-03
            1555             410     4.51954E-03     6.57698E-03
            1555            2367     7.58389E-03     10.7175E-03
            1555            2385     6.86772E-03     11.3637E-03
            1556            2367     7.58389E-03     10.7175E-03
            1556            2368     14.6251E-03     18.5062E-03
            1556            2385     6.86772E-03     11.3637E-03
            1556            2386     14.3875E-03     18.3735E-03
            1557            2368     14.6251E-03     18.5062E-03
            1557            2369     22.6149E-03     26.0441E-03
            1557            2386     14.3875E-03     18.3735E-03
            1557            2387     22.3285E-03     26.0055E-03
            1558            2369     22.6149E-03     26.0441E-03
            1558            2370     30.6199E-03     33.8752E-03
            1558            2387     22.3285E-03     26.0055E-03
            1558            2388     30.2153E-03     33.9082E-03
            1559            2370     30.6199E-03     33.8752E-03
            1559            2371     38.6178E-03     41.7697E-03
            1559            2388     30.2153E-03     33.9082E-03
            1559            2389     38.1064E-03     41.8561E-03
            1560            2371     38.6178E-03     41.7697E-03
            1560            2372     46.6271E-03     49.7190E-03
            1560            2389     38.1064E-03     41.8561E-03
            1560            2390     46.0206E-03     49.7936E-03
            1561            2372     46.6271E-03     49.7190E-03
            1561            2373     54.6315E-03     57.7187E-03
            1561            2390     46.0206E-03     49.7936E-03
            1561            2391     53.9426E-03     57.7329E-03
            1562            2373     54.6315E-03     57.7187E-03
            1562            2374     62.6450E-03     65.7377E-03
            1562            2391     53.9426E-03     57.7329E-03
            1562            2392     61.8659E-03     65.6707E-03
            1563            2374     62.6450E-03     65.7377E-03
            1563            2375     70.6749E-03     73.7834E-03
            1563            2392     61.8659E-03     65.6707E-03
            1563            2393     69.7903E-03     73.5991E-03
            1564            2375     70.6749E-03     73.7834E-03
            1564            2376     78.7255E-03     81.8488E-03
            1564            2393     69.7903E-03     73.5991E-03
            1564            2394     77.7120E-03     81.5249E-03
            1565            2376     78.7255E-03     81.8488E-03
            1565            2377     86.8040E-03     89.9496E-03
            1565            2394     77.7120E-03     81.5249E-03
            1565            2395     85.6316E-03     89.4416E-03
            1566            2377     86.8040E-03     89.9496E-03
            1566            2378     94.9186E-03     98.0988E-03
            1566            2395     85.6316E-03     89.4416E-03
            1566            2396     93.5556E-03     97.3657E-03
            1567            2378     94.9186E-03     98.0988E-03
            1567            2379     103.084E-03     106.324E-03
            1567            2396     93.5556E-03     97.3657E-03
            1567            2397     101.490E-03     105.305E-03
            1568            2379     103.084E-03     106.324E-03
            1568            2380     111.336E-03     114.682E-03
            1568            2397     101.490E-03     105.305E-03
            1568            2398     109.481E-03     113.307E-03
            1569            2380     111.336E-03     114.682E-03
            1569            2381     119.713E-03     123.220E-03
            1569            2398     109.481E-03     113.307E-03
            1569            2399     117.568E-03     121.439E-03
            1570            2381     119.713E-03     123.220E-03
            1570            2382     128.397E-03     132.099E-03
            1570            2399     117.568E-03     121.439E-03
            1570            2400     125.938E-03     129.844E-03
            1571            2382     128.397E-03     132.099E-03
            1571            2383     137.421E-03     141.359E-03
            1571            2400     125.938E-03     129.844E-03
            1571            2401     134.805E-03     138.812E-03
            1572            2383     137.421E-03     141.359E-03
            1572            2384     147.637E-03     151.363E-03
            1572            2401     134.805E-03     138.812E-03
            1572            2402     144.760E-03     148.676E-03
            1573             387     158.213E-03     161.489E-03
            1573             388     157.866E-03     160.853E-03
            1573            2384     147.637E-03     151.363E-03
            1573            2402     144.760E-03     148.676E-03
            1574             408     6.54098E-03     11.0173E-03
            1574             409     3.34173E-03     8.06483E-03
            1574            2385     6.86772E-03     11.3637E-03
            1574            2403     9.56030E-03     13.3575E-03
            1575            2385     6.86772E-03     11.3637E-03
            1575            2386     14.3875E-03     18.3735E-03
            1575            2403     9.56030E-03     13.3575E-03
            1575            2404     16.0084E-03     19.3601E-03
            1576            2386     14.3875E-03     18.3735E-03
            1576            2387     22.3285E-03     26.0055E-03
            1576            2404     16.0084E-03     19.3601E-03
            1576            2405     23.0938E-03     26.9149E-03
            1577            2387     22.3285E-03     26.0055E-03
            1577            2388     30.2153E-03     33.9082E-03
            1577            2405     23.0938E-03     26.9149E-03
            1577            2406     30.5087E-03     34.6825E-03
            1578            2388     30.2153E-03     33.9082E-03
            1578            2389     38.1064E-03     41.8561E-03
            1578            2406     30.5087E-03     34.6825E-03
            1578            2407     38.1012E-03     42.4675E-03
            1579            2389     38.1064E-03     41.8561E-03
            1579            2390     46.0206E-03     49.7936E-03
            1579            2407     38.1012E-03     42.4675E-03
            1579            2408     45.7813E-03     50.2554E-03
            1580            2390     46.0206E-03     49.7936E-03
            1580            2391     53.9426E-03     57.7329E-03
            1580            2408     45.7813E-03     50.2554E-03
            1580            2409     53.5017E-03     58.0151E-03
            1581            2391     53.9426E-03     57.7329E-03
            1581            2392     61.8659E-03     65.6707E-03
            1581            2409     53.5017E-03     58.0151E-03
            1581            2410     61.2343E-03     65.7562E-03
            1582            2392     61.8659E-03     65.6707E-03
            1582            2393     69.7903E-03     73.5991E-03
            1582            2410     61.2343E-03     65.7562E-03
            1582            2411     68.9493E-03     73.4697E-03
            1583            2393     69.7903E-03     73.5991E-03
            1583            2394     77.7120E-03     81.5249E-03
            1583            2411     68.9493E-03     73.4697E-03
            1583            2412     76.6393E-03     81.1436E-03
            1584            2394     77.7120E-03     81.5249E-03
            1584            2395     85.6316E-03     89.4416E-03
            1584            2412     76.6393E-03     81.1436E-03
            1584            2413     84.2911E-03     88.7775E-03
            1585            2395     85.6316E-03     89.4416E-03
            1585            2396     93.5556E-03     97.3657E-03
            1585            2413     84.2911E-03     88.7775E-03
            1585            2414     91.9045E-03     96.3491E-03
            1586            2396     93.5556E-03     97.3657E-03
            1586            2397     101.490E-03     105.305E-03
            1586            2414     91.9045E-03     96.3491E-03
            1586            2415     99.4953E-03     103.881E-03
            1587            2397     101.490E-03     105.305E-03
            1587            2398     109.481E-03     113.307E-03
            1587            2415     99.4953E-03     103.881E-03
            1587            2416     107.075E-03     111.356E-03
            1588            2398     109.481E-03     113.307E-03
            1588            2399     117.568E-03     121.439E-03
            1588            2416     107.075E-03     111.356E-03
            1588            2417     114.757E-03     118.884E-03
            1589            2399     117.568E-03     121.439E-03
            1589            2400     125.938E-03     129.844E-03
            1589            2417     114.757E-03     118.884E-03
            1589            2418     122.574E-03     126.512E-03
            1590            2400     125.938E-03     129.844E-03
            1590            2401     134.805E-03     138.812E-03
            1590            2418     122.574E-03     126.512E-03
            1590            2419     131.011E-03     134.676E-03
            1591            2401     134.805E-03     138.812E-03
            1591            2402     144.760E-03     148.676E-03
            1591            2419     131.011E-03     134.676E-03
            1591            2420     140.174E-03     143.720E-03
            1592             388     157.866E-03     160.853E-03
            1592             389     152.290E-03     155.770E-03
            1592            2402     144.760E-03     148.676E-03
            1592            2420     140.174E-03     143.720E-03
            1593              22     9.28166E-03     9.98339E-03
            1593             407     12.3443E-03     12.6798E-03
            1593             408     6.54098E-03     11.0173E-03
            1593            2403     9.56030E-03     13.3575E-03
            1594             406     18.8503E-03     19.0203E-03
            1594             407     12.3443E-03     12.6798E-03
            1594            2403     9.56030E-03     13.3575E-03
            1594            2404     16.0084E-03     19.3601E-03
            1595             405     26.0474E-03     26.5344E-03
            1595             406     18.8503E-03     19.0203E-03
            1595            2404     16.0084E-03     19.3601E-03
            1595            2405     23.0938E-03     26.9149E-03
            1596             404     33.6582E-03     34.3694E-03
            1596             405     26.0474E-03     26.5344E-03
            1596            2405     23.0938E-03     26.9149E-03
            1596            2406     30.5087E-03     34.6825E-03
            1597             403     41.4618E-03     42.2998E-03
            1597             404     33.6582E-03     34.3694E-03
            1597            2406     30.5087E-03     34.6825E-03
            1597            2407     38.1012E-03     42.4675E-03
            1598             402     49.3826E-03     50.2660E-03
            1598             403     41.4618E-03     42.2998E-03
            1598            2407     38.1012E-03     42.4675E-03
            1598            2408     45.7813E-03     50.2554E-03
            1599             401     57.3487E-03     58.2518E-03
            1599             402     49.3826E-03     50.2660E-03
            1599            2408     45.7813E-03     50.2554E-03
            1599            2409     53.5017E-03     58.0151E-03
            1600             400     65.3408E-03     66.2333E-03
            1600             401     57.3487E-03     58.2518E-03
            1600            2409     53.5017E-03     58.0151E-03
            1600            2410     61.2343E-03     65.7562E-03
            1601             399     73.3245E-03     74.2137E-03
            1601             400     65.3408E-03     66.2333E-03
            1601            2410     61.2343E-03     65.7562E-03
            1601            2411     68.9493E-03     73.4697E-03
            1602             398     81.3052E-03     82.1660E-03
            1602             399     73.3245E-03     74.2137E-03
            1602            2411     68.9493E-03     73.4697E-03
            1602            2412     76.6393E-03     81.1436E-03
            1603             397     89.2436E-03     90.1071E-03
            1603             398     81.3052E-03     82.1660E-03
            1603            2412     76.6393E-03     81.1436E-03
            1603            2413     84.2911E-03     88.7775E-03
            1604             396     97.1890E-03     97.9838E-03
            1604             397     89.2436E-03     90.1071E-03
            1604            2413     84.2911E-03     88.7775E-03
            1604            2414     91.9045E-03     96.3491E-03
            1605             395     105.058E-03     105.863E-03
            1605             396     97.1890E-03     97.9838E-03
            1605            2414     91.9045E-03     96.3491E-03
            1605            2415     99.4953E-03     103.881E-03
            1606             394     113.009E-03     113.632E-03
            1606             395     105.058E-03     105.863E-03
            1606            2415     99.4953E-03     103.881E-03
            1606            2416     107.075E-03     111.356E-03
            1607             393     120.854E-03     121.489E-03
            1607             394     113.009E-03     113.632E-03
            1607            2416     107.075E-03     111.356E-03
            1607            2417     114.757E-03     118.884E-03
            1608             392     128.986E-03     129.235E-03
            1608             393     120.854E-03     121.489E-03
            1608            2417     114.757E-03     118.884E-03
            1608            2418     122.574E-03     126.512E-03
            1609             391     137.092E-03     137.362E-03
            1609             392     128.986E-03     129.235E-03
            1609            2418     122.574E-03     126.512E-03
            1609            2419     131.011E-03     134.676E-03
            1610             390     145.867E-03     145.723E-03
            1610             391     137.092E-03     137.362E-03
            1610            2419     131.011E-03     134.676E-03
            1610            2420     140.174E-03     143.720E-03
            1611              21     155.627E-03     155.647E-03
            1611             389     152.290E-03     155.770E-03
            1611             390     145.867E-03     145.723E-03
            1611            2420     140.174E-03     143.720E-03
            1612              17     3.60039E-03     2.42620E-03
            1612             303     8.26382E-15     8.61280E-15
            1612             455     3.97846E-03     4.43087E-03
            1612            2421     14.2478E-15     13.8527E-15
            1613              23     5.10720E-03     7.25800E-03
            1613             455     3.97846E-03     4.43087E-03
            1613             456     15.1761E-15     15.6094E-15
            1613            2421     14.2478E-15     13.8527E-15
            1614             303     8.26382E-15     8.61280E-15
            1614             304     13.7827E-15     13.2468E-15
            1614            2421     14.2478E-15     13.8527E-15
            1614            2422     14.6489E-15     14.7618E-15
            1615             456     15.1761E-15     15.6094E-15
            1615             457     11.3762E-15     11.3920E-15
            1615            2421     14.2478E-15     13.8527E-15
            1615            2422     14.6489E-15     14.7618E-15
            1616              18     17.2008E-15     15.5415E-15
            1616             304     13.7827E-15     13.2468E-15
            1616             458     18.5425E-15     19.0217E-15
            1616            2422     14.6489E-15     14.7618E-15
            1617              24     10.6472E-15     10.6367E-15
            1617             457     11.3762E-15     11.3920E-15
            1617             458     18.5425E-15     19.0217E-15
            1617            2422     14.6489E-15     14.7618E-15
            1618              20     3.60039E-03     2.42620E-03
            1618             343     7.61134E-03     5.95168E-03
            1618             459     3.97846E-03     4.43087E-03
            1618            2423     8.11663E-03     8.23831E-03
            1619               3     5.10720E-03     7.25800E-03
            1619             155     9.51254E-03     10.8952E-03
            1619             459     3.97846E-03     4.43087E-03
            1619            2423     8.11663E-03     8.23831E-03
            1620             343     7.61134E-03     5.95168E-03
            1620             344     8.91903E-03     8.59265E-03
            1620            2423     8.11663E-03     8.23831E-03
            1620            2424     9.67500E-03     9.17589E-03
            1621             154     9.29635E-03     7.72523E-03
            1621             155     9.51254E-03     10.8952E-03
            1621            2423     8.11663E-03     8.23831E-03
            1621            2424     9.67500E-03     9.17589E-03
            1622             344     8.91903E-03     8.59265E-03
            1622             345     11.4631E-03     11.6132E-03
            1622            2424     9.67500E-03     9.17589E-03
            1622            2425     12.9886E-03     12.8445E-03
            1623             153     11.8064E-03     11.5409E-03
            1623             154     9.29635E-03     7.72523E-03
            1623            2424     9.67500E-03     9.17589E-03
            1623            2425     12.9886E-03     12.8445E-03
            1624             345     11.4631E-03     11.6132E-03
            1624             346     14.4478E-03     14.8106E-03
            1624            2425     12.9886E-03     12.8445E-03
            1624            2426     17.0201E-03     17.0065E-03
            1625             152     17.4310E-03     16.9815E-03
            1625             153     11.8064E-03     11.5409E-03
            1625            2425     12.9886E-03     12.8445E-03
            1625            2426     17.0201E-03     17.0065E-03
            1626             346     14.4478E-03     14.8106E-03
            1626             347     17.5001E-03     17.9433E-03
            1626            2426     17.0201E-03     17.0065E-03
            1626            2427     21.0845E-03     21.4656E-03
            1627             151     22.5958E-03     23.5740E-03
            1627             152     17.4310E-03     16.9815E-03
            1627            2426     17.0201E-03     17.0065E-03
            1627            2427     21.0845E-03     21.4656E-03
            1628             347     17.5001E-03     17.9433E-03
            1628             348     19.6580E-03     20.3952E-03
            1628            2427     21.0845E-03     21.4656E-03
            1628            2428     25.6394E-03     25.6160E-03
            1629             150     30.2701E-03     29.2292E-03
            1629             151     22.5958E-03     23.5740E-03
            1629            2427     21.0845E-03     21.4656E-03
            1629            2428     25.6394E-03     25.6160E-03
            1630             348     19.6580E-03     20.3952E-03
            1630             349     19.4963E-03     21.6595E-03
            1630            2428     25.6394E-03     25.6160E-03
            1630            2429     28.1686E-03     30.0285E-03
            1631             149     36.7696E-03     37.3096E-03
            1631             150     30.2701E-03     29.2292E-03
            1631            2428     25.6394E-03     25.6160E-03
            1631            2429     28.1686E-03     30.0285E-03
            1632             349     19.4963E-03     21.6595E-03
            1632             350     25.9739E-03     26.0973E-03
            1632            2429     28.1686E-03     30.0285E-03
            1632            2430     28.6069E-03     29.4818E-03
            1633             148     30.7166E-03     33.0646E-03
            1633             149     36.7696E-03     37.3096E-03
            1633            2429     28.1686E-03     30.0285E-03
            1633            2430     28.6069E-03     29.4818E-03
            1634             350     25.9739E-03     26.0973E-03
            1634             351     33.9606E-03     32.3125E-03
            1634            2430     28.6069E-03     29.4818E-03
            1634            2431     30.8993E-03     29.4562E-03
            1635             147     27.0271E-03     25.2052E-03
            1635             148     30.7166E-03     33.0646E-03
            1635            2430     28.6069E-03     29.4818E-03
            1635            2431     30.8993E-03     29.4562E-03
            1636             351     33.9606E-03     32.3125E-03
            1636             352     36.3031E-03     36.3358E-03
            1636            2431     30.8993E-03     29.4562E-03
            1636            2432     35.3890E-03     35.4366E-03
            1637             146     32.8013E-03     32.0204E-03
            1637             147     27.0271E-03     25.2052E-03
            1637            2431     30.8993E-03     29.4562E-03
            1637            2432     35.3890E-03     35.4366E-03
            1638             352     36.3031E-03     36.3358E-03
            1638             353     39.6473E-03     40.2637E-03
            1638            2432     35.3890E-03     35.4366E-03
            1638            2433     40.5121E-03     40.7814E-03
            1639             145     38.6190E-03     38.5037E-03
            1639             146     32.8013E-03     32.0204E-03
            1639            2432     35.3890E-03     35.4366E-03
            1639            2433     40.5121E-03     40.7814E-03
            1640             353     39.6473E-03     40.2637E-03
            1640             354     43.2018E-03     44.0154E-03
            1640            2433     40.5121E-03     40.7814E-03
            1640            2434     45.2089E-03     45.6376E-03
            1641             144     44.5860E-03     44.3577E-03
            1641             145     38.6190E-03     38.5037E-03
            1641            2433     40.5121E-03     40.7814E-03
            1641            2434     45.2089E-03     45.6376E-03
            1642             354     43.2018E-03     44.0154E-03
            1642             355     46.6133E-03     47.4745E-03
            1642            2434     45.2089E-03     45.6376E-03
            1642            2435     49.5993E-03     50.2616E-03
            1643             143     50.1066E-03     50.5205E-03
            1643             144     44.5860E-03     44.3577E-03
            1643            2434     45.2089E-03     45.6376E-03
            1643            2435     49.5993E-03     50.2616E-03
            1644             355     46.6133E-03     47.4745E-03
            1644             356     49.6752E-03     50.7712E-03
            1644            2435     49.5993E-03     50.2616E-03
            1644            2436     54.0359E-03     54.6789E-03
            1645             142     56.3408E-03     55.6954E-03
            1645             143     50.1066E-03     50.5205E-03
            1645            2435     49.5993E-03     50.2616E-03
            1645            2436     54.0359E-03     54.6789E-03
            1646             356     49.6752E-03     50.7712E-03
            1646             357     52.5525E-03     53.5465E-03
            1646            2436     54.0359E-03     54.6789E-03
            1646            2437     58.1775E-03     59.3259E-03
            1647             141     61.1124E-03     63.1336E-03
            1647             142     56.3408E-03     55.6954E-03
            1647            2436     54.0359E-03     54.6789E-03
            1647            2437     58.1775E-03     59.3259E-03
            1648             357     52.5525E-03     53.5465E-03
            1648             358     54.0069E-03     55.1671E-03
            1648            2437     58.1775E-03     59.3259E-03
            1648            2438     62.6806E-03     62.9687E-03
            1649             140     69.9943E-03     68.1203E-03
            1649             141     61.1124E-03     63.1336E-03
            1649            2437     58.1775E-03     59.3259E-03
            1649            2438     62.6806E-03     62.9687E-03
            1650             358     54.0069E-03     55.1671E-03
            1650             359     52.4427E-03     54.8619E-03
            1650            2438     62.6806E-03     62.9687E-03
            1650            2439     64.3073E-03     66.2758E-03
            1651             139     76.6843E-03     76.3906E-03
            1651             140     69.9943E-03     68.1203E-03
            1651            2438     62.6806E-03     62.9687E-03
            1651            2439     64.3073E-03     66.2758E-03
            1652             359     52.4427E-03     54.8619E-03
            1652             360     58.1686E-03     58.2882E-03
            1652            2439     64.3073E-03     66.2758E-03
            1652            2440     63.2905E-03     64.5055E-03
            1653             138     68.0396E-03     72.8216E-03
            1653             139     76.6843E-03     76.3906E-03
            1653            2439     64.3073E-03     66.2758E-03
            1653            2440     63.2905E-03     64.5055E-03
            1654             360     58.1686E-03     58.2882E-03
            1654             361     67.1056E-03     65.6732E-03
            1654            2440     63.2905E-03     64.5055E-03
            1654            2441     65.9776E-03     64.3998E-03
            1655             137     65.1131E-03     62.0934E-03
            1655             138     68.0396E-03     72.8216E-03
            1655            2440     63.2905E-03     64.5055E-03
            1655            2441     65.9776E-03     64.3998E-03
            1656             361     67.1056E-03     65.6732E-03
            1656             362     70.9086E-03     71.3412E-03
            1656            2441     65.9776E-03     64.3998E-03
            1656            2442     71.4391E-03     71.7658E-03
            1657             136     70.5457E-03     68.9178E-03
            1657             137     65.1131E-03     62.0934E-03
            1657            2441     65.9776E-03     64.3998E-03
            1657            2442     71.4391E-03     71.7658E-03
            1658             362     70.9086E-03     71.3412E-03
            1658             363     74.9896E-03     76.2158E-03
            1658            2442     71.4391E-03     71.7658E-03
            1658            2443     76.9097E-03     77.7362E-03
            1659             135     75.3724E-03     75.8711E-03
            1659             136     70.5457E-03     68.9178E-03
            1659            2442     71.4391E-03     71.7658E-03
            1659            2443     76.9097E-03     77.7362E-03
            1660             363     74.9896E-03     76.2158E-03
            1660             364     79.0247E-03     80.4204E-03
            1660            2443     76.9097E-03     77.7362E-03
            1660            2444     81.8493E-03     82.7535E-03
            1661             134     81.5430E-03     81.1726E-03
            1661             135     75.3724E-03     75.8711E-03
            1661            2443     76.9097E-03     77.7362E-03
            1661            2444     81.8493E-03     82.7535E-03
            1662             364     79.0247E-03     80.4204E-03
            1662             365     82.6306E-03     84.1650E-03
            1662            2444     81.8493E-03     82.7535E-03
            1662            2445     86.4816E-03     87.5273E-03
            1663             133     87.1450E-03     87.2379E-03
            1663             134     81.5430E-03     81.1726E-03
            1663            2444     81.8493E-03     82.7535E-03
            1663            2445     86.4816E-03     87.5273E-03
            1664             365     82.6306E-03     84.1650E-03
            1664             366     86.0090E-03     87.5587E-03
            1664            2445     86.4816E-03     87.5273E-03
            1664            2446     90.8115E-03     92.0916E-03
            1665             132     92.5126E-03     93.2268E-03
            1665             133     87.1450E-03     87.2379E-03
            1665            2445     86.4816E-03     87.5273E-03
            1665            2446     90.8115E-03     92.0916E-03
            1666             366     86.0090E-03     87.5587E-03
            1666             367     88.8726E-03     90.7007E-03
            1666            2446     90.8115E-03     92.0916E-03
            1666            2447     95.1845E-03     96.3886E-03
            1667             131     98.9219E-03     98.0214E-03
            1667             132     92.5126E-03     93.2268E-03
            1667            2446     90.8115E-03     92.0916E-03
            1667            2447     95.1845E-03     96.3886E-03
            1668             367     88.8726E-03     90.7007E-03
            1668             368     91.4083E-03     93.0440E-03
            1668            2447     95.1845E-03     96.3886E-03
            1668            2448     99.1359E-03     100.982E-03
            1669             130     103.179E-03     106.117E-03
            1669             131     98.9219E-03     98.0214E-03
            1669            2447     95.1845E-03     96.3886E-03
            1669            2448     99.1359E-03     100.982E-03
            1670             368     91.4083E-03     93.0440E-03
            1670             369     92.0807E-03     93.6887E-03
            1670            2448     99.1359E-03     100.982E-03
            1670            2449     103.415E-03     103.972E-03
            1671             129     113.268E-03     110.412E-03
            1671             130     103.179E-03     106.117E-03
            1671            2448     99.1359E-03     100.982E-03
            1671            2449     103.415E-03     103.972E-03
            1672             369     92.0807E-03     93.6887E-03
            1672             370     88.8744E-03     91.5526E-03
            1672            2449     103.415E-03     103.972E-03
            1672            2450     103.959E-03     106.018E-03
            1673             128     120.244E-03     118.962E-03
            1673             129     113.268E-03     110.412E-03
            1673            2449     103.415E-03     103.972E-03
            1673            2450     103.959E-03     106.018E-03
            1674             370     88.8744E-03     91.5526E-03
            1674             371     93.6266E-03     93.7696E-03
            1674            2450     103.959E-03     106.018E-03
            1674            2451     101.656E-03     103.447E-03
            1675             127     109.379E-03     117.034E-03
            1675             128     120.244E-03     118.962E-03
            1675            2450     103.959E-03     106.018E-03
            1675            2451     101.656E-03     103.447E-03
            1676             371     93.6266E-03     93.7696E-03
            1676             372     103.580E-03     102.403E-03
            1676            2451     101.656E-03     103.447E-03
            1676            2452     105.198E-03     103.660E-03
            1677             126     107.838E-03     103.784E-03
            1677             127     109.379E-03     117.034E-03
            1677            2451     101.656E-03     103.447E-03
            1677            2452     105.198E-03     103.660E-03
            1678             372     103.580E-03     102.403E-03
            1678             373     108.990E-03     109.902E-03
            1678            2452     105.198E-03     103.660E-03
            1678            2453     111.724E-03     112.326E-03
            1679             125     112.959E-03     110.339E-03
            1679             126     107.838E-03     103.784E-03
            1679            2452     105.198E-03     103.660E-03
            1679            2453     111.724E-03     112.326E-03
            1680             373     108.990E-03     109.902E-03
            1680             374     113.840E-03     115.751E-03
            1680            2453     111.724E-03     112.326E-03
            1680            2454     117.467E-03     118.970E-03
            1681             124     116.597E-03     117.933E-03
            1681             125     112.959E-03     110.339E-03
            1681            2453     111.724E-03     112.326E-03
            1681            2454     117.467E-03     118.970E-03
            1682             374     113.840E-03     115.751E-03
            1682             375     118.215E-03     120.382E-03
            1682            2454     117.467E-03     118.970E-03
            1682            2455     122.637E-03     124.079E-03
            1683             123     123.225E-03     122.584E-03
            1683             124     116.597E-03     117.933E-03
            1683            2454     117.467E-03     118.970E-03
            1683            2455     122.637E-03     124.079E-03
            1684             375     118.215E-03     120.382E-03
            1684             376     121.988E-03     124.262E-03
            1684            2455     122.637E-03     124.079E-03
            1684            2456     127.344E-03     128.975E-03
            1685             122     128.658E-03     128.963E-03
            1685             123     123.225E-03     122.584E-03
            1685            2455     122.637E-03     124.079E-03
            1685            2456     127.344E-03     128.975E-03
            1686             376     121.988E-03     124.262E-03
            1686             377     125.370E-03     127.658E-03
            1686            2456     127.344E-03     128.975E-03
            1686            2457     131.695E-03     133.561E-03
            1687             121     134.044E-03     134.972E-03
            1687             122     128.658E-03     128.963E-03
            1687            2456     127.344E-03     128.975E-03
            1687            2457     131.695E-03     133.561E-03
            1688             377     125.370E-03     127.658E-03
            1688             378     128.072E-03     130.670E-03
            1688            2457     131.695E-03     133.561E-03
            1688            2458     136.039E-03     137.777E-03
            1689             120     140.664E-03     139.490E-03
            1689             121     134.044E-03     134.972E-03
            1689            2457     131.695E-03     133.561E-03
            1689            2458     136.039E-03     137.777E-03
            1690             378     128.072E-03     130.670E-03
            1690             379     130.272E-03     132.590E-03
            1690            2458     136.039E-03     137.777E-03
            1690            2459     139.801E-03     142.319E-03
            1691             119     144.500E-03     148.274E-03
            1691             120     140.664E-03     139.490E-03
            1691            2458     136.039E-03     137.777E-03
            1691            2459     139.801E-03     142.319E-03
            1692             379     130.272E-03     132.590E-03
            1692             380     130.173E-03     132.261E-03
            1692            2459     139.801E-03     142.319E-03
            1692            2460     143.853E-03     144.670E-03
            1693             118     155.832E-03     151.969E-03
            1693             119     144.500E-03     148.274E-03
            1693            2459     139.801E-03     142.319E-03
            1693            2460     143.853E-03     144.670E-03
            1694             380     130.173E-03     132.261E-03
            1694             381     125.354E-03     128.297E-03
            1694            2460     143.853E-03     144.670E-03
            1694            2461     143.348E-03     145.481E-03
            1695             117     163.179E-03     160.888E-03
            1695             118     155.832E-03     151.969E-03
            1695            2460     143.853E-03     144.670E-03
            1695            2461     143.348E-03     145.481E-03
            1696             381     125.354E-03     128.297E-03
            1696             382     129.254E-03     129.561E-03
            1696            2461     143.348E-03     145.481E-03
            1696            2462     139.750E-03     142.279E-03
            1697             116     149.809E-03     160.444E-03
            1697             117     163.179E-03     160.888E-03
            1697            2461     143.348E-03     145.481E-03
            1697            2462     139.750E-03     142.279E-03
            1698             382     129.254E-03     129.561E-03
            1698             383     140.275E-03     139.626E-03
            1698            2462     139.750E-03     142.279E-03
            1698            2463     144.272E-03     143.091E-03
            1699             115     149.370E-03     144.811E-03
            1699             116     149.809E-03     160.444E-03
            1699            2462     139.750E-03     142.279E-03
            1699            2463     144.272E-03     143.091E-03
            1700             383     140.275E-03     139.626E-03
            1700             384     146.904E-03     148.780E-03
            1700            2463     144.272E-03     143.091E-03
            1700            2464     152.057E-03     153.202E-03
            1701             114     155.217E-03     151.646E-03
            1701             115     149.370E-03     144.811E-03
            1701            2463     144.272E-03     143.091E-03
            1701            2464     152.057E-03     153.202E-03
            1702             384     146.904E-03     148.780E-03
            1702             385     152.020E-03     155.009E-03
            1702            2464     152.057E-03     153.202E-03
            1702            2465     157.848E-03     160.669E-03
            1703             113     157.843E-03     161.175E-03
            1703             114     155.217E-03     151.646E-03
            1703            2464     152.057E-03     153.202E-03
            1703            2465     157.848E-03     160.669E-03
            1704             385     152.020E-03     155.009E-03
            1704             386     155.564E-03     159.352E-03
            1704            2465     157.848E-03     160.669E-03
            1704            2466     163.251E-03     165.488E-03
            1705             112     166.697E-03     164.114E-03
            1705             113     157.843E-03     161.175E-03
            1705            2465     157.848E-03     160.669E-03
            1705            2466     163.251E-03     165.488E-03
            1706             386     155.564E-03     159.352E-03
            1706             387     158.213E-03     161.489E-03
            1706            2466     163.251E-03     165.488E-03
            1706            2467     167.211E-03     170.573E-03
            1707             111     169.963E-03     174.752E-03
            1707             112     166.697E-03     164.114E-03
            1707            2466     163.251E-03     165.488E-03
            1707            2467     167.211E-03     170.573E-03
            1708             387     158.213E-03     161.489E-03
            1708             388     157.866E-03     160.853E-03
            1708            2467     167.211E-03     170.573E-03
            1708            2468     171.410E-03     172.625E-03
            1709             110     182.557E-03     177.876E-03
            1709             111     169.963E-03     174.752E-03
            1709            2467     167.211E-03     170.573E-03
            1709            2468     171.410E-03     172.625E-03
            1710             388     157.866E-03     160.853E-03
            1710             389     152.290E-03     155.770E-03
            1710            2468     171.410E-03     172.625E-03
            1710            2469     170.359E-03     172.700E-03
            1711             109     190.200E-03     187.359E-03
            1711             110     182.557E-03     177.876E-03
            1711            2468     171.410E-03     172.625E-03
            1711            2469     170.359E-03     172.700E-03
            1712              21     155.627E-03     155.647E-03
            1712             389     152.290E-03     155.770E-03
            1712             460     167.345E-03     169.440E-03
            1712            2469     170.359E-03     172.700E-03
            1713               6     176.740E-03     183.696E-03
            1713             109     190.200E-03     187.359E-03
            1713             460     167.345E-03     169.440E-03
            1713            2469     170.359E-03     172.700E-03
            1714               2     16.8132E-03     16.6306E-03
            1714              44     8.17159E-15     9.65984E-15
            1714             470     16.1199E-03     15.9736E-03
            1714            2470     5.81134E-15     7.46705E-15
            1715              43     11.1432E-15     13.8179E-15
            1715              44     8.17159E-15     9.65984E-15
            1715            2470     5.81134E-15     7.46705E-15
            1715            2471     9.07062E-15     11.1109E-15
            1716               1     14.8158E-15     16.1652E-15
            1716              43     11.1432E-15     13.8179E-15
            1716             461     12.6564E-15     13.6740E-15
            1716            2471     9.07062E-15     11.1109E-15
            1717             469     14.2702E-03     14.1772E-03
            1717             470     16.1199E-03     15.9736E-03
            1717            2470     5.81134E-15     7.46705E-15
            1717            2472     11.0680E-15     11.5415E-15
            1718            2470     5.81134E-15     7.46705E-15
            1718            2471     9.07062E-15     11.1109E-15
            1718            2472     11.0680E-15     11.5415E-15
            1718            2473     20.3782E-15     19.9746E-15
            1719             461     12.6564E-15     13.6740E-15
            1719             462     27.5251E-15     26.1318E-15
            1719            2471     9.07062E-15     11.1109E-15
            1719            2473     20.3782E-15     19.9746E-15
            1720             468     11.1108E-03     11.3797E-03
            1720             469     14.2702E-03     14.1772E-03
            1720            2472     11.0680E-15     11.5415E-15
            1720            2474     16.3654E-15     17.7405E-15
            1721            2472     11.0680E-15     11.5415E-15
            1721            2473     20.3782E-15     19.9746E-15
            1721            2474     16.3654E-15     17.7405E-15
            1721            2475     23.1901E-15     21.5602E-15
            1722             462     27.5251E-15     26.1318E-15
            1722             463     27.5942E-15     23.1764E-15
            1722            2473     20.3782E-15     19.9746E-15
            1722            2475     23.1901E-15     21.5602E-15
            1723             467     7.68379E-03     8.26430E-03
            1723             468     11.1108E-03     11.3797E-03
            1723            2474     16.3654E-15     17.7405E-15
            1723            2476     13.8712E-15     16.0602E-15
            1724            2474     16.3654E-15     17.7405E-15
            1724            2475     23.1901E-15     21.5602E-15
            1724            2476     13.8712E-15     16.0602E-15
            1724            2477     9.62181E-15     9.23767E-15
            1725             463     27.5942E-15     23.1764E-15
            1725             464     8.83791E-15     4.71766E-15
            1725            2475     23.1901E-15     21.5602E-15
            1725            2477     9.62181E-15     9.23767E-15
            1726             466     5.67093E-03     7.10534E-03
            1726             467     7.68379E-03     8.26430E-03
            1726            2476     13.8712E-15     16.0602E-15
            1726            2478     10.8239E-15     11.9830E-15
            1727            2476     13.8712E-15     16.0602E-15
            1727            2477     9.62181E-15     9.23767E-15
            1727            2478     10.8239E-15     11.9830E-15
            1727            2479     8.08646E-15     8.54809E-15
            1728             464     8.83791E-15     4.71766E-15
            1728             465     8.58656E-15     7.37354E-15
            1728            2477     9.62181E-15     9.23767E-15
            1728            2479     8.08646E-15     8.54809E-15
            1729              23     5.10720E-03     7.25800E-03
            1729             456     15.1761E-15     15.6094E-15
            1729             466     5.67093E-03     7.10534E-03
            1729            2478     10.8239E-15     11.9830E-15
            1730             456     15.1761E-15     15.6094E-15
            1730             457     11.3762E-15     11.3920E-15
            1730            2478     10.8239E-15     11.9830E-15
            1730            2479     8.08646E-15     8.54809E-15
            1731              24     10.6472E-15     10.6367E-15
            1731             457     11.3762E-15     11.3920E-15
            1731             465     8.58656E-15     7.37354E-15
            1731            2479     8.08646E-15     8.54809E-15
            2140               3     5.10720E-03     7.25800E-03
            2140              50     18.0739E-15     18.8876E-15
            2140             459     3.97846E-03     4.43087E-03
            2140            2823     10.1515E-15     10.0930E-15
            2141              20     3.60039E-03     2.42620E-03
            2141             459     3.97846E-03     4.43087E-03
            2141             539     11.7584E-15     11.7764E-15
            2141            2823     10.1515E-15     10.0930E-15
            2142              50     18.0739E-15     18.8876E-15
            2142              51     15.5859E-15     16.7963E-15
            2142            2823     10.1515E-15     10.0930E-15
            2142            2824     16.1963E-15     16.4205E-15
            2143             539     11.7584E-15     11.7764E-15
            2143             540     15.7966E-15     13.2938E-15
            2143            2823     10.1515E-15     10.0930E-15
            2143            2824     16.1963E-15     16.4205E-15
            2144               4     11.2675E-15     12.6424E-15
            2144              51     15.5859E-15     16.7963E-15
            2144             541     18.0270E-15     17.8967E-15
            2144            2824     16.1963E-15     16.4205E-15
            2145              26     17.5294E-15     13.2494E-15
            2145             540     15.7966E-15     13.2938E-15
            2145             541     18.0270E-15     17.8967E-15
            2145            2824     16.1963E-15     16.4205E-15
            2146               7     43.2010E-03     42.0126E-03
            2146             161     43.0321E-03     39.8479E-03
            2146             557     59.3224E-03     64.5496E-03
            2146            2825     63.3997E-03     60.4940E-03
            2147             160     43.2661E-03     42.7097E-03
            2147             161     43.0321E-03     39.8479E-03
            2147            2825     63.3997E-03     60.4940E-03
            2147            2826     64.2265E-03     64.5116E-03
            2148             159     40.8520E-03     41.6451E-03
            2148             160     43.2661E-03     42.7097E-03
            2148            2826     64.2265E-03     64.5116E-03
            2148            2827     61.5712E-03     62.9213E-03
            2149             158     41.6256E-03     43.2509E-03
            2149             159     40.8520E-03     41.6451E-03
            2149            2827     61.5712E-03     62.9213E-03
            2149            2828     60.8904E-03     60.0994E-03
            2150             157     35.1699E-03     38.6791E-03
            2150             158     41.6256E-03     43.2509E-03
            2150            2828     60.8904E-03     60.0994E-03
            2150            2829     52.7382E-03     57.4878E-03
            2151             156     39.5689E-03     40.1119E-03
            2151             157     35.1699E-03     38.6791E-03
            2151            2829     52.7382E-03     57.4878E-03
            2151            2830     56.8494E-03     57.2537E-03
            2152               5     43.1032E-03     42.8280E-03
            2152             156     39.5689E-03     40.1119E-03
            2152             542     57.9558E-03     59.5185E-03
            2152            2830     56.8494E-03     57.2537E-03
            2153             556     93.1505E-03     109.517E-03
            2153             557     59.3224E-03     64.5496E-03
            2153            2825     63.3997E-03     60.4940E-03
            2153            2831     106.520E-03     101.973E-03
            2154            2825     63.3997E-03     60.4940E-03
            2154            2826     64.2265E-03     64.5116E-03
            2154            2831     106.520E-03     101.973E-03
            2154            2832     108.872E-03     107.963E-03
            2155            2826     64.2265E-03     64.5116E-03
            2155            2827     61.5712E-03     62.9213E-03
            2155            2832     108.872E-03     107.963E-03
            2155            2833     104.470E-03     105.601E-03
            2156            2827     61.5712E-03     62.9213E-03
            2156            2828     60.8904E-03     60.0994E-03
            2156            2833     104.470E-03     105.601E-03
            2156            2834     100.039E-03     95.4292E-03
            2157            2828     60.8904E-03     60.0994E-03
            2157            2829     52.7382E-03     57.4878E-03
            2157            2834     100.039E-03     95.4292E-03
            2157            2835     87.2844E-03     95.5120E-03
            2158            2829     52.7382E-03     57.4878E-03
            2158            2830     56.8494E-03     57.2537E-03
            2158            2835     87.2844E-03     95.5120E-03
            2158            2836     91.6051E-03     92.9861E-03
            2159             542     57.9558E-03     59.5185E-03
            2159             543     89.2527E-03     95.6405E-03
            2159            2830     56.8494E-03     57.2537E-03
            2159            2836     91.6051E-03     92.9861E-03
            2160             555     126.833E-03     157.194E-03
            2160             556     93.1505E-03     109.517E-03
            2160            2831     106.520E-03     101.973E-03
            2160            2837     148.093E-03     140.209E-03
            2161            2831     106.520E-03     101.973E-03
            2161            2832     108.872E-03     107.963E-03
            2161            2837     148.093E-03     140.209E-03
            2161            2838     150.084E-03     144.294E-03
            2162            2832     108.872E-03     107.963E-03
            2162            2833     104.470E-03     105.601E-03
            2162            2838     150.084E-03     144.294E-03
            2162            2839     143.764E-03     142.587E-03
            2163            2833     104.470E-03     105.601E-03
            2163            2834     100.039E-03     95.4292E-03
            2163            2839     143.764E-03     142.587E-03
            2163            2840     137.598E-03     130.924E-03
            2164            2834     100.039E-03     95.4292E-03
            2164            2835     87.2844E-03     95.5120E-03
            2164            2840     137.598E-03     130.924E-03
            2164            2841     119.809E-03     134.006E-03
            2165            2835     87.2844E-03     95.5120E-03
            2165            2836     91.6051E-03     92.9861E-03
            2165            2841     119.809E-03     134.006E-03
            2165            2842     124.673E-03     126.496E-03
            2166             543     89.2527E-03     95.6405E-03
            2166             544     120.696E-03     134.137E-03
            2166            2836     91.6051E-03     92.9861E-03
            2166            2842     124.673E-03     126.496E-03
            2167             554     153.929E-03     200.847E-03
            2167             555     126.833E-03     157.194E-03
            2167            2837     148.093E-03     140.209E-03
            2167            2843     180.759E-03     173.997E-03
            2168            2837     148.093E-03     140.209E-03
            2168            2838     150.084E-03     144.294E-03
            2168            2843     180.759E-03     173.997E-03
            2168            2844     177.059E-03     173.807E-03
            2169            2838     150.084E-03     144.294E-03
            2169            2839     143.764E-03     142.587E-03
            2169            2844     177.059E-03     173.807E-03
            2169            2845     169.095E-03     171.439E-03
            2170            2839     143.764E-03     142.587E-03
            2170            2840     137.598E-03     130.924E-03
            2170            2845     169.095E-03     171.439E-03
            2170            2846     168.108E-03     161.484E-03
            2171            2840     137.598E-03     130.924E-03
            2171            2841     119.809E-03     134.006E-03
            2171            2846     168.108E-03     161.484E-03
            2171            2847     145.952E-03     166.928E-03
            2172            2841     119.809E-03     134.006E-03
            2172            2842     124.673E-03     126.496E-03
            2172            2847     145.952E-03     166.928E-03
            2172            2848     150.742E-03     153.012E-03
            2173             544     120.696E-03     134.137E-03
            2173             545     146.672E-03     167.166E-03
            2173            2842     124.673E-03     126.496E-03
            2173            2848     150.742E-03     153.012E-03
            2174             553     186.992E-03     228.948E-03
            2174             554     153.929E-03     200.847E-03
            2174            2843     180.759E-03     173.997E-03
            2174            2849     206.172E-03     199.406E-03
            2175            2843     180.759E-03     173.997E-03
            2175            2844     177.059E-03     173.807E-03
            2175            2849     206.172E-03     199.406E-03
            2175            2850     194.644E-03     192.719E-03
            2176            2844     177.059E-03     173.807E-03
            2176            2845     169.095E-03     171.439E-03
            2176            2850     194.644E-03     192.719E-03
            2176            2851     183.984E-03     186.796E-03
            2177            2845     169.095E-03     171.439E-03
            2177            2846     168.108E-03     161.484E-03
            2177            2851     183.984E-03     186.796E-03
            2177            2852     185.451E-03     177.035E-03
            2178            2846     168.108E-03     161.484E-03
            2178            2847     145.952E-03     166.928E-03
            2178            2852     185.451E-03     177.035E-03
            2178            2853     165.982E-03     184.410E-03
            2179            2847     145.952E-03     166.928E-03
            2179            2848     150.742E-03     153.012E-03
            2179            2853     165.982E-03     184.410E-03
            2179            2854     167.004E-03     169.786E-03
            2180             545     146.672E-03     167.166E-03
            2180             546     168.393E-03     185.649E-03
            2180            2848     150.742E-03     153.012E-03
            2180            2854     167.004E-03     169.786E-03
            2181              27     205.716E-03     226.350E-03
            2181             552     210.194E-03     206.333E-03
            2181             553     186.992E-03     228.948E-03
            2181            2849     206.172E-03     199.406E-03
            2182             551     200.373E-03     198.149E-03
            2182             552     210.194E-03     206.333E-03
            2182            2849     206.172E-03     199.406E-03
            2182            2850     194.644E-03     192.719E-03
            2183             550     190.484E-03     191.045E-03
            2183             551     200.373E-03     198.149E-03
            2183            2850     194.644E-03     192.719E-03
            2183            2851     183.984E-03     186.796E-03
            2184             549     186.084E-03     179.802E-03
            2184             550     190.484E-03     191.045E-03
            2184            2851     183.984E-03     186.796E-03
            2184            2852     185.451E-03     177.035E-03
            2185             548     175.129E-03     184.021E-03
            2185             549     186.084E-03     179.802E-03
            2185            2852     185.451E-03     177.035E-03
            2185            2853     165.982E-03     184.410E-03
            2186             547     172.249E-03     174.369E-03
            2186             548     175.129E-03     184.021E-03
            2186            2853     165.982E-03     184.410E-03
            2186            2854     167.004E-03     169.786E-03
            2187              25     176.740E-03     183.696E-03
            2187             546     168.393E-03     185.649E-03
            2187             547     172.249E-03     174.369E-03
            2187            2854     167.004E-03     169.786E-03
            2188              25     176.740E-03     183.696E-03
            2188             547     172.249E-03     174.369E-03
            2188             558     167.345E-03     169.440E-03
            2188            2855     167.253E-03     170.341E-03
            2189              28     155.627E-03     155.647E-03
            2189             558     167.345E-03     169.440E-03
            2189             559     159.372E-03     161.910E-03
            2189            2855     167.253E-03     170.341E-03
            2190             547     172.249E-03     174.369E-03
            2190             548     175.129E-03     184.021E-03
            2190            2855     167.253E-03     170.341E-03
            2190            2856     169.998E-03     174.653E-03
            2191             559     159.372E-03     161.910E-03
            2191             560     162.865E-03     166.377E-03
            2191            2855     167.253E-03     170.341E-03
            2191            2856     169.998E-03     174.653E-03
            2192             548     175.129E-03     184.021E-03
            2192             549     186.084E-03     179.802E-03
            2192            2856     169.998E-03     174.653E-03
            2192            2857     179.694E-03     179.361E-03
            2193             560     162.865E-03     166.377E-03
            2193             561     173.753E-03     174.573E-03
            2193            2856     169.998E-03     174.653E-03
            2193            2857     179.694E-03     179.361E-03
            2194             549     186.084E-03     179.802E-03
            2194             550     190.484E-03     191.045E-03
            2194            2857     179.694E-03     179.361E-03
            2194            2858     187.811E-03     190.602E-03
            2195             561     173.753E-03     174.573E-03
            2195             562     180.484E-03     183.014E-03
            2195            2857     179.694E-03     179.361E-03
            2195            2858     187.811E-03     190.602E-03
            2196             550     190.484E-03     191.045E-03
            2196             551     200.373E-03     198.149E-03
            2196            2858     187.811E-03     190.602E-03
            2196            2859     193.396E-03     195.802E-03
            2197             562     180.484E-03     183.014E-03
            2197             563     181.799E-03     185.513E-03
            2197            2858     187.811E-03     190.602E-03
            2197            2859     193.396E-03     195.802E-03
            2198             551     200.373E-03     198.149E-03
            2198             552     210.194E-03     206.333E-03
            2198            2859     193.396E-03     195.802E-03
            2198            2860     192.767E-03     196.172E-03
            2199             563     181.799E-03     185.513E-03
            2199             564     176.200E-03     181.515E-03
            2199            2859     193.396E-03     195.802E-03
            2199            2860     192.767E-03     196.172E-03
            2200              27     205.716E-03     226.350E-03
            2200             552     210.194E-03     206.333E-03
            2200             565     188.912E-03     197.869E-03
            2200            2860     192.767E-03     196.172E-03
            2201              29     170.736E-03     176.096E-03
            2201             564     176.200E-03     181.515E-03
            2201             565     188.912E-03     197.869E-03
            2201            2860     192.767E-03     196.172E-03
            2202              20     3.60039E-03     2.42620E-03
            2202             342     5.02339E-03     3.78713E-03
            2202             539     11.7584E-15     11.7764E-15
            2202            2861     14.6923E-15     17.1706E-15
            2203             341     5.88677E-03     4.80357E-03
            2203             342     5.02339E-03     3.78713E-03
            2203            2861     14.6923E-15     17.1706E-15
            2203            2862     13.6870E-15     13.4844E-15
            2204             340     6.32008E-03     5.35137E-03
            2204             341     5.88677E-03     4.80357E-03
            2204            2862     13.6870E-15     13.4844E-15
            2204            2863     11.8738E-15     11.4653E-15
            2205             339     6.53203E-03     5.61868E-03
            2205             340     6.32008E-03     5.35137E-03
            2205            2863     11.8738E-15     11.4653E-15
            2205            2864     15.8419E-15     19.6017E-15
            2206             338     6.55365E-03     5.70978E-03
            2206             339     6.53203E-03     5.61868E-03
            2206            2864     15.8419E-15     19.6017E-15
            2206            2865     15.4952E-15     17.8654E-15
            2207             337     6.49462E-03     5.69141E-03
            2207             338     6.55365E-03     5.70978E-03
            2207            2865     15.4952E-15     17.8654E-15
            2207            2866     16.8387E-15     15.8095E-15
            2208             336     6.35690E-03     5.60393E-03
            2208             337     6.49462E-03     5.69141E-03
            2208            2866     16.8387E-15     15.8095E-15
            2208            2867     16.3630E-15     14.7431E-15
            2209             335     6.19855E-03     5.48870E-03
            2209             336     6.35690E-03     5.60393E-03
            2209            2867     16.3630E-15     14.7431E-15
            2209            2868     14.6384E-15     17.3521E-15
            2210             334     6.01269E-03     5.34943E-03
            2210             335     6.19855E-03     5.48870E-03
            2210            2868     14.6384E-15     17.3521E-15
            2210            2869     17.4931E-15     20.7218E-15
            2211             333     5.82867E-03     5.21372E-03
            2211             334     6.01269E-03     5.34943E-03
            2211            2869     17.4931E-15     20.7218E-15
            2211            2870     17.5061E-15     17.8102E-15
            2212             332     5.63885E-03     5.07619E-03
            2212             333     5.82867E-03     5.21372E-03
            2212            2870     17.5061E-15     17.8102E-15
            2212            2871     13.6901E-15     14.7208E-15
            2213             331     5.46078E-03     4.95334E-03
            2213             332     5.63885E-03     5.07619E-03
            2213            2871     13.6901E-15     14.7208E-15
            2213            2872     8.23779E-15     9.46266E-15
            2214             330     5.28597E-03     4.84215E-03
            2214             331     5.46078E-03     4.95334E-03
            2214            2872     8.23779E-15     9.46266E-15
            2214            2873     10.6641E-15     13.0670E-15
            2215             329     5.12798E-03     4.74878E-03
            2215             330     5.28597E-03     4.84215E-03
            2215            2873     10.6641E-15     13.0670E-15
            2215            2874     12.9514E-15     17.6135E-15
            2216             328     4.97555E-03     4.68274E-03
            2216             329     5.12798E-03     4.74878E-03
            2216            2874     12.9514E-15     17.6135E-15
            2216            2875     11.1909E-15     12.1846E-15
            2217             327     4.82884E-03     4.63492E-03
            2217             328     4.97555E-03     4.68274E-03
            2217            2875     11.1909E-15     12.1846E-15
            2217            2876     12.2147E-15     11.2920E-15
            2218             326     4.67088E-03     4.68150E-03
            2218             327     4.82884E-03     4.63492E-03
            2218            2876     12.2147E-15     11.2920E-15
            2218            2877     16.4264E-15     15.3540E-15
            2219             325     4.30333E-03     4.91812E-03
            2219             326     4.67088E-03     4.68150E-03
            2219            2877     16.4264E-15     15.3540E-15
            2219            2878     13.6411E-15     12.0031E-15
            2220              16     4.02340E-03     5.07694E-03
            2220             324     15.1843E-15     13.6190E-15
            2220             325     4.30333E-03     4.91812E-03
            2220            2878     13.6411E-15     12.0031E-15
            2221             539     11.7584E-15     11.7764E-15
            2221             540     15.7966E-15     13.2938E-15
            2221            2861     14.6923E-15     17.1706E-15
            2221            2879     18.4744E-15     15.1588E-15
            2222            2861     14.6923E-15     17.1706E-15
            2222            2862     13.6870E-15     13.4844E-15
            2222            2879     18.4744E-15     15.1588E-15
            2222            2880     16.8916E-15     15.1183E-15
            2223            2862     13.6870E-15     13.4844E-15
            2223            2863     11.8738E-15     11.4653E-15
            2223            2880     16.8916E-15     15.1183E-15
            2223            2881     13.6942E-15     11.1408E-15
            2224            2863     11.8738E-15     11.4653E-15
            2224            2864     15.8419E-15     19.6017E-15
            2224            2881     13.6942E-15     11.1408E-15
            2224            2882     13.8610E-15     13.4746E-15
            2225            2864     15.8419E-15     19.6017E-15
            2225            2865     15.4952E-15     17.8654E-15
            2225            2882     13.8610E-15     13.4746E-15
            2225            2883     12.3447E-15     12.3938E-15
            2226            2865     15.4952E-15     17.8654E-15
            2226            2866     16.8387E-15     15.8095E-15
            2226            2883     12.3447E-15     12.3938E-15
            2226            2884     13.3927E-15     10.6210E-15
            2227            2866     16.8387E-15     15.8095E-15
            2227            2867     16.3630E-15     14.7431E-15
            2227            2884     13.3927E-15     10.6210E-15
            2227            2885     14.0978E-15     12.2213E-15
            2228            2867     16.3630E-15     14.7431E-15
            2228            2868     14.6384E-15     17.3521E-15
            2228            2885     14.0978E-15     12.2213E-15
            2228            2886     12.0170E-15     12.1586E-15
            2229            2868     14.6384E-15     17.3521E-15
            2229            2869     17.4931E-15     20.7218E-15
            2229            2886     12.0170E-15     12.1586E-15
            2229            2887     10.3140E-15     11.6159E-15
            2230            2869     17.4931E-15     20.7218E-15
            2230            2870     17.5061E-15     17.8102E-15
            2230            2887     10.3140E-15     11.6159E-15
            2230            2888     9.00554E-15     9.02893E-15
            2231            2870     17.5061E-15     17.8102E-15
            2231            2871     13.6901E-15     14.7208E-15
            2231            2888     9.00554E-15     9.02893E-15
            2231            2889     7.57532E-15     8.23258E-15
            2232            2871     13.6901E-15     14.7208E-15
            2232            2872     8.23779E-15     9.46266E-15
            2232            2889     7.57532E-15     8.23258E-15
            2232            2890     10.6829E-15     9.42069E-15
            2233            2872     8.23779E-15     9.46266E-15
            2233            2873     10.6641E-15     13.0670E-15
            2233            2890     10.6829E-15     9.42069E-15
            2233            2891     14.2924E-15     10.9466E-15
            2234            2873     10.6641E-15     13.0670E-15
            2234            2874     12.9514E-15     17.6135E-15
            2234            2891     14.2924E-15     10.9466E-15
            2234            2892     13.1190E-15     13.2849E-15
            2235            2874     12.9514E-15     17.6135E-15
            2235            2875     11.1909E-15     12.1846E-15
            2235            2892     13.1190E-15     13.2849E-15
            2235            2893     9.21326E-15     12.8608E-15
            2236            2875     11.1909E-15     12.1846E-15
            2236            2876     12.2147E-15     11.2920E-15
            2236            2893     9.21326E-15     12.8608E-15
            2236            2894     12.8269E-15     15.1967E-15
            2237            2876     12.2147E-15     11.2920E-15
            2237            2877     16.4264E-15     15.3540E-15
            2237            2894     12.8269E-15     15.1967E-15
            2237            2895     13.8807E-15     14.3431E-15
            2238            2877     16.4264E-15     15.3540E-15
            2238            2878     13.6411E-15     12.0031E-15
            2238            2895     13.8807E-15     14.3431E-15
            2238            2896     10.5830E-15     12.4484E-15
            2239             323     21.2681E-15     20.9094E-15
            2239             324     15.1843E-15     13.6190E-15
            2239            2878     13.6411E-15     12.0031E-15
            2239            2896     10.5830E-15     12.4484E-15
            2240              26     17.5294E-15     13.2494E-15
            2240             540     15.7966E-15     13.2938E-15
            2240             583     19.6114E-15     13.0467E-15
            2240            2879     18.4744E-15     15.1588E-15
            2241             582     21.5096E-15     16.8297E-15
            2241             583     19.6114E-15     13.0467E-15
            2241            2879     18.4744E-15     15.1588E-15
            2241            2880     16.8916E-15     15.1183E-15
            2242             581     17.7707E-15     11.8773E-15
            2242             582     21.5096E-15     16.8297E-15
            2242            2880     16.8916E-15     15.1183E-15
            2242            2881     13.6942E-15     11.1408E-15
            2243             580     13.4660E-15     13.1270E-15
            2243             581     17.7707E-15     11.8773E-15
            2243            2881     13.6942E-15     11.1408E-15
            2243            2882     13.8610E-15     13.4746E-15
            2244             579     11.1058E-15     14.1215E-15
            2244             580     13.4660E-15     13.1270E-15
            2244            2882     13.8610E-15     13.4746E-15
            2244            2883     12.3447E-15     12.3938E-15
            2245             578     12.9106E-15     9.97848E-15
            2245             579     11.1058E-15     14.1215E-15
            2245            2883     12.3447E-15     12.3938E-15
            2245            2884     13.3927E-15     10.6210E-15
            2246             577     11.9471E-15     8.42323E-15
            2246             578     12.9106E-15     9.97848E-15
            2246            2884     13.3927E-15     10.6210E-15
            2246            2885     14.0978E-15     12.2213E-15
            2247             576     13.0013E-15     10.1541E-15
            2247             577     11.9471E-15     8.42323E-15
            2247            2885     14.0978E-15     12.2213E-15
            2247            2886     12.0170E-15     12.1586E-15
            2248             575     11.2272E-15     11.4232E-15
            2248             576     13.0013E-15     10.1541E-15
            2248            2886     12.0170E-15     12.1586E-15
            2248            2887     10.3140E-15     11.6159E-15
            2249             574     8.19142E-15     9.39094E-15
            2249             575     11.2272E-15     11.4232E-15
            2249            2887     10.3140E-15     11.6159E-15
            2249            2888     9.00554E-15     9.02893E-15
            2250             573     6.26748E-15     8.85079E-15
            2250             574     8.19142E-15     9.39094E-15
            2250            2888     9.00554E-15     9.02893E-15
            2250            2889     7.57532E-15     8.23258E-15
            2251             572     12.0376E-15     10.5470E-15
            2251             573     6.26748E-15     8.85079E-15
            2251            2889     7.57532E-15     8.23258E-15
            2251            2890     10.6829E-15     9.42069E-15
            2252             571     16.9286E-15     8.53924E-15
            2252             572     12.0376E-15     10.5470E-15
            2252            2890     10.6829E-15     9.42069E-15
            2252            2891     14.2924E-15     10.9466E-15
            2253             570     11.7874E-15     13.1136E-15
            2253             571     16.9286E-15     8.53924E-15
            2253            2891     14.2924E-15     10.9466E-15
            2253            2892     13.1190E-15     13.2849E-15
            2254             569     6.58747E-15     16.3536E-15
            2254             570     11.7874E-15     13.1136E-15
            2254            2892     13.1190E-15     13.2849E-15
            2254            2893     9.21326E-15     12.8608E-15
            2255             568     9.30381E-15     15.1391E-15
            2255             569     6.58747E-15     16.3536E-15
            2255            2893     9.21326E-15     12.8608E-15
            2255            2894     12.8269E-15     15.1967E-15
            2256             567     10.9063E-15     12.1337E-15
            2256             568     9.30381E-15     15.1391E-15
            2256            2894     12.8269E-15     15.1967E-15
            2256            2895     13.8807E-15     14.3431E-15
            2257             566     12.4982E-15     15.3899E-15
            2257             567     10.9063E-15     12.1337E-15
            2257            2895     13.8807E-15     14.3431E-15
            2257            2896     10.5830E-15     12.4484E-15
            2258              19     28.1007E-15     32.6319E-15
            2258             323     21.2681E-15     20.9094E-15
            2258             566     12.4982E-15     15.3899E-15
            2258            2896     10.5830E-15     12.4484E-15
            2259              28     155.627E-03     155.647E-03
            2259             559     159.372E-03     161.910E-03
            2259             584     145.867E-03     145.723E-03
            2259            2897     150.982E-03     153.472E-03
            2260             584     145.867E-03     145.723E-03
            2260             585     137.092E-03     137.362E-03
            2260            2897     150.982E-03     153.472E-03
            2260            2898     142.377E-03     145.206E-03
            2261             585     137.092E-03     137.362E-03
            2261             586     128.986E-03     129.235E-03
            2261            2898     142.377E-03     145.206E-03
            2261            2899     134.100E-03     136.560E-03
            2262             586     128.986E-03     129.235E-03
            2262             587     120.854E-03     121.489E-03
            2262            2899     134.100E-03     136.560E-03
            2262            2900     125.497E-03     128.262E-03
            2263             587     120.854E-03     121.489E-03
            2263             588     113.009E-03     113.632E-03
            2263            2900     125.497E-03     128.262E-03
            2263            2901     117.164E-03     119.713E-03
            2264             588     113.009E-03     113.632E-03
            2264             589     105.058E-03     105.863E-03
            2264            2901     117.164E-03     119.713E-03
            2264            2902     108.660E-03     111.350E-03
            2265             589     105.058E-03     105.863E-03
            2265             590     97.1890E-03     97.9838E-03
            2265            2902     108.660E-03     111.350E-03
            2265            2903     100.272E-03     102.879E-03
            2266             590     97.1890E-03     97.9838E-03
            2266             591     89.2436E-03     90.1071E-03
            2266            2903     100.272E-03     102.879E-03
            2266            2904     91.8238E-03     94.4769E-03
            2267             591     89.2436E-03     90.1071E-03
            2267             592     81.3052E-03     82.1660E-03
            2267            2904     91.8238E-03     94.4769E-03
            2267            2905     83.4142E-03     86.0448E-03
            2268             592     81.3052E-03     82.1660E-03
            2268             593     73.3245E-03     74.2137E-03
            2268            2905     83.4142E-03     86.0448E-03
            2268            2906     74.9930E-03     77.6357E-03
            2269             593     73.3245E-03     74.2137E-03
            2269             594     65.3408E-03     66.2333E-03
            2269            2906     74.9930E-03     77.6357E-03
            2269            2907     66.5871E-03     69.2264E-03
            2270             594     65.3408E-03     66.2333E-03
            2270             595     57.3487E-03     58.2518E-03
            2270            2907     66.5871E-03     69.2264E-03
            2270            2908     58.1876E-03     60.8327E-03
            2271             595     57.3487E-03     58.2518E-03
            2271             596     49.3826E-03     50.2660E-03
            2271            2908     58.1876E-03     60.8327E-03
            2271            2909     49.8072E-03     52.4526E-03
            2272             596     49.3826E-03     50.2660E-03
            2272             597     41.4618E-03     42.2998E-03
            2272            2909     49.8072E-03     52.4526E-03
            2272            2910     41.4486E-03     44.1035E-03
            2273             597     41.4618E-03     42.2998E-03
            2273             598     33.6582E-03     34.3694E-03
            2273            2910     41.4486E-03     44.1035E-03
            2273            2911     33.1364E-03     35.8003E-03
            2274             598     33.6582E-03     34.3694E-03
            2274             599     26.0474E-03     26.5344E-03
            2274            2911     33.1364E-03     35.8003E-03
            2274            2912     24.9142E-03     27.5918E-03
            2275             599     26.0474E-03     26.5344E-03
            2275             600     18.8503E-03     19.0203E-03
            2275            2912     24.9142E-03     27.5918E-03
            2275            2913     16.9045E-03     19.6215E-03
            2276             600     18.8503E-03     19.0203E-03
            2276             601     12.3443E-03     12.6798E-03
            2276            2913     16.9045E-03     19.6215E-03
            2276            2914     10.2262E-03     12.3460E-03
            2277              22     9.28166E-03     9.98339E-03
            2277             601     12.3443E-03     12.6798E-03
            2277             602     7.46478E-03     8.98078E-03
            2277            2914     10.2262E-03     12.3460E-03
            2278             559     159.372E-03     161.910E-03
            2278             560     162.865E-03     166.377E-03
            2278            2897     150.982E-03     153.472E-03
            2278            2915     156.087E-03     159.764E-03
            2279            2897     150.982E-03     153.472E-03
            2279            2898     142.377E-03     145.206E-03
            2279            2915     156.087E-03     159.764E-03
            2279            2916     148.005E-03     152.077E-03
            2280            2898     142.377E-03     145.206E-03
            2280            2899     134.100E-03     136.560E-03
            2280            2916     148.005E-03     152.077E-03
            2280            2917     139.897E-03     143.806E-03
            2281            2899     134.100E-03     136.560E-03
            2281            2900     125.497E-03     128.262E-03
            2281            2917     139.897E-03     143.806E-03
            2281            2918     131.313E-03     135.460E-03
            2282            2900     125.497E-03     128.262E-03
            2282            2901     117.164E-03     119.713E-03
            2282            2918     131.313E-03     135.460E-03
            2282            2919     122.836E-03     126.883E-03
            2283            2901     117.164E-03     119.713E-03
            2283            2902     108.660E-03     111.350E-03
            2283            2919     122.836E-03     126.883E-03
            2283            2920     114.154E-03     118.264E-03
            2284            2902     108.660E-03     111.350E-03
            2284            2903     100.272E-03     102.879E-03
            2284            2920     114.154E-03     118.264E-03
            2284            2921     105.496E-03     109.566E-03
            2285            2903     100.272E-03     102.879E-03
            2285            2904     91.8238E-03     94.4769E-03
            2285            2921     105.496E-03     109.566E-03
            2285            2922     96.7556E-03     100.837E-03
            2286            2904     91.8238E-03     94.4769E-03
            2286            2905     83.4142E-03     86.0448E-03
            2286            2922     96.7556E-03     100.837E-03
            2286            2923     88.0206E-03     92.0896E-03
            2287            2905     83.4142E-03     86.0448E-03
            2287            2906     74.9930E-03     77.6357E-03
            2287            2923     88.0206E-03     92.0896E-03
            2287            2924     79.2657E-03     83.3335E-03
            2288            2906     74.9930E-03     77.6357E-03
            2288            2907     66.5871E-03     69.2264E-03
            2288            2924     79.2657E-03     83.3335E-03
            2288            2925     70.5273E-03     74.5911E-03
            2289            2907     66.5871E-03     69.2264E-03
            2289            2908     58.1876E-03     60.8327E-03
            2289            2925     70.5273E-03     74.5911E-03
            2289            2926     61.8064E-03     65.8733E-03
            2290            2908     58.1876E-03     60.8327E-03
            2290            2909     49.8072E-03     52.4526E-03
            2290            2926     61.8064E-03     65.8733E-03
            2290            2927     53.1327E-03     57.2047E-03
            2291            2909     49.8072E-03     52.4526E-03
            2291            2910     41.4486E-03     44.1035E-03
            2291            2927     53.1327E-03     57.2047E-03
            2291            2928     44.5293E-03     48.6196E-03
            2292            2910     41.4486E-03     44.1035E-03
            2292            2911     33.1364E-03     35.8003E-03
            2292            2928     44.5293E-03     48.6196E-03
            2292            2929     36.0605E-03     40.1667E-03
            2293            2911     33.1364E-03     35.8003E-03
            2293            2912     24.9142E-03     27.5918E-03
            2293            2929     36.0605E-03     40.1667E-03
            2293            2930     27.8646E-03     31.9244E-03
            2294            2912     24.9142E-03     27.5918E-03
            2294            2913     16.9045E-03     19.6215E-03
            2294            2930     27.8646E-03     31.9244E-03
            2294            2931     20.1737E-03     24.2236E-03
            2295            2913     16.9045E-03     19.6215E-03
            2295            2914     10.2262E-03     12.3460E-03
            2295            2931     20.1737E-03     24.2236E-03
            2295            2932     13.8771E-03     18.0159E-03
            2296             602     7.46478E-03     8.98078E-03
            2296             603     11.2596E-03     15.4648E-03
            2296            2914     10.2262E-03     12.3460E-03
            2296            2932     13.8771E-03     18.0159E-03
            2297             560     162.865E-03     166.377E-03
            2297             561     173.753E-03     174.573E-03
            2297            2915     156.087E-03     159.764E-03
            2297            2933     166.660E-03     167.003E-03
            2298            2915     156.087E-03     159.764E-03
            2298            2916     148.005E-03     152.077E-03
            2298            2933     166.660E-03     167.003E-03
            2298            2934     158.333E-03     158.683E-03
            2299            2916     148.005E-03     152.077E-03
            2299            2917     139.897E-03     143.806E-03
            2299            2934     158.333E-03     158.683E-03
            2299            2935     149.405E-03     149.950E-03
            2300            2917     139.897E-03     143.806E-03
            2300            2918     131.313E-03     135.460E-03
            2300            2935     149.405E-03     149.950E-03
            2300            2936     140.542E-03     141.041E-03
            2301            2918     131.313E-03     135.460E-03
            2301            2919     122.836E-03     126.883E-03
            2301            2936     140.542E-03     141.041E-03
            2301            2937     131.478E-03     132.030E-03
            2302            2919     122.836E-03     126.883E-03
            2302            2920     114.154E-03     118.264E-03
            2302            2937     131.478E-03     132.030E-03
            2302            2938     122.422E-03     122.960E-03
            2303            2920     114.154E-03     118.264E-03
            2303            2921     105.496E-03     109.566E-03
            2303            2938     122.422E-03     122.960E-03
            2303            2939     113.282E-03     113.826E-03
            2304            2921     105.496E-03     109.566E-03
            2304            2922     96.7556E-03     100.837E-03
            2304            2939     113.282E-03     113.826E-03
            2304            2940     104.131E-03     104.670E-03
            2305            2922     96.7556E-03     100.837E-03
            2305            2923     88.0206E-03     92.0896E-03
            2305            2940     104.131E-03     104.670E-03
            2305            2941     94.9509E-03     95.4902E-03
            2306            2923     88.0206E-03     92.0896E-03
            2306            2924     79.2657E-03     83.3335E-03
            2306            2941     94.9509E-03     95.4902E-03
            2306            2942     85.7800E-03     86.3167E-03
            2307            2924     79.2657E-03     83.3335E-03
            2307            2925     70.5273E-03     74.5911E-03
            2307            2942     85.7800E-03     86.3167E-03
            2307            2943     76.6215E-03     77.1582E-03
            2308            2925     70.5273E-03     74.5911E-03
            2308            2926     61.8064E-03     65.8733E-03
            2308            2943     76.6215E-03     77.1582E-03
            2308            2944     67.5071E-03     68.0410E-03
            2309            2926     61.8064E-03     65.8733E-03
            2309            2927     53.1327E-03     57.2047E-03
            2309            2944     67.5071E-03     68.0410E-03
            2309            2945     58.4548E-03     58.9939E-03
            2310            2927     53.1327E-03     57.2047E-03
            2310            2928     44.5293E-03     48.6196E-03
            2310            2945     58.4548E-03     58.9939E-03
            2310            2946     49.5237E-03     50.0528E-03
            2311            2928     44.5293E-03     48.6196E-03
            2311            2929     36.0605E-03     40.1667E-03
            2311            2946     49.5237E-03     50.0528E-03
            2311            2947     40.7836E-03     41.3139E-03
            2312            2929     36.0605E-03     40.1667E-03
            2312            2930     27.8646E-03     31.9244E-03
            2312            2947     40.7836E-03     41.3139E-03
            2312            2948     32.3497E-03     32.9627E-03
            2313            2930     27.8646E-03     31.9244E-03
            2313            2931     20.1737E-03     24.2236E-03
            2313            2948     32.3497E-03     32.9627E-03
            2313            2949     24.5699E-03     25.5437E-03
            2314            2931     20.1737E-03     24.2236E-03
            2314            2932     13.8771E-03     18.0159E-03
            2314            2949     24.5699E-03     25.5437E-03
            2314            2950     18.2323E-03     20.7905E-03
            2315             603     11.2596E-03     15.4648E-03
            2315             604     15.5554E-03     19.4038E-03
            2315            2932     13.8771E-03     18.0159E-03
            2315            2950     18.2323E-03     20.7905E-03
            2316             561     173.753E-03     174.573E-03
            2316             562     180.484E-03     183.014E-03
            2316            2933     166.660E-03     167.003E-03
            2316            2951     170.150E-03     172.673E-03
            2317            2933     166.660E-03     167.003E-03
            2317            2934     158.333E-03     158.683E-03
            2317            2951     170.150E-03     172.673E-03
            2317            2952     159.902E-03     162.320E-03
            2318            2934     158.333E-03     158.683E-03
            2318            2935     149.405E-03     149.950E-03
            2318            2952     159.902E-03     162.320E-03
            2318            2953     150.260E-03     152.449E-03
            2319            2935     149.405E-03     149.950E-03
            2319            2936     140.542E-03     141.041E-03
            2319            2953     150.260E-03     152.449E-03
            2319            2954     140.630E-03     142.787E-03
            2320            2936     140.542E-03     141.041E-03
            2320            2937     131.478E-03     132.030E-03
            2320            2954     140.630E-03     142.787E-03
            2320            2955     131.145E-03     133.263E-03
            2321            2937     131.478E-03     132.030E-03
            2321            2938     122.422E-03     122.960E-03
            2321            2955     131.145E-03     133.263E-03
            2321            2956     121.693E-03     123.819E-03
            2322            2938     122.422E-03     122.960E-03
            2322            2939     113.282E-03     113.826E-03
            2322            2956     121.693E-03     123.819E-03
            2322            2957     112.293E-03     114.416E-03
            2323            2939     113.282E-03     113.826E-03
            2323            2940     104.131E-03     104.670E-03
            2323            2957     112.293E-03     114.416E-03
            2323            2958     102.910E-03     105.037E-03
            2324            2940     104.131E-03     104.670E-03
            2324            2941     94.9509E-03     95.4902E-03
            2324            2958     102.910E-03     105.037E-03
            2324            2959     93.5513E-03     95.6764E-03
            2325            2941     94.9509E-03     95.4902E-03
            2325            2942     85.7800E-03     86.3167E-03
            2325            2959     93.5513E-03     95.6764E-03
            2325            2960     84.2071E-03     86.3310E-03
            2326            2942     85.7800E-03     86.3167E-03
            2326            2943     76.6215E-03     77.1582E-03
            2326            2960     84.2071E-03     86.3310E-03
            2326            2961     74.8861E-03     77.0028E-03
            2327            2943     76.6215E-03     77.1582E-03
            2327            2944     67.5071E-03     68.0410E-03
            2327            2961     74.8861E-03     77.0028E-03
            2327            2962     65.5914E-03     67.6936E-03
            2328            2944     67.5071E-03     68.0410E-03
            2328            2945     58.4548E-03     58.9939E-03
            2328            2962     65.5914E-03     67.6936E-03
            2328            2963     56.3463E-03     58.4076E-03
            2329            2945     58.4548E-03     58.9939E-03
            2329            2946     49.5237E-03     50.0528E-03
            2329            2963     56.3463E-03     58.4076E-03
            2329            2964     47.1510E-03     49.1699E-03
            2330            2946     49.5237E-03     50.0528E-03
            2330            2947     40.7836E-03     41.3139E-03
            2330            2964     47.1510E-03     49.1699E-03
            2330            2965     38.0672E-03     40.0162E-03
            2331            2947     40.7836E-03     41.3139E-03
            2331            2948     32.3497E-03     32.9627E-03
            2331            2965     38.0672E-03     40.0162E-03
            2331            2966     29.0652E-03     31.1239E-03
            2332            2948     32.3497E-03     32.9627E-03
            2332            2949     24.5699E-03     25.5437E-03
            2332            2966     29.0652E-03     31.1239E-03
            2332            2967     20.2002E-03     23.2199E-03
            2333            2949     24.5699E-03     25.5437E-03
            2333            2950     18.2323E-03     20.7905E-03
            2333            2967     20.2002E-03     23.2199E-03
            2333            2968     13.5048E-03     16.3108E-03
            2334             604     15.5554E-03     19.4038E-03
            2334             605     11.1682E-03     12.9648E-03
            2334            2950     18.2323E-03     20.7905E-03
            2334            2968     13.5048E-03     16.3108E-03
            2335             562     180.484E-03     183.014E-03
            2335             563     181.799E-03     185.513E-03
            2335            2951     170.150E-03     172.673E-03
            2335            2969     169.296E-03     173.525E-03
            2336            2951     170.150E-03     172.673E-03
            2336            2952     159.902E-03     162.320E-03
            2336            2969     169.296E-03     173.525E-03
            2336            2970     159.009E-03     163.052E-03
            2337            2952     159.902E-03     162.320E-03
            2337            2953     150.260E-03     152.449E-03
            2337            2970     159.009E-03     163.052E-03
            2337            2971     149.294E-03     153.070E-03
            2338            2953     150.260E-03     152.449E-03
            2338            2954     140.630E-03     142.787E-03
            2338            2971     149.294E-03     153.070E-03
            2338            2972     139.648E-03     143.396E-03
            2339            2954     140.630E-03     142.787E-03
            2339            2955     131.145E-03     133.263E-03
            2339            2972     139.648E-03     143.396E-03
            2339            2973     130.132E-03     133.847E-03
            2340            2955     131.145E-03     133.263E-03
            2340            2956     121.693E-03     123.819E-03
            2340            2973     130.132E-03     133.847E-03
            2340            2974     120.635E-03     124.352E-03
            2341            2956     121.693E-03     123.819E-03
            2341            2957     112.293E-03     114.416E-03
            2341            2974     120.635E-03     124.352E-03
            2341            2975     111.185E-03     114.906E-03
            2342            2957     112.293E-03     114.416E-03
            2342            2958     102.910E-03     105.037E-03
            2342            2975     111.185E-03     114.906E-03
            2342            2976     101.751E-03     105.473E-03
            2343            2958     102.910E-03     105.037E-03
            2343            2959     93.5513E-03     95.6764E-03
            2343            2976     101.751E-03     105.473E-03
            2343            2977     92.3357E-03     96.0605E-03
            2344            2959     93.5513E-03     95.6764E-03
            2344            2960     84.2071E-03     86.3310E-03
            2344            2977     92.3357E-03     96.0605E-03
            2344            2978     82.9307E-03     86.6542E-03
            2345            2960     84.2071E-03     86.3310E-03
            2345            2961     74.8861E-03     77.0028E-03
            2345            2978     82.9307E-03     86.6542E-03
            2345            2979     73.5377E-03     77.2583E-03
            2346            2961     74.8861E-03     77.0028E-03
            2346            2962     65.5914E-03     67.6936E-03
            2346            2979     73.5377E-03     77.2583E-03
            2346            2980     64.1560E-03     67.8663E-03
            2347            2962     65.5914E-03     67.6936E-03
            2347            2963     56.3463E-03     58.4076E-03
            2347            2980     64.1560E-03     67.8663E-03
            2347            2981     54.7949E-03     58.4742E-03
            2348            2963     56.3463E-03     58.4076E-03
            2348            2964     47.1510E-03     49.1699E-03
            2348            2981     54.7949E-03     58.4742E-03
            2348            2982     45.4584E-03     49.0929E-03
            2349            2964     47.1510E-03     49.1699E-03
            2349            2965     38.0672E-03     40.0162E-03
            2349            2982     45.4584E-03     49.0929E-03
            2349            2983     36.1386E-03     39.7300E-03
            2350            2965     38.0672E-03     40.0162E-03
            2350            2966     29.0652E-03     31.1239E-03
            2350            2983     36.1386E-03     39.7300E-03
            2350            2984     26.8309E-03     30.5045E-03
            2351            2966     29.0652E-03     31.1239E-03
            2351            2967     20.2002E-03     23.2199E-03
            2351            2984     26.8309E-03     30.5045E-03
            2351            2985     17.6136E-03     21.6503E-03
            2352            2967     20.2002E-03     23.2199E-03
            2352            2968     13.5048E-03     16.3108E-03
            2352            2985     17.6136E-03     21.6503E-03
            2352            2986     9.22077E-03     12.8953E-03
            2353             605     11.1682E-03     12.9648E-03
            2353             606     5.39438E-03     8.45032E-03
            2353            2968     13.5048E-03     16.3108E-03
            2353            2986     9.22077E-03     12.8953E-03
            2354             563     181.799E-03     185.513E-03
            2354             564     176.200E-03     181.515E-03
            2354            2969     169.296E-03     173.525E-03
            2354            2987     165.157E-03     170.321E-03
            2355            2969     169.296E-03     173.525E-03
            2355            2970     159.009E-03     163.052E-03
            2355            2987     165.157E-03     170.321E-03
            2355            2988     155.911E-03     161.061E-03
            2356            2970     159.009E-03     163.052E-03
            2356            2971     149.294E-03     153.070E-03
            2356            2988     155.911E-03     161.061E-03
            2356            2989     146.646E-03     151.960E-03
            2357            2971     149.294E-03     153.070E-03
            2357            2972     139.648E-03     143.396E-03
            2357            2989     146.646E-03     151.960E-03
            2357            2990     137.622E-03     142.905E-03
            2358            2972     139.648E-03     143.396E-03
            2358            2973     130.132E-03     133.847E-03
            2358            2990     137.622E-03     142.905E-03
            2358            2991     128.424E-03     133.747E-03
            2359            2973     130.132E-03     133.847E-03
            2359            2974     120.635E-03     124.352E-03
            2359            2991     128.424E-03     133.747E-03
            2359            2992     119.225E-03     124.543E-03
            2360            2974     120.635E-03     124.352E-03
            2360            2975     111.185E-03     114.906E-03
            2360            2992     119.225E-03     124.543E-03
            2360            2993     109.943E-03     115.261E-03
            2361            2975     111.185E-03     114.906E-03
            2361            2976     101.751E-03     105.473E-03
            2361            2993     109.943E-03     115.261E-03
            2361            2994     100.642E-03     105.960E-03
            2362            2976     101.751E-03     105.473E-03
            2362            2977     92.3357E-03     96.0605E-03
            2362            2994     100.642E-03     105.960E-03
            2362            2995     91.3053E-03     96.6210E-03
            2363            2977     92.3357E-03     96.0605E-03
            2363            2978     82.9307E-03     86.6542E-03
            2363            2995     91.3053E-03     96.6210E-03
            2363            2996     81.9583E-03     87.2740E-03
            2364            2978     82.9307E-03     86.6542E-03
            2364            2979     73.5377E-03     77.2583E-03
            2364            2996     81.9583E-03     87.2740E-03
            2364            2997     72.5958E-03     77.9115E-03
            2365            2979     73.5377E-03     77.2583E-03
            2365            2980     64.1560E-03     67.8663E-03
            2365            2997     72.5958E-03     77.9115E-03
            2365            2998     63.2319E-03     68.5478E-03
            2366            2980     64.1560E-03     67.8663E-03
            2366            2981     54.7949E-03     58.4742E-03
            2366            2998     63.2319E-03     68.5478E-03
            2366            2999     53.8584E-03     59.1864E-03
            2367            2981     54.7949E-03     58.4742E-03
            2367            2982     45.4584E-03     49.0929E-03
            2367            2999     53.8584E-03     59.1864E-03
            2367            3000     44.5069E-03     49.8237E-03
            2368            2982     45.4584E-03     49.0929E-03
            2368            2983     36.1386E-03     39.7300E-03
            2368            3000     44.5069E-03     49.8237E-03
            2368            3001     35.1631E-03     40.4713E-03
            2369            2983     36.1386E-03     39.7300E-03
            2369            2984     26.8309E-03     30.5045E-03
            2369            3001     35.1631E-03     40.4713E-03
            2369            3002     25.8909E-03     31.1487E-03
            2370            2984     26.8309E-03     30.5045E-03
            2370            2985     17.6136E-03     21.6503E-03
            2370            3002     25.8909E-03     31.1487E-03
            2370            3003     16.9585E-03     21.6045E-03
            2371            2985     17.6136E-03     21.6503E-03
            2371            2986     9.22077E-03     12.8953E-03
            2371            3003     16.9585E-03     21.6045E-03
            2371            3004     8.22278E-03     12.7473E-03
            2372             606     5.39438E-03     8.45032E-03
            2372             607     3.83041E-03     8.77686E-03
            2372            2986     9.22077E-03     12.8953E-03
            2372            3004     8.22278E-03     12.7473E-03
            2373              29     170.736E-03     176.096E-03
            2373             564     176.200E-03     181.515E-03
            2373             625     160.670E-03     165.951E-03
            2373            2987     165.157E-03     170.321E-03
            2374             624     151.261E-03     157.155E-03
            2374             625     160.670E-03     165.951E-03
            2374            2987     165.157E-03     170.321E-03
            2374            2988     155.911E-03     161.061E-03
            2375             623     142.726E-03     148.767E-03
            2375             624     151.261E-03     157.155E-03
            2375            2988     155.911E-03     161.061E-03
            2375            2989     146.646E-03     151.960E-03
            2376             622     133.992E-03     140.303E-03
            2376             623     142.726E-03     148.767E-03
            2376            2989     146.646E-03     151.960E-03
            2376            2990     137.622E-03     142.905E-03
            2377             621     125.337E-03     131.649E-03
            2377             622     133.992E-03     140.303E-03
            2377            2990     137.622E-03     142.905E-03
            2377            2991     128.424E-03     133.747E-03
            2378             620     116.467E-03     122.847E-03
            2378             621     125.337E-03     131.649E-03
            2378            2991     128.424E-03     133.747E-03
            2378            2992     119.225E-03     124.543E-03
            2379             619     107.556E-03     113.906E-03
            2379             620     116.467E-03     122.847E-03
            2379            2992     119.225E-03     124.543E-03
            2379            2993     109.943E-03     115.261E-03
            2380             618     98.5095E-03     104.881E-03
            2380             619     107.556E-03     113.906E-03
            2380            2993     109.943E-03     115.261E-03
            2380            2994     100.642E-03     105.960E-03
            2381             617     89.4321E-03     95.7818E-03
            2381             618     98.5095E-03     104.881E-03
            2381            2994     100.642E-03     105.960E-03
            2381            2995     91.3053E-03     96.6210E-03
            2382             616     80.2814E-03     86.6448E-03
            2382             617     89.4321E-03     95.7818E-03
            2382            2995     91.3053E-03     96.6210E-03
            2382            2996     81.9583E-03     87.2740E-03
            2383             615     71.1148E-03     77.4743E-03
            2383             616     80.2814E-03     86.6448E-03
            2383            2996     81.9583E-03     87.2740E-03
            2383            2997     72.5958E-03     77.9115E-03
            2384             614     61.9125E-03     68.2953E-03
            2384             615     71.1148E-03     77.4743E-03
            2384            2997     72.5958E-03     77.9115E-03
            2384            2998     63.2319E-03     68.5478E-03
            2385             613     52.7058E-03     59.1097E-03
            2385             614     61.9125E-03     68.2953E-03
            2385            2998     63.2319E-03     68.5478E-03
            2385            2999     53.8584E-03     59.1864E-03
            2386             612     43.5014E-03     49.9335E-03
            2386             613     52.7058E-03     59.1097E-03
            2386            2999     53.8584E-03     59.1864E-03
            2386            3000     44.5069E-03     49.8237E-03
            2387             611     34.3704E-03     40.7267E-03
            2387             612     43.5014E-03     49.9335E-03
            2387            3000     44.5069E-03     49.8237E-03
            2387            3001     35.1631E-03     40.4713E-03
            2388             610     25.3922E-03     31.4549E-03
            2388             611     34.3704E-03     40.7267E-03
            2388            3001     35.1631E-03     40.4713E-03
            2388            3002     25.8909E-03     31.1487E-03
            2389             609     16.7632E-03     22.0840E-03
            2389             610     25.3922E-03     31.4549E-03
            2389            3002     25.8909E-03     31.1487E-03
            2389            3003     16.9585E-03     21.6045E-03
            2390             608     8.98236E-03     13.0165E-03
            2390             609     16.7632E-03     22.0840E-03
            2390            3003     16.9585E-03     21.6045E-03
            2390            3004     8.22278E-03     12.7473E-03
            2391              30     5.39200E-03     8.67389E-03
            2391             607     3.83041E-03     8.77686E-03
            2391             608     8.98236E-03     13.0165E-03
            2391            3004     8.22278E-03     12.7473E-03
            2392              17     3.60039E-03     2.42620E-03
            2392             302     5.02339E-03     3.78713E-03
            2392             672     7.61134E-03     5.95168E-03
            2392            3005     10.8835E-03     8.99357E-03
            2393             301     5.88677E-03     4.80357E-03
            2393             302     5.02339E-03     3.78713E-03
            2393            3005     10.8835E-03     8.99357E-03
            2393            3006     12.4131E-03     10.6761E-03
            2394             300     6.32008E-03     5.35137E-03
            2394             301     5.88677E-03     4.80357E-03
            2394            3006     12.4131E-03     10.6761E-03
            2394            3007     13.1306E-03     11.4984E-03
            2395             299     6.53203E-03     5.61868E-03
            2395             300     6.32008E-03     5.35137E-03
            2395            3007     13.1306E-03     11.4984E-03
            2395            3008     13.3133E-03     11.7999E-03
            2396             298     6.55365E-03     5.70978E-03
            2396             299     6.53203E-03     5.61868E-03
            2396            3008     13.3133E-03     11.7999E-03
            2396            3009     13.2275E-03     11.7847E-03
            2397             297     6.49462E-03     5.69141E-03
            2397             298     6.55365E-03     5.70978E-03
            2397            3009     13.2275E-03     11.7847E-03
            2397            3010     12.9606E-03     11.6069E-03
            2398             296     6.35690E-03     5.60393E-03
            2398             297     6.49462E-03     5.69141E-03
            2398            3010     12.9606E-03     11.6069E-03
            2398            3011     12.6201E-03     11.3339E-03
            2399             295     6.19855E-03     5.48870E-03
            2399             296     6.35690E-03     5.60393E-03
            2399            3011     12.6201E-03     11.3339E-03
            2399            3012     12.2301E-03     11.0218E-03
            2400             294     6.01269E-03     5.34943E-03
            2400             295     6.19855E-03     5.48870E-03
            2400            3012     12.2301E-03     11.0218E-03
            2400            3013     11.8295E-03     10.6953E-03
            2401             293     5.82867E-03     5.21372E-03
            2401             294     6.01269E-03     5.34943E-03
            2401            3013     11.8295E-03     10.6953E-03
            2401            3014     11.4267E-03     10.3744E-03
            2402             292     5.63885E-03     5.07619E-03
            2402             293     5.82867E-03     5.21372E-03
            2402            3014     11.4267E-03     10.3744E-03
            2402            3015     11.0368E-03     10.0701E-03
            2403             291     5.46078E-03     4.95334E-03
            2403             292     5.63885E-03     5.07619E-03
            2403            3015     11.0368E-03     10.0701E-03
            2403            3016     10.6625E-03     9.79299E-03
            2404             290     5.28597E-03     4.84215E-03
            2404             291     5.46078E-03     4.95334E-03
            2404            3016     10.6625E-03     9.79299E-03
            2404            3017     10.3144E-03     9.54748E-03
            2405             289     5.12798E-03     4.74878E-03
            2405             290     5.28597E-03     4.84215E-03
            2405            3017     10.3144E-03     9.54748E-03
            2405            3018     9.98403E-03     9.34620E-03
            2406             288     4.97555E-03     4.68274E-03
            2406             289     5.12798E-03     4.74878E-03
            2406            3018     9.98403E-03     9.34620E-03
            2406            3019     9.68051E-03     9.20316E-03
            2407             287     4.82884E-03     4.63492E-03
            2407             288     4.97555E-03     4.68274E-03
            2407            3019     9.68051E-03     9.20316E-03
            2407            3020     9.36970E-03     9.13163E-03
            2408             286     4.67088E-03     4.68150E-03
            2408             287     4.82884E-03     4.63492E-03
            2408            3020     9.36970E-03     9.13163E-03
            2408            3021     8.99722E-03     9.27919E-03
            2409             285     4.30333E-03     4.91812E-03
            2409             286     4.67088E-03     4.68150E-03
            2409            3021     8.99722E-03     9.27919E-03
            2409            3022     8.70197E-03     9.61984E-03
            2410              16     4.02340E-03     5.07694E-03
            2410             285     4.30333E-03     4.91812E-03
            2410             454     8.60631E-03     9.79993E-03
            2410            3022     8.70197E-03     9.61984E-03
            2411             671     8.91903E-03     8.59265E-03
            2411             672     7.61134E-03     5.95168E-03
            2411            3005     10.8835E-03     8.99357E-03
            2411            3023     12.1719E-03     11.3485E-03
            2412            3005     10.8835E-03     8.99357E-03
            2412            3006     12.4131E-03     10.6761E-03
            2412            3023     12.1719E-03     11.3485E-03
            2412            3024     13.4977E-03     12.5646E-03
            2413            3006     12.4131E-03     10.6761E-03
            2413            3007     13.1306E-03     11.4984E-03
            2413            3024     13.4977E-03     12.5646E-03
            2413            3025     13.8909E-03     12.9443E-03
            2414            3007     13.1306E-03     11.4984E-03
            2414            3008     13.3133E-03     11.7999E-03
            2414            3025     13.8909E-03     12.9443E-03
            2414            3026     13.7574E-03     12.8182E-03
            2415            3008     13.3133E-03     11.7999E-03
            2415            3009     13.2275E-03     11.7847E-03
            2415            3026     13.7574E-03     12.8182E-03
            2415            3027     13.3729E-03     12.4804E-03
            2416            3009     13.2275E-03     11.7847E-03
            2416            3010     12.9606E-03     11.6069E-03
            2416            3027     13.3729E-03     12.4804E-03
            2416            3028     12.9065E-03     12.0469E-03
            2417            3010     12.9606E-03     11.6069E-03
            2417            3011     12.6201E-03     11.3339E-03
            2417            3028     12.9065E-03     12.0469E-03
            2417            3029     12.4044E-03     11.5891E-03
            2418            3011     12.6201E-03     11.3339E-03
            2418            3012     12.2301E-03     11.0218E-03
            2418            3029     12.4044E-03     11.5891E-03
            2418            3030     11.9106E-03     11.1354E-03
            2419            3012     12.2301E-03     11.0218E-03
            2419            3013     11.8295E-03     10.6953E-03
            2419            3030     11.9106E-03     11.1354E-03
            2419            3031     11.4322E-03     10.7026E-03
            2420            3013     11.8295E-03     10.6953E-03
            2420            3014     11.4267E-03     10.3744E-03
            2420            3031     11.4322E-03     10.7026E-03
            2420            3032     10.9787E-03     10.2972E-03
            2421            3014     11.4267E-03     10.3744E-03
            2421            3015     11.0368E-03     10.0701E-03
            2421            3032     10.9787E-03     10.2972E-03
            2421            3033     10.5531E-03     9.92446E-03
            2422            3015     11.0368E-03     10.0701E-03
            2422            3016     10.6625E-03     9.79299E-03
            2422            3033     10.5531E-03     9.92446E-03
            2422            3034     10.1568E-03     9.58929E-03
            2423            3016     10.6625E-03     9.79299E-03
            2423            3017     10.3144E-03     9.54748E-03
            2423            3034     10.1568E-03     9.58929E-03
            2423            3035     9.79355E-03     9.29607E-03
            2424            3017     10.3144E-03     9.54748E-03
            2424            3018     9.98403E-03     9.34620E-03
            2424            3035     9.79355E-03     9.29607E-03
            2424            3036     9.46044E-03     9.05634E-03
            2425            3018     9.98403E-03     9.34620E-03
            2425            3019     9.68051E-03     9.20316E-03
            2425            3036     9.46044E-03     9.05634E-03
            2425            3037     9.15732E-03     8.87679E-03
            2426            3019     9.68051E-03     9.20316E-03
            2426            3020     9.36970E-03     9.13163E-03
            2426            3037     9.15732E-03     8.87679E-03
            2426            3038     8.85551E-03     8.81311E-03
            2427            3020     9.36970E-03     9.13163E-03
            2427            3021     8.99722E-03     9.27919E-03
            2427            3038     8.85551E-03     8.81311E-03
            2427            3039     8.64865E-03     8.83953E-03
            2428            3021     8.99722E-03     9.27919E-03
            2428            3022     8.70197E-03     9.61984E-03
            2428            3039     8.64865E-03     8.83953E-03
            2428            3040     8.78120E-03     8.66880E-03
            2429             453     8.96159E-03     8.48436E-03
            2429             454     8.60631E-03     9.79993E-03
            2429            3022     8.70197E-03     9.61984E-03
            2429            3040     8.78120E-03     8.66880E-03
            2430             670     11.4631E-03     11.6132E-03
            2430             671     8.91903E-03     8.59265E-03
            2430            3023     12.1719E-03     11.3485E-03
            2430            3041     13.0617E-03     13.1267E-03
            2431            3023     12.1719E-03     11.3485E-03
            2431            3024     13.4977E-03     12.5646E-03
            2431            3041     13.0617E-03     13.1267E-03
            2431            3042     14.1885E-03     13.9714E-03
            2432            3024     13.4977E-03     12.5646E-03
            2432            3025     13.8909E-03     12.9443E-03
            2432            3042     14.1885E-03     13.9714E-03
            2432            3043     14.2771E-03     13.9638E-03
            2433            3025     13.8909E-03     12.9443E-03
            2433            3026     13.7574E-03     12.8182E-03
            2433            3043     14.2771E-03     13.9638E-03
            2433            3044     13.9050E-03     13.5599E-03
            2434            3026     13.7574E-03     12.8182E-03
            2434            3027     13.3729E-03     12.4804E-03
            2434            3044     13.9050E-03     13.5599E-03
            2434            3045     13.3460E-03     13.0018E-03
            2435            3027     13.3729E-03     12.4804E-03
            2435            3028     12.9065E-03     12.0469E-03
            2435            3045     13.3460E-03     13.0018E-03
            2435            3046     12.7364E-03     12.3971E-03
            2436            3028     12.9065E-03     12.0469E-03
            2436            3029     12.4044E-03     11.5891E-03
            2436            3046     12.7364E-03     12.3971E-03
            2436            3047     12.1320E-03     11.8061E-03
            2437            3029     12.4044E-03     11.5891E-03
            2437            3030     11.9106E-03     11.1354E-03
            2437            3047     12.1320E-03     11.8061E-03
            2437            3048     11.5600E-03     11.2468E-03
            2438            3030     11.9106E-03     11.1354E-03
            2438            3031     11.4322E-03     10.7026E-03
            2438            3048     11.5600E-03     11.2468E-03
            2438            3049     11.0238E-03     10.7271E-03
            2439            3031     11.4322E-03     10.7026E-03
            2439            3032     10.9787E-03     10.2972E-03
            2439            3049     11.0238E-03     10.7271E-03
            2439            3050     10.5289E-03     10.2490E-03
            2440            3032     10.9787E-03     10.2972E-03
            2440            3033     10.5531E-03     9.92446E-03
            2440            3050     10.5289E-03     10.2490E-03
            2440            3051     10.0710E-03     9.81376E-03
            2441            3033     10.5531E-03     9.92446E-03
            2441            3034     10.1568E-03     9.58929E-03
            2441            3051     10.0710E-03     9.81376E-03
            2441            3052     9.65653E-03     9.42209E-03
            2442            3034     10.1568E-03     9.58929E-03
            2442            3035     9.79355E-03     9.29607E-03
            2442            3052     9.65653E-03     9.42209E-03
            2442            3053     9.27905E-03     9.08050E-03
            2443            3035     9.79355E-03     9.29607E-03
            2443            3036     9.46044E-03     9.05634E-03
            2443            3053     9.27905E-03     9.08050E-03
            2443            3054     8.95366E-03     8.79014E-03
            2444            3036     9.46044E-03     9.05634E-03
            2444            3037     9.15732E-03     8.87679E-03
            2444            3054     8.95366E-03     8.79014E-03
            2444            3055     8.67558E-03     8.55262E-03
            2445            3037     9.15732E-03     8.87679E-03
            2445            3038     8.85551E-03     8.81311E-03
            2445            3055     8.67558E-03     8.55262E-03
            2445            3056     8.47847E-03     8.37590E-03
            2446            3038     8.85551E-03     8.81311E-03
            2446            3039     8.64865E-03     8.83953E-03
            2446            3056     8.47847E-03     8.37590E-03
            2446            3057     8.47224E-03     8.12207E-03
            2447            3039     8.64865E-03     8.83953E-03
            2447            3040     8.78120E-03     8.66880E-03
            2447            3057     8.47224E-03     8.12207E-03
            2447            3058     8.52428E-03     7.76518E-03
            2448             452     8.51943E-03     7.58675E-03
            2448             453     8.96159E-03     8.48436E-03
            2448            3040     8.78120E-03     8.66880E-03
            2448            3058     8.52428E-03     7.76518E-03
            2449             669     14.4478E-03     14.8106E-03
            2449             670     11.4631E-03     11.6132E-03
            2449            3041     13.0617E-03     13.1267E-03
            2449            3059     14.3514E-03     14.8265E-03
            2450            3041     13.0617E-03     13.1267E-03
            2450            3042     14.1885E-03     13.9714E-03
            2450            3059     14.3514E-03     14.8265E-03
            2450            3060     14.5439E-03     14.8851E-03
            2451            3042     14.1885E-03     13.9714E-03
            2451            3043     14.2771E-03     13.9638E-03
            2451            3060     14.5439E-03     14.8851E-03
            2451            3061     14.2453E-03     14.5012E-03
            2452            3043     14.2771E-03     13.9638E-03
            2452            3044     13.9050E-03     13.5599E-03
            2452            3061     14.2453E-03     14.5012E-03
            2452            3062     13.6978E-03     13.9238E-03
            2453            3044     13.9050E-03     13.5599E-03
            2453            3045     13.3460E-03     13.0018E-03
            2453            3062     13.6978E-03     13.9238E-03
            2453            3063     13.0542E-03     13.2435E-03
            2454            3045     13.3460E-03     13.0018E-03
            2454            3046     12.7364E-03     12.3971E-03
            2454            3063     13.0542E-03     13.2435E-03
            2454            3064     12.3810E-03     12.5662E-03
            2455            3046     12.7364E-03     12.3971E-03
            2455            3047     12.1320E-03     11.8061E-03
            2455            3064     12.3810E-03     12.5662E-03
            2455            3065     11.7420E-03     11.9124E-03
            2456            3047     12.1320E-03     11.8061E-03
            2456            3048     11.5600E-03     11.2468E-03
            2456            3065     11.7420E-03     11.9124E-03
            2456            3066     11.1336E-03     11.2991E-03
            2457            3048     11.5600E-03     11.2468E-03
            2457            3049     11.0238E-03     10.7271E-03
            2457            3066     11.1336E-03     11.2991E-03
            2457            3067     10.5731E-03     10.7288E-03
            2458            3049     11.0238E-03     10.7271E-03
            2458            3050     10.5289E-03     10.2490E-03
            2458            3067     10.5731E-03     10.7288E-03
            2458            3068     10.0521E-03     10.2007E-03
            2459            3050     10.5289E-03     10.2490E-03
            2459            3051     10.0710E-03     9.81376E-03
            2459            3068     10.0521E-03     10.2007E-03
            2459            3069     9.57896E-03     9.71623E-03
            2460            3051     10.0710E-03     9.81376E-03
            2460            3052     9.65653E-03     9.42209E-03
            2460            3069     9.57896E-03     9.71623E-03
            2460            3070     9.14688E-03     9.27736E-03
            2461            3052     9.65653E-03     9.42209E-03
            2461            3053     9.27905E-03     9.08050E-03
            2461            3070     9.14688E-03     9.27736E-03
            2461            3071     8.77009E-03     8.88504E-03
            2462            3053     9.27905E-03     9.08050E-03
            2462            3054     8.95366E-03     8.79014E-03
            2462            3071     8.77009E-03     8.88504E-03
            2462            3072     8.44399E-03     8.54178E-03
            2463            3054     8.95366E-03     8.79014E-03
            2463            3055     8.67558E-03     8.55262E-03
            2463            3072     8.44399E-03     8.54178E-03
            2463            3073     8.20352E-03     8.24427E-03
            2464            3055     8.67558E-03     8.55262E-03
            2464            3056     8.47847E-03     8.37590E-03
            2464            3073     8.20352E-03     8.24427E-03
            2464            3074     8.10326E-03     7.90946E-03
            2465            3056     8.47847E-03     8.37590E-03
            2465            3057     8.47224E-03     8.12207E-03
            2465            3074     8.10326E-03     7.90946E-03
            2465            3075     8.07047E-03     7.56082E-03
            2466            3057     8.47224E-03     8.12207E-03
            2466            3058     8.52428E-03     7.76518E-03
            2466            3075     8.07047E-03     7.56082E-03
            2466            3076     8.08476E-03     7.35567E-03
            2467             451     8.11775E-03     7.30680E-03
            2467             452     8.51943E-03     7.58675E-03
            2467            3058     8.52428E-03     7.76518E-03
            2467            3076     8.08476E-03     7.35567E-03
            2468             668     17.5001E-03     17.9433E-03
            2468             669     14.4478E-03     14.8106E-03
            2468            3059     14.3514E-03     14.8265E-03
            2468            3077     15.6371E-03     16.3104E-03
            2469            3059     14.3514E-03     14.8265E-03
            2469            3060     14.5439E-03     14.8851E-03
            2469            3077     15.6371E-03     16.3104E-03
            2469            3078     14.5273E-03     15.3554E-03
            2470            3060     14.5439E-03     14.8851E-03
            2470            3061     14.2453E-03     14.5012E-03
            2470            3078     14.5273E-03     15.3554E-03
            2470            3079     13.8542E-03     14.6632E-03
            2471            3061     14.2453E-03     14.5012E-03
            2471            3062     13.6978E-03     13.9238E-03
            2471            3079     13.8542E-03     14.6632E-03
            2471            3080     13.1882E-03     13.9373E-03
            2472            3062     13.6978E-03     13.9238E-03
            2472            3063     13.0542E-03     13.2435E-03
            2472            3080     13.1882E-03     13.9373E-03
            2472            3081     12.5040E-03     13.2388E-03
            2473            3063     13.0542E-03     13.2435E-03
            2473            3064     12.3810E-03     12.5662E-03
            2473            3081     12.5040E-03     13.2388E-03
            2473            3082     11.8567E-03     12.5547E-03
            2474            3064     12.3810E-03     12.5662E-03
            2474            3065     11.7420E-03     11.9124E-03
            2474            3082     11.8567E-03     12.5547E-03
            2474            3083     11.2207E-03     11.9020E-03
            2475            3065     11.7420E-03     11.9124E-03
            2475            3066     11.1336E-03     11.2991E-03
            2475            3083     11.2207E-03     11.9020E-03
            2475            3084     10.6273E-03     11.2809E-03
            2476            3066     11.1336E-03     11.2991E-03
            2476            3067     10.5731E-03     10.7288E-03
            2476            3084     10.6273E-03     11.2809E-03
            2476            3085     10.0629E-03     10.6915E-03
            2477            3067     10.5731E-03     10.7288E-03
            2477            3068     10.0521E-03     10.2007E-03
            2477            3085     10.0629E-03     10.6915E-03
            2477            3086     9.54199E-03     10.1378E-03
            2478            3068     10.0521E-03     10.2007E-03
            2478            3069     9.57896E-03     9.71623E-03
            2478            3086     9.54199E-03     10.1378E-03
            2478            3087     9.05925E-03     9.61904E-03
            2479            3069     9.57896E-03     9.71623E-03
            2479            3070     9.14688E-03     9.27736E-03
            2479            3087     9.05925E-03     9.61904E-03
            2479            3088     8.62691E-03     9.14038E-03
            2480            3070     9.14688E-03     9.27736E-03
            2480            3071     8.77009E-03     8.88504E-03
            2480            3088     8.62691E-03     9.14038E-03
            2480            3089     8.24288E-03     8.70427E-03
            2481            3071     8.77009E-03     8.88504E-03
            2481            3072     8.44399E-03     8.54178E-03
            2481            3089     8.24288E-03     8.70427E-03
            2481            3090     7.92739E-03     8.31123E-03
            2482            3072     8.44399E-03     8.54178E-03
            2482            3073     8.20352E-03     8.24427E-03
            2482            3090     7.92739E-03     8.31123E-03
            2482            3091     7.68944E-03     7.95287E-03
            2483            3073     8.20352E-03     8.24427E-03
            2483            3074     8.10326E-03     7.90946E-03
            2483            3091     7.68944E-03     7.95287E-03
            2483            3092     7.55623E-03     7.61019E-03
            2484            3074     8.10326E-03     7.90946E-03
            2484            3075     8.07047E-03     7.56082E-03
            2484            3092     7.55623E-03     7.61019E-03
            2484            3093     7.58526E-03     7.23243E-03
            2485            3075     8.07047E-03     7.56082E-03
            2485            3076     8.08476E-03     7.35567E-03
            2485            3093     7.58526E-03     7.23243E-03
            2485            3094     7.65493E-03     6.85465E-03
            2486             450     7.66403E-03     6.68112E-03
            2486             451     8.11775E-03     7.30680E-03
            2486            3076     8.08476E-03     7.35567E-03
            2486            3094     7.65493E-03     6.85465E-03
            2487             667     19.6580E-03     20.3952E-03
            2487             668     17.5001E-03     17.9433E-03
            2487            3077     15.6371E-03     16.3104E-03
            2487            3095     15.8759E-03     17.1489E-03
            2488            3077     15.6371E-03     16.3104E-03
            2488            3078     14.5273E-03     15.3554E-03
            2488            3095     15.8759E-03     17.1489E-03
            2488            3096     14.2031E-03     15.5618E-03
            2489            3078     14.5273E-03     15.3554E-03
            2489            3079     13.8542E-03     14.6632E-03
            2489            3096     14.2031E-03     15.5618E-03
            2489            3097     13.2135E-03     14.5496E-03
            2490            3079     13.8542E-03     14.6632E-03
            2490            3080     13.1882E-03     13.9373E-03
            2490            3097     13.2135E-03     14.5496E-03
            2490            3098     12.4603E-03     13.7686E-03
            2491            3080     13.1882E-03     13.9373E-03
            2491            3081     12.5040E-03     13.2388E-03
            2491            3098     12.4603E-03     13.7686E-03
            2491            3099     11.8212E-03     13.0857E-03
            2492            3081     12.5040E-03     13.2388E-03
            2492            3082     11.8567E-03     12.5547E-03
            2492            3099     11.8212E-03     13.0857E-03
            2492            3100     11.2049E-03     12.4408E-03
            2493            3082     11.8567E-03     12.5547E-03
            2493            3083     11.2207E-03     11.9020E-03
            2493            3100     11.2049E-03     12.4408E-03
            2493            3101     10.6220E-03     11.8207E-03
            2494            3083     11.2207E-03     11.9020E-03
            2494            3084     10.6273E-03     11.2809E-03
            2494            3101     10.6220E-03     11.8207E-03
            2494            3102     10.0507E-03     11.2141E-03
            2495            3084     10.6273E-03     11.2809E-03
            2495            3085     10.0629E-03     10.6915E-03
            2495            3102     10.0507E-03     11.2141E-03
            2495            3103     9.50854E-03     10.6282E-03
            2496            3085     10.0629E-03     10.6915E-03
            2496            3086     9.54199E-03     10.1378E-03
            2496            3103     9.50854E-03     10.6282E-03
            2496            3104     8.99242E-03     10.0603E-03
            2497            3086     9.54199E-03     10.1378E-03
            2497            3087     9.05925E-03     9.61904E-03
            2497            3104     8.99242E-03     10.0603E-03
            2497            3105     8.51586E-03     9.52071E-03
            2498            3087     9.05925E-03     9.61904E-03
            2498            3088     8.62691E-03     9.14038E-03
            2498            3105     8.51586E-03     9.52071E-03
            2498            3106     8.08172E-03     9.00912E-03
            2499            3088     8.62691E-03     9.14038E-03
            2499            3089     8.24288E-03     8.70427E-03
            2499            3106     8.08172E-03     9.00912E-03
            2499            3107     7.70234E-03     8.53412E-03
            2500            3089     8.24288E-03     8.70427E-03
            2500            3090     7.92739E-03     8.31123E-03
            2500            3107     7.70234E-03     8.53412E-03
            2500            3108     7.38296E-03     8.09841E-03
            2501            3090     7.92739E-03     8.31123E-03
            2501            3091     7.68944E-03     7.95287E-03
            2501            3108     7.38296E-03     8.09841E-03
            2501            3109     7.13290E-03     7.69962E-03
            2502            3091     7.68944E-03     7.95287E-03
            2502            3092     7.55623E-03     7.61019E-03
            2502            3109     7.13290E-03     7.69962E-03
            2502            3110     6.93808E-03     7.38251E-03
            2503            3092     7.55623E-03     7.61019E-03
            2503            3093     7.58526E-03     7.23243E-03
            2503            3110     6.93808E-03     7.38251E-03
            2503            3111     6.86905E-03     7.09179E-03
            2504            3093     7.58526E-03     7.23243E-03
            2504            3094     7.65493E-03     6.85465E-03
            2504            3111     6.86905E-03     7.09179E-03
            2504            3112     7.02870E-03     6.72115E-03
            2505             449     7.17050E-03     6.51677E-03
            2505             450     7.66403E-03     6.68112E-03
            2505            3094     7.65493E-03     6.85465E-03
            2505            3112     7.02870E-03     6.72115E-03
            2506             666     19.4963E-03     21.6595E-03
            2506             667     19.6580E-03     20.3952E-03
            2506            3095     15.8759E-03     17.1489E-03
            2506            3113     15.5783E-03     17.6252E-03
            2507            3095     15.8759E-03     17.1489E-03
            2507            3096     14.2031E-03     15.5618E-03
            2507            3113     15.5783E-03     17.6252E-03
            2507            3114     13.6778E-03     15.6482E-03
            2508            3096     14.2031E-03     15.5618E-03
            2508            3097     13.2135E-03     14.5496E-03
            2508            3114     13.6778E-03     15.6482E-03
            2508            3115     12.5093E-03     14.4235E-03
            2509            3097     13.2135E-03     14.5496E-03
            2509            3098     12.4603E-03     13.7686E-03
            2509            3115     12.5093E-03     14.4235E-03
            2509            3116     11.7428E-03     13.6177E-03
            2510            3098     12.4603E-03     13.7686E-03
            2510            3099     11.8212E-03     13.0857E-03
            2510            3116     11.7428E-03     13.6177E-03
            2510            3117     11.1138E-03     12.9426E-03
            2511            3099     11.8212E-03     13.0857E-03
            2511            3100     11.2049E-03     12.4408E-03
            2511            3117     11.1138E-03     12.9426E-03
            2511            3118     10.5448E-03     12.3340E-03
            2512            3100     11.2049E-03     12.4408E-03
            2512            3101     10.6220E-03     11.8207E-03
            2512            3118     10.5448E-03     12.3340E-03
            2512            3119     9.98918E-03     11.7332E-03
            2513            3101     10.6220E-03     11.8207E-03
            2513            3102     10.0507E-03     11.2141E-03
            2513            3119     9.98918E-03     11.7332E-03
            2513            3120     9.44847E-03     11.1438E-03
            2514            3102     10.0507E-03     11.2141E-03
            2514            3103     9.50854E-03     10.6282E-03
            2514            3120     9.44847E-03     11.1438E-03
            2514            3121     8.91962E-03     10.5557E-03
            2515            3103     9.50854E-03     10.6282E-03
            2515            3104     8.99242E-03     10.0603E-03
            2515            3121     8.91962E-03     10.5557E-03
            2515            3122     8.41577E-03     9.98232E-03
            2516            3104     8.99242E-03     10.0603E-03
            2516            3105     8.51586E-03     9.52071E-03
            2516            3122     8.41577E-03     9.98232E-03
            2516            3123     7.94358E-03     9.42177E-03
            2517            3105     8.51586E-03     9.52071E-03
            2517            3106     8.08172E-03     9.00912E-03
            2517            3123     7.94358E-03     9.42177E-03
            2517            3124     7.51381E-03     8.88713E-03
            2518            3106     8.08172E-03     9.00912E-03
            2518            3107     7.70234E-03     8.53412E-03
            2518            3124     7.51381E-03     8.88713E-03
            2518            3125     7.13782E-03     8.37601E-03
            2519            3107     7.70234E-03     8.53412E-03
            2519            3108     7.38296E-03     8.09841E-03
            2519            3125     7.13782E-03     8.37601E-03
            2519            3126     6.81861E-03     7.90129E-03
            2520            3108     7.38296E-03     8.09841E-03
            2520            3109     7.13290E-03     7.69962E-03
            2520            3126     6.81861E-03     7.90129E-03
            2520            3127     6.56269E-03     7.47398E-03
            2521            3109     7.13290E-03     7.69962E-03
            2521            3110     6.93808E-03     7.38251E-03
            2521            3127     6.56269E-03     7.47398E-03
            2521            3128     6.35803E-03     7.10269E-03
            2522            3110     6.93808E-03     7.38251E-03
            2522            3111     6.86905E-03     7.09179E-03
            2522            3128     6.35803E-03     7.10269E-03
            2522            3129     6.16058E-03     6.89768E-03
            2523            3111     6.86905E-03     7.09179E-03
            2523            3112     7.02870E-03     6.72115E-03
            2523            3129     6.16058E-03     6.89768E-03
            2523            3130     6.09269E-03     6.78768E-03
            2524             448     6.12292E-03     6.71261E-03
            2524             449     7.17050E-03     6.51677E-03
            2524            3112     7.02870E-03     6.72115E-03
            2524            3130     6.09269E-03     6.78768E-03
            2525             665     25.9739E-03     26.0973E-03
            2525             666     19.4963E-03     21.6595E-03
            2525            3113     15.5783E-03     17.6252E-03
            2525            3131     24.9541E-03     24.9683E-03
            2526            3113     15.5783E-03     17.6252E-03
            2526            3114     13.6778E-03     15.6482E-03
            2526            3131     24.9541E-03     24.9683E-03
            2526            3132     24.0795E-03     24.2078E-03
            2527            3114     13.6778E-03     15.6482E-03
            2527            3115     12.5093E-03     14.4235E-03
            2527            3132     24.0795E-03     24.2078E-03
            2527            3133     23.3430E-03     23.5371E-03
            2528            3115     12.5093E-03     14.4235E-03
            2528            3116     11.7428E-03     13.6177E-03
            2528            3133     23.3430E-03     23.5371E-03
            2528            3134     22.5540E-03     22.8221E-03
            2529            3116     11.7428E-03     13.6177E-03
            2529            3117     11.1138E-03     12.9426E-03
            2529            3134     22.5540E-03     22.8221E-03
            2529            3135     21.6896E-03     22.0061E-03
            2530            3117     11.1138E-03     12.9426E-03
            2530            3118     10.5448E-03     12.3340E-03
            2530            3135     21.6896E-03     22.0061E-03
            2530            3136     20.7462E-03     21.0908E-03
            2531            3118     10.5448E-03     12.3340E-03
            2531            3119     9.98918E-03     11.7332E-03
            2531            3136     20.7462E-03     21.0908E-03
            2531            3137     19.7272E-03     20.0913E-03
            2532            3119     9.98918E-03     11.7332E-03
            2532            3120     9.44847E-03     11.1438E-03
            2532            3137     19.7272E-03     20.0913E-03
            2532            3138     18.6705E-03     19.0398E-03
            2533            3120     9.44847E-03     11.1438E-03
            2533            3121     8.91962E-03     10.5557E-03
            2533            3138     18.6705E-03     19.0398E-03
            2533            3139     17.5840E-03     17.9519E-03
            2534            3121     8.91962E-03     10.5557E-03
            2534            3122     8.41577E-03     9.98232E-03
            2534            3139     17.5840E-03     17.9519E-03
            2534            3140     16.5047E-03     16.8613E-03
            2535            3122     8.41577E-03     9.98232E-03
            2535            3123     7.94358E-03     9.42177E-03
            2535            3140     16.5047E-03     16.8613E-03
            2535            3141     15.4385E-03     15.7771E-03
            2536            3123     7.94358E-03     9.42177E-03
            2536            3124     7.51381E-03     8.88713E-03
            2536            3141     15.4385E-03     15.7771E-03
            2536            3142     14.4215E-03     14.7281E-03
            2537            3124     7.51381E-03     8.88713E-03
            2537            3125     7.13782E-03     8.37601E-03
            2537            3142     14.4215E-03     14.7281E-03
            2537            3143     13.4565E-03     13.7277E-03
            2538            3125     7.13782E-03     8.37601E-03
            2538            3126     6.81861E-03     7.90129E-03
            2538            3143     13.4565E-03     13.7277E-03
            2538            3144     12.5826E-03     12.7975E-03
            2539            3126     6.81861E-03     7.90129E-03
            2539            3127     6.56269E-03     7.47398E-03
            2539            3144     12.5826E-03     12.7975E-03
            2539            3145     11.7974E-03     11.9813E-03
            2540            3127     6.56269E-03     7.47398E-03
            2540            3128     6.35803E-03     7.10269E-03
            2540            3145     11.7974E-03     11.9813E-03
            2540            3146     11.1134E-03     11.2834E-03
            2541            3128     6.35803E-03     7.10269E-03
            2541            3129     6.16058E-03     6.89768E-03
            2541            3146     11.1134E-03     11.2834E-03
            2541            3147     10.5094E-03     10.9090E-03
            2542            3129     6.16058E-03     6.89768E-03
            2542            3130     6.09269E-03     6.78768E-03
            2542            3147     10.5094E-03     10.9090E-03
            2542            3148     9.55962E-03     11.1061E-03
            2543             447     8.90170E-03     11.3393E-03
            2543             448     6.12292E-03     6.71261E-03
            2543            3130     6.09269E-03     6.78768E-03
            2543            3148     9.55962E-03     11.1061E-03
            2544             664     33.9606E-03     32.3125E-03
            2544             665     25.9739E-03     26.0973E-03
            2544            3131     24.9541E-03     24.9683E-03
            2544            3149     35.6498E-03     33.9950E-03
            2545            3131     24.9541E-03     24.9683E-03
            2545            3132     24.0795E-03     24.2078E-03
            2545            3149     35.6498E-03     33.9950E-03
            2545            3150     35.9097E-03     34.3540E-03
            2546            3132     24.0795E-03     24.2078E-03
            2546            3133     23.3430E-03     23.5371E-03
            2546            3150     35.9097E-03     34.3540E-03
            2546            3151     35.4282E-03     33.9977E-03
            2547            3133     23.3430E-03     23.5371E-03
            2547            3134     22.5540E-03     22.8221E-03
            2547            3151     35.4282E-03     33.9977E-03
            2547            3152     34.4391E-03     33.1207E-03
            2548            3134     22.5540E-03     22.8221E-03
            2548            3135     21.6896E-03     22.0061E-03
            2548            3152     34.4391E-03     33.1207E-03
            2548            3153     33.1292E-03     31.9006E-03
            2549            3135     21.6896E-03     22.0061E-03
            2549            3136     20.7462E-03     21.0908E-03
            2549            3153     33.1292E-03     31.9006E-03
            2549            3154     31.6035E-03     30.4572E-03
            2550            3136     20.7462E-03     21.0908E-03
            2550            3137     19.7272E-03     20.0913E-03
            2550            3154     31.6035E-03     30.4572E-03
            2550            3155     29.9514E-03     28.8636E-03
            2551            3137     19.7272E-03     20.0913E-03
            2551            3138     18.6705E-03     19.0398E-03
            2551            3155     29.9514E-03     28.8636E-03
            2551            3156     28.2177E-03     27.1878E-03
            2552            3138     18.6705E-03     19.0398E-03
            2552            3139     17.5840E-03     17.9519E-03
            2552            3156     28.2177E-03     27.1878E-03
            2552            3157     26.4526E-03     25.4679E-03
            2553            3139     17.5840E-03     17.9519E-03
            2553            3140     16.5047E-03     16.8613E-03
            2553            3157     26.4526E-03     25.4679E-03
            2553            3158     24.6790E-03     23.7426E-03
            2554            3140     16.5047E-03     16.8613E-03
            2554            3141     15.4385E-03     15.7771E-03
            2554            3158     24.6790E-03     23.7426E-03
            2554            3159     22.9311E-03     22.0405E-03
            2555            3141     15.4385E-03     15.7771E-03
            2555            3142     14.4215E-03     14.7281E-03
            2555            3159     22.9311E-03     22.0405E-03
            2555            3160     21.2269E-03     20.3924E-03
            2556            3142     14.4215E-03     14.7281E-03
            2556            3143     13.4565E-03     13.7277E-03
            2556            3160     21.2269E-03     20.3924E-03
            2556            3161     19.6011E-03     18.8313E-03
            2557            3143     13.4565E-03     13.7277E-03
            2557            3144     12.5826E-03     12.7975E-03
            2557            3161     19.6011E-03     18.8313E-03
            2557            3162     18.0680E-03     17.3995E-03
            2558            3144     12.5826E-03     12.7975E-03
            2558            3145     11.7974E-03     11.9813E-03
            2558            3162     18.0680E-03     17.3995E-03
            2558            3163     16.6675E-03     16.1601E-03
            2559            3145     11.7974E-03     11.9813E-03
            2559            3146     11.1134E-03     11.2834E-03
            2559            3163     16.6675E-03     16.1601E-03
            2559            3164     15.3825E-03     15.1914E-03
            2560            3146     11.1134E-03     11.2834E-03
            2560            3147     10.5094E-03     10.9090E-03
            2560            3164     15.3825E-03     15.1914E-03
            2560            3165     14.1691E-03     14.7673E-03
            2561            3147     10.5094E-03     10.9090E-03
            2561            3148     9.55962E-03     11.1061E-03
            2561            3165     14.1691E-03     14.7673E-03
            2561            3166     13.2313E-03     15.0135E-03
            2562             446     12.8764E-03     15.2795E-03
            2562             447     8.90170E-03     11.3393E-03
            2562            3148     9.55962E-03     11.1061E-03
            2562            3166     13.2313E-03     15.0135E-03
            2563             663     36.3031E-03     36.3358E-03
            2563             664     33.9606E-03     32.3125E-03
            2563            3149     35.6498E-03     33.9950E-03
            2563            3167     37.8402E-03     37.4538E-03
            2564            3149     35.6498E-03     33.9950E-03
            2564            3150     35.9097E-03     34.3540E-03
            2564            3167     37.8402E-03     37.4538E-03
            2564            3168     37.8932E-03     37.3214E-03
            2565            3150     35.9097E-03     34.3540E-03
            2565            3151     35.4282E-03     33.9977E-03
            2565            3168     37.8932E-03     37.3214E-03
            2565            3169     37.1024E-03     36.4376E-03
            2566            3151     35.4282E-03     33.9977E-03
            2566            3152     34.4391E-03     33.1207E-03
            2566            3169     37.1024E-03     36.4376E-03
            2566            3170     35.7473E-03     35.0567E-03
            2567            3152     34.4391E-03     33.1207E-03
            2567            3153     33.1292E-03     31.9006E-03
            2567            3170     35.7473E-03     35.0567E-03
            2567            3171     34.0653E-03     33.3862E-03
            2568            3153     33.1292E-03     31.9006E-03
            2568            3154     31.6035E-03     30.4572E-03
            2568            3171     34.0653E-03     33.3862E-03
            2568            3172     32.2066E-03     31.5398E-03
            2569            3154     31.6035E-03     30.4572E-03
            2569            3155     29.9514E-03     28.8636E-03
            2569            3172     32.2066E-03     31.5398E-03
            2569            3173     30.2479E-03     29.6082E-03
            2570            3155     29.9514E-03     28.8636E-03
            2570            3156     28.2177E-03     27.1878E-03
            2570            3173     30.2479E-03     29.6082E-03
            2570            3174     28.2584E-03     27.6378E-03
            2571            3156     28.2177E-03     27.1878E-03
            2571            3157     26.4526E-03     25.4679E-03
            2571            3174     28.2584E-03     27.6378E-03
            2571            3175     26.2625E-03     25.6664E-03
            2572            3157     26.4526E-03     25.4679E-03
            2572            3158     24.6790E-03     23.7426E-03
            2572            3175     26.2625E-03     25.6664E-03
            2572            3176     24.2923E-03     23.7183E-03
            2573            3158     24.6790E-03     23.7426E-03
            2573            3159     22.9311E-03     22.0405E-03
            2573            3176     24.2923E-03     23.7183E-03
            2573            3177     22.3619E-03     21.8160E-03
            2574            3159     22.9311E-03     22.0405E-03
            2574            3160     21.2269E-03     20.3924E-03
            2574            3177     22.3619E-03     21.8160E-03
            2574            3178     20.4919E-03     19.9857E-03
            2575            3160     21.2269E-03     20.3924E-03
            2575            3161     19.6011E-03     18.8313E-03
            2575            3178     20.4919E-03     19.9857E-03
            2575            3179     18.7001E-03     18.2567E-03
            2576            3161     19.6011E-03     18.8313E-03
            2576            3162     18.0680E-03     17.3995E-03
            2576            3179     18.7001E-03     18.2567E-03
            2576            3180     17.0030E-03     16.6826E-03
            2577            3162     18.0680E-03     17.3995E-03
            2577            3163     16.6675E-03     16.1601E-03
            2577            3180     17.0030E-03     16.6826E-03
            2577            3181     15.4317E-03     15.3205E-03
            2578            3163     16.6675E-03     16.1601E-03
            2578            3164     15.3825E-03     15.1914E-03
            2578            3181     15.4317E-03     15.3205E-03
            2578            3182     13.9743E-03     14.3101E-03
            2579            3164     15.3825E-03     15.1914E-03
            2579            3165     14.1691E-03     14.7673E-03
            2579            3182     13.9743E-03     14.3101E-03
            2579            3183     12.8151E-03     13.7383E-03
            2580            3165     14.1691E-03     14.7673E-03
            2580            3166     13.2313E-03     15.0135E-03
            2580            3183     12.8151E-03     13.7383E-03
            2580            3184     12.4846E-03     13.1215E-03
            2581             445     12.6024E-03     12.6890E-03
            2581             446     12.8764E-03     15.2795E-03
            2581            3166     13.2313E-03     15.0135E-03
            2581            3184     12.4846E-03     13.1215E-03
            2582             662     39.6473E-03     40.2637E-03
            2582             663     36.3031E-03     36.3358E-03
            2582            3167     37.8402E-03     37.4538E-03
            2582            3185     39.8164E-03     40.3224E-03
            2583            3167     37.8402E-03     37.4538E-03
            2583            3168     37.8932E-03     37.3214E-03
            2583            3185     39.8164E-03     40.3224E-03
            2583            3186     39.5093E-03     39.7205E-03
            2584            3168     37.8932E-03     37.3214E-03
            2584            3169     37.1024E-03     36.4376E-03
            2584            3186     39.5093E-03     39.7205E-03
            2584            3187     38.3381E-03     38.3769E-03
            2585            3169     37.1024E-03     36.4376E-03
            2585            3170     35.7473E-03     35.0567E-03
            2585            3187     38.3381E-03     38.3769E-03
            2585            3188     36.6735E-03     36.6079E-03
            2586            3170     35.7473E-03     35.0567E-03
            2586            3171     34.0653E-03     33.3862E-03
            2586            3188     36.6735E-03     36.6079E-03
            2586            3189     34.7077E-03     34.5763E-03
            2587            3171     34.0653E-03     33.3862E-03
            2587            3172     32.2066E-03     31.5398E-03
            2587            3189     34.7077E-03     34.5763E-03
            2587            3190     32.5836E-03     32.4284E-03
            2588            3172     32.2066E-03     31.5398E-03
            2588            3173     30.2479E-03     29.6082E-03
            2588            3190     32.5836E-03     32.4284E-03
            2588            3191     30.4065E-03     30.2331E-03
            2589            3173     30.2479E-03     29.6082E-03
            2589            3174     28.2584E-03     27.6378E-03
            2589            3191     30.4065E-03     30.2331E-03
            2589            3192     28.2128E-03     28.0362E-03
            2590            3174     28.2584E-03     27.6378E-03
            2590            3175     26.2625E-03     25.6664E-03
            2590            3192     28.2128E-03     28.0362E-03
            2590            3193     26.0424E-03     25.8644E-03
            2591            3175     26.2625E-03     25.6664E-03
            2591            3176     24.2923E-03     23.7183E-03
            2591            3193     26.0424E-03     25.8644E-03
            2591            3194     23.9078E-03     23.7347E-03
            2592            3176     24.2923E-03     23.7183E-03
            2592            3177     22.3619E-03     21.8160E-03
            2592            3194     23.9078E-03     23.7347E-03
            2592            3195     21.8251E-03     21.6650E-03
            2593            3177     22.3619E-03     21.8160E-03
            2593            3178     20.4919E-03     19.9857E-03
            2593            3195     21.8251E-03     21.6650E-03
            2593            3196     19.8083E-03     19.6733E-03
            2594            3178     20.4919E-03     19.9857E-03
            2594            3179     18.7001E-03     18.2567E-03
            2594            3196     19.8083E-03     19.6733E-03
            2594            3197     17.8684E-03     17.7904E-03
            2595            3179     18.7001E-03     18.2567E-03
            2595            3180     17.0030E-03     16.6826E-03
            2595            3197     17.8684E-03     17.7904E-03
            2595            3198     16.0355E-03     16.0572E-03
            2596            3180     17.0030E-03     16.6826E-03
            2596            3181     15.4317E-03     15.3205E-03
            2596            3198     16.0355E-03     16.0572E-03
            2596            3199     14.3298E-03     14.5344E-03
            2597            3181     15.4317E-03     15.3205E-03
            2597            3182     13.9743E-03     14.3101E-03
            2597            3199     14.3298E-03     14.5344E-03
            2597            3200     12.8548E-03     13.3044E-03
            2598            3182     13.9743E-03     14.3101E-03
            2598            3183     12.8151E-03     13.7383E-03
            2598            3200     12.8548E-03     13.3044E-03
            2598            3201     11.8731E-03     12.1987E-03
            2599            3183     12.8151E-03     13.7383E-03
            2599            3184     12.4846E-03     13.1215E-03
            2599            3201     11.8731E-03     12.1987E-03
            2599            3202     11.3523E-03     11.1453E-03
            2600             444     11.1635E-03     10.6662E-03
            2600             445     12.6024E-03     12.6890E-03
            2600            3184     12.4846E-03     13.1215E-03
            2600            3202     11.3523E-03     11.1453E-03
            2601             661     43.2018E-03     44.0154E-03
            2601             662     39.6473E-03     40.2637E-03
            2601            3185     39.8164E-03     40.3224E-03
            2601            3203     42.0433E-03     42.9125E-03
            2602            3185     39.8164E-03     40.3224E-03
            2602            3186     39.5093E-03     39.7205E-03
            2602            3203     42.0433E-03     42.9125E-03
            2602            3204     40.8130E-03     41.5811E-03
            2603            3186     39.5093E-03     39.7205E-03
            2603            3187     38.3381E-03     38.3769E-03
            2603            3204     40.8130E-03     41.5811E-03
            2603            3205     39.1815E-03     39.7880E-03
            2604            3187     38.3381E-03     38.3769E-03
            2604            3188     36.6735E-03     36.6079E-03
            2604            3205     39.1815E-03     39.7880E-03
            2604            3206     37.1730E-03     37.6467E-03
            2605            3188     36.6735E-03     36.6079E-03
            2605            3189     34.7077E-03     34.5763E-03
            2605            3206     37.1730E-03     37.6467E-03
            2605            3207     34.9510E-03     35.3492E-03
            2606            3189     34.7077E-03     34.5763E-03
            2606            3190     32.5836E-03     32.4284E-03
            2606            3207     34.9510E-03     35.3492E-03
            2606            3208     32.6508E-03     32.9876E-03
            2607            3190     32.5836E-03     32.4284E-03
            2607            3191     30.4065E-03     30.2331E-03
            2607            3208     32.6508E-03     32.9876E-03
            2607            3209     30.3160E-03     30.6171E-03
            2608            3191     30.4065E-03     30.2331E-03
            2608            3192     28.2128E-03     28.0362E-03
            2608            3209     30.3160E-03     30.6171E-03
            2608            3210     27.9966E-03     28.2716E-03
            2609            3192     28.2128E-03     28.0362E-03
            2609            3193     26.0424E-03     25.8644E-03
            2609            3210     27.9966E-03     28.2716E-03
            2609            3211     25.7056E-03     25.9642E-03
            2610            3193     26.0424E-03     25.8644E-03
            2610            3194     23.9078E-03     23.7347E-03
            2610            3211     25.7056E-03     25.9642E-03
            2610            3212     23.4584E-03     23.7083E-03
            2611            3194     23.9078E-03     23.7347E-03
            2611            3195     21.8251E-03     21.6650E-03
            2611            3212     23.4584E-03     23.7083E-03
            2611            3213     21.2645E-03     21.5129E-03
            2612            3195     21.8251E-03     21.6650E-03
            2612            3196     19.8083E-03     19.6733E-03
            2612            3213     21.2645E-03     21.5129E-03
            2612            3214     19.1324E-03     19.3933E-03
            2613            3196     19.8083E-03     19.6733E-03
            2613            3197     17.8684E-03     17.7904E-03
            2613            3214     19.1324E-03     19.3933E-03
            2613            3215     17.0824E-03     17.3724E-03
            2614            3197     17.8684E-03     17.7904E-03
            2614            3198     16.0355E-03     16.0572E-03
            2614            3215     17.0824E-03     17.3724E-03
            2614            3216     15.1366E-03     15.4775E-03
            2615            3198     16.0355E-03     16.0572E-03
            2615            3199     14.3298E-03     14.5344E-03
            2615            3216     15.1366E-03     15.4775E-03
            2615            3217     13.3520E-03     13.7628E-03
            2616            3199     14.3298E-03     14.5344E-03
            2616            3200     12.8548E-03     13.3044E-03
            2616            3217     13.3520E-03     13.7628E-03
            2616            3218     11.8657E-03     12.2052E-03
            2617            3200     12.8548E-03     13.3044E-03
            2617            3201     11.8731E-03     12.1987E-03
            2617            3218     11.8657E-03     12.2052E-03
            2617            3219     10.7552E-03     10.8118E-03
            2618            3201     11.8731E-03     12.1987E-03
            2618            3202     11.3523E-03     11.1453E-03
            2618            3219     10.7552E-03     10.8118E-03
            2618            3220     10.1134E-03     9.84812E-03
            2619             443     9.93316E-03     9.52255E-03
            2619             444     11.1635E-03     10.6662E-03
            2619            3202     11.3523E-03     11.1453E-03
            2619            3220     10.1134E-03     9.84812E-03
            2620             660     46.6133E-03     47.4745E-03
            2620             661     43.2018E-03     44.0154E-03
            2620            3203     42.0433E-03     42.9125E-03
            2620            3221     44.1742E-03     45.2685E-03
            2621            3203     42.0433E-03     42.9125E-03
            2621            3204     40.8130E-03     41.5811E-03
            2621            3221     44.1742E-03     45.2685E-03
            2621            3222     41.9346E-03     43.0399E-03
            2622            3204     40.8130E-03     41.5811E-03
            2622            3205     39.1815E-03     39.7880E-03
            2622            3222     41.9346E-03     43.0399E-03
            2622            3223     39.6397E-03     40.6557E-03
            2623            3205     39.1815E-03     39.7880E-03
            2623            3206     37.1730E-03     37.6467E-03
            2623            3223     39.6397E-03     40.6557E-03
            2623            3224     37.2282E-03     38.1780E-03
            2624            3206     37.1730E-03     37.6467E-03
            2624            3207     34.9510E-03     35.3492E-03
            2624            3224     37.2282E-03     38.1780E-03
            2624            3225     34.8104E-03     35.6781E-03
            2625            3207     34.9510E-03     35.3492E-03
            2625            3208     32.6508E-03     32.9876E-03
            2625            3225     34.8104E-03     35.6781E-03
            2625            3226     32.3734E-03     33.1807E-03
            2626            3208     32.6508E-03     32.9876E-03
            2626            3209     30.3160E-03     30.6171E-03
            2626            3226     32.3734E-03     33.1807E-03
            2626            3227     29.9587E-03     30.7204E-03
            2627            3209     30.3160E-03     30.6171E-03
            2627            3210     27.9966E-03     28.2716E-03
            2627            3227     29.9587E-03     30.7204E-03
            2627            3228     27.5708E-03     28.2969E-03
            2628            3210     27.9966E-03     28.2716E-03
            2628            3211     25.7056E-03     25.9642E-03
            2628            3228     27.5708E-03     28.2969E-03
            2628            3229     25.2183E-03     25.9205E-03
            2629            3211     25.7056E-03     25.9642E-03
            2629            3212     23.4584E-03     23.7083E-03
            2629            3229     25.2183E-03     25.9205E-03
            2629            3230     22.9078E-03     23.5913E-03
            2630            3212     23.4584E-03     23.7083E-03
            2630            3213     21.2645E-03     21.5129E-03
            2630            3230     22.9078E-03     23.5913E-03
            2630            3231     20.6433E-03     21.3156E-03
            2631            3213     21.2645E-03     21.5129E-03
            2631            3214     19.1324E-03     19.3933E-03
            2631            3231     20.6433E-03     21.3156E-03
            2631            3232     18.4370E-03     19.1033E-03
            2632            3214     19.1324E-03     19.3933E-03
            2632            3215     17.0824E-03     17.3724E-03
            2632            3232     18.4370E-03     19.1033E-03
            2632            3233     16.3040E-03     16.9662E-03
            2633            3215     17.0824E-03     17.3724E-03
            2633            3216     15.1366E-03     15.4775E-03
            2633            3233     16.3040E-03     16.9662E-03
            2633            3234     14.2769E-03     14.9304E-03
            2634            3216     15.1366E-03     15.4775E-03
            2634            3217     13.3520E-03     13.7628E-03
            2634            3234     14.2769E-03     14.9304E-03
            2634            3235     12.4267E-03     13.0051E-03
            2635            3217     13.3520E-03     13.7628E-03
            2635            3218     11.8657E-03     12.2052E-03
            2635            3235     12.4267E-03     13.0051E-03
            2635            3236     10.8283E-03     11.2168E-03
            2636            3218     11.8657E-03     12.2052E-03
            2636            3219     10.7552E-03     10.8118E-03
            2636            3236     10.8283E-03     11.2168E-03
            2636            3237     9.61420E-03     9.68849E-03
            2637            3219     10.7552E-03     10.8118E-03
            2637            3220     10.1134E-03     9.84812E-03
            2637            3237     9.61420E-03     9.68849E-03
            2637            3238     8.92092E-03     8.48447E-03
            2638             442     8.71320E-03     7.95762E-03
            2638             443     9.93316E-03     9.52255E-03
            2638            3220     10.1134E-03     9.84812E-03
            2638            3238     8.92092E-03     8.48447E-03
            2639             659     49.6752E-03     50.7712E-03
            2639             660     46.6133E-03     47.4745E-03
            2639            3221     44.1742E-03     45.2685E-03
            2639            3239     46.0181E-03     47.2353E-03
            2640            3221     44.1742E-03     45.2685E-03
            2640            3222     41.9346E-03     43.0399E-03
            2640            3239     46.0181E-03     47.2353E-03
            2640            3240     42.6769E-03     43.9809E-03
            2641            3222     41.9346E-03     43.0399E-03
            2641            3223     39.6397E-03     40.6557E-03
            2641            3240     42.6769E-03     43.9809E-03
            2641            3241     39.6118E-03     40.9977E-03
            2642            3223     39.6397E-03     40.6557E-03
            2642            3224     37.2282E-03     38.1780E-03
            2642            3241     39.6118E-03     40.9977E-03
            2642            3242     36.8996E-03     38.2448E-03
            2643            3224     37.2282E-03     38.1780E-03
            2643            3225     34.8104E-03     35.6781E-03
            2643            3242     36.8996E-03     38.2448E-03
            2643            3243     34.3017E-03     35.5958E-03
            2644            3225     34.8104E-03     35.6781E-03
            2644            3226     32.3734E-03     33.1807E-03
            2644            3243     34.3017E-03     35.5958E-03
            2644            3244     31.8001E-03     33.0482E-03
            2645            3226     32.3734E-03     33.1807E-03
            2645            3227     29.9587E-03     30.7204E-03
            2645            3244     31.8001E-03     33.0482E-03
            2645            3245     29.3558E-03     30.5591E-03
            2646            3227     29.9587E-03     30.7204E-03
            2646            3228     27.5708E-03     28.2969E-03
            2646            3245     29.3558E-03     30.5591E-03
            2646            3246     26.9514E-03     28.1247E-03
            2647            3228     27.5708E-03     28.2969E-03
            2647            3229     25.2183E-03     25.9205E-03
            2647            3246     26.9514E-03     28.1247E-03
            2647            3247     24.5848E-03     25.7311E-03
            2648            3229     25.2183E-03     25.9205E-03
            2648            3230     22.9078E-03     23.5913E-03
            2648            3247     24.5848E-03     25.7311E-03
            2648            3248     22.2501E-03     23.3763E-03
            2649            3230     22.9078E-03     23.5913E-03
            2649            3231     20.6433E-03     21.3156E-03
            2649            3248     22.2501E-03     23.3763E-03
            2649            3249     19.9541E-03     21.0609E-03
            2650            3231     20.6433E-03     21.3156E-03
            2650            3232     18.4370E-03     19.1033E-03
            2650            3249     19.9541E-03     21.0609E-03
            2650            3250     17.7030E-03     18.7881E-03
            2651            3232     18.4370E-03     19.1033E-03
            2651            3233     16.3040E-03     16.9662E-03
            2651            3250     17.7030E-03     18.7881E-03
            2651            3251     15.5147E-03     16.5683E-03
            2652            3233     16.3040E-03     16.9662E-03
            2652            3234     14.2769E-03     14.9304E-03
            2652            3251     15.5147E-03     16.5683E-03
            2652            3252     13.4239E-03     14.4110E-03
            2653            3234     14.2769E-03     14.9304E-03
            2653            3235     12.4267E-03     13.0051E-03
            2653            3252     13.4239E-03     14.4110E-03
            2653            3253     11.4827E-03     12.3276E-03
            2654            3235     12.4267E-03     13.0051E-03
            2654            3236     10.8283E-03     11.2168E-03
            2654            3253     11.4827E-03     12.3276E-03
            2654            3254     9.78353E-03     10.3727E-03
            2655            3236     10.8283E-03     11.2168E-03
            2655            3237     9.61420E-03     9.68849E-03
            2655            3254     9.78353E-03     10.3727E-03
            2655            3255     8.45098E-03     8.61183E-03
            2656            3237     9.61420E-03     9.68849E-03
            2656            3238     8.92092E-03     8.48447E-03
            2656            3255     8.45098E-03     8.61183E-03
            2656            3256     7.62283E-03     7.28033E-03
            2657             441     7.35503E-03     6.77664E-03
            2657             442     8.71320E-03     7.95762E-03
            2657            3238     8.92092E-03     8.48447E-03
            2657            3256     7.62283E-03     7.28033E-03
            2658             658     52.5525E-03     53.5465E-03
            2658             659     49.6752E-03     50.7712E-03
            2658            3239     46.0181E-03     47.2353E-03
            2658            3257     47.1404E-03     48.4421E-03
            2659            3239     46.0181E-03     47.2353E-03
            2659            3240     42.6769E-03     43.9809E-03
            2659            3257     47.1404E-03     48.4421E-03
            2659            3258     42.6000E-03     44.2348E-03
            2660            3240     42.6769E-03     43.9809E-03
            2660            3241     39.6118E-03     40.9977E-03
            2660            3258     42.6000E-03     44.2348E-03
            2660            3259     39.1665E-03     40.8694E-03
            2661            3241     39.6118E-03     40.9977E-03
            2661            3242     36.8996E-03     38.2448E-03
            2661            3259     39.1665E-03     40.8694E-03
            2661            3260     36.1971E-03     37.8998E-03
            2662            3242     36.8996E-03     38.2448E-03
            2662            3243     34.3017E-03     35.5958E-03
            2662            3260     36.1971E-03     37.8998E-03
            2662            3261     33.5209E-03     35.2105E-03
            2663            3243     34.3017E-03     35.5958E-03
            2663            3244     31.8001E-03     33.0482E-03
            2663            3261     33.5209E-03     35.2105E-03
            2663            3262     31.0062E-03     32.6617E-03
            2664            3244     31.8001E-03     33.0482E-03
            2664            3245     29.3558E-03     30.5591E-03
            2664            3262     31.0062E-03     32.6617E-03
            2664            3263     28.5705E-03     30.2060E-03
            2665            3245     29.3558E-03     30.5591E-03
            2665            3246     26.9514E-03     28.1247E-03
            2665            3263     28.5705E-03     30.2060E-03
            2665            3264     26.1897E-03     27.8019E-03
            2666            3246     26.9514E-03     28.1247E-03
            2666            3247     24.5848E-03     25.7311E-03
            2666            3264     26.1897E-03     27.8019E-03
            2666            3265     23.8357E-03     25.4317E-03
            2667            3247     24.5848E-03     25.7311E-03
            2667            3248     22.2501E-03     23.3763E-03
            2667            3265     23.8357E-03     25.4317E-03
            2667            3266     21.5088E-03     23.0867E-03
            2668            3248     22.2501E-03     23.3763E-03
            2668            3249     19.9541E-03     21.0609E-03
            2668            3266     21.5088E-03     23.0867E-03
            2668            3267     19.2049E-03     20.7621E-03
            2669            3249     19.9541E-03     21.0609E-03
            2669            3250     17.7030E-03     18.7881E-03
            2669            3267     19.2049E-03     20.7621E-03
            2669            3268     16.9335E-03     18.4611E-03
            2670            3250     17.7030E-03     18.7881E-03
            2670            3251     15.5147E-03     16.5683E-03
            2670            3268     16.9335E-03     18.4611E-03
            2670            3269     14.7092E-03     16.1870E-03
            2671            3251     15.5147E-03     16.5683E-03
            2671            3252     13.4239E-03     14.4110E-03
            2671            3269     14.7092E-03     16.1870E-03
            2671            3270     12.5583E-03     13.9443E-03
            2672            3252     13.4239E-03     14.4110E-03
            2672            3253     11.4827E-03     12.3276E-03
            2672            3270     12.5583E-03     13.9443E-03
            2672            3271     10.5280E-03     11.7570E-03
            2673            3253     11.4827E-03     12.3276E-03
            2673            3254     9.78353E-03     10.3727E-03
            2673            3271     10.5280E-03     11.7570E-03
            2673            3272     8.70952E-03     9.63797E-03
            2674            3254     9.78353E-03     10.3727E-03
            2674            3255     8.45098E-03     8.61183E-03
            2674            3272     8.70952E-03     9.63797E-03
            2674            3273     7.23993E-03     7.68444E-03
            2675            3255     8.45098E-03     8.61183E-03
            2675            3256     7.62283E-03     7.28033E-03
            2675            3273     7.23993E-03     7.68444E-03
            2675            3274     6.32195E-03     6.10687E-03
            2676             440     6.02994E-03     5.43663E-03
            2676             441     7.35503E-03     6.77664E-03
            2676            3256     7.62283E-03     7.28033E-03
            2676            3274     6.32195E-03     6.10687E-03
            2677             657     54.0069E-03     55.1671E-03
            2677             658     52.5525E-03     53.5465E-03
            2677            3257     47.1404E-03     48.4421E-03
            2677            3275     46.6796E-03     48.4948E-03
            2678            3257     47.1404E-03     48.4421E-03
            2678            3258     42.6000E-03     44.2348E-03
            2678            3275     46.6796E-03     48.4948E-03
            2678            3276     41.9448E-03     43.9154E-03
            2679            3258     42.6000E-03     44.2348E-03
            2679            3259     39.1665E-03     40.8694E-03
            2679            3276     41.9448E-03     43.9154E-03
            2679            3277     38.3080E-03     40.3158E-03
            2680            3259     39.1665E-03     40.8694E-03
            2680            3260     36.1971E-03     37.8998E-03
            2680            3277     38.3080E-03     40.3158E-03
            2680            3278     35.2670E-03     37.3124E-03
            2681            3260     36.1971E-03     37.8998E-03
            2681            3261     33.5209E-03     35.2105E-03
            2681            3278     35.2670E-03     37.3124E-03
            2681            3279     32.5938E-03     34.6398E-03
            2682            3261     33.5209E-03     35.2105E-03
            2682            3262     31.0062E-03     32.6617E-03
            2682            3279     32.5938E-03     34.6398E-03
            2682            3280     30.0911E-03     32.1469E-03
            2683            3262     31.0062E-03     32.6617E-03
            2683            3263     28.5705E-03     30.2060E-03
            2683            3280     30.0911E-03     32.1469E-03
            2683            3281     27.6977E-03     29.7524E-03
            2684            3263     28.5705E-03     30.2060E-03
            2684            3264     26.1897E-03     27.8019E-03
            2684            3281     27.6977E-03     29.7524E-03
            2684            3282     25.3472E-03     27.4036E-03
            2685            3264     26.1897E-03     27.8019E-03
            2685            3265     23.8357E-03     25.4317E-03
            2685            3282     25.3472E-03     27.4036E-03
            2685            3283     23.0266E-03     25.0796E-03
            2686            3265     23.8357E-03     25.4317E-03
            2686            3266     21.5088E-03     23.0867E-03
            2686            3283     23.0266E-03     25.0796E-03
            2686            3284     20.7181E-03     22.7636E-03
            2687            3266     21.5088E-03     23.0867E-03
            2687            3267     19.2049E-03     20.7621E-03
            2687            3284     20.7181E-03     22.7636E-03
            2687            3285     18.4241E-03     20.4544E-03
            2688            3267     19.2049E-03     20.7621E-03
            2688            3268     16.9335E-03     18.4611E-03
            2688            3285     18.4241E-03     20.4544E-03
            2688            3286     16.1470E-03     18.1481E-03
            2689            3268     16.9335E-03     18.4611E-03
            2689            3269     14.7092E-03     16.1870E-03
            2689            3286     16.1470E-03     18.1481E-03
            2689            3287     13.8989E-03     15.8476E-03
            2690            3269     14.7092E-03     16.1870E-03
            2690            3270     12.5583E-03     13.9443E-03
            2690            3287     13.8989E-03     15.8476E-03
            2690            3288     11.6980E-03     13.5598E-03
            2691            3270     12.5583E-03     13.9443E-03
            2691            3271     10.5280E-03     11.7570E-03
            2691            3288     11.6980E-03     13.5598E-03
            2691            3289     9.58227E-03     11.2881E-03
            2692            3271     10.5280E-03     11.7570E-03
            2692            3272     8.70952E-03     9.63797E-03
            2692            3289     9.58227E-03     11.2881E-03
            2692            3290     7.61270E-03     9.07008E-03
            2693            3272     8.70952E-03     9.63797E-03
            2693            3273     7.23993E-03     7.68444E-03
            2693            3290     7.61270E-03     9.07008E-03
            2693            3291     5.96344E-03     6.93987E-03
            2694            3273     7.23993E-03     7.68444E-03
            2694            3274     6.32195E-03     6.10687E-03
            2694            3291     5.96344E-03     6.93987E-03
            2694            3292     4.91335E-03     5.07063E-03
            2695             439     4.57648E-03     4.24867E-03
            2695             440     6.02994E-03     5.43663E-03
            2695            3274     6.32195E-03     6.10687E-03
            2695            3292     4.91335E-03     5.07063E-03
            2696             656     52.4427E-03     54.8619E-03
            2696             657     54.0069E-03     55.1671E-03
            2696            3275     46.6796E-03     48.4948E-03
            2696            3293     45.5110E-03     47.8027E-03
            2697            3275     46.6796E-03     48.4948E-03
            2697            3276     41.9448E-03     43.9154E-03
            2697            3293     45.5110E-03     47.8027E-03
            2697            3294     40.9507E-03     43.1989E-03
            2698            3276     41.9448E-03     43.9154E-03
            2698            3277     38.3080E-03     40.3158E-03
            2698            3294     40.9507E-03     43.1989E-03
            2698            3295     37.3037E-03     39.5960E-03
            2699            3277     38.3080E-03     40.3158E-03
            2699            3278     35.2670E-03     37.3124E-03
            2699            3295     37.3037E-03     39.5960E-03
            2699            3296     34.3217E-03     36.6654E-03
            2700            3278     35.2670E-03     37.3124E-03
            2700            3279     32.5938E-03     34.6398E-03
            2700            3296     34.3217E-03     36.6654E-03
            2700            3297     31.6480E-03     34.0491E-03
            2701            3279     32.5938E-03     34.6398E-03
            2701            3280     30.0911E-03     32.1469E-03
            2701            3297     31.6480E-03     34.0491E-03
            2701            3298     29.1841E-03     31.6323E-03
            2702            3280     30.0911E-03     32.1469E-03
            2702            3281     27.6977E-03     29.7524E-03
            2702            3298     29.1841E-03     31.6323E-03
            2702            3299     26.8136E-03     29.2976E-03
            2703            3281     27.6977E-03     29.7524E-03
            2703            3282     25.3472E-03     27.4036E-03
            2703            3299     26.8136E-03     29.2976E-03
            2703            3300     24.5003E-03     27.0109E-03
            2704            3282     25.3472E-03     27.4036E-03
            2704            3283     23.0266E-03     25.0796E-03
            2704            3300     24.5003E-03     27.0109E-03
            2704            3301     22.2074E-03     24.7335E-03
            2705            3283     23.0266E-03     25.0796E-03
            2705            3284     20.7181E-03     22.7636E-03
            2705            3301     22.2074E-03     24.7335E-03
            2705            3302     19.9254E-03     22.4594E-03
            2706            3284     20.7181E-03     22.7636E-03
            2706            3285     18.4241E-03     20.4544E-03
            2706            3302     19.9254E-03     22.4594E-03
            2706            3303     17.6474E-03     20.1767E-03
            2707            3285     18.4241E-03     20.4544E-03
            2707            3286     16.1470E-03     18.1481E-03
            2707            3303     17.6474E-03     20.1767E-03
            2707            3304     15.3758E-03     17.8861E-03
            2708            3286     16.1470E-03     18.1481E-03
            2708            3287     13.8989E-03     15.8476E-03
            2708            3304     15.3758E-03     17.8861E-03
            2708            3305     13.1158E-03     15.5854E-03
            2709            3287     13.8989E-03     15.8476E-03
            2709            3288     11.6980E-03     13.5598E-03
            2709            3305     13.1158E-03     15.5854E-03
            2709            3306     10.8810E-03     13.2765E-03
            2710            3288     11.6980E-03     13.5598E-03
            2710            3289     9.58227E-03     11.2881E-03
            2710            3306     10.8810E-03     13.2765E-03
            2710            3307     8.68717E-03     10.9661E-03
            2711            3289     9.58227E-03     11.2881E-03
            2711            3290     7.61270E-03     9.07008E-03
            2711            3307     8.68717E-03     10.9661E-03
            2711            3308     6.58067E-03     8.66785E-03
            2712            3290     7.61270E-03     9.07008E-03
            2712            3291     5.96344E-03     6.93987E-03
            2712            3308     6.58067E-03     8.66785E-03
            2712            3309     4.65855E-03     6.42876E-03
            2713            3291     5.96344E-03     6.93987E-03
            2713            3292     4.91335E-03     5.07063E-03
            2713            3309     4.65855E-03     6.42876E-03
            2713            3310     3.32121E-03     4.34051E-03
            2714             438     2.88067E-03     3.34405E-03
            2714             439     4.57648E-03     4.24867E-03
            2714            3292     4.91335E-03     5.07063E-03
            2714            3310     3.32121E-03     4.34051E-03
            2715             655     58.1686E-03     58.2882E-03
            2715             656     52.4427E-03     54.8619E-03
            2715            3293     45.5110E-03     47.8027E-03
            2715            3311     54.9440E-03     54.9834E-03
            2716            3293     45.5110E-03     47.8027E-03
            2716            3294     40.9507E-03     43.1989E-03
            2716            3311     54.9440E-03     54.9834E-03
            2716            3312     51.9637E-03     52.1967E-03
            2717            3294     40.9507E-03     43.1989E-03
            2717            3295     37.3037E-03     39.5960E-03
            2717            3312     51.9637E-03     52.1967E-03
            2717            3313     49.2621E-03     49.6554E-03
            2718            3295     37.3037E-03     39.5960E-03
            2718            3296     34.3217E-03     36.6654E-03
            2718            3313     49.2621E-03     49.6554E-03
            2718            3314     46.5847E-03     47.1875E-03
            2719            3296     34.3217E-03     36.6654E-03
            2719            3297     31.6480E-03     34.0491E-03
            2719            3314     46.5847E-03     47.1875E-03
            2719            3315     43.9434E-03     44.6828E-03
            2720            3297     31.6480E-03     34.0491E-03
            2720            3298     29.1841E-03     31.6323E-03
            2720            3315     43.9434E-03     44.6828E-03
            2720            3316     41.2689E-03     42.1428E-03
            2721            3298     29.1841E-03     31.6323E-03
            2721            3299     26.8136E-03     29.2976E-03
            2721            3316     41.2689E-03     42.1428E-03
            2721            3317     38.5739E-03     39.5319E-03
            2722            3299     26.8136E-03     29.2976E-03
            2722            3300     24.5003E-03     27.0109E-03
            2722            3317     38.5739E-03     39.5319E-03
            2722            3318     35.8446E-03     36.8770E-03
            2723            3300     24.5003E-03     27.0109E-03
            2723            3301     22.2074E-03     24.7335E-03
            2723            3318     35.8446E-03     36.8770E-03
            2723            3319     33.0990E-03     34.1776E-03
            2724            3301     22.2074E-03     24.7335E-03
            2724            3302     19.9254E-03     22.4594E-03
            2724            3319     33.0990E-03     34.1776E-03
            2724            3320     30.3436E-03     31.4581E-03
            2725            3302     19.9254E-03     22.4594E-03
            2725            3303     17.6474E-03     20.1767E-03
            2725            3320     30.3436E-03     31.4581E-03
            2725            3321     27.6006E-03     28.7335E-03
            2726            3303     17.6474E-03     20.1767E-03
            2726            3304     15.3758E-03     17.8861E-03
            2726            3321     27.6006E-03     28.7335E-03
            2726            3322     24.8900E-03     26.0252E-03
            2727            3304     15.3758E-03     17.8861E-03
            2727            3305     13.1158E-03     15.5854E-03
            2727            3322     24.8900E-03     26.0252E-03
            2727            3323     22.2413E-03     23.3608E-03
            2728            3305     13.1158E-03     15.5854E-03
            2728            3306     10.8810E-03     13.2765E-03
            2728            3323     22.2413E-03     23.3608E-03
            2728            3324     19.6880E-03     20.7641E-03
            2729            3306     10.8810E-03     13.2765E-03
            2729            3307     8.68717E-03     10.9661E-03
            2729            3324     19.6880E-03     20.7641E-03
            2729            3325     17.2718E-03     18.3038E-03
            2730            3307     8.68717E-03     10.9661E-03
            2730            3308     6.58067E-03     8.66785E-03
            2730            3325     17.2718E-03     18.3038E-03
            2730            3326     15.0258E-03     16.0028E-03
            2731            3308     6.58067E-03     8.66785E-03
            2731            3309     4.65855E-03     6.42876E-03
            2731            3326     15.0258E-03     16.0028E-03
            2731            3327     12.9971E-03     14.1435E-03
            2732            3309     4.65855E-03     6.42876E-03
            2732            3310     3.32121E-03     4.34051E-03
            2732            3327     12.9971E-03     14.1435E-03
            2732            3328     10.9278E-03     13.0910E-03
            2733             437     9.81900E-03     12.7884E-03
            2733             438     2.88067E-03     3.34405E-03
            2733            3310     3.32121E-03     4.34051E-03
            2733            3328     10.9278E-03     13.0910E-03
            2734             654     67.1056E-03     65.6732E-03
            2734             655     58.1686E-03     58.2882E-03
            2734            3311     54.9440E-03     54.9834E-03
            2734            3329     66.7652E-03     65.3333E-03
            2735            3311     54.9440E-03     54.9834E-03
            2735            3312     51.9637E-03     52.1967E-03
            2735            3329     66.7652E-03     65.3333E-03
            2735            3330     65.2841E-03     64.0080E-03
            2736            3312     51.9637E-03     52.1967E-03
            2736            3313     49.2621E-03     49.6554E-03
            2736            3330     65.2841E-03     64.0080E-03
            2736            3331     63.1544E-03     62.0477E-03
            2737            3313     49.2621E-03     49.6554E-03
            2737            3314     46.5847E-03     47.1875E-03
            2737            3331     63.1544E-03     62.0477E-03
            2737            3332     60.5542E-03     59.6178E-03
            2738            3314     46.5847E-03     47.1875E-03
            2738            3315     43.9434E-03     44.6828E-03
            2738            3332     60.5542E-03     59.6178E-03
            2738            3333     57.6439E-03     56.8562E-03
            2739            3315     43.9434E-03     44.6828E-03
            2739            3316     41.2689E-03     42.1428E-03
            2739            3333     57.6439E-03     56.8562E-03
            2739            3334     54.5134E-03     53.8424E-03
            2740            3316     41.2689E-03     42.1428E-03
            2740            3317     38.5739E-03     39.5319E-03
            2740            3334     54.5134E-03     53.8424E-03
            2740            3335     51.2364E-03     50.6655E-03
            2741            3317     38.5739E-03     39.5319E-03
            2741            3318     35.8446E-03     36.8770E-03
            2741            3335     51.2364E-03     50.6655E-03
            2741            3336     47.8721E-03     47.3712E-03
            2742            3318     35.8446E-03     36.8770E-03
            2742            3319     33.0990E-03     34.1776E-03
            2742            3336     47.8721E-03     47.3712E-03
            2742            3337     44.4599E-03     44.0174E-03
            2743            3319     33.0990E-03     34.1776E-03
            2743            3320     30.3436E-03     31.4581E-03
            2743            3337     44.4599E-03     44.0174E-03
            2743            3338     41.0432E-03     40.6394E-03
            2744            3320     30.3436E-03     31.4581E-03
            2744            3321     27.6006E-03     28.7335E-03
            2744            3338     41.0432E-03     40.6394E-03
            2744            3339     37.6561E-03     37.2801E-03
            2745            3321     27.6006E-03     28.7335E-03
            2745            3322     24.8900E-03     26.0252E-03
            2745            3339     37.6561E-03     37.2801E-03
            2745            3340     34.3372E-03     33.9801E-03
            2746            3322     24.8900E-03     26.0252E-03
            2746            3323     22.2413E-03     23.3608E-03
            2746            3340     34.3372E-03     33.9801E-03
            2746            3341     31.1365E-03     30.7903E-03
            2747            3323     22.2413E-03     23.3608E-03
            2747            3324     19.6880E-03     20.7641E-03
            2747            3341     31.1365E-03     30.7903E-03
            2747            3342     28.0936E-03     27.7807E-03
            2748            3324     19.6880E-03     20.7641E-03
            2748            3325     17.2718E-03     18.3038E-03
            2748            3342     28.0936E-03     27.7807E-03
            2748            3343     25.2853E-03     25.0627E-03
            2749            3325     17.2718E-03     18.3038E-03
            2749            3326     15.0258E-03     16.0028E-03
            2749            3343     25.2853E-03     25.0627E-03
            2749            3344     22.7230E-03     22.7953E-03
            2750            3326     15.0258E-03     16.0028E-03
            2750            3327     12.9971E-03     14.1435E-03
            2750            3344     22.7230E-03     22.7953E-03
            2750            3345     20.3911E-03     21.4451E-03
            2751            3327     12.9971E-03     14.1435E-03
            2751            3328     10.9278E-03     13.0910E-03
            2751            3345     20.3911E-03     21.4451E-03
            2751            3346     18.6113E-03     21.3651E-03
            2752             436     17.9260E-03     21.6367E-03
            2752             437     9.81900E-03     12.7884E-03
            2752            3328     10.9278E-03     13.0910E-03
            2752            3346     18.6113E-03     21.3651E-03
            2753             653     70.9086E-03     71.3412E-03
            2753             654     67.1056E-03     65.6732E-03
            2753            3329     66.7652E-03     65.3333E-03
            2753            3347     70.2278E-03     70.3913E-03
            2754            3329     66.7652E-03     65.3333E-03
            2754            3330     65.2841E-03     64.0080E-03
            2754            3347     70.2278E-03     70.3913E-03
            2754            3348     68.4432E-03     68.3809E-03
            2755            3330     65.2841E-03     64.0080E-03
            2755            3331     63.1544E-03     62.0477E-03
            2755            3348     68.4432E-03     68.3809E-03
            2755            3349     65.8806E-03     65.7210E-03
            2756            3331     63.1544E-03     62.0477E-03
            2756            3332     60.5542E-03     59.6178E-03
            2756            3349     65.8806E-03     65.7210E-03
            2756            3350     62.8173E-03     62.6309E-03
            2757            3332     60.5542E-03     59.6178E-03
            2757            3333     57.6439E-03     56.8562E-03
            2757            3350     62.8173E-03     62.6309E-03
            2757            3351     59.4282E-03     59.2426E-03
            2758            3333     57.6439E-03     56.8562E-03
            2758            3334     54.5134E-03     53.8424E-03
            2758            3351     59.4282E-03     59.2426E-03
            2758            3352     55.8372E-03     55.6811E-03
            2759            3334     54.5134E-03     53.8424E-03
            2759            3335     51.2364E-03     50.6655E-03
            2759            3352     55.8372E-03     55.6811E-03
            2759            3353     52.1388E-03     52.0036E-03
            2760            3335     51.2364E-03     50.6655E-03
            2760            3336     47.8721E-03     47.3712E-03
            2760            3353     52.1388E-03     52.0036E-03
            2760            3354     48.3805E-03     48.2758E-03
            2761            3336     47.8721E-03     47.3712E-03
            2761            3337     44.4599E-03     44.0174E-03
            2761            3354     48.3805E-03     48.2758E-03
            2761            3355     44.6147E-03     44.5275E-03
            2762            3337     44.4599E-03     44.0174E-03
            2762            3338     41.0432E-03     40.6394E-03
            2762            3355     44.6147E-03     44.5275E-03
            2762            3356     40.8632E-03     40.7960E-03
            2763            3338     41.0432E-03     40.6394E-03
            2763            3339     37.6561E-03     37.2801E-03
            2763            3356     40.8632E-03     40.7960E-03
            2763            3357     37.1610E-03     37.1077E-03
            2764            3339     37.6561E-03     37.2801E-03
            2764            3340     34.3372E-03     33.9801E-03
            2764            3357     37.1610E-03     37.1077E-03
            2764            3358     33.5291E-03     33.5005E-03
            2765            3340     34.3372E-03     33.9801E-03
            2765            3341     31.1365E-03     30.7903E-03
            2765            3358     33.5291E-03     33.5005E-03
            2765            3359     30.0048E-03     30.0191E-03
            2766            3341     31.1365E-03     30.7903E-03
            2766            3342     28.0936E-03     27.7807E-03
            2766            3359     30.0048E-03     30.0191E-03
            2766            3360     26.6169E-03     26.7452E-03
            2767            3342     28.0936E-03     27.7807E-03
            2767            3343     25.2853E-03     25.0627E-03
            2767            3360     26.6169E-03     26.7452E-03
            2767            3361     23.4282E-03     23.7873E-03
            2768            3343     25.2853E-03     25.0627E-03
            2768            3344     22.7230E-03     22.7953E-03
            2768            3361     23.4282E-03     23.7873E-03
            2768            3362     20.4564E-03     21.3868E-03
            2769            3344     22.7230E-03     22.7953E-03
            2769            3345     20.3911E-03     21.4451E-03
            2769            3362     20.4564E-03     21.3868E-03
            2769            3363     18.0003E-03     19.8027E-03
            2770            3345     20.3911E-03     21.4451E-03
            2770            3346     18.6113E-03     21.3651E-03
            2770            3363     18.0003E-03     19.8027E-03
            2770            3364     16.9719E-03     18.4254E-03
            2771             435     16.9585E-03     17.6195E-03
            2771             436     17.9260E-03     21.6367E-03
            2771            3346     18.6113E-03     21.3651E-03
            2771            3364     16.9719E-03     18.4254E-03
            2772             652     74.9896E-03     76.2158E-03
            2772             653     70.9086E-03     71.3412E-03
            2772            3347     70.2278E-03     70.3913E-03
            2772            3365     73.3683E-03     74.4604E-03
            2773            3347     70.2278E-03     70.3913E-03
            2773            3348     68.4432E-03     68.3809E-03
            2773            3365     73.3683E-03     74.4604E-03
            2773            3366     71.0701E-03     71.9494E-03
            2774            3348     68.4432E-03     68.3809E-03
            2774            3349     65.8806E-03     65.7210E-03
            2774            3366     71.0701E-03     71.9494E-03
            2774            3367     68.0916E-03     68.7509E-03
            2775            3349     65.8806E-03     65.7210E-03
            2775            3350     62.8173E-03     62.6309E-03
            2775            3367     68.0916E-03     68.7509E-03
            2775            3368     64.6133E-03     65.1287E-03
            2776            3350     62.8173E-03     62.6309E-03
            2776            3351     59.4282E-03     59.2426E-03
            2776            3368     64.6133E-03     65.1287E-03
            2776            3369     60.8283E-03     61.2609E-03
            2777            3351     59.4282E-03     59.2426E-03
            2777            3352     55.8372E-03     55.6811E-03
            2777            3369     60.8283E-03     61.2609E-03
            2777            3370     56.8794E-03     57.2497E-03
            2778            3352     55.8372E-03     55.6811E-03
            2778            3353     52.1388E-03     52.0036E-03
            2778            3370     56.8794E-03     57.2497E-03
            2778            3371     52.8384E-03     53.1841E-03
            2779            3353     52.1388E-03     52.0036E-03
            2779            3354     48.3805E-03     48.2758E-03
            2779            3371     52.8384E-03     53.1841E-03
            2779            3372     48.7795E-03     49.1021E-03
            2780            3354     48.3805E-03     48.2758E-03
            2780            3355     44.6147E-03     44.5275E-03
            2780            3372     48.7795E-03     49.1021E-03
            2780            3373     44.7228E-03     45.0401E-03
            2781            3355     44.6147E-03     44.5275E-03
            2781            3356     40.8632E-03     40.7960E-03
            2781            3373     44.7228E-03     45.0401E-03
            2781            3374     40.7046E-03     41.0178E-03
            2782            3356     40.8632E-03     40.7960E-03
            2782            3357     37.1610E-03     37.1077E-03
            2782            3374     40.7046E-03     41.0178E-03
            2782            3375     36.7334E-03     37.0592E-03
            2783            3357     37.1610E-03     37.1077E-03
            2783            3358     33.5291E-03     33.5005E-03
            2783            3375     36.7334E-03     37.0592E-03
            2783            3376     32.8369E-03     33.1907E-03
            2784            3358     33.5291E-03     33.5005E-03
            2784            3359     30.0048E-03     30.0191E-03
            2784            3376     32.8369E-03     33.1907E-03
            2784            3377     29.0266E-03     29.4544E-03
            2785            3359     30.0048E-03     30.0191E-03
            2785            3360     26.6169E-03     26.7452E-03
            2785            3377     29.0266E-03     29.4544E-03
            2785            3378     25.3478E-03     25.9181E-03
            2786            3360     26.6169E-03     26.7452E-03
            2786            3361     23.4282E-03     23.7873E-03
            2786            3378     25.3478E-03     25.9181E-03
            2786            3379     21.8402E-03     22.6809E-03
            2787            3361     23.4282E-03     23.7873E-03
            2787            3362     20.4564E-03     21.3868E-03
            2787            3379     21.8402E-03     22.6809E-03
            2787            3380     18.6643E-03     19.9230E-03
            2788            3362     20.4564E-03     21.3868E-03
            2788            3363     18.0003E-03     19.8027E-03
            2788            3380     18.6643E-03     19.9230E-03
            2788            3381     16.2948E-03     17.4909E-03
            2789            3363     18.0003E-03     19.8027E-03
            2789            3364     16.9719E-03     18.4254E-03
            2789            3381     16.2948E-03     17.4909E-03
            2789            3382     14.9146E-03     15.3025E-03
            2790             434     14.4415E-03     14.3174E-03
            2790             435     16.9585E-03     17.6195E-03
            2790            3364     16.9719E-03     18.4254E-03
            2790            3382     14.9146E-03     15.3025E-03
            2791             651     79.0247E-03     80.4204E-03
            2791             652     74.9896E-03     76.2158E-03
            2791            3365     73.3683E-03     74.4604E-03
            2791            3383     76.2623E-03     77.8449E-03
            2792            3365     73.3683E-03     74.4604E-03
            2792            3366     71.0701E-03     71.9494E-03
            2792            3383     76.2623E-03     77.8449E-03
            2792            3384     73.2615E-03     74.7047E-03
            2793            3366     71.0701E-03     71.9494E-03
            2793            3367     68.0916E-03     68.7509E-03
            2793            3384     73.2615E-03     74.7047E-03
            2793            3385     69.7394E-03     71.0182E-03
            2794            3367     68.0916E-03     68.7509E-03
            2794            3368     64.6133E-03     65.1287E-03
            2794            3385     69.7394E-03     71.0182E-03
            2794            3386     65.8456E-03     66.9610E-03
            2795            3368     64.6133E-03     65.1287E-03
            2795            3369     60.8283E-03     61.2609E-03
            2795            3386     65.8456E-03     66.9610E-03
            2795            3387     61.7276E-03     62.7030E-03
            2796            3369     60.8283E-03     61.2609E-03
            2796            3370     56.8794E-03     57.2497E-03
            2796            3387     61.7276E-03     62.7030E-03
            2796            3388     57.4805E-03     58.3671E-03
            2797            3370     56.8794E-03     57.2497E-03
            2797            3371     52.8384E-03     53.1841E-03
            2797            3388     57.4805E-03     58.3671E-03
            2797            3389     53.2040E-03     54.0151E-03
            2798            3371     52.8384E-03     53.1841E-03
            2798            3372     48.7795E-03     49.1021E-03
            2798            3389     53.2040E-03     54.0151E-03
            2798            3390     48.9180E-03     49.6847E-03
            2799            3372     48.7795E-03     49.1021E-03
            2799            3373     44.7228E-03     45.0401E-03
            2799            3390     48.9180E-03     49.6847E-03
            2799            3391     44.6642E-03     45.3972E-03
            2800            3373     44.7228E-03     45.0401E-03
            2800            3374     40.7046E-03     41.0178E-03
            2800            3391     44.6642E-03     45.3972E-03
            2800            3392     40.4454E-03     41.1658E-03
            2801            3374     40.7046E-03     41.0178E-03
            2801            3375     36.7334E-03     37.0592E-03
            2801            3392     40.4454E-03     41.1658E-03
            2801            3393     36.2820E-03     37.0054E-03
            2802            3375     36.7334E-03     37.0592E-03
            2802            3376     32.8369E-03     33.1907E-03
            2802            3393     36.2820E-03     37.0054E-03
            2802            3394     32.1768E-03     32.9335E-03
            2803            3376     32.8369E-03     33.1907E-03
            2803            3377     29.0266E-03     29.4544E-03
            2803            3394     32.1768E-03     32.9335E-03
            2803            3395     28.1537E-03     28.9850E-03
            2804            3377     29.0266E-03     29.4544E-03
            2804            3378     25.3478E-03     25.9181E-03
            2804            3395     28.1537E-03     28.9850E-03
            2804            3396     24.2396E-03     25.1973E-03
            2805            3378     25.3478E-03     25.9181E-03
            2805            3379     21.8402E-03     22.6809E-03
            2805            3396     24.2396E-03     25.1973E-03
            2805            3397     20.5052E-03     21.6632E-03
            2806            3379     21.8402E-03     22.6809E-03
            2806            3380     18.6643E-03     19.9230E-03
            2806            3397     20.5052E-03     21.6632E-03
            2806            3398     17.1746E-03     18.3861E-03
            2807            3380     18.6643E-03     19.9230E-03
            2807            3381     16.2948E-03     17.4909E-03
            2807            3398     17.1746E-03     18.3861E-03
            2807            3399     14.4855E-03     15.3903E-03
            2808            3381     16.2948E-03     17.4909E-03
            2808            3382     14.9146E-03     15.3025E-03
            2808            3399     14.4855E-03     15.3903E-03
            2808            3400     12.7946E-03     13.1828E-03
            2809             433     12.2667E-03     12.3774E-03
            2809             434     14.4415E-03     14.3174E-03
            2809            3382     14.9146E-03     15.3025E-03
            2809            3400     12.7946E-03     13.1828E-03
            2810             650     82.6306E-03     84.1650E-03
            2810             651     79.0247E-03     80.4204E-03
            2810            3383     76.2623E-03     77.8449E-03
            2810            3401     78.9329E-03     80.6664E-03
            2811            3383     76.2623E-03     77.8449E-03
            2811            3384     73.2615E-03     74.7047E-03
            2811            3401     78.9329E-03     80.6664E-03
            2811            3402     74.9865E-03     76.7870E-03
            2812            3384     73.2615E-03     74.7047E-03
            2812            3385     69.7394E-03     71.0182E-03
            2812            3402     74.9865E-03     76.7870E-03
            2812            3403     70.8347E-03     72.5430E-03
            2813            3385     69.7394E-03     71.0182E-03
            2813            3386     65.8456E-03     66.9610E-03
            2813            3403     70.8347E-03     72.5430E-03
            2813            3404     66.4995E-03     68.0661E-03
            2814            3386     65.8456E-03     66.9610E-03
            2814            3387     61.7276E-03     62.7030E-03
            2814            3404     66.4995E-03     68.0661E-03
            2814            3405     62.0533E-03     63.5057E-03
            2815            3387     61.7276E-03     62.7030E-03
            2815            3388     57.4805E-03     58.3671E-03
            2815            3405     62.0533E-03     63.5057E-03
            2815            3406     57.6056E-03     58.9438E-03
            2816            3388     57.4805E-03     58.3671E-03
            2816            3389     53.2040E-03     54.0151E-03
            2816            3406     57.6056E-03     58.9438E-03
            2816            3407     53.1546E-03     54.4109E-03
            2817            3389     53.2040E-03     54.0151E-03
            2817            3390     48.9180E-03     49.6847E-03
            2817            3407     53.1546E-03     54.4109E-03
            2817            3408     48.7420E-03     49.9332E-03
            2818            3390     48.9180E-03     49.6847E-03
            2818            3391     44.6642E-03     45.3972E-03
            2818            3408     48.7420E-03     49.9332E-03
            2818            3409     44.3619E-03     45.5109E-03
            2819            3391     44.6642E-03     45.3972E-03
            2819            3392     40.4454E-03     41.1658E-03
            2819            3409     44.3619E-03     45.5109E-03
            2819            3410     40.0280E-03     41.1528E-03
            2820            3392     40.4454E-03     41.1658E-03
            2820            3393     36.2820E-03     37.0054E-03
            2820            3410     40.0280E-03     41.1528E-03
            2820            3411     35.7377E-03     36.8606E-03
            2821            3393     36.2820E-03     37.0054E-03
            2821            3394     32.1768E-03     32.9335E-03
            2821            3411     35.7377E-03     36.8606E-03
            2821            3412     31.5008E-03     32.6482E-03
            2822            3394     32.1768E-03     32.9335E-03
            2822            3395     28.1537E-03     28.9850E-03
            2822            3412     31.5008E-03     32.6482E-03
            2822            3413     27.3278E-03     28.5284E-03
            2823            3395     28.1537E-03     28.9850E-03
            2823            3396     24.2396E-03     25.1973E-03
            2823            3413     27.3278E-03     28.5284E-03
            2823            3414     23.2459E-03     24.5386E-03
            2824            3396     24.2396E-03     25.1973E-03
            2824            3397     20.5052E-03     21.6632E-03
            2824            3414     23.2459E-03     24.5386E-03
            2824            3415     19.3459E-03     20.6950E-03
            2825            3397     20.5052E-03     21.6632E-03
            2825            3398     17.1746E-03     18.3861E-03
            2825            3415     19.3459E-03     20.6950E-03
            2825            3416     15.7504E-03     17.0258E-03
            2826            3398     17.1746E-03     18.3861E-03
            2826            3399     14.4855E-03     15.3903E-03
            2826            3416     15.7504E-03     17.0258E-03
            2826            3417     12.7426E-03     13.7388E-03
            2827            3399     14.4855E-03     15.3903E-03
            2827            3400     12.7946E-03     13.1828E-03
            2827            3417     12.7426E-03     13.7388E-03
            2827            3418     10.8133E-03     11.0205E-03
            2828             432     10.1851E-03     9.81074E-03
            2828             433     12.2667E-03     12.3774E-03
            2828            3400     12.7946E-03     13.1828E-03
            2828            3418     10.8133E-03     11.0205E-03
            2829             649     86.0090E-03     87.5587E-03
            2829             650     82.6306E-03     84.1650E-03
            2829            3401     78.9329E-03     80.6664E-03
            2829            3419     81.0911E-03     82.9978E-03
            2830            3401     78.9329E-03     80.6664E-03
            2830            3402     74.9865E-03     76.7870E-03
            2830            3419     81.0911E-03     82.9978E-03
            2830            3420     76.2096E-03     78.2183E-03
            2831            3402     74.9865E-03     76.7870E-03
            2831            3403     70.8347E-03     72.5430E-03
            2831            3420     76.2096E-03     78.2183E-03
            2831            3421     71.3342E-03     73.3129E-03
            2832            3403     70.8347E-03     72.5430E-03
            2832            3404     66.4995E-03     68.0661E-03
            2832            3421     71.3342E-03     73.3129E-03
            2832            3422     66.5108E-03     68.4460E-03
            2833            3404     66.4995E-03     68.0661E-03
            2833            3405     62.0533E-03     63.5057E-03
            2833            3422     66.5108E-03     68.4460E-03
            2833            3423     61.8390E-03     63.6693E-03
            2834            3405     62.0533E-03     63.5057E-03
            2834            3406     57.6056E-03     58.9438E-03
            2834            3423     61.8390E-03     63.6693E-03
            2834            3424     57.2313E-03     58.9687E-03
            2835            3406     57.6056E-03     58.9438E-03
            2835            3407     53.1546E-03     54.4109E-03
            2835            3424     57.2313E-03     58.9687E-03
            2835            3425     52.7059E-03     54.3627E-03
            2836            3407     53.1546E-03     54.4109E-03
            2836            3408     48.7420E-03     49.9332E-03
            2836            3425     52.7059E-03     54.3627E-03
            2836            3426     48.2327E-03     49.8249E-03
            2837            3408     48.7420E-03     49.9332E-03
            2837            3409     44.3619E-03     45.5109E-03
            2837            3426     48.2327E-03     49.8249E-03
            2837            3427     43.8091E-03     45.3572E-03
            2838            3409     44.3619E-03     45.5109E-03
            2838            3410     40.0280E-03     41.1528E-03
            2838            3427     43.8091E-03     45.3572E-03
            2838            3428     39.4259E-03     40.9455E-03
            2839            3410     40.0280E-03     41.1528E-03
            2839            3411     35.7377E-03     36.8606E-03
            2839            3428     39.4259E-03     40.9455E-03
            2839            3429     35.0808E-03     36.5915E-03
            2840            3411     35.7377E-03     36.8606E-03
            2840            3412     31.5008E-03     32.6482E-03
            2840            3429     35.0808E-03     36.5915E-03
            2840            3430     30.7758E-03     32.2943E-03
            2841            3412     31.5008E-03     32.6482E-03
            2841            3413     27.3278E-03     28.5284E-03
            2841            3430     30.7758E-03     32.2943E-03
            2841            3431     26.5168E-03     28.0629E-03
            2842            3413     27.3278E-03     28.5284E-03
            2842            3414     23.2459E-03     24.5386E-03
            2842            3431     26.5168E-03     28.0629E-03
            2842            3432     22.3328E-03     23.9090E-03
            2843            3414     23.2459E-03     24.5386E-03
            2843            3415     19.3459E-03     20.6950E-03
            2843            3432     22.3328E-03     23.9090E-03
            2843            3433     18.2685E-03     19.8419E-03
            2844            3415     19.3459E-03     20.6950E-03
            2844            3416     15.7504E-03     17.0258E-03
            2844            3433     18.2685E-03     19.8419E-03
            2844            3434     14.4442E-03     15.9219E-03
            2845            3416     15.7504E-03     17.0258E-03
            2845            3417     12.7426E-03     13.7388E-03
            2845            3434     14.4442E-03     15.9219E-03
            2845            3435     11.1036E-03     12.2216E-03
            2846            3417     12.7426E-03     13.7388E-03
            2846            3418     10.8133E-03     11.0205E-03
            2846            3435     11.1036E-03     12.2216E-03
            2846            3436     8.75822E-03     9.15619E-03
            2847             431     7.92539E-03     7.88018E-03
            2847             432     10.1851E-03     9.81074E-03
            2847            3418     10.8133E-03     11.0205E-03
            2847            3436     8.75822E-03     9.15619E-03
            2848             648     88.8726E-03     90.7007E-03
            2848             649     86.0090E-03     87.5587E-03
            2848            3419     81.0911E-03     82.9978E-03
            2848            3437     82.7250E-03     84.7036E-03
            2849            3419     81.0911E-03     82.9978E-03
            2849            3420     76.2096E-03     78.2183E-03
            2849            3437     82.7250E-03     84.7036E-03
            2849            3438     76.7071E-03     78.8100E-03
            2850            3420     76.2096E-03     78.2183E-03
            2850            3421     71.3342E-03     73.3129E-03
            2850            3438     76.7071E-03     78.8100E-03
            2850            3439     71.0500E-03     73.2878E-03
            2851            3421     71.3342E-03     73.3129E-03
            2851            3422     66.5108E-03     68.4460E-03
            2851            3439     71.0500E-03     73.2878E-03
            2851            3440     65.9406E-03     68.1430E-03
            2852            3422     66.5108E-03     68.4460E-03
            2852            3423     61.8390E-03     63.6693E-03
            2852            3440     65.9406E-03     68.1430E-03
            2852            3441     61.0829E-03     63.2266E-03
            2853            3423     61.8390E-03     63.6693E-03
            2853            3424     57.2313E-03     58.9687E-03
            2853            3441     61.0829E-03     63.2266E-03
            2853            3442     56.4297E-03     58.5095E-03
            2854            3424     57.2313E-03     58.9687E-03
            2854            3425     52.7059E-03     54.3627E-03
            2854            3442     56.4297E-03     58.5095E-03
            2854            3443     51.8943E-03     53.9079E-03
            2855            3425     52.7059E-03     54.3627E-03
            2855            3426     48.2327E-03     49.8249E-03
            2855            3443     51.8943E-03     53.9079E-03
            2855            3444     47.4354E-03     49.4034E-03
            2856            3426     48.2327E-03     49.8249E-03
            2856            3427     43.8091E-03     45.3572E-03
            2856            3444     47.4354E-03     49.4034E-03
            2856            3445     43.0301E-03     44.9585E-03
            2857            3427     43.8091E-03     45.3572E-03
            2857            3428     39.4259E-03     40.9455E-03
            2857            3445     43.0301E-03     44.9585E-03
            2857            3446     38.6585E-03     40.5637E-03
            2858            3428     39.4259E-03     40.9455E-03
            2858            3429     35.0808E-03     36.5915E-03
            2858            3446     38.6585E-03     40.5637E-03
            2858            3447     34.3174E-03     36.2060E-03
            2859            3429     35.0808E-03     36.5915E-03
            2859            3430     30.7758E-03     32.2943E-03
            2859            3447     34.3174E-03     36.2060E-03
            2859            3448     29.9999E-03     31.8820E-03
            2860            3430     30.7758E-03     32.2943E-03
            2860            3431     26.5168E-03     28.0629E-03
            2860            3448     29.9999E-03     31.8820E-03
            2860            3449     25.7151E-03     27.5936E-03
            2861            3431     26.5168E-03     28.0629E-03
            2861            3432     22.3328E-03     23.9090E-03
            2861            3449     25.7151E-03     27.5936E-03
            2861            3450     21.4733E-03     23.3347E-03
            2862            3432     22.3328E-03     23.9090E-03
            2862            3433     18.2685E-03     19.8419E-03
            2862            3450     21.4733E-03     23.3347E-03
            2862            3451     17.3012E-03     19.1355E-03
            2863            3433     18.2685E-03     19.8419E-03
            2863            3434     14.4442E-03     15.9219E-03
            2863            3451     17.3012E-03     19.1355E-03
            2863            3452     13.2704E-03     15.0085E-03
            2864            3434     14.4442E-03     15.9219E-03
            2864            3435     11.1036E-03     12.2216E-03
            2864            3452     13.2704E-03     15.0085E-03
            2864            3453     9.58039E-03     11.0209E-03
            2865            3435     11.1036E-03     12.2216E-03
            2865            3436     8.75822E-03     9.15619E-03
            2865            3453     9.58039E-03     11.0209E-03
            2865            3454     6.82073E-03     7.43860E-03
            2866             430     5.78323E-03     5.79344E-03
            2866             431     7.92539E-03     7.88018E-03
            2866            3436     8.75822E-03     9.15619E-03
            2866            3454     6.82073E-03     7.43860E-03
            2867             647     91.4083E-03     93.0440E-03
            2867             648     88.8726E-03     90.7007E-03
            2867            3437     82.7250E-03     84.7036E-03
            2867            3455     83.2994E-03     85.2540E-03
            2868            3437     82.7250E-03     84.7036E-03
            2868            3438     76.7071E-03     78.8100E-03
            2868            3455     83.2994E-03     85.2540E-03
            2868            3456     76.0155E-03     78.3622E-03
            2869            3438     76.7071E-03     78.8100E-03
            2869            3439     71.0500E-03     73.2878E-03
            2869            3456     76.0155E-03     78.3622E-03
            2869            3457     70.0888E-03     72.5023E-03
            2870            3439     71.0500E-03     73.2878E-03
            2870            3440     65.9406E-03     68.1430E-03
            2870            3457     70.0888E-03     72.5023E-03
            2870            3458     64.7821E-03     67.1979E-03
            2871            3440     65.9406E-03     68.1430E-03
            2871            3441     61.0829E-03     63.2266E-03
            2871            3458     64.7821E-03     67.1979E-03
            2871            3459     59.9068E-03     62.3116E-03
            2872            3441     61.0829E-03     63.2266E-03
            2872            3442     56.4297E-03     58.5095E-03
            2872            3459     59.9068E-03     62.3116E-03
            2872            3460     55.2892E-03     57.6546E-03
            2873            3442     56.4297E-03     58.5095E-03
            2873            3443     51.8943E-03     53.9079E-03
            2873            3460     55.2892E-03     57.6546E-03
            2873            3461     50.8108E-03     53.1561E-03
            2874            3443     51.8943E-03     53.9079E-03
            2874            3444     47.4354E-03     49.4034E-03
            2874            3461     50.8108E-03     53.1561E-03
            2874            3462     46.4258E-03     48.7436E-03
            2875            3444     47.4354E-03     49.4034E-03
            2875            3445     43.0301E-03     44.9585E-03
            2875            3462     46.4258E-03     48.7436E-03
            2875            3463     42.0838E-03     44.3872E-03
            2876            3445     43.0301E-03     44.9585E-03
            2876            3446     38.6585E-03     40.5637E-03
            2876            3463     42.0838E-03     44.3872E-03
            2876            3464     37.7749E-03     40.0607E-03
            2877            3446     38.6585E-03     40.5637E-03
            2877            3447     34.3174E-03     36.2060E-03
            2877            3464     37.7749E-03     40.0607E-03
            2877            3465     33.4799E-03     35.7519E-03
            2878            3447     34.3174E-03     36.2060E-03
            2878            3448     29.9999E-03     31.8820E-03
            2878            3465     33.4799E-03     35.7519E-03
            2878            3466     29.2017E-03     31.4541E-03
            2879            3448     29.9999E-03     31.8820E-03
            2879            3449     25.7151E-03     27.5936E-03
            2879            3466     29.2017E-03     31.4541E-03
            2879            3467     24.9362E-03     27.1580E-03
            2880            3449     25.7151E-03     27.5936E-03
            2880            3450     21.4733E-03     23.3347E-03
            2880            3467     24.9362E-03     27.1580E-03
            2880            3468     20.6915E-03     22.8724E-03
            2881            3450     21.4733E-03     23.3347E-03
            2881            3451     17.3012E-03     19.1355E-03
            2881            3468     20.6915E-03     22.8724E-03
            2881            3469     16.4836E-03     18.5821E-03
            2882            3451     17.3012E-03     19.1355E-03
            2882            3452     13.2704E-03     15.0085E-03
            2882            3469     16.4836E-03     18.5821E-03
            2882            3470     12.3185E-03     14.3376E-03
            2883            3452     13.2704E-03     15.0085E-03
            2883            3453     9.58039E-03     11.0209E-03
            2883            3470     12.3185E-03     14.3376E-03
            2883            3471     8.28707E-03     10.1950E-03
            2884            3453     9.58039E-03     11.0209E-03
            2884            3454     6.82073E-03     7.43860E-03
            2884            3471     8.28707E-03     10.1950E-03
            2884            3472     4.93439E-03     6.15065E-03
            2885             429     3.54126E-03     4.15681E-03
            2885             430     5.78323E-03     5.79344E-03
            2885            3454     6.82073E-03     7.43860E-03
            2885            3472     4.93439E-03     6.15065E-03
            2886             646     92.0807E-03     93.6887E-03
            2886             647     91.4083E-03     93.0440E-03
            2886            3455     83.2994E-03     85.2540E-03
            2886            3473     81.7689E-03     84.1269E-03
            2887            3455     83.2994E-03     85.2540E-03
            2887            3456     76.0155E-03     78.3622E-03
            2887            3473     81.7689E-03     84.1269E-03
            2887            3474     74.4808E-03     76.9793E-03
            2888            3456     76.0155E-03     78.3622E-03
            2888            3457     70.0888E-03     72.5023E-03
            2888            3474     74.4808E-03     76.9793E-03
            2888            3475     68.4879E-03     71.0171E-03
            2889            3457     70.0888E-03     72.5023E-03
            2889            3458     64.7821E-03     67.1979E-03
            2889            3475     68.4879E-03     71.0171E-03
            2889            3476     63.2349E-03     65.8201E-03
            2890            3458     64.7821E-03     67.1979E-03
            2890            3459     59.9068E-03     62.3116E-03
            2890            3476     63.2349E-03     65.8201E-03
            2890            3477     58.4678E-03     61.0675E-03
            2891            3459     59.9068E-03     62.3116E-03
            2891            3460     55.2892E-03     57.6546E-03
            2891            3477     58.4678E-03     61.0675E-03
            2891            3478     53.9415E-03     56.5755E-03
            2892            3460     55.2892E-03     57.6546E-03
            2892            3461     50.8108E-03     53.1561E-03
            2892            3478     53.9415E-03     56.5755E-03
            2892            3479     49.5826E-03     52.2318E-03
            2893            3461     50.8108E-03     53.1561E-03
            2893            3462     46.4258E-03     48.7436E-03
            2893            3479     49.5826E-03     52.2318E-03
            2893            3480     45.2956E-03     47.9652E-03
            2894            3462     46.4258E-03     48.7436E-03
            2894            3463     42.0838E-03     44.3872E-03
            2894            3480     45.2956E-03     47.9652E-03
            2894            3481     41.0593E-03     43.7368E-03
            2895            3463     42.0838E-03     44.3872E-03
            2895            3464     37.7749E-03     40.0607E-03
            2895            3481     41.0593E-03     43.7368E-03
            2895            3482     36.8384E-03     39.5199E-03
            2896            3464     37.7749E-03     40.0607E-03
            2896            3465     33.4799E-03     35.7519E-03
            2896            3482     36.8384E-03     39.5199E-03
            2896            3483     32.6310E-03     35.3027E-03
            2897            3465     33.4799E-03     35.7519E-03
            2897            3466     29.2017E-03     31.4541E-03
            2897            3483     32.6310E-03     35.3027E-03
            2897            3484     28.4261E-03     31.0736E-03
            2898            3466     29.2017E-03     31.4541E-03
            2898            3467     24.9362E-03     27.1580E-03
            2898            3484     28.4261E-03     31.0736E-03
            2898            3485     24.2285E-03     26.8311E-03
            2899            3467     24.9362E-03     27.1580E-03
            2899            3468     20.6915E-03     22.8724E-03
            2899            3485     24.2285E-03     26.8311E-03
            2899            3486     20.0401E-03     22.5643E-03
            2900            3468     20.6915E-03     22.8724E-03
            2900            3469     16.4836E-03     18.5821E-03
            2900            3486     20.0401E-03     22.5643E-03
            2900            3487     15.8645E-03     18.2821E-03
            2901            3469     16.4836E-03     18.5821E-03
            2901            3470     12.3185E-03     14.3376E-03
            2901            3487     15.8645E-03     18.2821E-03
            2901            3488     11.7181E-03     13.9725E-03
            2902            3470     12.3185E-03     14.3376E-03
            2902            3471     8.28707E-03     10.1950E-03
            2902            3488     11.7181E-03     13.9725E-03
            2902            3489     7.56048E-03     9.73796E-03
            2903            3471     8.28707E-03     10.1950E-03
            2903            3472     4.93439E-03     6.15065E-03
            2903            3489     7.56048E-03     9.73796E-03
            2903            3490     3.55291E-03     5.76710E-03
            2904             428     1.63995E-03     3.86206E-03
            2904             429     3.54126E-03     4.15681E-03
            2904            3472     4.93439E-03     6.15065E-03
            2904            3490     3.55291E-03     5.76710E-03
            2905             645     88.8744E-03     91.5526E-03
            2905             646     92.0807E-03     93.6887E-03
            2905            3473     81.7689E-03     84.1269E-03
            2905            3491     79.2644E-03     81.7780E-03
            2906            3473     81.7689E-03     84.1269E-03
            2906            3474     74.4808E-03     76.9793E-03
            2906            3491     79.2644E-03     81.7780E-03
            2906            3492     72.4214E-03     74.8987E-03
            2907            3474     74.4808E-03     76.9793E-03
            2907            3475     68.4879E-03     71.0171E-03
            2907            3492     72.4214E-03     74.8987E-03
            2907            3493     66.6066E-03     69.1720E-03
            2908            3475     68.4879E-03     71.0171E-03
            2908            3476     63.2349E-03     65.8201E-03
            2908            3493     66.6066E-03     69.1720E-03
            2908            3494     61.5872E-03     64.2565E-03
            2909            3476     63.2349E-03     65.8201E-03
            2909            3477     58.4678E-03     61.0675E-03
            2909            3494     61.5872E-03     64.2565E-03
            2909            3495     56.9392E-03     59.7255E-03
            2910            3477     58.4678E-03     61.0675E-03
            2910            3478     53.9415E-03     56.5755E-03
            2910            3495     56.9392E-03     59.7255E-03
            2910            3496     52.5664E-03     55.4520E-03
            2911            3478     53.9415E-03     56.5755E-03
            2911            3479     49.5826E-03     52.2318E-03
            2911            3496     52.5664E-03     55.4520E-03
            2911            3497     48.3211E-03     51.2904E-03
            2912            3479     49.5826E-03     52.2318E-03
            2912            3480     45.2956E-03     47.9652E-03
            2912            3497     48.3211E-03     51.2904E-03
            2912            3498     44.1643E-03     47.1956E-03
            2913            3480     45.2956E-03     47.9652E-03
            2913            3481     41.0593E-03     43.7368E-03
            2913            3498     44.1643E-03     47.1956E-03
            2913            3499     40.0404E-03     43.1159E-03
            2914            3481     41.0593E-03     43.7368E-03
            2914            3482     36.8384E-03     39.5199E-03
            2914            3499     40.0404E-03     43.1159E-03
            2914            3500     35.9385E-03     39.0376E-03
            2915            3482     36.8384E-03     39.5199E-03
            2915            3483     32.6310E-03     35.3027E-03
            2915            3500     35.9385E-03     39.0376E-03
            2915            3501     31.8400E-03     34.9419E-03
            2916            3483     32.6310E-03     35.3027E-03
            2916            3484     28.4261E-03     31.0736E-03
            2916            3501     31.8400E-03     34.9419E-03
            2916            3502     27.7472E-03     30.8259E-03
            2917            3484     28.4261E-03     31.0736E-03
            2917            3485     24.2285E-03     26.8311E-03
            2917            3502     27.7472E-03     30.8259E-03
            2917            3503     23.6609E-03     26.6811E-03
            2918            3485     24.2285E-03     26.8311E-03
            2918            3486     20.0401E-03     22.5643E-03
            2918            3503     23.6609E-03     26.6811E-03
            2918            3504     19.5888E-03     22.5064E-03
            2919            3486     20.0401E-03     22.5643E-03
            2919            3487     15.8645E-03     18.2821E-03
            2919            3504     19.5888E-03     22.5064E-03
            2919            3505     15.5494E-03     18.2995E-03
            2920            3487     15.8645E-03     18.2821E-03
            2920            3488     11.7181E-03     13.9725E-03
            2920            3505     15.5494E-03     18.2995E-03
            2920            3506     11.5575E-03     14.0626E-03
            2921            3488     11.7181E-03     13.9725E-03
            2921            3489     7.56048E-03     9.73796E-03
            2921            3506     11.5575E-03     14.0626E-03
            2921            3507     7.68701E-03     9.83080E-03
            2922            3489     7.56048E-03     9.73796E-03
            2922            3490     3.55291E-03     5.76710E-03
            2922            3507     7.68701E-03     9.83080E-03
            2922            3508     3.89269E-03     6.05138E-03
            2923             427     1.98469E-03     4.37892E-03
            2923             428     1.63995E-03     3.86206E-03
            2923            3490     3.55291E-03     5.76710E-03
            2923            3508     3.89269E-03     6.05138E-03
            2924             644     93.6266E-03     93.7696E-03
            2924             645     88.8744E-03     91.5526E-03
            2924            3491     79.2644E-03     81.7780E-03
            2924            3509     88.2011E-03     88.2478E-03
            2925            3491     79.2644E-03     81.7780E-03
            2925            3492     72.4214E-03     74.8987E-03
            2925            3509     88.2011E-03     88.2478E-03
            2925            3510     83.1546E-03     83.4822E-03
            2926            3492     72.4214E-03     74.8987E-03
            2926            3493     66.6066E-03     69.1720E-03
            2926            3510     83.1546E-03     83.4822E-03
            2926            3511     78.5402E-03     79.1028E-03
            2927            3493     66.6066E-03     69.1720E-03
            2927            3494     61.5872E-03     64.2565E-03
            2927            3511     78.5402E-03     79.1028E-03
            2927            3512     73.9792E-03     74.8593E-03
            2928            3494     61.5872E-03     64.2565E-03
            2928            3495     56.9392E-03     59.7255E-03
            2928            3512     73.9792E-03     74.8593E-03
            2928            3513     69.5158E-03     70.6044E-03
            2929            3495     56.9392E-03     59.7255E-03
            2929            3496     52.5664E-03     55.4520E-03
            2929            3513     69.5158E-03     70.6044E-03
            2929            3514     65.0290E-03     66.3300E-03
            2930            3496     52.5664E-03     55.4520E-03
            2930            3497     48.3211E-03     51.2904E-03
            2930            3514     65.0290E-03     66.3300E-03
            2930            3515     60.5499E-03     61.9833E-03
            2931            3497     48.3211E-03     51.2904E-03
            2931            3498     44.1643E-03     47.1956E-03
            2931            3515     60.5499E-03     61.9833E-03
            2931            3516     56.0391E-03     57.5906E-03
            2932            3498     44.1643E-03     47.1956E-03
            2932            3499     40.0404E-03     43.1159E-03
            2932            3516     56.0391E-03     57.5906E-03
            2932            3517     51.5251E-03     53.1453E-03
            2933            3499     40.0404E-03     43.1159E-03
            2933            3500     35.9385E-03     39.0376E-03
            2933            3517     51.5251E-03     53.1453E-03
            2933            3518     47.0028E-03     48.6730E-03
            2934            3500     35.9385E-03     39.0376E-03
            2934            3501     31.8400E-03     34.9419E-03
            2934            3518     47.0028E-03     48.6730E-03
            2934            3519     42.5046E-03     44.1885E-03
            2935            3501     31.8400E-03     34.9419E-03
            2935            3502     27.7472E-03     30.8259E-03
            2935            3519     42.5046E-03     44.1885E-03
            2935            3520     38.0493E-03     39.7176E-03
            2936            3502     27.7472E-03     30.8259E-03
            2936            3503     23.6609E-03     26.6811E-03
            2936            3520     38.0493E-03     39.7176E-03
            2936            3521     33.6812E-03     35.2911E-03
            2937            3503     23.6609E-03     26.6811E-03
            2937            3504     19.5888E-03     22.5064E-03
            2937            3521     33.6812E-03     35.2911E-03
            2937            3522     29.4473E-03     30.9459E-03
            2938            3504     19.5888E-03     22.5064E-03
            2938            3505     15.5494E-03     18.2995E-03
            2938            3522     29.4473E-03     30.9459E-03
            2938            3523     25.4156E-03     26.7629E-03
            2939            3505     15.5494E-03     18.2995E-03
            2939            3506     11.5575E-03     14.0626E-03
            2939            3523     25.4156E-03     26.7629E-03
            2939            3524     21.6558E-03     22.7991E-03
            2940            3506     11.5575E-03     14.0626E-03
            2940            3507     7.68701E-03     9.83080E-03
            2940            3524     21.6558E-03     22.7991E-03
            2940            3525     18.2535E-03     19.4239E-03
            2941            3507     7.68701E-03     9.83080E-03
            2941            3508     3.89269E-03     6.05138E-03
            2941            3525     18.2535E-03     19.4239E-03
            2941            3526     14.7728E-03     17.3037E-03
            2942             426     12.9012E-03     16.6439E-03
            2942             427     1.98469E-03     4.37892E-03
            2942            3508     3.89269E-03     6.05138E-03
            2942            3526     14.7728E-03     17.3037E-03
            2943             643     103.580E-03     102.403E-03
            2943             644     93.6266E-03     93.7696E-03
            2943            3509     88.2011E-03     88.2478E-03
            2943            3527     100.898E-03     99.7208E-03
            2944            3509     88.2011E-03     88.2478E-03
            2944            3510     83.1546E-03     83.4822E-03
            2944            3527     100.898E-03     99.7208E-03
            2944            3528     97.4199E-03     96.4326E-03
            2945            3510     83.1546E-03     83.4822E-03
            2945            3511     78.5402E-03     79.1028E-03
            2945            3528     97.4199E-03     96.4326E-03
            2945            3529     93.3609E-03     92.6027E-03
            2946            3511     78.5402E-03     79.1028E-03
            2946            3512     73.9792E-03     74.8593E-03
            2946            3529     93.3609E-03     92.6027E-03
            2946            3530     88.9042E-03     88.3752E-03
            2947            3512     73.9792E-03     74.8593E-03
            2947            3513     69.5158E-03     70.6044E-03
            2947            3530     88.9042E-03     88.3752E-03
            2947            3531     84.1521E-03     83.8279E-03
            2948            3513     69.5158E-03     70.6044E-03
            2948            3514     65.0290E-03     66.3300E-03
            2948            3531     84.1521E-03     83.8279E-03
            2948            3532     79.1964E-03     79.0322E-03
            2949            3514     65.0290E-03     66.3300E-03
            2949            3515     60.5499E-03     61.9833E-03
            2949            3532     79.1964E-03     79.0322E-03
            2949            3533     74.0939E-03     74.0651E-03
            2950            3515     60.5499E-03     61.9833E-03
            2950            3516     56.0391E-03     57.5906E-03
            2950            3533     74.0939E-03     74.0651E-03
            2950            3534     68.9083E-03     68.9706E-03
            2951            3516     56.0391E-03     57.5906E-03
            2951            3517     51.5251E-03     53.1453E-03
            2951            3534     68.9083E-03     68.9706E-03
            2951            3535     63.6738E-03     63.8075E-03
            2952            3517     51.5251E-03     53.1453E-03
            2952            3518     47.0028E-03     48.6730E-03
            2952            3535     63.6738E-03     63.8075E-03
            2952            3536     58.4407E-03     58.6133E-03
            2953            3518     47.0028E-03     48.6730E-03
            2953            3519     42.5046E-03     44.1885E-03
            2953            3536     58.4407E-03     58.6133E-03
            2953            3537     53.2460E-03     53.4357E-03
            2954            3519     42.5046E-03     44.1885E-03
            2954            3520     38.0493E-03     39.7176E-03
            2954            3537     53.2460E-03     53.4357E-03
            2954            3538     48.1393E-03     48.3223E-03
            2955            3520     38.0493E-03     39.7176E-03
            2955            3521     33.6812E-03     35.2911E-03
            2955            3538     48.1393E-03     48.3223E-03
            2955            3539     43.1850E-03     43.3360E-03
            2956            3521     33.6812E-03     35.2911E-03
            2956            3522     29.4473E-03     30.9459E-03
            2956            3539     43.1850E-03     43.3360E-03
            2956            3540     38.4438E-03     38.5662E-03
            2957            3522     29.4473E-03     30.9459E-03
            2957            3523     25.4156E-03     26.7629E-03
            2957            3540     38.4438E-03     38.5662E-03
            2957            3541     34.0303E-03     34.1669E-03
            2958            3523     25.4156E-03     26.7629E-03
            2958            3524     21.6558E-03     22.7991E-03
            2958            3541     34.0303E-03     34.1669E-03
            2958            3542     29.9915E-03     30.3724E-03
            2959            3524     21.6558E-03     22.7991E-03
            2959            3525     18.2535E-03     19.4239E-03
            2959            3542     29.9915E-03     30.3724E-03
            2959            3543     26.3615E-03     27.8531E-03
            2960            3525     18.2535E-03     19.4239E-03
            2960            3526     14.7728E-03     17.3037E-03
            2960            3543     26.3615E-03     27.8531E-03
            2960            3544     23.6004E-03     27.2523E-03
            2961             425     22.5269E-03     27.4583E-03
            2961             426     12.9012E-03     16.6439E-03
            2961            3526     14.7728E-03     17.3037E-03
            2961            3544     23.6004E-03     27.2523E-03
            2962             642     108.990E-03     109.902E-03
            2962             643     103.580E-03     102.403E-03
            2962            3527     100.898E-03     99.7208E-03
            2962            3545     105.733E-03     106.488E-03
            2963            3527     100.898E-03     99.7208E-03
            2963            3528     97.4199E-03     96.4326E-03
            2963            3545     105.733E-03     106.488E-03
            2963            3546     101.740E-03     102.256E-03
            2964            3528     97.4199E-03     96.4326E-03
            2964            3529     93.3609E-03     92.6027E-03
            2964            3546     101.740E-03     102.256E-03
            2964            3547     97.0896E-03     97.4923E-03
            2965            3529     93.3609E-03     92.6027E-03
            2965            3530     88.9042E-03     88.3752E-03
            2965            3547     97.0896E-03     97.4923E-03
            2965            3548     92.0061E-03     92.3860E-03
            2966            3530     88.9042E-03     88.3752E-03
            2966            3531     84.1521E-03     83.8279E-03
            2966            3548     92.0061E-03     92.3860E-03
            2966            3549     86.6411E-03     87.0214E-03
            2967            3531     84.1521E-03     83.8279E-03
            2967            3532     79.1964E-03     79.0322E-03
            2967            3549     86.6411E-03     87.0214E-03
            2967            3550     81.0902E-03     81.5111E-03
            2968            3532     79.1964E-03     79.0322E-03
            2968            3533     74.0939E-03     74.0651E-03
            2968            3550     81.0902E-03     81.5111E-03
            2968            3551     75.4488E-03     75.8943E-03
            2969            3533     74.0939E-03     74.0651E-03
            2969            3534     68.9083E-03     68.9706E-03
            2969            3551     75.4488E-03     75.8943E-03
            2969            3552     69.7515E-03     70.2344E-03
            2970            3534     68.9083E-03     68.9706E-03
            2970            3535     63.6738E-03     63.8075E-03
            2970            3552     69.7515E-03     70.2344E-03
            2970            3553     64.0554E-03     64.5552E-03
            2971            3535     63.6738E-03     63.8075E-03
            2971            3536     58.4407E-03     58.6133E-03
            2971            3553     64.0554E-03     64.5552E-03
            2971            3554     58.3772E-03     58.8950E-03
            2972            3536     58.4407E-03     58.6133E-03
            2972            3537     53.2460E-03     53.4357E-03
            2972            3554     58.3772E-03     58.8950E-03
            2972            3555     52.7579E-03     53.2798E-03
            2973            3537     53.2460E-03     53.4357E-03
            2973            3538     48.1393E-03     48.3223E-03
            2973            3555     52.7579E-03     53.2798E-03
            2973            3556     47.2194E-03     47.7521E-03
            2974            3538     48.1393E-03     48.3223E-03
            2974            3539     43.1850E-03     43.3360E-03
            2974            3556     47.2194E-03     47.7521E-03
            2974            3557     41.8092E-03     42.3646E-03
            2975            3539     43.1850E-03     43.3360E-03
            2975            3540     38.4438E-03     38.5662E-03
            2975            3557     41.8092E-03     42.3646E-03
            2975            3558     36.5661E-03     37.2170E-03
            2976            3540     38.4438E-03     38.5662E-03
            2976            3541     34.0303E-03     34.1669E-03
            2976            3558     36.5661E-03     37.2170E-03
            2976            3559     31.5763E-03     32.4587E-03
            2977            3541     34.0303E-03     34.1669E-03
            2977            3542     29.9915E-03     30.3724E-03
            2977            3559     31.5763E-03     32.4587E-03
            2977            3560     26.8880E-03     28.4224E-03
            2978            3542     29.9915E-03     30.3724E-03
            2978            3543     26.3615E-03     27.8531E-03
            2978            3560     26.8880E-03     28.4224E-03
            2978            3561     22.9103E-03     25.5655E-03
            2979            3543     26.3615E-03     27.8531E-03
            2979            3544     23.6004E-03     27.2523E-03
            2979            3561     22.9103E-03     25.5655E-03
            2979            3562     20.9805E-03     23.2263E-03
            2980             424     20.7530E-03     21.9705E-03
            2980             425     22.5269E-03     27.4583E-03
            2980            3544     23.6004E-03     27.2523E-03
            2980            3562     20.9805E-03     23.2263E-03
            2981             641     113.840E-03     115.751E-03
            2981             642     108.990E-03     109.902E-03
            2981            3545     105.733E-03     106.488E-03
            2981            3563     109.967E-03     111.773E-03
            2982            3545     105.733E-03     106.488E-03
            2982            3546     101.740E-03     102.256E-03
            2982            3563     109.967E-03     111.773E-03
            2982            3564     105.317E-03     106.953E-03
            2983            3546     101.740E-03     102.256E-03
            2983            3547     97.0896E-03     97.4923E-03
            2983            3564     105.317E-03     106.953E-03
            2983            3565     100.144E-03     101.526E-03
            2984            3547     97.0896E-03     97.4923E-03
            2984            3548     92.0061E-03     92.3860E-03
            2984            3565     100.144E-03     101.526E-03
            2984            3566     94.5191E-03     95.7259E-03
            2985            3548     92.0061E-03     92.3860E-03
            2985            3549     86.6411E-03     87.0214E-03
            2985            3566     94.5191E-03     95.7259E-03
            2985            3567     88.6392E-03     89.7398E-03
            2986            3549     86.6411E-03     87.0214E-03
            2986            3550     81.0902E-03     81.5111E-03
            2986            3567     88.6392E-03     89.7398E-03
            2986            3568     82.6275E-03     83.6412E-03
            2987            3550     81.0902E-03     81.5111E-03
            2987            3551     75.4488E-03     75.8943E-03
            2987            3568     82.6275E-03     83.6412E-03
            2987            3569     76.5419E-03     77.5189E-03
            2988            3551     75.4488E-03     75.8943E-03
            2988            3552     69.7515E-03     70.2344E-03
            2988            3569     76.5419E-03     77.5189E-03
            2988            3570     70.4559E-03     71.3960E-03
            2989            3552     69.7515E-03     70.2344E-03
            2989            3553     64.0554E-03     64.5552E-03
            2989            3570     70.4559E-03     71.3960E-03
            2989            3571     64.3793E-03     65.3073E-03
            2990            3553     64.0554E-03     64.5552E-03
            2990            3554     58.3772E-03     58.8950E-03
            2990            3571     64.3793E-03     65.3073E-03
            2990            3572     58.3506E-03     59.2664E-03
            2991            3554     58.3772E-03     58.8950E-03
            2991            3555     52.7579E-03     53.2798E-03
            2991            3572     58.3506E-03     59.2664E-03
            2991            3573     52.3724E-03     53.2970E-03
            2992            3555     52.7579E-03     53.2798E-03
            2992            3556     47.2194E-03     47.7521E-03
            2992            3573     52.3724E-03     53.2970E-03
            2992            3574     46.4755E-03     47.4261E-03
            2993            3556     47.2194E-03     47.7521E-03
            2993            3557     41.8092E-03     42.3646E-03
            2993            3574     46.4755E-03     47.4261E-03
            2993            3575     40.6690E-03     41.6989E-03
            2994            3557     41.8092E-03     42.3646E-03
            2994            3558     36.5661E-03     37.2170E-03
            2994            3575     40.6690E-03     41.6989E-03
            2994            3576     35.0034E-03     36.2006E-03
            2995            3558     36.5661E-03     37.2170E-03
            2995            3559     31.5763E-03     32.4587E-03
            2995            3576     35.0034E-03     36.2006E-03
            2995            3577     29.5294E-03     31.0531E-03
            2996            3559     31.5763E-03     32.4587E-03
            2996            3560     26.8880E-03     28.4224E-03
            2996            3577     29.5294E-03     31.0531E-03
            2996            3578     24.4384E-03     26.5263E-03
            2997            3560     26.8880E-03     28.4224E-03
            2997            3561     22.9103E-03     25.5655E-03
            2997            3578     24.4384E-03     26.5263E-03
            2997            3579     20.4076E-03     22.5040E-03
            2998            3561     22.9103E-03     25.5655E-03
            2998            3562     20.9805E-03     23.2263E-03
            2998            3579     20.4076E-03     22.5040E-03
            2998            3580     17.9263E-03     18.9223E-03
            2999             423     17.0757E-03     17.3058E-03
            2999             424     20.7530E-03     21.9705E-03
            2999            3562     20.9805E-03     23.2263E-03
            2999            3580     17.9263E-03     18.9223E-03
            3000             640     118.215E-03     120.382E-03
            3000             641     113.840E-03     115.751E-03
            3000            3563     109.967E-03     111.773E-03
            3000            3581     113.424E-03     115.833E-03
            3001            3563     109.967E-03     111.773E-03
            3001            3564     105.317E-03     106.953E-03
            3001            3581     113.424E-03     115.833E-03
            3001            3582     108.188E-03     110.454E-03
            3002            3564     105.317E-03     106.953E-03
            3002            3565     100.144E-03     101.526E-03
            3002            3582     108.188E-03     110.454E-03
            3002            3583     102.381E-03     104.482E-03
            3003            3565     100.144E-03     101.526E-03
            3003            3566     94.5191E-03     95.7259E-03
            3003            3583     102.381E-03     104.482E-03
            3003            3584     96.2726E-03     98.1666E-03
            3004            3566     94.5191E-03     95.7259E-03
            3004            3567     88.6392E-03     89.7398E-03
            3004            3584     96.2726E-03     98.1666E-03
            3004            3585     89.9742E-03     91.6862E-03
            3005            3567     88.6392E-03     89.7398E-03
            3005            3568     82.6275E-03     83.6412E-03
            3005            3585     89.9742E-03     91.6862E-03
            3005            3586     83.5865E-03     85.1752E-03
            3006            3568     82.6275E-03     83.6412E-03
            3006            3569     76.5419E-03     77.5189E-03
            3006            3586     83.5865E-03     85.1752E-03
            3006            3587     77.1986E-03     78.6796E-03
            3007            3569     76.5419E-03     77.5189E-03
            3007            3570     70.4559E-03     71.3960E-03
            3007            3587     77.1986E-03     78.6796E-03
            3007            3588     70.8191E-03     72.2351E-03
            3008            3570     70.4559E-03     71.3960E-03
            3008            3571     64.3793E-03     65.3073E-03
            3008            3588     70.8191E-03     72.2351E-03
            3008            3589     64.4869E-03     65.8524E-03
            3009            3571     64.3793E-03     65.3073E-03
            3009            3572     58.3506E-03     59.2664E-03
            3009            3589     64.4869E-03     65.8524E-03
            3009            3590     58.1961E-03     59.5415E-03
            3010            3572     58.3506E-03     59.2664E-03
            3010            3573     52.3724E-03     53.2970E-03
            3010            3590     58.1961E-03     59.5415E-03
            3010            3591     51.9655E-03     53.3127E-03
            3011            3573     52.3724E-03     53.2970E-03
            3011            3574     46.4755E-03     47.4261E-03
            3011            3591     51.9655E-03     53.3127E-03
            3011            3592     45.7908E-03     47.1819E-03
            3012            3574     46.4755E-03     47.4261E-03
            3012            3575     40.6690E-03     41.6989E-03
            3012            3592     45.7908E-03     47.1819E-03
            3012            3593     39.6934E-03     41.1876E-03
            3013            3575     40.6690E-03     41.6989E-03
            3013            3576     35.0034E-03     36.2006E-03
            3013            3593     39.6934E-03     41.1876E-03
            3013            3594     33.6971E-03     35.3671E-03
            3014            3576     35.0034E-03     36.2006E-03
            3014            3577     29.5294E-03     31.0531E-03
            3014            3594     33.6971E-03     35.3671E-03
            3014            3595     27.8669E-03     29.8406E-03
            3015            3577     29.5294E-03     31.0531E-03
            3015            3578     24.4384E-03     26.5263E-03
            3015            3595     27.8669E-03     29.8406E-03
            3015            3596     22.4814E-03     24.6236E-03
            3016            3578     24.4384E-03     26.5263E-03
            3016            3579     20.4076E-03     22.5040E-03
            3016            3596     22.4814E-03     24.6236E-03
            3016            3597     17.9094E-03     19.7410E-03
            3017            3579     20.4076E-03     22.5040E-03
            3017            3580     17.9263E-03     18.9223E-03
            3017            3597     17.9094E-03     19.7410E-03
            3017            3598     14.8540E-03     15.9604E-03
            3018             422     13.8410E-03     14.5066E-03
            3018             423     17.0757E-03     17.3058E-03
            3018            3580     17.9263E-03     18.9223E-03
            3018            3598     14.8540E-03     15.9604E-03
            3019             639     121.988E-03     124.262E-03
            3019             640     118.215E-03     120.382E-03
            3019            3581     113.424E-03     115.833E-03
            3019            3599     116.345E-03     118.924E-03
            3020            3581     113.424E-03     115.833E-03
            3020            3582     108.188E-03     110.454E-03
            3020            3599     116.345E-03     118.924E-03
            3020            3600     110.214E-03     112.892E-03
            3021            3582     108.188E-03     110.454E-03
            3021            3583     102.381E-03     104.482E-03
            3021            3600     110.214E-03     112.892E-03
            3021            3601     103.796E-03     106.360E-03
            3022            3583     102.381E-03     104.482E-03
            3022            3584     96.2726E-03     98.1666E-03
            3022            3601     103.796E-03     106.360E-03
            3022            3602     97.1946E-03     99.5827E-03
            3023            3584     96.2726E-03     98.1666E-03
            3023            3585     89.9742E-03     91.6862E-03
            3023            3602     97.1946E-03     99.5827E-03
            3023            3603     90.5284E-03     92.7566E-03
            3024            3585     89.9742E-03     91.6862E-03
            3024            3586     83.5865E-03     85.1752E-03
            3024            3603     90.5284E-03     92.7566E-03
            3024            3604     83.8999E-03     85.9695E-03
            3025            3586     83.5865E-03     85.1752E-03
            3025            3587     77.1986E-03     78.6796E-03
            3025            3604     83.8999E-03     85.9695E-03
            3025            3605     77.2998E-03     79.2519E-03
            3026            3587     77.1986E-03     78.6796E-03
            3026            3588     70.8191E-03     72.2351E-03
            3026            3605     77.2998E-03     79.2519E-03
            3026            3606     70.7614E-03     72.6202E-03
            3027            3588     70.8191E-03     72.2351E-03
            3027            3589     64.4869E-03     65.8524E-03
            3027            3606     70.7614E-03     72.6202E-03
            3027            3607     64.2701E-03     66.0686E-03
            3028            3589     64.4869E-03     65.8524E-03
            3028            3590     58.1961E-03     59.5415E-03
            3028            3607     64.2701E-03     66.0686E-03
            3028            3608     57.8336E-03     59.5990E-03
            3029            3590     58.1961E-03     59.5415E-03
            3029            3591     51.9655E-03     53.3127E-03
            3029            3608     57.8336E-03     59.5990E-03
            3029            3609     51.4422E-03     53.2087E-03
            3030            3591     51.9655E-03     53.3127E-03
            3030            3592     45.7908E-03     47.1819E-03
            3030            3609     51.4422E-03     53.2087E-03
            3030            3610     45.0996E-03     46.9089E-03
            3031            3592     45.7908E-03     47.1819E-03
            3031            3593     39.6934E-03     41.1876E-03
            3031            3610     45.0996E-03     46.9089E-03
            3031            3611     38.8079E-03     40.7099E-03
            3032            3593     39.6934E-03     41.1876E-03
            3032            3594     33.6971E-03     35.3671E-03
            3032            3611     38.8079E-03     40.7099E-03
            3032            3612     32.5840E-03     34.6528E-03
            3033            3594     33.6971E-03     35.3671E-03
            3033            3595     27.8669E-03     29.8406E-03
            3033            3612     32.5840E-03     34.6528E-03
            3033            3613     26.5180E-03     28.7466E-03
            3034            3595     27.8669E-03     29.8406E-03
            3034            3596     22.4814E-03     24.6236E-03
            3034            3613     26.5180E-03     28.7466E-03
            3034            3614     20.7367E-03     23.0082E-03
            3035            3596     22.4814E-03     24.6236E-03
            3035            3597     17.9094E-03     19.7410E-03
            3035            3614     20.7367E-03     23.0082E-03
            3035            3615     15.6125E-03     17.6797E-03
            3036            3597     17.9094E-03     19.7410E-03
            3036            3598     14.8540E-03     15.9604E-03
            3036            3615     15.6125E-03     17.6797E-03
            3036            3616     12.0379E-03     13.0324E-03
            3037             421     10.7829E-03     10.8988E-03
            3037             422     13.8410E-03     14.5066E-03
            3037            3598     14.8540E-03     15.9604E-03
            3037            3616     12.0379E-03     13.0324E-03
            3038             638     125.370E-03     127.658E-03
            3038             639     121.988E-03     124.262E-03
            3038            3599     116.345E-03     118.924E-03
            3038            3617     118.503E-03     121.256E-03
            3039            3599     116.345E-03     118.924E-03
            3039            3600     110.214E-03     112.892E-03
            3039            3617     118.503E-03     121.256E-03
            3039            3618     111.438E-03     114.325E-03
            3040            3600     110.214E-03     112.892E-03
            3040            3601     103.796E-03     106.360E-03
            3040            3618     111.438E-03     114.325E-03
            3040            3619     104.297E-03     107.132E-03
            3041            3601     103.796E-03     106.360E-03
            3041            3602     97.1946E-03     99.5827E-03
            3041            3619     104.297E-03     107.132E-03
            3041            3620     97.2058E-03     99.9642E-03
            3042            3602     97.1946E-03     99.5827E-03
            3042            3603     90.5284E-03     92.7566E-03
            3042            3620     97.2058E-03     99.9642E-03
            3042            3621     90.3128E-03     92.9211E-03
            3043            3603     90.5284E-03     92.7566E-03
            3043            3604     83.8999E-03     85.9695E-03
            3043            3621     90.3128E-03     92.9211E-03
            3043            3622     83.5229E-03     85.9946E-03
            3044            3604     83.8999E-03     85.9695E-03
            3044            3605     77.2998E-03     79.2519E-03
            3044            3622     83.5229E-03     85.9946E-03
            3044            3623     76.8473E-03     79.2032E-03
            3045            3605     77.2998E-03     79.2519E-03
            3045            3606     70.7614E-03     72.6202E-03
            3045            3623     76.8473E-03     79.2032E-03
            3045            3624     70.2473E-03     72.5108E-03
            3046            3606     70.7614E-03     72.6202E-03
            3046            3607     64.2701E-03     66.0686E-03
            3046            3624     70.2473E-03     72.5108E-03
            3046            3625     63.7109E-03     65.9132E-03
            3047            3607     64.2701E-03     66.0686E-03
            3047            3608     57.8336E-03     59.5990E-03
            3047            3625     63.7109E-03     65.9132E-03
            3047            3626     57.2232E-03     59.3890E-03
            3048            3608     57.8336E-03     59.5990E-03
            3048            3609     51.4422E-03     53.2087E-03
            3048            3626     57.2232E-03     59.3890E-03
            3048            3627     50.7740E-03     52.9353E-03
            3049            3609     51.4422E-03     53.2087E-03
            3049            3610     45.0996E-03     46.9089E-03
            3049            3627     50.7740E-03     52.9353E-03
            3049            3628     44.3585E-03     46.5477E-03
            3050            3610     45.0996E-03     46.9089E-03
            3050            3611     38.8079E-03     40.7099E-03
            3050            3628     44.3585E-03     46.5477E-03
            3050            3629     37.9726E-03     40.2318E-03
            3051            3611     38.8079E-03     40.7099E-03
            3051            3612     32.5840E-03     34.6528E-03
            3051            3629     37.9726E-03     40.2318E-03
            3051            3630     31.6319E-03     33.9995E-03
            3052            3612     32.5840E-03     34.6528E-03
            3052            3613     26.5180E-03     28.7466E-03
            3052            3630     31.6319E-03     33.9995E-03
            3052            3631     25.3684E-03     27.8478E-03
            3053            3613     26.5180E-03     28.7466E-03
            3053            3614     20.7367E-03     23.0082E-03
            3053            3631     25.3684E-03     27.8478E-03
            3053            3632     19.2848E-03     21.8129E-03
            3054            3614     20.7367E-03     23.0082E-03
            3054            3615     15.6125E-03     17.6797E-03
            3054            3632     19.2848E-03     21.8129E-03
            3054            3633     13.6220E-03     15.9440E-03
            3055            3615     15.6125E-03     17.6797E-03
            3055            3616     12.0379E-03     13.0324E-03
            3055            3633     13.6220E-03     15.9440E-03
            3055            3634     9.22000E-03     10.6850E-03
            3056             420     7.50527E-03     8.31667E-03
            3056             421     10.7829E-03     10.8988E-03
            3056            3616     12.0379E-03     13.0324E-03
            3056            3634     9.22000E-03     10.6850E-03
            3057             637     128.072E-03     130.670E-03
            3057             638     125.370E-03     127.658E-03
            3057            3617     118.503E-03     121.256E-03
            3057            3635     119.889E-03     122.694E-03
            3058            3617     118.503E-03     121.256E-03
            3058            3618     111.438E-03     114.325E-03
            3058            3635     119.889E-03     122.694E-03
            3058            3636     111.638E-03     114.565E-03
            3059            3618     111.438E-03     114.325E-03
            3059            3619     104.297E-03     107.132E-03
            3059            3636     111.638E-03     114.565E-03
            3059            3637     103.695E-03     106.757E-03
            3060            3619     104.297E-03     107.132E-03
            3060            3620     97.2058E-03     99.9642E-03
            3060            3637     103.695E-03     106.757E-03
            3060            3638     96.3676E-03     99.3533E-03
            3061            3620     97.2058E-03     99.9642E-03
            3061            3621     90.3128E-03     92.9211E-03
            3061            3638     96.3676E-03     99.3533E-03
            3061            3639     89.3258E-03     92.2124E-03
            3062            3621     90.3128E-03     92.9211E-03
            3062            3622     83.5229E-03     85.9946E-03
            3062            3639     89.3258E-03     92.2124E-03
            3062            3640     82.5286E-03     85.3184E-03
            3063            3622     83.5229E-03     85.9946E-03
            3063            3623     76.8473E-03     79.2032E-03
            3063            3640     82.5286E-03     85.3184E-03
            3063            3641     75.8785E-03     78.5715E-03
            3064            3623     76.8473E-03     79.2032E-03
            3064            3624     70.2473E-03     72.5108E-03
            3064            3641     75.8785E-03     78.5715E-03
            3064            3642     69.3226E-03     71.9512E-03
            3065            3624     70.2473E-03     72.5108E-03
            3065            3625     63.7109E-03     65.9132E-03
            3065            3642     69.3226E-03     71.9512E-03
            3065            3643     62.8345E-03     65.4090E-03
            3066            3625     63.7109E-03     65.9132E-03
            3066            3626     57.2232E-03     59.3890E-03
            3066            3643     62.8345E-03     65.4090E-03
            3066            3644     56.3849E-03     58.9316E-03
            3067            3626     57.2232E-03     59.3890E-03
            3067            3627     50.7740E-03     52.9353E-03
            3067            3644     56.3849E-03     58.9316E-03
            3067            3645     49.9676E-03     52.5005E-03
            3068            3627     50.7740E-03     52.9353E-03
            3068            3628     44.3585E-03     46.5477E-03
            3068            3645     49.9676E-03     52.5005E-03
            3068            3646     43.5666E-03     46.1089E-03
            3069            3628     44.3585E-03     46.5477E-03
            3069            3629     37.9726E-03     40.2318E-03
            3069            3646     43.5666E-03     46.1089E-03
            3069            3647     37.1839E-03     39.7588E-03
            3070            3629     37.9726E-03     40.2318E-03
            3070            3630     31.6319E-03     33.9995E-03
            3070            3647     37.1839E-03     39.7588E-03
            3070            3648     30.8173E-03     33.4360E-03
            3071            3630     31.6319E-03     33.9995E-03
            3071            3631     25.3684E-03     27.8478E-03
            3071            3648     30.8173E-03     33.4360E-03
            3071            3649     24.4633E-03     27.1801E-03
            3072            3631     25.3684E-03     27.8478E-03
            3072            3632     19.2848E-03     21.8129E-03
            3072            3649     24.4633E-03     27.1801E-03
            3072            3650     18.1689E-03     20.9826E-03
            3073            3632     19.2848E-03     21.8129E-03
            3073            3633     13.6220E-03     15.9440E-03
            3073            3650     18.1689E-03     20.9826E-03
            3073            3651     12.0774E-03     14.8066E-03
            3074            3633     13.6220E-03     15.9440E-03
            3074            3634     9.22000E-03     10.6850E-03
            3074            3651     12.0774E-03     14.8066E-03
            3074            3652     6.78162E-03     8.88727E-03
            3075             419     4.45590E-03     6.04423E-03
            3075             420     7.50527E-03     8.31667E-03
            3075            3634     9.22000E-03     10.6850E-03
            3075            3652     6.78162E-03     8.88727E-03
            3076             636     130.272E-03     132.590E-03
            3076             637     128.072E-03     130.670E-03
            3076            3635     119.889E-03     122.694E-03
            3076            3653     119.903E-03     122.571E-03
            3077            3635     119.889E-03     122.694E-03
            3077            3636     111.638E-03     114.565E-03
            3077            3653     119.903E-03     122.571E-03
            3077            3654     110.270E-03     113.375E-03
            3078            3636     111.638E-03     114.565E-03
            3078            3637     103.695E-03     106.757E-03
            3078            3654     110.270E-03     113.375E-03
            3078            3655     102.146E-03     105.287E-03
            3079            3637     103.695E-03     106.757E-03
            3079            3638     96.3676E-03     99.3533E-03
            3079            3655     102.146E-03     105.287E-03
            3079            3656     94.6881E-03     97.8026E-03
            3080            3638     96.3676E-03     99.3533E-03
            3080            3639     89.3258E-03     92.2124E-03
            3080            3656     94.6881E-03     97.8026E-03
            3080            3657     87.7127E-03     90.7954E-03
            3081            3639     89.3258E-03     92.2124E-03
            3081            3640     82.5286E-03     85.3184E-03
            3081            3657     87.7127E-03     90.7954E-03
            3081            3658     81.0272E-03     84.0483E-03
            3082            3640     82.5286E-03     85.3184E-03
            3082            3641     75.8785E-03     78.5715E-03
            3082            3658     81.0272E-03     84.0483E-03
            3082            3659     74.4991E-03     77.4906E-03
            3083            3641     75.8785E-03     78.5715E-03
            3083            3642     69.3226E-03     71.9512E-03
            3083            3659     74.4991E-03     77.4906E-03
            3083            3660     68.0811E-03     71.0343E-03
            3084            3642     69.3226E-03     71.9512E-03
            3084            3643     62.8345E-03     65.4090E-03
            3084            3660     68.0811E-03     71.0343E-03
            3084            3661     61.7120E-03     64.6475E-03
            3085            3643     62.8345E-03     65.4090E-03
            3085            3644     56.3849E-03     58.9316E-03
            3085            3661     61.7120E-03     64.6475E-03
            3085            3662     55.3825E-03     58.2972E-03
            3086            3644     56.3849E-03     58.9316E-03
            3086            3645     49.9676E-03     52.5005E-03
            3086            3662     55.3825E-03     58.2972E-03
            3086            3663     49.0659E-03     51.9691E-03
            3087            3645     49.9676E-03     52.5005E-03
            3087            3646     43.5666E-03     46.1089E-03
            3087            3663     49.0659E-03     51.9691E-03
            3087            3664     42.7647E-03     45.6547E-03
            3088            3646     43.5666E-03     46.1089E-03
            3088            3647     37.1839E-03     39.7588E-03
            3088            3664     42.7647E-03     45.6547E-03
            3088            3665     36.4666E-03     39.3422E-03
            3089            3647     37.1839E-03     39.7588E-03
            3089            3648     30.8173E-03     33.4360E-03
            3089            3665     36.4666E-03     39.3422E-03
            3089            3666     30.1719E-03     33.0470E-03
            3090            3648     30.8173E-03     33.4360E-03
            3090            3649     24.4633E-03     27.1801E-03
            3090            3666     30.1719E-03     33.0470E-03
            3090            3667     23.8811E-03     26.7499E-03
            3091            3649     24.4633E-03     27.1801E-03
            3091            3650     18.1689E-03     20.9826E-03
            3091            3667     23.8811E-03     26.7499E-03
            3091            3668     17.5430E-03     20.5433E-03
            3092            3650     18.1689E-03     20.9826E-03
            3092            3651     12.0774E-03     14.8066E-03
            3092            3668     17.5430E-03     20.5433E-03
            3092            3669     11.2048E-03     14.4663E-03
            3093            3651     12.0774E-03     14.8066E-03
            3093            3652     6.78162E-03     8.88727E-03
            3093            3669     11.2048E-03     14.4663E-03
            3093            3670     5.30959E-03     8.20026E-03
            3094             418     2.56093E-03     4.96292E-03
            3094             419     4.45590E-03     6.04423E-03
            3094            3652     6.78162E-03     8.88727E-03
            3094            3670     5.30959E-03     8.20026E-03
            3095             635     130.173E-03     132.261E-03
            3095             636     130.272E-03     132.590E-03
            3095            3653     119.903E-03     122.571E-03
            3095            3671     117.280E-03     120.231E-03
            3096            3653     119.903E-03     122.571E-03
            3096            3654     110.270E-03     113.375E-03
            3096            3671     117.280E-03     120.231E-03
            3096            3672     107.785E-03     110.864E-03
            3097            3654     110.270E-03     113.375E-03
            3097            3655     102.146E-03     105.287E-03
            3097            3672     107.785E-03     110.864E-03
            3097            3673     99.7023E-03     102.800E-03
            3098            3655     102.146E-03     105.287E-03
            3098            3656     94.6881E-03     97.8026E-03
            3098            3673     99.7023E-03     102.800E-03
            3098            3674     92.4245E-03     95.5849E-03
            3099            3656     94.6881E-03     97.8026E-03
            3099            3657     87.7127E-03     90.7954E-03
            3099            3674     92.4245E-03     95.5849E-03
            3099            3675     85.6762E-03     88.8537E-03
            3100            3657     87.7127E-03     90.7954E-03
            3100            3658     81.0272E-03     84.0483E-03
            3100            3675     85.6762E-03     88.8537E-03
            3100            3676     79.1837E-03     82.4100E-03
            3101            3658     81.0272E-03     84.0483E-03
            3101            3659     74.4991E-03     77.4906E-03
            3101            3676     79.1837E-03     82.4100E-03
            3101            3677     72.8750E-03     76.1237E-03
            3102            3659     74.4991E-03     77.4906E-03
            3102            3660     68.0811E-03     71.0343E-03
            3102            3677     72.8750E-03     76.1237E-03
            3102            3678     66.6407E-03     69.9212E-03
            3103            3660     68.0811E-03     71.0343E-03
            3103            3661     61.7120E-03     64.6475E-03
            3103            3678     66.6407E-03     69.9212E-03
            3103            3679     60.4639E-03     63.7565E-03
            3104            3661     61.7120E-03     64.6475E-03
            3104            3662     55.3825E-03     58.2972E-03
            3104            3679     60.4639E-03     63.7565E-03
            3104            3680     54.3023E-03     57.6030E-03
            3105            3662     55.3825E-03     58.2972E-03
            3105            3663     49.0659E-03     51.9691E-03
            3105            3680     54.3023E-03     57.6030E-03
            3105            3681     48.1581E-03     51.4471E-03
            3106            3663     49.0659E-03     51.9691E-03
            3106            3664     42.7647E-03     45.6547E-03
            3106            3681     48.1581E-03     51.4471E-03
            3106            3682     42.0172E-03     45.2779E-03
            3107            3664     42.7647E-03     45.6547E-03
            3107            3665     36.4666E-03     39.3422E-03
            3107            3682     42.0172E-03     45.2779E-03
            3107            3683     35.8887E-03     39.0964E-03
            3108            3665     36.4666E-03     39.3422E-03
            3108            3666     30.1719E-03     33.0470E-03
            3108            3683     35.8887E-03     39.0964E-03
            3108            3684     29.7732E-03     32.8966E-03
            3109            3666     30.1719E-03     33.0470E-03
            3109            3667     23.8811E-03     26.7499E-03
            3109            3684     29.7732E-03     32.8966E-03
            3109            3685     23.6752E-03     26.7046E-03
            3110            3667     23.8811E-03     26.7499E-03
            3110            3668     17.5430E-03     20.5433E-03
            3110            3685     23.6752E-03     26.7046E-03
            3110            3686     17.6029E-03     20.5480E-03
            3111            3668     17.5430E-03     20.5433E-03
            3111            3669     11.2048E-03     14.4663E-03
            3111            3686     17.6029E-03     20.5480E-03
            3111            3687     11.4693E-03     14.7238E-03
            3112            3669     11.2048E-03     14.4663E-03
            3112            3670     5.30959E-03     8.20026E-03
            3112            3687     11.4693E-03     14.7238E-03
            3112            3688     5.96587E-03     9.45996E-03
            3113             417     3.56588E-03     6.95028E-03
            3113             418     2.56093E-03     4.96292E-03
            3113            3670     5.30959E-03     8.20026E-03
            3113            3688     5.96587E-03     9.45996E-03
            3114             634     125.354E-03     128.297E-03
            3114             635     130.173E-03     132.261E-03
            3114            3671     117.280E-03     120.231E-03
            3114            3689     113.401E-03     116.171E-03
            3115            3671     117.280E-03     120.231E-03
            3115            3672     107.785E-03     110.864E-03
            3115            3689     113.401E-03     116.171E-03
            3115            3690     104.563E-03     107.331E-03
            3116            3672     107.785E-03     110.864E-03
            3116            3673     99.7023E-03     102.800E-03
            3116            3690     104.563E-03     107.331E-03
            3116            3691     96.8180E-03     99.7372E-03
            3117            3673     99.7023E-03     102.800E-03
            3117            3674     92.4245E-03     95.5849E-03
            3117            3691     96.8180E-03     99.7372E-03
            3117            3692     89.9392E-03     93.0248E-03
            3118            3674     92.4245E-03     95.5849E-03
            3118            3675     85.6762E-03     88.8537E-03
            3118            3692     89.9392E-03     93.0248E-03
            3118            3693     83.4442E-03     86.7070E-03
            3119            3675     85.6762E-03     88.8537E-03
            3119            3676     79.1837E-03     82.4100E-03
            3119            3693     83.4442E-03     86.7070E-03
            3119            3694     77.2394E-03     80.6492E-03
            3120            3676     79.1837E-03     82.4100E-03
            3120            3677     72.8750E-03     76.1237E-03
            3120            3694     77.2394E-03     80.6492E-03
            3120            3695     71.1601E-03     74.6935E-03
            3121            3677     72.8750E-03     76.1237E-03
            3121            3678     66.6407E-03     69.9212E-03
            3121            3695     71.1601E-03     74.6935E-03
            3121            3696     65.1715E-03     68.7934E-03
            3122            3678     66.6407E-03     69.9212E-03
            3122            3679     60.4639E-03     63.7565E-03
            3122            3696     65.1715E-03     68.7934E-03
            3122            3697     59.2120E-03     62.8970E-03
            3123            3679     60.4639E-03     63.7565E-03
            3123            3680     54.3023E-03     57.6030E-03
            3123            3697     59.2120E-03     62.8970E-03
            3123            3698     53.2762E-03     56.9920E-03
            3124            3680     54.3023E-03     57.6030E-03
            3124            3681     48.1581E-03     51.4471E-03
            3124            3698     53.2762E-03     56.9920E-03
            3124            3699     47.3464E-03     51.0625E-03
            3125            3681     48.1581E-03     51.4471E-03
            3125            3682     42.0172E-03     45.2779E-03
            3125            3699     47.3464E-03     51.0625E-03
            3125            3700     41.4327E-03     45.1093E-03
            3126            3682     42.0172E-03     45.2779E-03
            3126            3683     35.8887E-03     39.0964E-03
            3126            3700     41.4327E-03     45.1093E-03
            3126            3701     35.5454E-03     39.1299E-03
            3127            3683     35.8887E-03     39.0964E-03
            3127            3684     29.7732E-03     32.8966E-03
            3127            3701     35.5454E-03     39.1299E-03
            3127            3702     29.7067E-03     33.1322E-03
            3128            3684     29.7732E-03     32.8966E-03
            3128            3685     23.6752E-03     26.7046E-03
            3128            3702     29.7067E-03     33.1322E-03
            3128            3703     23.9652E-03     27.1384E-03
            3129            3685     23.6752E-03     26.7046E-03
            3129            3686     17.6029E-03     20.5480E-03
            3129            3703     23.9652E-03     27.1384E-03
            3129            3704     18.3729E-03     21.1998E-03
            3130            3686     17.6029E-03     20.5480E-03
            3130            3687     11.4693E-03     14.7238E-03
            3130            3704     18.3729E-03     21.1998E-03
            3130            3705     13.0867E-03     15.5646E-03
            3131            3687     11.4693E-03     14.7238E-03
            3131            3688     5.96587E-03     9.45996E-03
            3131            3705     13.0867E-03     15.5646E-03
            3131            3706     8.48464E-03     11.3058E-03
            3132             416     6.41285E-03     9.73522E-03
            3132             417     3.56588E-03     6.95028E-03
            3132            3688     5.96587E-03     9.45996E-03
            3132            3706     8.48464E-03     11.3058E-03
            3133             633     129.254E-03     129.561E-03
            3133             634     125.354E-03     128.297E-03
            3133            3689     113.401E-03     116.171E-03
            3133            3707     121.918E-03     122.142E-03
            3134            3689     113.401E-03     116.171E-03
            3134            3690     104.563E-03     107.331E-03
            3134            3707     121.918E-03     122.142E-03
            3134            3708     114.894E-03     115.546E-03
            3135            3690     104.563E-03     107.331E-03
            3135            3691     96.8180E-03     99.7372E-03
            3135            3708     114.894E-03     115.546E-03
            3135            3709     108.399E-03     109.347E-03
            3136            3691     96.8180E-03     99.7372E-03
            3136            3692     89.9392E-03     93.0248E-03
            3136            3709     108.399E-03     109.347E-03
            3136            3710     101.886E-03     103.221E-03
            3137            3692     89.9392E-03     93.0248E-03
            3137            3693     83.4442E-03     86.7070E-03
            3137            3710     101.886E-03     103.221E-03
            3137            3711     95.5130E-03     97.0650E-03
            3138            3693     83.4442E-03     86.7070E-03
            3138            3694     77.2394E-03     80.6492E-03
            3138            3711     95.5130E-03     97.0650E-03
            3138            3712     89.0925E-03     90.8627E-03
            3139            3694     77.2394E-03     80.6492E-03
            3139            3695     71.1601E-03     74.6935E-03
            3139            3712     89.0925E-03     90.8627E-03
            3139            3713     82.6989E-03     84.5777E-03
            3140            3695     71.1601E-03     74.6935E-03
            3140            3696     65.1715E-03     68.7934E-03
            3140            3713     82.6989E-03     84.5777E-03
            3140            3714     76.2639E-03     78.2504E-03
            3141            3696     65.1715E-03     68.7934E-03
            3141            3697     59.2120E-03     62.8970E-03
            3141            3714     76.2639E-03     78.2504E-03
            3141            3715     69.8286E-03     71.8594E-03
            3142            3697     59.2120E-03     62.8970E-03
            3142            3698     53.2762E-03     56.9920E-03
            3142            3715     69.8286E-03     71.8594E-03
            3142            3716     63.3747E-03     65.4516E-03
            3143            3698     53.2762E-03     56.9920E-03
            3143            3699     47.3464E-03     51.0625E-03
            3143            3716     63.3747E-03     65.4516E-03
            3143            3717     56.9402E-03     59.0210E-03
            3144            3699     47.3464E-03     51.0625E-03
            3144            3700     41.4327E-03     45.1093E-03
            3144            3717     56.9402E-03     59.0210E-03
            3144            3718     50.5412E-03     52.6130E-03
            3145            3700     41.4327E-03     45.1093E-03
            3145            3701     35.5454E-03     39.1299E-03
            3145            3718     50.5412E-03     52.6130E-03
            3145            3719     44.2343E-03     46.2414E-03
            3146            3701     35.5454E-03     39.1299E-03
            3146            3702     29.7067E-03     33.1322E-03
            3146            3719     44.2343E-03     46.2414E-03
            3146            3720     38.0795E-03     39.9621E-03
            3147            3702     29.7067E-03     33.1322E-03
            3147            3703     23.9652E-03     27.1384E-03
            3147            3720     38.0795E-03     39.9621E-03
            3147            3721     32.1928E-03     33.8552E-03
            3148            3703     23.9652E-03     27.1384E-03
            3148            3704     18.3729E-03     21.1998E-03
            3148            3721     32.1928E-03     33.8552E-03
            3148            3722     26.7181E-03     28.0276E-03
            3149            3704     18.3729E-03     21.1998E-03
            3149            3705     13.0867E-03     15.5646E-03
            3149            3722     26.7181E-03     28.0276E-03
            3149            3723     21.8831E-03     23.0000E-03
            3150            3705     13.0867E-03     15.5646E-03
            3150            3706     8.48464E-03     11.3058E-03
            3150            3723     21.8831E-03     23.0000E-03
            3150            3724     17.3255E-03     19.9096E-03
            3151             415     14.9848E-03     19.0178E-03
            3151             416     6.41285E-03     9.73522E-03
            3151            3706     8.48464E-03     11.3058E-03
            3151            3724     17.3255E-03     19.9096E-03
            3152             632     140.275E-03     139.626E-03
            3152             633     129.254E-03     129.561E-03
            3152            3707     121.918E-03     122.142E-03
            3152            3725     135.271E-03     134.730E-03
            3153            3707     121.918E-03     122.142E-03
            3153            3708     114.894E-03     115.546E-03
            3153            3725     135.271E-03     134.730E-03
            3153            3726     129.658E-03     129.270E-03
            3154            3708     114.894E-03     115.546E-03
            3154            3709     108.399E-03     109.347E-03
            3154            3726     129.658E-03     129.270E-03
            3154            3727     123.307E-03     123.200E-03
            3155            3709     108.399E-03     109.347E-03
            3155            3710     101.886E-03     103.221E-03
            3155            3727     123.307E-03     123.200E-03
            3155            3728     116.637E-03     116.741E-03
            3156            3710     101.886E-03     103.221E-03
            3156            3711     95.5130E-03     97.0650E-03
            3156            3728     116.637E-03     116.741E-03
            3156            3729     109.690E-03     109.940E-03
            3157            3711     95.5130E-03     97.0650E-03
            3157            3712     89.0925E-03     90.8627E-03
            3157            3729     109.690E-03     109.940E-03
            3157            3730     102.590E-03     102.960E-03
            3158            3712     89.0925E-03     90.8627E-03
            3158            3713     82.6989E-03     84.5777E-03
            3158            3730     102.590E-03     102.960E-03
            3158            3731     95.4008E-03     95.8254E-03
            3159            3713     82.6989E-03     84.5777E-03
            3159            3714     76.2639E-03     78.2504E-03
            3159            3731     95.4008E-03     95.8254E-03
            3159            3732     88.1425E-03     88.6138E-03
            3160            3714     76.2639E-03     78.2504E-03
            3160            3715     69.8286E-03     71.8594E-03
            3160            3732     88.1425E-03     88.6138E-03
            3160            3733     80.8610E-03     81.3491E-03
            3161            3715     69.8286E-03     71.8594E-03
            3161            3716     63.3747E-03     65.4516E-03
            3161            3733     80.8610E-03     81.3491E-03
            3161            3734     73.5677E-03     74.0716E-03
            3162            3716     63.3747E-03     65.4516E-03
            3162            3717     56.9402E-03     59.0210E-03
            3162            3734     73.5677E-03     74.0716E-03
            3162            3735     66.3061E-03     66.8136E-03
            3163            3717     56.9402E-03     59.0210E-03
            3163            3718     50.5412E-03     52.6130E-03
            3163            3735     66.3061E-03     66.8136E-03
            3163            3736     59.1041E-03     59.6107E-03
            3164            3718     50.5412E-03     52.6130E-03
            3164            3719     44.2343E-03     46.2414E-03
            3164            3736     59.1041E-03     59.6107E-03
            3164            3737     52.0300E-03     52.5214E-03
            3165            3719     44.2343E-03     46.2414E-03
            3165            3720     38.0795E-03     39.9621E-03
            3165            3737     52.0300E-03     52.5214E-03
            3165            3738     45.1490E-03     45.6104E-03
            3166            3720     38.0795E-03     39.9621E-03
            3166            3721     32.1928E-03     33.8552E-03
            3166            3738     45.1490E-03     45.6104E-03
            3166            3739     38.5962E-03     39.0345E-03
            3167            3721     32.1928E-03     33.8552E-03
            3167            3722     26.7181E-03     28.0276E-03
            3167            3739     38.5962E-03     39.0345E-03
            3167            3740     32.4927E-03     33.0526E-03
            3168            3722     26.7181E-03     28.0276E-03
            3168            3723     21.8831E-03     23.0000E-03
            3168            3740     32.4927E-03     33.0526E-03
            3168            3741     27.0260E-03     28.4170E-03
            3169            3723     21.8831E-03     23.0000E-03
            3169            3724     17.3255E-03     19.9096E-03
            3169            3741     27.0260E-03     28.4170E-03
            3169            3742     22.8010E-03     26.3487E-03
            3170             414     21.1027E-03     26.1074E-03
            3170             415     14.9848E-03     19.0178E-03
            3170            3724     17.3255E-03     19.9096E-03
            3170            3742     22.8010E-03     26.3487E-03
            3171             631     146.904E-03     148.780E-03
            3171             632     140.275E-03     139.626E-03
            3171            3725     135.271E-03     134.730E-03
            3171            3743     140.819E-03     142.482E-03
            3172            3725     135.271E-03     134.730E-03
            3172            3726     129.658E-03     129.270E-03
            3172            3743     140.819E-03     142.482E-03
            3172            3744     134.036E-03     135.463E-03
            3173            3726     129.658E-03     129.270E-03
            3173            3727     123.307E-03     123.200E-03
            3173            3744     134.036E-03     135.463E-03
            3173            3745     126.747E-03     127.977E-03
            3174            3727     123.307E-03     123.200E-03
            3174            3728     116.637E-03     116.741E-03
            3174            3745     126.747E-03     127.977E-03
            3174            3746     119.152E-03     120.297E-03
            3175            3728     116.637E-03     116.741E-03
            3175            3729     109.690E-03     109.940E-03
            3175            3746     119.152E-03     120.297E-03
            3175            3747     111.428E-03     112.557E-03
            3176            3729     109.690E-03     109.940E-03
            3176            3730     102.590E-03     102.960E-03
            3176            3747     111.428E-03     112.557E-03
            3176            3748     103.690E-03     104.802E-03
            3177            3730     102.590E-03     102.960E-03
            3177            3731     95.4008E-03     95.8254E-03
            3177            3748     103.690E-03     104.802E-03
            3177            3749     95.9392E-03     97.0610E-03
            3178            3731     95.4008E-03     95.8254E-03
            3178            3732     88.1425E-03     88.6138E-03
            3178            3749     95.9392E-03     97.0610E-03
            3178            3750     88.2177E-03     89.3355E-03
            3179            3732     88.1425E-03     88.6138E-03
            3179            3733     80.8610E-03     81.3491E-03
            3179            3750     88.2177E-03     89.3355E-03
            3179            3751     80.5162E-03     81.6351E-03
            3180            3733     80.8610E-03     81.3491E-03
            3180            3734     73.5677E-03     74.0716E-03
            3180            3751     80.5162E-03     81.6351E-03
            3180            3752     72.8540E-03     73.9629E-03
            3181            3734     73.5677E-03     74.0716E-03
            3181            3735     66.3061E-03     66.8136E-03
            3181            3752     72.8540E-03     73.9629E-03
            3181            3753     65.2351E-03     66.3313E-03
            3182            3735     66.3061E-03     66.8136E-03
            3182            3736     59.1041E-03     59.6107E-03
            3182            3753     65.2351E-03     66.3313E-03
            3182            3754     57.6807E-03     58.7614E-03
            3183            3736     59.1041E-03     59.6107E-03
            3183            3737     52.0300E-03     52.5214E-03
            3183            3754     57.6807E-03     58.7614E-03
            3183            3755     50.2160E-03     51.2865E-03
            3184            3737     52.0300E-03     52.5214E-03
            3184            3738     45.1490E-03     45.6104E-03
            3184            3755     50.2160E-03     51.2865E-03
            3184            3756     42.8741E-03     43.9870E-03
            3185            3738     45.1490E-03     45.6104E-03
            3185            3739     38.5962E-03     39.0345E-03
            3185            3756     42.8741E-03     43.9870E-03
            3185            3757     35.7376E-03     36.9825E-03
            3186            3739     38.5962E-03     39.0345E-03
            3186            3740     32.4927E-03     33.0526E-03
            3186            3757     35.7376E-03     36.9825E-03
            3186            3758     28.8603E-03     30.6009E-03
            3187            3740     32.4927E-03     33.0526E-03
            3187            3741     27.0260E-03     28.4170E-03
            3187            3758     28.8603E-03     30.6009E-03
            3187            3759     22.6639E-03     25.5353E-03
            3188            3741     27.0260E-03     28.4170E-03
            3188            3742     22.8010E-03     26.3487E-03
            3188            3759     22.6639E-03     25.5353E-03
            3188            3760     18.9383E-03     21.4485E-03
            3189             413     18.0296E-03     19.4596E-03
            3189             414     21.1027E-03     26.1074E-03
            3189            3742     22.8010E-03     26.3487E-03
            3189            3760     18.9383E-03     21.4485E-03
            3190             630     152.020E-03     155.009E-03
            3190             631     146.904E-03     148.780E-03
            3190            3743     140.819E-03     142.482E-03
            3190            3761     144.915E-03     147.956E-03
            3191            3743     140.819E-03     142.482E-03
            3191            3744     134.036E-03     135.463E-03
            3191            3761     144.915E-03     147.956E-03
            3191            3762     137.050E-03     139.789E-03
            3192            3744     134.036E-03     135.463E-03
            3192            3745     126.747E-03     127.977E-03
            3192            3762     137.050E-03     139.789E-03
            3192            3763     128.912E-03     131.269E-03
            3193            3745     126.747E-03     127.977E-03
            3193            3746     119.152E-03     120.297E-03
            3193            3763     128.912E-03     131.269E-03
            3193            3764     120.602E-03     122.759E-03
            3194            3746     119.152E-03     120.297E-03
            3194            3747     111.428E-03     112.557E-03
            3194            3764     120.602E-03     122.759E-03
            3194            3765     112.405E-03     114.384E-03
            3195            3747     111.428E-03     112.557E-03
            3195            3748     103.690E-03     104.802E-03
            3195            3765     112.405E-03     114.384E-03
            3195            3766     104.231E-03     106.121E-03
            3196            3748     103.690E-03     104.802E-03
            3196            3749     95.9392E-03     97.0610E-03
            3196            3766     104.231E-03     106.121E-03
            3196            3767     96.1436E-03     97.9720E-03
            3197            3749     95.9392E-03     97.0610E-03
            3197            3750     88.2177E-03     89.3355E-03
            3197            3767     96.1436E-03     97.9720E-03
            3197            3768     88.1063E-03     89.9035E-03
            3198            3750     88.2177E-03     89.3355E-03
            3198            3751     80.5162E-03     81.6351E-03
            3198            3768     88.1063E-03     89.9035E-03
            3198            3769     80.1298E-03     81.9014E-03
            3199            3751     80.5162E-03     81.6351E-03
            3199            3752     72.8540E-03     73.9629E-03
            3199            3769     80.1298E-03     81.9014E-03
            3199            3770     72.2026E-03     73.9544E-03
            3200            3752     72.8540E-03     73.9629E-03
            3200            3753     65.2351E-03     66.3313E-03
            3200            3770     72.2026E-03     73.9544E-03
            3200            3771     64.3253E-03     66.0568E-03
            3201            3753     65.2351E-03     66.3313E-03
            3201            3754     57.6807E-03     58.7614E-03
            3201            3771     64.3253E-03     66.0568E-03
            3201            3772     56.5004E-03     58.2197E-03
            3202            3754     57.6807E-03     58.7614E-03
            3202            3755     50.2160E-03     51.2865E-03
            3202            3772     56.5004E-03     58.2197E-03
            3202            3773     48.7276E-03     50.4621E-03
            3203            3755     50.2160E-03     51.2865E-03
            3203            3756     42.8741E-03     43.9870E-03
            3203            3773     48.7276E-03     50.4621E-03
            3203            3774     41.0215E-03     42.8478E-03
            3204            3756     42.8741E-03     43.9870E-03
            3204            3757     35.7376E-03     36.9825E-03
            3204            3774     41.0215E-03     42.8478E-03
            3204            3775     33.3995E-03     35.4736E-03
            3205            3757     35.7376E-03     36.9825E-03
            3205            3758     28.8603E-03     30.6009E-03
            3205            3775     33.3995E-03     35.4736E-03
            3205            3776     25.9780E-03     28.5830E-03
            3206            3758     28.8603E-03     30.6009E-03
            3206            3759     22.6639E-03     25.5353E-03
            3206            3776     25.9780E-03     28.5830E-03
            3206            3777     19.3722E-03     22.2189E-03
            3207            3759     22.6639E-03     25.5353E-03
            3207            3760     18.9383E-03     21.4485E-03
            3207            3777     19.3722E-03     22.2189E-03
            3207            3778     14.6828E-03     16.3586E-03
            3208             412     12.9726E-03     13.5874E-03
            3208             413     18.0296E-03     19.4596E-03
            3208            3760     18.9383E-03     21.4485E-03
            3208            3778     14.6828E-03     16.3586E-03
            3209             629     155.564E-03     159.352E-03
            3209             630     152.020E-03     155.009E-03
            3209            3761     144.915E-03     147.956E-03
            3209            3779     147.303E-03     150.984E-03
            3210            3761     144.915E-03     147.956E-03
            3210            3762     137.050E-03     139.789E-03
            3210            3779     147.303E-03     150.984E-03
            3210            3780     138.397E-03     141.803E-03
            3211            3762     137.050E-03     139.789E-03
            3211            3763     128.912E-03     131.269E-03
            3211            3780     138.397E-03     141.803E-03
            3211            3781     129.391E-03     132.639E-03
            3212            3763     128.912E-03     131.269E-03
            3212            3764     120.602E-03     122.759E-03
            3212            3781     129.391E-03     132.639E-03
            3212            3782     120.832E-03     123.761E-03
            3213            3764     120.602E-03     122.759E-03
            3213            3765     112.405E-03     114.384E-03
            3213            3782     120.832E-03     123.761E-03
            3213            3783     112.354E-03     115.096E-03
            3214            3765     112.405E-03     114.384E-03
            3214            3766     104.231E-03     106.121E-03
            3214            3783     112.354E-03     115.096E-03
            3214            3784     104.045E-03     106.649E-03
            3215            3766     104.231E-03     106.121E-03
            3215            3767     96.1436E-03     97.9720E-03
            3215            3784     104.045E-03     106.649E-03
            3215            3785     95.8097E-03     98.3336E-03
            3216            3767     96.1436E-03     97.9720E-03
            3216            3768     88.1063E-03     89.9035E-03
            3216            3785     95.8097E-03     98.3336E-03
            3216            3786     87.6518E-03     90.1263E-03
            3217            3768     88.1063E-03     89.9035E-03
            3217            3769     80.1298E-03     81.9014E-03
            3217            3786     87.6518E-03     90.1263E-03
            3217            3787     79.5476E-03     81.9917E-03
            3218            3769     80.1298E-03     81.9014E-03
            3218            3770     72.2026E-03     73.9544E-03
            3218            3787     79.5476E-03     81.9917E-03
            3218            3788     71.4910E-03     73.9105E-03
            3219            3770     72.2026E-03     73.9544E-03
            3219            3771     64.3253E-03     66.0568E-03
            3219            3788     71.4910E-03     73.9105E-03
            3219            3789     63.4755E-03     65.8773E-03
            3220            3771     64.3253E-03     66.0568E-03
            3220            3772     56.5004E-03     58.2197E-03
            3220            3789     63.4755E-03     65.8773E-03
            3220            3790     55.4918E-03     57.8843E-03
            3221            3772     56.5004E-03     58.2197E-03
            3221            3773     48.7276E-03     50.4621E-03
            3221            3790     55.4918E-03     57.8843E-03
            3221            3791     47.5356E-03     49.9575E-03
            3222            3773     48.7276E-03     50.4621E-03
            3222            3774     41.0215E-03     42.8478E-03
            3222            3791     47.5356E-03     49.9575E-03
            3222            3792     39.6031E-03     42.1073E-03
            3223            3774     41.0215E-03     42.8478E-03
            3223            3775     33.3995E-03     35.4736E-03
            3223            3792     39.6031E-03     42.1073E-03
            3223            3793     31.6737E-03     34.4380E-03
            3224            3775     33.3995E-03     35.4736E-03
            3224            3776     25.9780E-03     28.5830E-03
            3224            3793     31.6737E-03     34.4380E-03
            3224            3794     23.8843E-03     27.0056E-03
            3225            3776     25.9780E-03     28.5830E-03
            3225            3777     19.3722E-03     22.2189E-03
            3225            3794     23.8843E-03     27.0056E-03
            3225            3795     16.5825E-03     19.5758E-03
            3226            3777     19.3722E-03     22.2189E-03
            3226            3778     14.6828E-03     16.3586E-03
            3226            3795     16.5825E-03     19.5758E-03
            3226            3796     10.7183E-03     12.9590E-03
            3227             411     8.33000E-03     10.0995E-03
            3227             412     12.9726E-03     13.5874E-03
            3227            3778     14.6828E-03     16.3586E-03
            3227            3796     10.7183E-03     12.9590E-03
            3228             628     158.213E-03     161.489E-03
            3228             629     155.564E-03     159.352E-03
            3228            3779     147.303E-03     150.984E-03
            3228            3797     147.637E-03     151.363E-03
            3229            3779     147.303E-03     150.984E-03
            3229            3780     138.397E-03     141.803E-03
            3229            3797     147.637E-03     151.363E-03
            3229            3798     137.421E-03     141.359E-03
            3230            3780     138.397E-03     141.803E-03
            3230            3781     129.391E-03     132.639E-03
            3230            3798     137.421E-03     141.359E-03
            3230            3799     128.397E-03     132.099E-03
            3231            3781     129.391E-03     132.639E-03
            3231            3782     120.832E-03     123.761E-03
            3231            3799     128.397E-03     132.099E-03
            3231            3800     119.713E-03     123.220E-03
            3232            3782     120.832E-03     123.761E-03
            3232            3783     112.354E-03     115.096E-03
            3232            3800     119.713E-03     123.220E-03
            3232            3801     111.336E-03     114.682E-03
            3233            3783     112.354E-03     115.096E-03
            3233            3784     104.045E-03     106.649E-03
            3233            3801     111.336E-03     114.682E-03
            3233            3802     103.084E-03     106.324E-03
            3234            3784     104.045E-03     106.649E-03
            3234            3785     95.8097E-03     98.3336E-03
            3234            3802     103.084E-03     106.324E-03
            3234            3803     94.9186E-03     98.0988E-03
            3235            3785     95.8097E-03     98.3336E-03
            3235            3786     87.6518E-03     90.1263E-03
            3235            3803     94.9186E-03     98.0988E-03
            3235            3804     86.8040E-03     89.9496E-03
            3236            3786     87.6518E-03     90.1263E-03
            3236            3787     79.5476E-03     81.9917E-03
            3236            3804     86.8040E-03     89.9496E-03
            3236            3805     78.7255E-03     81.8488E-03
            3237            3787     79.5476E-03     81.9917E-03
            3237            3788     71.4910E-03     73.9105E-03
            3237            3805     78.7255E-03     81.8488E-03
            3237            3806     70.6749E-03     73.7834E-03
            3238            3788     71.4910E-03     73.9105E-03
            3238            3789     63.4755E-03     65.8773E-03
            3238            3806     70.6749E-03     73.7834E-03
            3238            3807     62.6450E-03     65.7377E-03
            3239            3789     63.4755E-03     65.8773E-03
            3239            3790     55.4918E-03     57.8843E-03
            3239            3807     62.6450E-03     65.7377E-03
            3239            3808     54.6315E-03     57.7187E-03
            3240            3790     55.4918E-03     57.8843E-03
            3240            3791     47.5356E-03     49.9575E-03
            3240            3808     54.6315E-03     57.7187E-03
            3240            3809     46.6271E-03     49.7190E-03
            3241            3791     47.5356E-03     49.9575E-03
            3241            3792     39.6031E-03     42.1073E-03
            3241            3809     46.6271E-03     49.7190E-03
            3241            3810     38.6178E-03     41.7697E-03
            3242            3792     39.6031E-03     42.1073E-03
            3242            3793     31.6737E-03     34.4380E-03
            3242            3810     38.6178E-03     41.7697E-03
            3242            3811     30.6199E-03     33.8752E-03
            3243            3793     31.6737E-03     34.4380E-03
            3243            3794     23.8843E-03     27.0056E-03
            3243            3811     30.6199E-03     33.8752E-03
            3243            3812     22.6149E-03     26.0441E-03
            3244            3794     23.8843E-03     27.0056E-03
            3244            3795     16.5825E-03     19.5758E-03
            3244            3812     22.6149E-03     26.0441E-03
            3244            3813     14.6251E-03     18.5062E-03
            3245            3795     16.5825E-03     19.5758E-03
            3245            3796     10.7183E-03     12.9590E-03
            3245            3813     14.6251E-03     18.5062E-03
            3245            3814     7.58389E-03     10.7175E-03
            3246             410     4.51954E-03     6.57698E-03
            3246             411     8.33000E-03     10.0995E-03
            3246            3796     10.7183E-03     12.9590E-03
            3246            3814     7.58389E-03     10.7175E-03
            3247             627     157.866E-03     160.853E-03
            3247             628     158.213E-03     161.489E-03
            3247            3797     147.637E-03     151.363E-03
            3247            3815     144.760E-03     148.676E-03
            3248            3797     147.637E-03     151.363E-03
            3248            3798     137.421E-03     141.359E-03
            3248            3815     144.760E-03     148.676E-03
            3248            3816     134.805E-03     138.812E-03
            3249            3798     137.421E-03     141.359E-03
            3249            3799     128.397E-03     132.099E-03
            3249            3816     134.805E-03     138.812E-03
            3249            3817     125.938E-03     129.844E-03
            3250            3799     128.397E-03     132.099E-03
            3250            3800     119.713E-03     123.220E-03
            3250            3817     125.938E-03     129.844E-03
            3250            3818     117.568E-03     121.439E-03
            3251            3800     119.713E-03     123.220E-03
            3251            3801     111.336E-03     114.682E-03
            3251            3818     117.568E-03     121.439E-03
            3251            3819     109.481E-03     113.307E-03
            3252            3801     111.336E-03     114.682E-03
            3252            3802     103.084E-03     106.324E-03
            3252            3819     109.481E-03     113.307E-03
            3252            3820     101.490E-03     105.305E-03
            3253            3802     103.084E-03     106.324E-03
            3253            3803     94.9186E-03     98.0988E-03
            3253            3820     101.490E-03     105.305E-03
            3253            3821     93.5556E-03     97.3657E-03
            3254            3803     94.9186E-03     98.0988E-03
            3254            3804     86.8040E-03     89.9496E-03
            3254            3821     93.5556E-03     97.3657E-03
            3254            3822     85.6316E-03     89.4416E-03
            3255            3804     86.8040E-03     89.9496E-03
            3255            3805     78.7255E-03     81.8488E-03
            3255            3822     85.6316E-03     89.4416E-03
            3255            3823     77.7120E-03     81.5249E-03
            3256            3805     78.7255E-03     81.8488E-03
            3256            3806     70.6749E-03     73.7834E-03
            3256            3823     77.7120E-03     81.5249E-03
            3256            3824     69.7903E-03     73.5991E-03
            3257            3806     70.6749E-03     73.7834E-03
            3257            3807     62.6450E-03     65.7377E-03
            3257            3824     69.7903E-03     73.5991E-03
            3257            3825     61.8659E-03     65.6707E-03
            3258            3807     62.6450E-03     65.7377E-03
            3258            3808     54.6315E-03     57.7187E-03
            3258            3825     61.8659E-03     65.6707E-03
            3258            3826     53.9426E-03     57.7329E-03
            3259            3808     54.6315E-03     57.7187E-03
            3259            3809     46.6271E-03     49.7190E-03
            3259            3826     53.9426E-03     57.7329E-03
            3259            3827     46.0206E-03     49.7936E-03
            3260            3809     46.6271E-03     49.7190E-03
            3260            3810     38.6178E-03     41.7697E-03
            3260            3827     46.0206E-03     49.7936E-03
            3260            3828     38.1064E-03     41.8561E-03
            3261            3810     38.6178E-03     41.7697E-03
            3261            3811     30.6199E-03     33.8752E-03
            3261            3828     38.1064E-03     41.8561E-03
            3261            3829     30.2153E-03     33.9082E-03
            3262            3811     30.6199E-03     33.8752E-03
            3262            3812     22.6149E-03     26.0441E-03
            3262            3829     30.2153E-03     33.9082E-03
            3262            3830     22.3285E-03     26.0055E-03
            3263            3812     22.6149E-03     26.0441E-03
            3263            3813     14.6251E-03     18.5062E-03
            3263            3830     22.3285E-03     26.0055E-03
            3263            3831     14.3875E-03     18.3735E-03
            3264            3813     14.6251E-03     18.5062E-03
            3264            3814     7.58389E-03     10.7175E-03
            3264            3831     14.3875E-03     18.3735E-03
            3264            3832     6.86772E-03     11.3637E-03
            3265             409     3.34173E-03     8.06483E-03
            3265             410     4.51954E-03     6.57698E-03
            3265            3814     7.58389E-03     10.7175E-03
            3265            3832     6.86772E-03     11.3637E-03
            3266             626     152.290E-03     155.770E-03
            3266             627     157.866E-03     160.853E-03
            3266            3815     144.760E-03     148.676E-03
            3266            3833     140.174E-03     143.720E-03
            3267            3815     144.760E-03     148.676E-03
            3267            3816     134.805E-03     138.812E-03
            3267            3833     140.174E-03     143.720E-03
            3267            3834     131.011E-03     134.676E-03
            3268            3816     134.805E-03     138.812E-03
            3268            3817     125.938E-03     129.844E-03
            3268            3834     131.011E-03     134.676E-03
            3268            3835     122.574E-03     126.512E-03
            3269            3817     125.938E-03     129.844E-03
            3269            3818     117.568E-03     121.439E-03
            3269            3835     122.574E-03     126.512E-03
            3269            3836     114.757E-03     118.884E-03
            3270            3818     117.568E-03     121.439E-03
            3270            3819     109.481E-03     113.307E-03
            3270            3836     114.757E-03     118.884E-03
            3270            3837     107.075E-03     111.356E-03
            3271            3819     109.481E-03     113.307E-03
            3271            3820     101.490E-03     105.305E-03
            3271            3837     107.075E-03     111.356E-03
            3271            3838     99.4953E-03     103.881E-03
            3272            3820     101.490E-03     105.305E-03
            3272            3821     93.5556E-03     97.3657E-03
            3272            3838     99.4953E-03     103.881E-03
            3272            3839     91.9045E-03     96.3491E-03
            3273            3821     93.5556E-03     97.3657E-03
            3273            3822     85.6316E-03     89.4416E-03
            3273            3839     91.9045E-03     96.3491E-03
            3273            3840     84.2911E-03     88.7775E-03
            3274            3822     85.6316E-03     89.4416E-03
            3274            3823     77.7120E-03     81.5249E-03
            3274            3840     84.2911E-03     88.7775E-03
            3274            3841     76.6393E-03     81.1436E-03
            3275            3823     77.7120E-03     81.5249E-03
            3275            3824     69.7903E-03     73.5991E-03
            3275            3841     76.6393E-03     81.1436E-03
            3275            3842     68.9493E-03     73.4697E-03
            3276            3824     69.7903E-03     73.5991E-03
            3276            3825     61.8659E-03     65.6707E-03
            3276            3842     68.9493E-03     73.4697E-03
            3276            3843     61.2343E-03     65.7562E-03
            3277            3825     61.8659E-03     65.6707E-03
            3277            3826     53.9426E-03     57.7329E-03
            3277            3843     61.2343E-03     65.7562E-03
            3277            3844     53.5017E-03     58.0151E-03
            3278            3826     53.9426E-03     57.7329E-03
            3278            3827     46.0206E-03     49.7936E-03
            3278            3844     53.5017E-03     58.0151E-03
            3278            3845     45.7813E-03     50.2554E-03
            3279            3827     46.0206E-03     49.7936E-03
            3279            3828     38.1064E-03     41.8561E-03
            3279            3845     45.7813E-03     50.2554E-03
            3279            3846     38.1012E-03     42.4675E-03
            3280            3828     38.1064E-03     41.8561E-03
            3280            3829     30.2153E-03     33.9082E-03
            3280            3846     38.1012E-03     42.4675E-03
            3280            3847     30.5087E-03     34.6825E-03
            3281            3829     30.2153E-03     33.9082E-03
            3281            3830     22.3285E-03     26.0055E-03
            3281            3847     30.5087E-03     34.6825E-03
            3281            3848     23.0938E-03     26.9149E-03
            3282            3830     22.3285E-03     26.0055E-03
            3282            3831     14.3875E-03     18.3735E-03
            3282            3848     23.0938E-03     26.9149E-03
            3282            3849     16.0084E-03     19.3601E-03
            3283            3831     14.3875E-03     18.3735E-03
            3283            3832     6.86772E-03     11.3637E-03
            3283            3849     16.0084E-03     19.3601E-03
            3283            3850     9.56030E-03     13.3575E-03
            3284             408     6.54098E-03     11.0173E-03
            3284             409     3.34173E-03     8.06483E-03
            3284            3832     6.86772E-03     11.3637E-03
            3284            3850     9.56030E-03     13.3575E-03
            3285              28     155.627E-03     155.647E-03
            3285             584     145.867E-03     145.723E-03
            3285             626     152.290E-03     155.770E-03
            3285            3833     140.174E-03     143.720E-03
            3286             584     145.867E-03     145.723E-03
            3286             585     137.092E-03     137.362E-03
            3286            3833     140.174E-03     143.720E-03
            3286            3834     131.011E-03     134.676E-03
            3287             585     137.092E-03     137.362E-03
            3287             586     128.986E-03     129.235E-03
            3287            3834     131.011E-03     134.676E-03
            3287            3835     122.574E-03     126.512E-03
            3288             586     128.986E-03     129.235E-03
            3288             587     120.854E-03     121.489E-03
            3288            3835     122.574E-03     126.512E-03
            3288            3836     114.757E-03     118.884E-03
            3289             587     120.854E-03     121.489E-03
            3289             588     113.009E-03     113.632E-03
            3289            3836     114.757E-03     118.884E-03
            3289            3837     107.075E-03     111.356E-03
            3290             588     113.009E-03     113.632E-03
            3290             589     105.058E-03     105.863E-03
            3290            3837     107.075E-03     111.356E-03
            3290            3838     99.4953E-03     103.881E-03
            3291             589     105.058E-03     105.863E-03
            3291             590     97.1890E-03     97.9838E-03
            3291            3838     99.4953E-03     103.881E-03
            3291            3839     91.9045E-03     96.3491E-03
            3292             590     97.1890E-03     97.9838E-03
            3292             591     89.2436E-03     90.1071E-03
            3292            3839     91.9045E-03     96.3491E-03
            3292            3840     84.2911E-03     88.7775E-03
            3293             591     89.2436E-03     90.1071E-03
            3293             592     81.3052E-03     82.1660E-03
            3293            3840     84.2911E-03     88.7775E-03
            3293            3841     76.6393E-03     81.1436E-03
            3294             592     81.3052E-03     82.1660E-03
            3294             593     73.3245E-03     74.2137E-03
            3294            3841     76.6393E-03     81.1436E-03
            3294            3842     68.9493E-03     73.4697E-03
            3295             593     73.3245E-03     74.2137E-03
            3295             594     65.3408E-03     66.2333E-03
            3295            3842     68.9493E-03     73.4697E-03
            3295            3843     61.2343E-03     65.7562E-03
            3296             594     65.3408E-03     66.2333E-03
            3296             595     57.3487E-03     58.2518E-03
            3296            3843     61.2343E-03     65.7562E-03
            3296            3844     53.5017E-03     58.0151E-03
            3297             595     57.3487E-03     58.2518E-03
            3297             596     49.3826E-03     50.2660E-03
            3297            3844     53.5017E-03     58.0151E-03
            3297            3845     45.7813E-03     50.2554E-03
            3298             596     49.3826E-03     50.2660E-03
            3298             597     41.4618E-03     42.2998E-03
            3298            3845     45.7813E-03     50.2554E-03
            3298            3846     38.1012E-03     42.4675E-03
            3299             597     41.4618E-03     42.2998E-03
            3299             598     33.6582E-03     34.3694E-03
            3299            3846     38.1012E-03     42.4675E-03
            3299            3847     30.5087E-03     34.6825E-03
            3300             598     33.6582E-03     34.3694E-03
            3300             599     26.0474E-03     26.5344E-03
            3300            3847     30.5087E-03     34.6825E-03
            3300            3848     23.0938E-03     26.9149E-03
            3301             599     26.0474E-03     26.5344E-03
            3301             600     18.8503E-03     19.0203E-03
            3301            3848     23.0938E-03     26.9149E-03
            3301            3849     16.0084E-03     19.3601E-03
            3302             600     18.8503E-03     19.0203E-03
            3302             601     12.3443E-03     12.6798E-03
            3302            3849     16.0084E-03     19.3601E-03
            3302            3850     9.56030E-03     13.3575E-03
            3303              22     9.28166E-03     9.98339E-03
            3303             408     6.54098E-03     11.0173E-03
            3303             601     12.3443E-03     12.6798E-03
            3303            3850     9.56030E-03     13.3575E-03
            3304              30     5.39200E-03     8.67389E-03
            3304             673     8.98236E-03     13.0165E-03
            3304             720     3.86444E-03     8.45168E-03
            3304            3851     7.95463E-03     12.5744E-03
            3305             673     8.98236E-03     13.0165E-03
            3305             674     16.7632E-03     22.0840E-03
            3305            3851     7.95463E-03     12.5744E-03
            3305            3852     16.3424E-03     21.2931E-03
            3306             674     16.7632E-03     22.0840E-03
            3306             675     25.3922E-03     31.4549E-03
            3306            3852     16.3424E-03     21.2931E-03
            3306            3853     25.0798E-03     30.5753E-03
            3307             675     25.3922E-03     31.4549E-03
            3307             676     34.3704E-03     40.7267E-03
            3307            3853     25.0798E-03     30.5753E-03
            3307            3854     34.0162E-03     39.8211E-03
            3308             676     34.3704E-03     40.7267E-03
            3308             677     43.5014E-03     49.9335E-03
            3308            3854     34.0162E-03     39.8211E-03
            3308            3855     43.0787E-03     48.9482E-03
            3309             677     43.5014E-03     49.9335E-03
            3309             678     52.7058E-03     59.1097E-03
            3309            3855     43.0787E-03     48.9482E-03
            3309            3856     52.1933E-03     58.0710E-03
            3310             678     52.7058E-03     59.1097E-03
            3310             679     61.9125E-03     68.2953E-03
            3310            3856     52.1933E-03     58.0710E-03
            3310            3857     61.3073E-03     67.1842E-03
            3311             679     61.9125E-03     68.2953E-03
            3311             680     71.1148E-03     77.4743E-03
            3311            3857     61.3073E-03     67.1842E-03
            3311            3858     70.4243E-03     76.2863E-03
            3312             680     71.1148E-03     77.4743E-03
            3312             681     80.2814E-03     86.6448E-03
            3312            3858     70.4243E-03     76.2863E-03
            3312            3859     79.5198E-03     85.3814E-03
            3313             681     80.2814E-03     86.6448E-03
            3313             682     89.4321E-03     95.7818E-03
            3313            3859     79.5198E-03     85.3814E-03
            3313            3860     88.5952E-03     94.4483E-03
            3314             682     89.4321E-03     95.7818E-03
            3314             683     98.5095E-03     104.881E-03
            3314            3860     88.5952E-03     94.4483E-03
            3314            3861     97.6339E-03     103.494E-03
            3315             683     98.5095E-03     104.881E-03
            3315             684     107.556E-03     113.906E-03
            3315            3861     97.6339E-03     103.494E-03
            3315            3862     106.632E-03     112.481E-03
            3316             684     107.556E-03     113.906E-03
            3316             685     116.467E-03     122.847E-03
            3316            3862     106.632E-03     112.481E-03
            3316            3863     115.575E-03     121.427E-03
            3317             685     116.467E-03     122.847E-03
            3317             686     125.337E-03     131.649E-03
            3317            3863     115.575E-03     121.427E-03
            3317            3864     124.455E-03     130.274E-03
            3318             686     125.337E-03     131.649E-03
            3318             687     133.992E-03     140.303E-03
            3318            3864     124.455E-03     130.274E-03
            3318            3865     133.311E-03     139.087E-03
            3319             687     133.992E-03     140.303E-03
            3319             688     142.726E-03     148.767E-03
            3319            3865     133.311E-03     139.087E-03
            3319            3866     142.143E-03     147.826E-03
            3320             688     142.726E-03     148.767E-03
            3320             689     151.261E-03     157.155E-03
            3320            3866     142.143E-03     147.826E-03
            3320            3867     151.344E-03     156.852E-03
            3321             689     151.261E-03     157.155E-03
            3321             690     160.670E-03     165.951E-03
            3321            3867     151.344E-03     156.852E-03
            3321            3868     160.977E-03     166.426E-03
            3322              31     170.736E-03     176.096E-03
            3322             690     160.670E-03     165.951E-03
            3322             691     173.620E-03     178.838E-03
            3322            3868     160.977E-03     166.426E-03
            3323             719     4.82585E-03     9.39868E-03
            3323             720     3.86444E-03     8.45168E-03
            3323            3851     7.95463E-03     12.5744E-03
            3323            3869     8.74121E-03     12.9726E-03
            3324            3851     7.95463E-03     12.5744E-03
            3324            3852     16.3424E-03     21.2931E-03
            3324            3869     8.74121E-03     12.9726E-03
            3324            3870     17.0128E-03     21.0890E-03
            3325            3852     16.3424E-03     21.2931E-03
            3325            3853     25.0798E-03     30.5753E-03
            3325            3870     17.0128E-03     21.0890E-03
            3325            3871     25.8621E-03     30.1506E-03
            3326            3853     25.0798E-03     30.5753E-03
            3326            3854     34.0162E-03     39.8211E-03
            3326            3871     25.8621E-03     30.1506E-03
            3326            3872     34.9068E-03     39.1868E-03
            3327            3854     34.0162E-03     39.8211E-03
            3327            3855     43.0787E-03     48.9482E-03
            3327            3872     34.9068E-03     39.1868E-03
            3327            3873     44.0217E-03     48.2881E-03
            3328            3855     43.0787E-03     48.9482E-03
            3328            3856     52.1933E-03     58.0710E-03
            3328            3873     44.0217E-03     48.2881E-03
            3328            3874     53.1520E-03     57.4514E-03
            3329            3856     52.1933E-03     58.0710E-03
            3329            3857     61.3073E-03     67.1842E-03
            3329            3874     53.1520E-03     57.4514E-03
            3329            3875     62.2970E-03     66.6178E-03
            3330            3857     61.3073E-03     67.1842E-03
            3330            3858     70.4243E-03     76.2863E-03
            3330            3875     62.2970E-03     66.6178E-03
            3330            3876     71.4573E-03     75.7994E-03
            3331            3858     70.4243E-03     76.2863E-03
            3331            3859     79.5198E-03     85.3814E-03
            3331            3876     71.4573E-03     75.7994E-03
            3331            3877     80.6331E-03     84.9784E-03
            3332            3859     79.5198E-03     85.3814E-03
            3332            3860     88.5952E-03     94.4483E-03
            3332            3877     80.6331E-03     84.9784E-03
            3332            3878     89.8183E-03     94.1705E-03
            3333            3860     88.5952E-03     94.4483E-03
            3333            3861     97.6339E-03     103.494E-03
            3333            3878     89.8183E-03     94.1705E-03
            3333            3879     99.0176E-03     103.363E-03
            3334            3861     97.6339E-03     103.494E-03
            3334            3862     106.632E-03     112.481E-03
            3334            3879     99.0176E-03     103.363E-03
            3334            3880     108.229E-03     112.578E-03
            3335            3862     106.632E-03     112.481E-03
            3335            3863     115.575E-03     121.427E-03
            3335            3880     108.229E-03     112.578E-03
            3335            3881     117.457E-03     121.802E-03
            3336            3863     115.575E-03     121.427E-03
            3336            3864     124.455E-03     130.274E-03
            3336            3881     117.457E-03     121.802E-03
            3336            3882     126.714E-03     131.075E-03
            3337            3864     124.455E-03     130.274E-03
            3337            3865     133.311E-03     139.087E-03
            3337            3882     126.714E-03     131.075E-03
            3337            3883     136.010E-03     140.425E-03
            3338            3865     133.311E-03     139.087E-03
            3338            3866     142.143E-03     147.826E-03
            3338            3883     136.010E-03     140.425E-03
            3338            3884     145.431E-03     149.953E-03
            3339            3866     142.143E-03     147.826E-03
            3339            3867     151.344E-03     156.852E-03
            3339            3884     145.431E-03     149.953E-03
            3339            3885     155.174E-03     159.915E-03
            3340            3867     151.344E-03     156.852E-03
            3340            3868     160.977E-03     166.426E-03
            3340            3885     155.174E-03     159.915E-03
            3340            3886     165.623E-03     170.570E-03
            3341             691     173.620E-03     178.838E-03
            3341             692     179.257E-03     183.414E-03
            3341            3868     160.977E-03     166.426E-03
            3341            3886     165.623E-03     170.570E-03
            3342             718     10.5894E-03     11.0046E-03
            3342             719     4.82585E-03     9.39868E-03
            3342            3869     8.74121E-03     12.9726E-03
            3342            3887     13.0631E-03     15.0255E-03
            3343            3869     8.74121E-03     12.9726E-03
            3343            3870     17.0128E-03     21.0890E-03
            3343            3887     13.0631E-03     15.0255E-03
            3343            3888     19.4796E-03     22.9346E-03
            3344            3870     17.0128E-03     21.0890E-03
            3344            3871     25.8621E-03     30.1506E-03
            3344            3888     19.4796E-03     22.9346E-03
            3344            3889     27.8236E-03     30.9179E-03
            3345            3871     25.8621E-03     30.1506E-03
            3345            3872     34.9068E-03     39.1868E-03
            3345            3889     27.8236E-03     30.9179E-03
            3345            3890     36.7003E-03     39.4438E-03
            3346            3872     34.9068E-03     39.1868E-03
            3346            3873     44.0217E-03     48.2881E-03
            3346            3890     36.7003E-03     39.4438E-03
            3346            3891     45.6465E-03     48.3588E-03
            3347            3873     44.0217E-03     48.2881E-03
            3347            3874     53.1520E-03     57.4514E-03
            3347            3891     45.6465E-03     48.3588E-03
            3347            3892     54.6413E-03     57.3832E-03
            3348            3874     53.1520E-03     57.4514E-03
            3348            3875     62.2970E-03     66.6178E-03
            3348            3892     54.6413E-03     57.3832E-03
            3348            3893     63.6968E-03     66.4805E-03
            3349            3875     62.2970E-03     66.6178E-03
            3349            3876     71.4573E-03     75.7994E-03
            3349            3893     63.6968E-03     66.4805E-03
            3349            3894     72.7905E-03     75.6043E-03
            3350            3876     71.4573E-03     75.7994E-03
            3350            3877     80.6331E-03     84.9784E-03
            3350            3894     72.7905E-03     75.6043E-03
            3350            3895     81.9231E-03     84.7580E-03
            3351            3877     80.6331E-03     84.9784E-03
            3351            3878     89.8183E-03     94.1705E-03
            3351            3895     81.9231E-03     84.7580E-03
            3351            3896     91.0921E-03     93.9308E-03
            3352            3878     89.8183E-03     94.1705E-03
            3352            3879     99.0176E-03     103.363E-03
            3352            3896     91.0921E-03     93.9308E-03
            3352            3897     100.294E-03     103.139E-03
            3353            3879     99.0176E-03     103.363E-03
            3353            3880     108.229E-03     112.578E-03
            3353            3897     100.294E-03     103.139E-03
            3353            3898     109.542E-03     112.382E-03
            3354            3880     108.229E-03     112.578E-03
            3354            3881     117.457E-03     121.802E-03
            3354            3898     109.542E-03     112.382E-03
            3354            3899     118.837E-03     121.693E-03
            3355            3881     117.457E-03     121.802E-03
            3355            3882     126.714E-03     131.075E-03
            3355            3899     118.837E-03     121.693E-03
            3355            3900     128.210E-03     131.095E-03
            3356            3882     126.714E-03     131.075E-03
            3356            3883     136.010E-03     140.425E-03
            3356            3900     128.210E-03     131.095E-03
            3356            3901     137.662E-03     140.640E-03
            3357            3883     136.010E-03     140.425E-03
            3357            3884     145.431E-03     149.953E-03
            3357            3901     137.662E-03     140.640E-03
            3357            3902     147.313E-03     150.472E-03
            3358            3884     145.431E-03     149.953E-03
            3358            3885     155.174E-03     159.915E-03
            3358            3902     147.313E-03     150.472E-03
            3358            3903     157.065E-03     160.597E-03
            3359            3885     155.174E-03     159.915E-03
            3359            3886     165.623E-03     170.570E-03
            3359            3903     157.065E-03     160.597E-03
            3359            3904     167.878E-03     171.442E-03
            3360             692     179.257E-03     183.414E-03
            3360             693     178.425E-03     182.079E-03
            3360            3886     165.623E-03     170.570E-03
            3360            3904     167.878E-03     171.442E-03
            3361             717     16.3765E-03     17.5616E-03
            3361             718     10.5894E-03     11.0046E-03
            3361            3887     13.0631E-03     15.0255E-03
            3361            3905     17.9396E-03     20.1863E-03
            3362            3887     13.0631E-03     15.0255E-03
            3362            3888     19.4796E-03     22.9346E-03
            3362            3905     17.9396E-03     20.1863E-03
            3362            3906     23.1430E-03     25.7763E-03
            3363            3888     19.4796E-03     22.9346E-03
            3363            3889     27.8236E-03     30.9179E-03
            3363            3906     23.1430E-03     25.7763E-03
            3363            3907     30.9265E-03     32.5633E-03
            3364            3889     27.8236E-03     30.9179E-03
            3364            3890     36.7003E-03     39.4438E-03
            3364            3907     30.9265E-03     32.5633E-03
            3364            3908     39.2984E-03     40.5775E-03
            3365            3890     36.7003E-03     39.4438E-03
            3365            3891     45.6465E-03     48.3588E-03
            3365            3908     39.2984E-03     40.5775E-03
            3365            3909     47.8749E-03     49.1136E-03
            3366            3891     45.6465E-03     48.3588E-03
            3366            3892     54.6413E-03     57.3832E-03
            3366            3909     47.8749E-03     49.1136E-03
            3366            3910     56.6160E-03     57.8775E-03
            3367            3892     54.6413E-03     57.3832E-03
            3367            3893     63.6968E-03     66.4805E-03
            3367            3910     56.6160E-03     57.8775E-03
            3367            3911     65.4581E-03     66.7581E-03
            3368            3893     63.6968E-03     66.4805E-03
            3368            3894     72.7905E-03     75.6043E-03
            3368            3911     65.4581E-03     66.7581E-03
            3368            3912     74.3793E-03     75.7053E-03
            3369            3894     72.7905E-03     75.6043E-03
            3369            3895     81.9231E-03     84.7580E-03
            3369            3912     74.3793E-03     75.7053E-03
            3369            3913     83.3546E-03     84.6938E-03
            3370            3895     81.9231E-03     84.7580E-03
            3370            3896     91.0921E-03     93.9308E-03
            3370            3913     83.3546E-03     84.6938E-03
            3370            3914     92.3660E-03     93.7163E-03
            3371            3896     91.0921E-03     93.9308E-03
            3371            3897     100.294E-03     103.139E-03
            3371            3914     92.3660E-03     93.7163E-03
            3371            3915     101.415E-03     102.762E-03
            3372            3897     100.294E-03     103.139E-03
            3372            3898     109.542E-03     112.382E-03
            3372            3915     101.415E-03     102.762E-03
            3372            3916     110.486E-03     111.841E-03
            3373            3898     109.542E-03     112.382E-03
            3373            3899     118.837E-03     121.693E-03
            3373            3916     110.486E-03     111.841E-03
            3373            3917     119.605E-03     120.953E-03
            3374            3899     118.837E-03     121.693E-03
            3374            3900     128.210E-03     131.095E-03
            3374            3917     119.605E-03     120.953E-03
            3374            3918     128.753E-03     130.128E-03
            3375            3900     128.210E-03     131.095E-03
            3375            3901     137.662E-03     140.640E-03
            3375            3918     128.753E-03     130.128E-03
            3375            3919     137.995E-03     139.391E-03
            3376            3901     137.662E-03     140.640E-03
            3376            3902     147.313E-03     150.472E-03
            3376            3919     137.995E-03     139.391E-03
            3376            3920     147.230E-03     148.751E-03
            3377            3902     147.313E-03     150.472E-03
            3377            3903     157.065E-03     160.597E-03
            3377            3920     147.230E-03     148.751E-03
            3377            3921     156.639E-03     158.279E-03
            3378            3903     157.065E-03     160.597E-03
            3378            3904     167.878E-03     171.442E-03
            3378            3921     156.639E-03     158.279E-03
            3378            3922     165.629E-03     167.683E-03
            3379             693     178.425E-03     182.079E-03
            3379             694     173.435E-03     176.098E-03
            3379            3904     167.878E-03     171.442E-03
            3379            3922     165.629E-03     167.683E-03
            3380             716     20.2712E-03     24.9588E-03
            3380             717     16.3765E-03     17.5616E-03
            3380            3905     17.9396E-03     20.1863E-03
            3380            3923     22.5128E-03     25.6079E-03
            3381            3905     17.9396E-03     20.1863E-03
            3381            3906     23.1430E-03     25.7763E-03
            3381            3923     22.5128E-03     25.6079E-03
            3381            3924     27.9795E-03     28.8402E-03
            3382            3906     23.1430E-03     25.7763E-03
            3382            3907     30.9265E-03     32.5633E-03
            3382            3924     27.9795E-03     28.8402E-03
            3382            3925     34.9127E-03     35.0198E-03
            3383            3907     30.9265E-03     32.5633E-03
            3383            3908     39.2984E-03     40.5775E-03
            3383            3925     34.9127E-03     35.0198E-03
            3383            3926     42.5604E-03     42.5280E-03
            3384            3908     39.2984E-03     40.5775E-03
            3384            3909     47.8749E-03     49.1136E-03
            3384            3926     42.5604E-03     42.5280E-03
            3384            3927     50.6477E-03     50.5748E-03
            3385            3909     47.8749E-03     49.1136E-03
            3385            3910     56.6160E-03     57.8775E-03
            3385            3927     50.6477E-03     50.5748E-03
            3385            3928     59.0351E-03     58.9467E-03
            3386            3910     56.6160E-03     57.8775E-03
            3386            3911     65.4581E-03     66.7581E-03
            3386            3928     59.0351E-03     58.9467E-03
            3386            3929     67.5878E-03     67.4871E-03
            3387            3911     65.4581E-03     66.7581E-03
            3387            3912     74.3793E-03     75.7053E-03
            3387            3929     67.5878E-03     67.4871E-03
            3387            3930     76.2508E-03     76.1395E-03
            3388            3912     74.3793E-03     75.7053E-03
            3388            3913     83.3546E-03     84.6938E-03
            3388            3930     76.2508E-03     76.1395E-03
            3388            3931     84.9674E-03     84.8526E-03
            3389            3913     83.3546E-03     84.6938E-03
            3389            3914     92.3660E-03     93.7163E-03
            3389            3931     84.9674E-03     84.8526E-03
            3389            3932     93.7156E-03     93.5941E-03
            3390            3914     92.3660E-03     93.7163E-03
            3390            3915     101.415E-03     102.762E-03
            3390            3932     93.7156E-03     93.5941E-03
            3390            3933     102.455E-03     102.339E-03
            3391            3915     101.415E-03     102.762E-03
            3391            3916     110.486E-03     111.841E-03
            3391            3933     102.455E-03     102.339E-03
            3391            3934     111.186E-03     111.057E-03
            3392            3916     110.486E-03     111.841E-03
            3392            3917     119.605E-03     120.953E-03
            3392            3934     111.186E-03     111.057E-03
            3392            3935     119.855E-03     119.733E-03
            3393            3917     119.605E-03     120.953E-03
            3393            3918     128.753E-03     130.128E-03
            3393            3935     119.855E-03     119.733E-03
            3393            3936     128.492E-03     128.319E-03
            3394            3918     128.753E-03     130.128E-03
            3394            3919     137.995E-03     139.391E-03
            3394            3936     128.492E-03     128.319E-03
            3394            3937     136.995E-03     136.802E-03
            3395            3919     137.995E-03     139.391E-03
            3395            3920     147.230E-03     148.751E-03
            3395            3937     136.995E-03     136.802E-03
            3395            3938     145.376E-03     145.036E-03
            3396            3920     147.230E-03     148.751E-03
            3396            3921     156.639E-03     158.279E-03
            3396            3938     145.376E-03     145.036E-03
            3396            3939     153.399E-03     152.930E-03
            3397            3921     156.639E-03     158.279E-03
            3397            3922     165.629E-03     167.683E-03
            3397            3939     153.399E-03     152.930E-03
            3397            3940     160.444E-03     159.957E-03
            3398             694     173.435E-03     176.098E-03
            3398             695     166.302E-03     165.661E-03
            3398            3922     165.629E-03     167.683E-03
            3398            3940     160.444E-03     159.957E-03
            3399             715     12.2651E-03     15.9253E-03
            3399             716     20.2712E-03     24.9588E-03
            3399            3923     22.5128E-03     25.6079E-03
            3399            3941     15.7655E-03     18.2537E-03
            3400            3923     22.5128E-03     25.6079E-03
            3400            3924     27.9795E-03     28.8402E-03
            3400            3941     15.7655E-03     18.2537E-03
            3400            3942     22.6616E-03     23.7632E-03
            3401            3924     27.9795E-03     28.8402E-03
            3401            3925     34.9127E-03     35.0198E-03
            3401            3942     22.6616E-03     23.7632E-03
            3401            3943     29.7576E-03     30.6594E-03
            3402            3925     34.9127E-03     35.0198E-03
            3402            3926     42.5604E-03     42.5280E-03
            3402            3943     29.7576E-03     30.6594E-03
            3402            3944     37.3216E-03     38.2361E-03
            3403            3926     42.5604E-03     42.5280E-03
            3403            3927     50.6477E-03     50.5748E-03
            3403            3944     37.3216E-03     38.2361E-03
            3403            3945     45.1729E-03     46.0672E-03
            3404            3927     50.6477E-03     50.5748E-03
            3404            3928     59.0351E-03     58.9467E-03
            3404            3945     45.1729E-03     46.0672E-03
            3404            3946     53.2082E-03     54.0714E-03
            3405            3928     59.0351E-03     58.9467E-03
            3405            3929     67.5878E-03     67.4871E-03
            3405            3946     53.2082E-03     54.0714E-03
            3405            3947     61.3444E-03     62.1875E-03
            3406            3929     67.5878E-03     67.4871E-03
            3406            3930     76.2508E-03     76.1395E-03
            3406            3947     61.3444E-03     62.1875E-03
            3406            3948     69.5425E-03     70.3605E-03
            3407            3930     76.2508E-03     76.1395E-03
            3407            3931     84.9674E-03     84.8526E-03
            3407            3948     69.5425E-03     70.3605E-03
            3407            3949     77.7651E-03     78.5816E-03
            3408            3931     84.9674E-03     84.8526E-03
            3408            3932     93.7156E-03     93.5941E-03
            3408            3949     77.7651E-03     78.5816E-03
            3408            3950     86.0011E-03     86.8007E-03
            3409            3932     93.7156E-03     93.5941E-03
            3409            3933     102.455E-03     102.339E-03
            3409            3950     86.0011E-03     86.8007E-03
            3409            3951     94.2184E-03     95.0310E-03
            3410            3933     102.455E-03     102.339E-03
            3410            3934     111.186E-03     111.057E-03
            3410            3951     94.2184E-03     95.0310E-03
            3410            3952     102.416E-03     103.208E-03
            3411            3934     111.186E-03     111.057E-03
            3411            3935     119.855E-03     119.733E-03
            3411            3952     102.416E-03     103.208E-03
            3411            3953     110.556E-03     111.363E-03
            3412            3935     119.855E-03     119.733E-03
            3412            3936     128.492E-03     128.319E-03
            3412            3953     110.556E-03     111.363E-03
            3412            3954     118.637E-03     119.398E-03
            3413            3936     128.492E-03     128.319E-03
            3413            3937     136.995E-03     136.802E-03
            3413            3954     118.637E-03     119.398E-03
            3413            3955     126.604E-03     127.332E-03
            3414            3937     136.995E-03     136.802E-03
            3414            3938     145.376E-03     145.036E-03
            3414            3955     126.604E-03     127.332E-03
            3414            3956     134.437E-03     135.043E-03
            3415            3938     145.376E-03     145.036E-03
            3415            3939     153.399E-03     152.930E-03
            3415            3956     134.437E-03     135.043E-03
            3415            3957     141.921E-03     142.372E-03
            3416            3939     153.399E-03     152.930E-03
            3416            3940     160.444E-03     159.957E-03
            3416            3957     141.921E-03     142.372E-03
            3416            3958     149.057E-03     149.179E-03
            3417             695     166.302E-03     165.661E-03
            3417             696     155.268E-03     155.169E-03
            3417            3940     160.444E-03     159.957E-03
            3417            3958     149.057E-03     149.179E-03
            3418              33     4.91926E-03     7.34633E-03
            3418             714     8.04166E-03     10.4992E-03
            3418             715     12.2651E-03     15.9253E-03
            3418            3941     15.7655E-03     18.2537E-03
            3419             713     14.5196E-03     17.2663E-03
            3419             714     8.04166E-03     10.4992E-03
            3419            3941     15.7655E-03     18.2537E-03
            3419            3942     22.6616E-03     23.7632E-03
            3420             712     21.3917E-03     24.5565E-03
            3420             713     14.5196E-03     17.2663E-03
            3420            3942     22.6616E-03     23.7632E-03
            3420            3943     29.7576E-03     30.6594E-03
            3421             711     28.4882E-03     31.9268E-03
            3421             712     21.3917E-03     24.5565E-03
            3421            3943     29.7576E-03     30.6594E-03
            3421            3944     37.3216E-03     38.2361E-03
            3422             710     35.6880E-03     39.2949E-03
            3422             711     28.4882E-03     31.9268E-03
            3422            3944     37.3216E-03     38.2361E-03
            3422            3945     45.1729E-03     46.0672E-03
            3423             709     42.9494E-03     46.6459E-03
            3423             710     35.6880E-03     39.2949E-03
            3423            3945     45.1729E-03     46.0672E-03
            3423            3946     53.2082E-03     54.0714E-03
            3424             708     50.2316E-03     53.9776E-03
            3424             709     42.9494E-03     46.6459E-03
            3424            3946     53.2082E-03     54.0714E-03
            3424            3947     61.3444E-03     62.1875E-03
            3425             707     57.5267E-03     61.2842E-03
            3425             708     50.2316E-03     53.9776E-03
            3425            3947     61.3444E-03     62.1875E-03
            3425            3948     69.5425E-03     70.3605E-03
            3426             706     64.8143E-03     68.5705E-03
            3426             707     57.5267E-03     61.2842E-03
            3426            3948     69.5425E-03     70.3605E-03
            3426            3949     77.7651E-03     78.5816E-03
            3427             705     72.1008E-03     75.8292E-03
            3427             706     64.8143E-03     68.5705E-03
            3427            3949     77.7651E-03     78.5816E-03
            3427            3950     86.0011E-03     86.8007E-03
            3428             704     79.3726E-03     83.0708E-03
            3428             705     72.1008E-03     75.8292E-03
            3428            3950     86.0011E-03     86.8007E-03
            3428            3951     94.2184E-03     95.0310E-03
            3429             703     86.6602E-03     90.2896E-03
            3429             704     79.3726E-03     83.0708E-03
            3429            3951     94.2184E-03     95.0310E-03
            3429            3952     102.416E-03     103.208E-03
            3430             702     93.9522E-03     97.5147E-03
            3430             703     86.6602E-03     90.2896E-03
            3430            3952     102.416E-03     103.208E-03
            3430            3953     110.556E-03     111.363E-03
            3431             701     101.331E-03     104.758E-03
            3431             702     93.9522E-03     97.5147E-03
            3431            3953     110.556E-03     111.363E-03
            3431            3954     118.637E-03     119.398E-03
            3432             700     108.787E-03     112.102E-03
            3432             701     101.331E-03     104.758E-03
            3432            3954     118.637E-03     119.398E-03
            3432            3955     126.604E-03     127.332E-03
            3433             699     116.528E-03     119.630E-03
            3433             700     108.787E-03     112.102E-03
            3433            3955     126.604E-03     127.332E-03
            3433            3956     134.437E-03     135.043E-03
            3434             698     124.551E-03     127.567E-03
            3434             699     116.528E-03     119.630E-03
            3434            3956     134.437E-03     135.043E-03
            3434            3957     141.921E-03     142.372E-03
            3435             697     133.449E-03     136.346E-03
            3435             698     124.551E-03     127.567E-03
            3435            3957     141.921E-03     142.372E-03
            3435            3958     149.057E-03     149.179E-03
            3436              32     143.340E-03     146.610E-03
            3436             696     155.268E-03     155.169E-03
            3436             697     133.449E-03     136.346E-03
            3436            3958     149.057E-03     149.179E-03
            3437              23     5.10720E-03     7.25800E-03
            3437             455     3.97846E-03     4.43087E-03
            3437             531     9.51254E-03     10.8952E-03
            3437            3959     8.11663E-03     8.23831E-03
            3438              17     3.60039E-03     2.42620E-03
            3438             455     3.97846E-03     4.43087E-03
            3438             672     7.61134E-03     5.95168E-03
            3438            3959     8.11663E-03     8.23831E-03
            3439             530     9.29635E-03     7.72523E-03
            3439             531     9.51254E-03     10.8952E-03
            3439            3959     8.11663E-03     8.23831E-03
            3439            3960     9.67500E-03     9.17589E-03
            3440             671     8.91903E-03     8.59265E-03
            3440             672     7.61134E-03     5.95168E-03
            3440            3959     8.11663E-03     8.23831E-03
            3440            3960     9.67500E-03     9.17589E-03
            3441             529     11.8064E-03     11.5409E-03
            3441             530     9.29635E-03     7.72523E-03
            3441            3960     9.67500E-03     9.17589E-03
            3441            3961     12.9886E-03     12.8445E-03
            3442             670     11.4631E-03     11.6132E-03
            3442             671     8.91903E-03     8.59265E-03
            3442            3960     9.67500E-03     9.17589E-03
            3442            3961     12.9886E-03     12.8445E-03
            3443             528     17.4310E-03     16.9815E-03
            3443             529     11.8064E-03     11.5409E-03
            3443            3961     12.9886E-03     12.8445E-03
            3443            3962     17.0201E-03     17.0065E-03
            3444             669     14.4478E-03     14.8106E-03
            3444             670     11.4631E-03     11.6132E-03
            3444            3961     12.9886E-03     12.8445E-03
            3444            3962     17.0201E-03     17.0065E-03
            3445             527     22.5958E-03     23.5740E-03
            3445             528     17.4310E-03     16.9815E-03
            3445            3962     17.0201E-03     17.0065E-03
            3445            3963     21.0845E-03     21.4656E-03
            3446             668     17.5001E-03     17.9433E-03
            3446             669     14.4478E-03     14.8106E-03
            3446            3962     17.0201E-03     17.0065E-03
            3446            3963     21.0845E-03     21.4656E-03
            3447             526     30.2701E-03     29.2292E-03
            3447             527     22.5958E-03     23.5740E-03
            3447            3963     21.0845E-03     21.4656E-03
            3447            3964     25.6394E-03     25.6160E-03
            3448             667     19.6580E-03     20.3952E-03
            3448             668     17.5001E-03     17.9433E-03
            3448            3963     21.0845E-03     21.4656E-03
            3448            3964     25.6394E-03     25.6160E-03
            3449             525     36.7696E-03     37.3096E-03
            3449             526     30.2701E-03     29.2292E-03
            3449            3964     25.6394E-03     25.6160E-03
            3449            3965     28.1686E-03     30.0285E-03
            3450             666     19.4963E-03     21.6595E-03
            3450             667     19.6580E-03     20.3952E-03
            3450            3964     25.6394E-03     25.6160E-03
            3450            3965     28.1686E-03     30.0285E-03
            3451             524     30.7166E-03     33.0646E-03
            3451             525     36.7696E-03     37.3096E-03
            3451            3965     28.1686E-03     30.0285E-03
            3451            3966     28.6069E-03     29.4818E-03
            3452             665     25.9739E-03     26.0973E-03
            3452             666     19.4963E-03     21.6595E-03
            3452            3965     28.1686E-03     30.0285E-03
            3452            3966     28.6069E-03     29.4818E-03
            3453             523     27.0271E-03     25.2052E-03
            3453             524     30.7166E-03     33.0646E-03
            3453            3966     28.6069E-03     29.4818E-03
            3453            3967     30.8993E-03     29.4562E-03
            3454             664     33.9606E-03     32.3125E-03
            3454             665     25.9739E-03     26.0973E-03
            3454            3966     28.6069E-03     29.4818E-03
            3454            3967     30.8993E-03     29.4562E-03
            3455             522     32.8013E-03     32.0204E-03
            3455             523     27.0271E-03     25.2052E-03
            3455            3967     30.8993E-03     29.4562E-03
            3455            3968     35.3890E-03     35.4366E-03
            3456             663     36.3031E-03     36.3358E-03
            3456             664     33.9606E-03     32.3125E-03
            3456            3967     30.8993E-03     29.4562E-03
            3456            3968     35.3890E-03     35.4366E-03
            3457             521     38.6190E-03     38.5037E-03
            3457             522     32.8013E-03     32.0204E-03
            3457            3968     35.3890E-03     35.4366E-03
            3457            3969     40.5121E-03     40.7814E-03
            3458             662     39.6473E-03     40.2637E-03
            3458             663     36.3031E-03     36.3358E-03
            3458            3968     35.3890E-03     35.4366E-03
            3458            3969     40.5121E-03     40.7814E-03
            3459             520     44.5860E-03     44.3577E-03
            3459             521     38.6190E-03     38.5037E-03
            3459            3969     40.5121E-03     40.7814E-03
            3459            3970     45.2089E-03     45.6376E-03
            3460             661     43.2018E-03     44.0154E-03
            3460             662     39.6473E-03     40.2637E-03
            3460            3969     40.5121E-03     40.7814E-03
            3460            3970     45.2089E-03     45.6376E-03
            3461             519     50.1066E-03     50.5205E-03
            3461             520     44.5860E-03     44.3577E-03
            3461            3970     45.2089E-03     45.6376E-03
            3461            3971     49.5993E-03     50.2616E-03
            3462             660     46.6133E-03     47.4745E-03
            3462             661     43.2018E-03     44.0154E-03
            3462            3970     45.2089E-03     45.6376E-03
            3462            3971     49.5993E-03     50.2616E-03
            3463             518     56.3408E-03     55.6954E-03
            3463             519     50.1066E-03     50.5205E-03
            3463            3971     49.5993E-03     50.2616E-03
            3463            3972     54.0359E-03     54.6789E-03
            3464             659     49.6752E-03     50.7712E-03
            3464             660     46.6133E-03     47.4745E-03
            3464            3971     49.5993E-03     50.2616E-03
            3464            3972     54.0359E-03     54.6789E-03
            3465             517     61.1124E-03     63.1336E-03
            3465             518     56.3408E-03     55.6954E-03
            3465            3972     54.0359E-03     54.6789E-03
            3465            3973     58.1775E-03     59.3259E-03
            3466             658     52.5525E-03     53.5465E-03
            3466             659     49.6752E-03     50.7712E-03
            3466            3972     54.0359E-03     54.6789E-03
            3466            3973     58.1775E-03     59.3259E-03
            3467             516     69.9943E-03     68.1203E-03
            3467             517     61.1124E-03     63.1336E-03
            3467            3973     58.1775E-03     59.3259E-03
            3467            3974     62.6806E-03     62.9687E-03
            3468             657     54.0069E-03     55.1671E-03
            3468             658     52.5525E-03     53.5465E-03
            3468            3973     58.1775E-03     59.3259E-03
            3468            3974     62.6806E-03     62.9687E-03
            3469             515     76.6843E-03     76.3906E-03
            3469             516     69.9943E-03     68.1203E-03
            3469            3974     62.6806E-03     62.9687E-03
            3469            3975     64.3073E-03     66.2758E-03
            3470             656     52.4427E-03     54.8619E-03
            3470             657     54.0069E-03     55.1671E-03
            3470            3974     62.6806E-03     62.9687E-03
            3470            3975     64.3073E-03     66.2758E-03
            3471             514     68.0396E-03     72.8216E-03
            3471             515     76.6843E-03     76.3906E-03
            3471            3975     64.3073E-03     66.2758E-03
            3471            3976     63.2905E-03     64.5055E-03
            3472             655     58.1686E-03     58.2882E-03
            3472             656     52.4427E-03     54.8619E-03
            3472            3975     64.3073E-03     66.2758E-03
            3472            3976     63.2905E-03     64.5055E-03
            3473             513     65.1131E-03     62.0934E-03
            3473             514     68.0396E-03     72.8216E-03
            3473            3976     63.2905E-03     64.5055E-03
            3473            3977     65.9776E-03     64.3998E-03
            3474             654     67.1056E-03     65.6732E-03
            3474             655     58.1686E-03     58.2882E-03
            3474            3976     63.2905E-03     64.5055E-03
            3474            3977     65.9776E-03     64.3998E-03
            3475             512     70.5457E-03     68.9178E-03
            3475             513     65.1131E-03     62.0934E-03
            3475            3977     65.9776E-03     64.3998E-03
            3475            3978     71.4391E-03     71.7658E-03
            3476             653     70.9086E-03     71.3412E-03
            3476             654     67.1056E-03     65.6732E-03
            3476            3977     65.9776E-03     64.3998E-03
            3476            3978     71.4391E-03     71.7658E-03
            3477             511     75.3724E-03     75.8711E-03
            3477             512     70.5457E-03     68.9178E-03
            3477            3978     71.4391E-03     71.7658E-03
            3477            3979     76.9097E-03     77.7362E-03
            3478             652     74.9896E-03     76.2158E-03
            3478             653     70.9086E-03     71.3412E-03
            3478            3978     71.4391E-03     71.7658E-03
            3478            3979     76.9097E-03     77.7362E-03
            3479             510     81.5430E-03     81.1726E-03
            3479             511     75.3724E-03     75.8711E-03
            3479            3979     76.9097E-03     77.7362E-03
            3479            3980     81.8493E-03     82.7535E-03
            3480             651     79.0247E-03     80.4204E-03
            3480             652     74.9896E-03     76.2158E-03
            3480            3979     76.9097E-03     77.7362E-03
            3480            3980     81.8493E-03     82.7535E-03
            3481             509     87.1450E-03     87.2379E-03
            3481             510     81.5430E-03     81.1726E-03
            3481            3980     81.8493E-03     82.7535E-03
            3481            3981     86.4816E-03     87.5273E-03
            3482             650     82.6306E-03     84.1650E-03
            3482             651     79.0247E-03     80.4204E-03
            3482            3980     81.8493E-03     82.7535E-03
            3482            3981     86.4816E-03     87.5273E-03
            3483             508     92.5126E-03     93.2268E-03
            3483             509     87.1450E-03     87.2379E-03
            3483            3981     86.4816E-03     87.5273E-03
            3483            3982     90.8115E-03     92.0916E-03
            3484             649     86.0090E-03     87.5587E-03
            3484             650     82.6306E-03     84.1650E-03
            3484            3981     86.4816E-03     87.5273E-03
            3484            3982     90.8115E-03     92.0916E-03
            3485             507     98.9219E-03     98.0214E-03
            3485             508     92.5126E-03     93.2268E-03
            3485            3982     90.8115E-03     92.0916E-03
            3485            3983     95.1845E-03     96.3886E-03
            3486             648     88.8726E-03     90.7007E-03
            3486             649     86.0090E-03     87.5587E-03
            3486            3982     90.8115E-03     92.0916E-03
            3486            3983     95.1845E-03     96.3886E-03
            3487             506     103.179E-03     106.117E-03
            3487             507     98.9219E-03     98.0214E-03
            3487            3983     95.1845E-03     96.3886E-03
            3487            3984     99.1359E-03     100.982E-03
            3488             647     91.4083E-03     93.0440E-03
            3488             648     88.8726E-03     90.7007E-03
            3488            3983     95.1845E-03     96.3886E-03
            3488            3984     99.1359E-03     100.982E-03
            3489             505     113.268E-03     110.412E-03
            3489             506     103.179E-03     106.117E-03
            3489            3984     99.1359E-03     100.982E-03
            3489            3985     103.415E-03     103.972E-03
            3490             646     92.0807E-03     93.6887E-03
            3490             647     91.4083E-03     93.0440E-03
            3490            3984     99.1359E-03     100.982E-03
            3490            3985     103.415E-03     103.972E-03
            3491             504     120.244E-03     118.962E-03
            3491             505     113.268E-03     110.412E-03
            3491            3985     103.415E-03     103.972E-03
            3491            3986     103.959E-03     106.018E-03
            3492             645     88.8744E-03     91.5526E-03
            3492             646     92.0807E-03     93.6887E-03
            3492            3985     103.415E-03     103.972E-03
            3492            3986     103.959E-03     106.018E-03
            3493             503     109.379E-03     117.034E-03
            3493             504     120.244E-03     118.962E-03
            3493            3986     103.959E-03     106.018E-03
            3493            3987     101.656E-03     103.447E-03
            3494             644     93.6266E-03     93.7696E-03
            3494             645     88.8744E-03     91.5526E-03
            3494            3986     103.959E-03     106.018E-03
            3494            3987     101.656E-03     103.447E-03
            3495             502     107.838E-03     103.784E-03
            3495             503     109.379E-03     117.034E-03
            3495            3987     101.656E-03     103.447E-03
            3495            3988     105.198E-03     103.660E-03
            3496             643     103.580E-03     102.403E-03
            3496             644     93.6266E-03     93.7696E-03
            3496            3987     101.656E-03     103.447E-03
            3496            3988     105.198E-03     103.660E-03
            3497             501     112.959E-03     110.339E-03
            3497             502     107.838E-03     103.784E-03
            3497            3988     105.198E-03     103.660E-03
            3497            3989     111.724E-03     112.326E-03
            3498             642     108.990E-03     109.902E-03
            3498             643     103.580E-03     102.403E-03
            3498            3988     105.198E-03     103.660E-03
            3498            3989     111.724E-03     112.326E-03
            3499             500     116.597E-03     117.933E-03
            3499             501     112.959E-03     110.339E-03
            3499            3989     111.724E-03     112.326E-03
            3499            3990     117.467E-03     118.970E-03
            3500             641     113.840E-03     115.751E-03
            3500             642     108.990E-03     109.902E-03
            3500            3989     111.724E-03     112.326E-03
            3500            3990     117.467E-03     118.970E-03
            3501             499     123.225E-03     122.584E-03
            3501             500     116.597E-03     117.933E-03
            3501            3990     117.467E-03     118.970E-03
            3501            3991     122.637E-03     124.079E-03
            3502             640     118.215E-03     120.382E-03
            3502             641     113.840E-03     115.751E-03
            3502            3990     117.467E-03     118.970E-03
            3502            3991     122.637E-03     124.079E-03
            3503             498     128.658E-03     128.963E-03
            3503             499     123.225E-03     122.584E-03
            3503            3991     122.637E-03     124.079E-03
            3503            3992     127.344E-03     128.975E-03
            3504             639     121.988E-03     124.262E-03
            3504             640     118.215E-03     120.382E-03
            3504            3991     122.637E-03     124.079E-03
            3504            3992     127.344E-03     128.975E-03
            3505             497     134.044E-03     134.972E-03
            3505             498     128.658E-03     128.963E-03
            3505            3992     127.344E-03     128.975E-03
            3505            3993     131.695E-03     133.561E-03
            3506             638     125.370E-03     127.658E-03
            3506             639     121.988E-03     124.262E-03
            3506            3992     127.344E-03     128.975E-03
            3506            3993     131.695E-03     133.561E-03
            3507             496     140.664E-03     139.490E-03
            3507             497     134.044E-03     134.972E-03
            3507            3993     131.695E-03     133.561E-03
            3507            3994     136.039E-03     137.777E-03
            3508             637     128.072E-03     130.670E-03
            3508             638     125.370E-03     127.658E-03
            3508            3993     131.695E-03     133.561E-03
            3508            3994     136.039E-03     137.777E-03
            3509             495     144.500E-03     148.274E-03
            3509             496     140.664E-03     139.490E-03
            3509            3994     136.039E-03     137.777E-03
            3509            3995     139.801E-03     142.319E-03
            3510             636     130.272E-03     132.590E-03
            3510             637     128.072E-03     130.670E-03
            3510            3994     136.039E-03     137.777E-03
            3510            3995     139.801E-03     142.319E-03
            3511             494     155.832E-03     151.969E-03
            3511             495     144.500E-03     148.274E-03
            3511            3995     139.801E-03     142.319E-03
            3511            3996     143.853E-03     144.670E-03
            3512             635     130.173E-03     132.261E-03
            3512             636     130.272E-03     132.590E-03
            3512            3995     139.801E-03     142.319E-03
            3512            3996     143.853E-03     144.670E-03
            3513             493     163.179E-03     160.888E-03
            3513             494     155.832E-03     151.969E-03
            3513            3996     143.853E-03     144.670E-03
            3513            3997     143.348E-03     145.481E-03
            3514             634     125.354E-03     128.297E-03
            3514             635     130.173E-03     132.261E-03
            3514            3996     143.853E-03     144.670E-03
            3514            3997     143.348E-03     145.481E-03
            3515             492     149.809E-03     160.444E-03
            3515             493     163.179E-03     160.888E-03
            3515            3997     143.348E-03     145.481E-03
            3515            3998     139.750E-03     142.279E-03
            3516             633     129.254E-03     129.561E-03
            3516             634     125.354E-03     128.297E-03
            3516            3997     143.348E-03     145.481E-03
            3516            3998     139.750E-03     142.279E-03
            3517             491     149.370E-03     144.811E-03
            3517             492     149.809E-03     160.444E-03
            3517            3998     139.750E-03     142.279E-03
            3517            3999     144.272E-03     143.091E-03
            3518             632     140.275E-03     139.626E-03
            3518             633     129.254E-03     129.561E-03
            3518            3998     139.750E-03     142.279E-03
            3518            3999     144.272E-03     143.091E-03
            3519             490     155.217E-03     151.646E-03
            3519             491     149.370E-03     144.811E-03
            3519            3999     144.272E-03     143.091E-03
            3519            4000     152.057E-03     153.202E-03
            3520             631     146.904E-03     148.780E-03
            3520             632     140.275E-03     139.626E-03
            3520            3999     144.272E-03     143.091E-03
            3520            4000     152.057E-03     153.202E-03
            3521             489     157.843E-03     161.175E-03
            3521             490     155.217E-03     151.646E-03
            3521            4000     152.057E-03     153.202E-03
            3521            4001     157.848E-03     160.669E-03
            3522             630     152.020E-03     155.009E-03
            3522             631     146.904E-03     148.780E-03
            3522            4000     152.057E-03     153.202E-03
            3522            4001     157.848E-03     160.669E-03
            3523             488     166.697E-03     164.114E-03
            3523             489     157.843E-03     161.175E-03
            3523            4001     157.848E-03     160.669E-03
            3523            4002     163.251E-03     165.488E-03
            3524             629     155.564E-03     159.352E-03
            3524             630     152.020E-03     155.009E-03
            3524            4001     157.848E-03     160.669E-03
            3524            4002     163.251E-03     165.488E-03
            3525             487     169.963E-03     174.752E-03
            3525             488     166.697E-03     164.114E-03
            3525            4002     163.251E-03     165.488E-03
            3525            4003     167.211E-03     170.573E-03
            3526             628     158.213E-03     161.489E-03
            3526             629     155.564E-03     159.352E-03
            3526            4002     163.251E-03     165.488E-03
            3526            4003     167.211E-03     170.573E-03
            3527             486     182.557E-03     177.876E-03
            3527             487     169.963E-03     174.752E-03
            3527            4003     167.211E-03     170.573E-03
            3527            4004     171.410E-03     172.625E-03
            3528             627     157.866E-03     160.853E-03
            3528             628     158.213E-03     161.489E-03
            3528            4003     167.211E-03     170.573E-03
            3528            4004     171.410E-03     172.625E-03
            3529             485     190.200E-03     187.359E-03
            3529             486     182.557E-03     177.876E-03
            3529            4004     171.410E-03     172.625E-03
            3529            4005     170.359E-03     172.700E-03
            3530             626     152.290E-03     155.770E-03
            3530             627     157.866E-03     160.853E-03
            3530            4004     171.410E-03     172.625E-03
            3530            4005     170.359E-03     172.700E-03
            3531              25     176.740E-03     183.696E-03
            3531             485     190.200E-03     187.359E-03
            3531             558     167.345E-03     169.440E-03
            3531            4005     170.359E-03     172.700E-03
            3532              28     155.627E-03     155.647E-03
            3532             558     167.345E-03     169.440E-03
            3532             626     152.290E-03     155.770E-03
            3532            4005     170.359E-03     172.700E-03
            3533              31     170.736E-03     176.096E-03
            3533             691     173.620E-03     178.838E-03
            3533             721     188.912E-03     197.869E-03
            3533            4006     193.088E-03     196.769E-03
            3534               8     205.716E-03     226.350E-03
            3534             189     213.839E-03     211.593E-03
            3534             721     188.912E-03     197.869E-03
            3534            4006     193.088E-03     196.769E-03
            3535             691     173.620E-03     178.838E-03
            3535             692     179.257E-03     183.414E-03
            3535            4006     193.088E-03     196.769E-03
            3535            4007     193.265E-03     194.924E-03
            3536             188     204.248E-03     197.587E-03
            3536             189     213.839E-03     211.593E-03
            3536            4006     193.088E-03     196.769E-03
            3536            4007     193.265E-03     194.924E-03
            3537             692     179.257E-03     183.414E-03
            3537             693     178.425E-03     182.079E-03
            3537            4007     193.265E-03     194.924E-03
            3537            4008     186.594E-03     190.967E-03
            3538             187     186.473E-03     194.116E-03
            3538             188     204.248E-03     197.587E-03
            3538            4007     193.265E-03     194.924E-03
            3538            4008     186.594E-03     190.967E-03
            3539             693     178.425E-03     182.079E-03
            3539             694     173.435E-03     176.098E-03
            3539            4008     186.594E-03     190.967E-03
            3539            4009     179.590E-03     181.161E-03
            3540             186     183.600E-03     177.835E-03
            3540             187     186.473E-03     194.116E-03
            3540            4008     186.594E-03     190.967E-03
            3540            4009     179.590E-03     181.161E-03
            3541             694     173.435E-03     176.098E-03
            3541             695     166.302E-03     165.661E-03
            3541            4009     179.590E-03     181.161E-03
            3541            4010     169.688E-03     168.704E-03
            3542             185     173.611E-03     169.312E-03
            3542             186     183.600E-03     177.835E-03
            3542            4009     179.590E-03     181.161E-03
            3542            4010     169.688E-03     168.704E-03
            3543             695     166.302E-03     165.661E-03
            3543             696     155.268E-03     155.169E-03
            3543            4010     169.688E-03     168.704E-03
            3543            4011     160.168E-03     160.597E-03
            3544             184     162.593E-03     166.884E-03
            3544             185     173.611E-03     169.312E-03
            3544            4010     169.688E-03     168.704E-03
            3544            4011     160.168E-03     160.597E-03
            3545              32     143.340E-03     146.610E-03
            3545             696     155.268E-03     155.169E-03
            3545             722     158.086E-03     163.429E-03
            3545            4011     160.168E-03     160.597E-03
            3546              10     171.135E-03     181.925E-03
            3546             184     162.593E-03     166.884E-03
            3546             722     158.086E-03     163.429E-03
            3546            4011     160.168E-03     160.597E-03
            3547               5     43.1032E-03     42.8280E-03
            3547             103     40.2364E-03     38.3116E-03
            3547             542     57.9558E-03     59.5185E-03
            3547            4012     58.1223E-03     55.4522E-03
            3548             102     40.5892E-03     41.4638E-03
            3548             103     40.2364E-03     38.3116E-03
            3548            4012     58.1223E-03     55.4522E-03
            3548            4013     59.8110E-03     59.0103E-03
            3549             101     39.1391E-03     41.4353E-03
            3549             102     40.5892E-03     41.4638E-03
            3549            4013     59.8110E-03     59.0103E-03
            3549            4014     56.4050E-03     59.9205E-03
            3550             100     40.8931E-03     40.9663E-03
            3550             101     39.1391E-03     41.4353E-03
            3550            4014     56.4050E-03     59.9205E-03
            3550            4015     57.5671E-03     57.1062E-03
            3551              99     41.1970E-03     40.8872E-03
            3551             100     40.8931E-03     40.9663E-03
            3551            4015     57.5671E-03     57.1062E-03
            3551            4016     55.7187E-03     57.0167E-03
            3552              98     40.9852E-03     39.2989E-03
            3552              99     41.1970E-03     40.8872E-03
            3552            4016     55.7187E-03     57.0167E-03
            3552            4017     55.1937E-03     53.3295E-03
            3553              97     40.0061E-03     40.1587E-03
            3553              98     40.9852E-03     39.2989E-03
            3553            4017     55.1937E-03     53.3295E-03
            3553            4018     52.4719E-03     51.3750E-03
            3554              96     37.9321E-03     38.7487E-03
            3554              97     40.0061E-03     40.1587E-03
            3554            4018     52.4719E-03     51.3750E-03
            3554            4019     48.2503E-03     51.9948E-03
            3555              95     39.1931E-03     37.5402E-03
            3555              96     37.9321E-03     38.7487E-03
            3555            4019     48.2503E-03     51.9948E-03
            3555            4020     53.2786E-03     50.7015E-03
            3556              94     39.0480E-03     40.3873E-03
            3556              95     39.1931E-03     37.5402E-03
            3556            4020     53.2786E-03     50.7015E-03
            3556            4021     54.4462E-03     53.3105E-03
            3557              93     37.3794E-03     40.3141E-03
            3557              94     39.0480E-03     40.3873E-03
            3557            4021     54.4462E-03     53.3105E-03
            3557            4022     51.0315E-03     53.7657E-03
            3558              92     38.6091E-03     39.7367E-03
            3558              93     37.3794E-03     40.3141E-03
            3558            4022     51.0315E-03     53.7657E-03
            3558            4023     51.9715E-03     51.4104E-03
            3559              91     38.7614E-03     39.3431E-03
            3559              92     38.6091E-03     39.7367E-03
            3559            4023     51.9715E-03     51.4104E-03
            3559            4024     50.9507E-03     50.9036E-03
            3560              90     38.8491E-03     38.1409E-03
            3560              91     38.7614E-03     39.3431E-03
            3560            4024     50.9507E-03     50.9036E-03
            3560            4025     49.7485E-03     49.3518E-03
            3561              89     38.8082E-03     37.1505E-03
            3561              90     38.8491E-03     38.1409E-03
            3561            4025     49.7485E-03     49.3518E-03
            3561            4026     48.6465E-03     47.5546E-03
            3562              88     38.7518E-03     36.4933E-03
            3562              89     38.8082E-03     37.1505E-03
            3562            4026     48.6465E-03     47.5546E-03
            3562            4027     46.8459E-03     46.4699E-03
            3563              87     38.0827E-03     35.5117E-03
            3563              88     38.7518E-03     36.4933E-03
            3563            4027     46.8459E-03     46.4699E-03
            3563            4028     46.0298E-03     43.7808E-03
            3564              86     37.0644E-03     36.4477E-03
            3564              87     38.0827E-03     35.5117E-03
            3564            4028     46.0298E-03     43.7808E-03
            3564            4029     43.7450E-03     42.7416E-03
            3565              85     35.8203E-03     35.8795E-03
            3565              86     37.0644E-03     36.4477E-03
            3565            4029     43.7450E-03     42.7416E-03
            3565            4030     41.5091E-03     43.6620E-03
            3566              84     36.8865E-03     35.5539E-03
            3566              85     35.8203E-03     35.8795E-03
            3566            4030     41.5091E-03     43.6620E-03
            3566            4031     45.3736E-03     43.3993E-03
            3567              83     36.6594E-03     37.6845E-03
            3567              84     36.8865E-03     35.5539E-03
            3567            4031     45.3736E-03     43.3993E-03
            3567            4032     45.9471E-03     45.1839E-03
            3568              82     35.3809E-03     37.4793E-03
            3568              83     36.6594E-03     37.6845E-03
            3568            4032     45.9471E-03     45.1839E-03
            3568            4033     43.2172E-03     45.1125E-03
            3569              81     36.1932E-03     36.9755E-03
            3569              82     35.3809E-03     37.4793E-03
            3569            4033     43.2172E-03     45.1125E-03
            3569            4034     43.6114E-03     43.1973E-03
            3570              80     36.2412E-03     36.6202E-03
            3570              81     36.1932E-03     36.9755E-03
            3570            4034     43.6114E-03     43.1973E-03
            3570            4035     42.6464E-03     42.6369E-03
            3571              79     36.3049E-03     35.7443E-03
            3571              80     36.2412E-03     36.6202E-03
            3571            4035     42.6464E-03     42.6369E-03
            3571            4036     41.5801E-03     41.3686E-03
            3572              78     36.3379E-03     35.0965E-03
            3572              79     36.3049E-03     35.7443E-03
            3572            4036     41.5801E-03     41.3686E-03
            3572            4037     40.6800E-03     40.0184E-03
            3573              77     36.3680E-03     34.7103E-03
            3573              78     36.3379E-03     35.0965E-03
            3573            4037     40.6800E-03     40.0184E-03
            3573            4038     39.4738E-03     38.9979E-03
            3574              76     35.9436E-03     34.1770E-03
            3574              77     36.3680E-03     34.7103E-03
            3574            4038     39.4738E-03     38.9979E-03
            3574            4039     38.6447E-03     37.2911E-03
            3575              75     35.3338E-03     34.7804E-03
            3575              76     35.9436E-03     34.1770E-03
            3575            4039     38.6447E-03     37.2911E-03
            3575            4040     37.2698E-03     36.6579E-03
            3576              74     34.5273E-03     34.2401E-03
            3576              75     35.3338E-03     34.7804E-03
            3576            4040     37.2698E-03     36.6579E-03
            3576            4041     36.2019E-03     37.0077E-03
            3577              73     34.9930E-03     34.0241E-03
            3577              74     34.5273E-03     34.2401E-03
            3577            4041     36.2019E-03     37.0077E-03
            3577            4042     38.3216E-03     37.0175E-03
            3578              72     34.8261E-03     35.3895E-03
            3578              73     34.9930E-03     34.0241E-03
            3578            4042     38.3216E-03     37.0175E-03
            3578            4043     38.4539E-03     38.0527E-03
            3579              71     34.0643E-03     35.1419E-03
            3579              72     34.8261E-03     35.3895E-03
            3579            4043     38.4539E-03     38.0527E-03
            3579            4044     36.6332E-03     37.6759E-03
            3580              70     34.5903E-03     34.7754E-03
            3580              71     34.0643E-03     35.1419E-03
            3580            4044     36.6332E-03     37.6759E-03
            3580            4045     36.6420E-03     36.4146E-03
            3581              69     34.6654E-03     34.5418E-03
            3581              70     34.5903E-03     34.7754E-03
            3581            4045     36.6420E-03     36.4146E-03
            3581            4046     35.9036E-03     35.9339E-03
            3582              68     34.7258E-03     34.1600E-03
            3582              69     34.6654E-03     34.5418E-03
            3582            4046     35.9036E-03     35.9339E-03
            3582            4047     35.1749E-03     35.0663E-03
            3583              67     34.8343E-03     33.9976E-03
            3583              68     34.7258E-03     34.1600E-03
            3583            4047     35.1749E-03     35.0663E-03
            3583            4048     34.6974E-03     34.2892E-03
            3584              66     34.7301E-03     33.8217E-03
            3584              67     34.8343E-03     33.9976E-03
            3584            4048     34.6974E-03     34.2892E-03
            3584            4049     34.1588E-03     33.5420E-03
            3585              65     34.4470E-03     33.9603E-03
            3585              66     34.7301E-03     33.8217E-03
            3585            4049     34.1588E-03     33.5420E-03
            3585            4050     33.5816E-03     33.1653E-03
            3586              64     33.8549E-03     33.4191E-03
            3586              65     34.4470E-03     33.9603E-03
            3586            4050     33.5816E-03     33.1653E-03
            3586            4051     33.0424E-03     32.9647E-03
            3587              63     33.8791E-03     33.2022E-03
            3587              64     33.8549E-03     33.4191E-03
            3587            4051     33.0424E-03     32.9647E-03
            3587            4052     33.6758E-03     32.9936E-03
            3588              62     33.8634E-03     33.8663E-03
            3588              63     33.8791E-03     33.2022E-03
            3588            4052     33.6758E-03     32.9936E-03
            3588            4053     33.6339E-03     33.4501E-03
            3589              61     33.5885E-03     33.7332E-03
            3589              62     33.8634E-03     33.8663E-03
            3589            4053     33.6339E-03     33.4501E-03
            3589            4054     32.8270E-03     33.1251E-03
            3590              60     33.8672E-03     33.5886E-03
            3590              61     33.5885E-03     33.7332E-03
            3590            4054     32.8270E-03     33.1251E-03
            3590            4055     32.8172E-03     32.5962E-03
            3591              59     33.8089E-03     33.6722E-03
            3591              60     33.8672E-03     33.5886E-03
            3591            4055     32.8172E-03     32.5962E-03
            3591            4056     32.5901E-03     32.5177E-03
            3592              58     33.8981E-03     33.6318E-03
            3592              59     33.8089E-03     33.6722E-03
            3592            4056     32.5901E-03     32.5177E-03
            3592            4057     32.6323E-03     32.3957E-03
            3593              57     33.8422E-03     33.4034E-03
            3593              58     33.8981E-03     33.6318E-03
            3593            4057     32.6323E-03     32.3957E-03
            3593            4058     32.5389E-03     32.1256E-03
            3594               2     16.8132E-03     16.6306E-03
            3594              57     33.8422E-03     33.4034E-03
            3594             470     16.1199E-03     15.9736E-03
            3594            4058     32.5389E-03     32.1256E-03
            3595             542     57.9558E-03     59.5185E-03
            3595             543     89.2527E-03     95.6405E-03
            3595            4012     58.1223E-03     55.4522E-03
            3595            4059     96.5959E-03     92.1611E-03
            3596            4012     58.1223E-03     55.4522E-03
            3596            4013     59.8110E-03     59.0103E-03
            3596            4059     96.5959E-03     92.1611E-03
            3596            4060     99.8168E-03     94.2370E-03
            3597            4013     59.8110E-03     59.0103E-03
            3597            4014     56.4050E-03     59.9205E-03
            3597            4060     99.8168E-03     94.2370E-03
            3597            4061     90.9372E-03     95.2094E-03
            3598            4014     56.4050E-03     59.9205E-03
            3598            4015     57.5671E-03     57.1062E-03
            3598            4061     90.9372E-03     95.2094E-03
            3598            4062     91.3040E-03     88.3576E-03
            3599            4015     57.5671E-03     57.1062E-03
            3599            4016     55.7187E-03     57.0167E-03
            3599            4062     91.3040E-03     88.3576E-03
            3599            4063     86.1493E-03     89.3273E-03
            3600            4016     55.7187E-03     57.0167E-03
            3600            4017     55.1937E-03     53.3295E-03
            3600            4063     86.1493E-03     89.3273E-03
            3600            4064     86.4951E-03     83.6668E-03
            3601            4017     55.1937E-03     53.3295E-03
            3601            4018     52.4719E-03     51.3750E-03
            3601            4064     86.4951E-03     83.6668E-03
            3601            4065     80.6131E-03     77.9987E-03
            3602            4018     52.4719E-03     51.3750E-03
            3602            4019     48.2503E-03     51.9948E-03
            3602            4065     80.6131E-03     77.9987E-03
            3602            4066     71.8240E-03     82.8272E-03
            3603            4019     48.2503E-03     51.9948E-03
            3603            4020     53.2786E-03     50.7015E-03
            3603            4066     71.8240E-03     82.8272E-03
            3603            4067     84.9367E-03     80.9655E-03
            3604            4020     53.2786E-03     50.7015E-03
            3604            4021     54.4462E-03     53.3105E-03
            3604            4067     84.9367E-03     80.9655E-03
            3604            4068     87.2383E-03     81.4102E-03
            3605            4021     54.4462E-03     53.3105E-03
            3605            4022     51.0315E-03     53.7657E-03
            3605            4068     87.2383E-03     81.4102E-03
            3605            4069     78.4095E-03     81.3396E-03
            3606            4022     51.0315E-03     53.7657E-03
            3606            4023     51.9715E-03     51.4104E-03
            3606            4069     78.4095E-03     81.3396E-03
            3606            4070     78.1156E-03     75.1385E-03
            3607            4023     51.9715E-03     51.4104E-03
            3607            4024     50.9507E-03     50.9036E-03
            3607            4070     78.1156E-03     75.1385E-03
            3607            4071     74.7282E-03     73.7654E-03
            3608            4024     50.9507E-03     50.9036E-03
            3608            4025     49.7485E-03     49.3518E-03
            3608            4071     74.7282E-03     73.7654E-03
            3608            4072     71.6600E-03     71.3760E-03
            3609            4025     49.7485E-03     49.3518E-03
            3609            4026     48.6465E-03     47.5546E-03
            3609            4072     71.6600E-03     71.3760E-03
            3609            4073     69.4142E-03     68.4710E-03
            3610            4026     48.6465E-03     47.5546E-03
            3610            4027     46.8459E-03     46.4699E-03
            3610            4073     69.4142E-03     68.4710E-03
            3610            4074     65.4881E-03     68.0135E-03
            3611            4027     46.8459E-03     46.4699E-03
            3611            4028     46.0298E-03     43.7808E-03
            3611            4074     65.4881E-03     68.0135E-03
            3611            4075     65.4959E-03     63.6164E-03
            3612            4028     46.0298E-03     43.7808E-03
            3612            4029     43.7450E-03     42.7416E-03
            3612            4075     65.4959E-03     63.6164E-03
            3612            4076     61.0446E-03     59.7219E-03
            3613            4029     43.7450E-03     42.7416E-03
            3613            4030     41.5091E-03     43.6620E-03
            3613            4076     61.0446E-03     59.7219E-03
            3613            4077     55.7634E-03     63.5250E-03
            3614            4030     41.5091E-03     43.6620E-03
            3614            4031     45.3736E-03     43.3993E-03
            3614            4077     55.7634E-03     63.5250E-03
            3614            4078     65.5334E-03     62.5200E-03
            3615            4031     45.3736E-03     43.3993E-03
            3615            4032     45.9471E-03     45.1839E-03
            3615            4078     65.5334E-03     62.5200E-03
            3615            4079     66.6398E-03     62.2642E-03
            3616            4032     45.9471E-03     45.1839E-03
            3616            4033     43.2172E-03     45.1125E-03
            3616            4079     66.6398E-03     62.2642E-03
            3616            4080     59.5425E-03     61.5291E-03
            3617            4033     43.2172E-03     45.1125E-03
            3617            4034     43.6114E-03     43.1973E-03
            3617            4080     59.5425E-03     61.5291E-03
            3617            4081     58.7319E-03     56.5749E-03
            3618            4034     43.6114E-03     43.1973E-03
            3618            4035     42.6464E-03     42.6369E-03
            3618            4081     58.7319E-03     56.5749E-03
            3618            4082     55.7457E-03     55.0950E-03
            3619            4035     42.6464E-03     42.6369E-03
            3619            4036     41.5801E-03     41.3686E-03
            3619            4082     55.7457E-03     55.0950E-03
            3619            4083     52.9172E-03     52.9033E-03
            3620            4036     41.5801E-03     41.3686E-03
            3620            4037     40.6800E-03     40.0184E-03
            3620            4083     52.9172E-03     52.9033E-03
            3620            4084     50.7181E-03     50.4545E-03
            3621            4037     40.6800E-03     40.0184E-03
            3621            4038     39.4738E-03     38.9979E-03
            3621            4084     50.7181E-03     50.4545E-03
            3621            4085     47.6736E-03     49.2455E-03
            3622            4038     39.4738E-03     38.9979E-03
            3622            4039     38.6447E-03     37.2911E-03
            3622            4085     47.6736E-03     49.2455E-03
            3622            4086     46.5009E-03     45.9842E-03
            3623            4039     38.6447E-03     37.2911E-03
            3623            4040     37.2698E-03     36.6579E-03
            3623            4086     46.5009E-03     45.9842E-03
            3623            4087     43.5703E-03     43.0864E-03
            3624            4040     37.2698E-03     36.6579E-03
            3624            4041     36.2019E-03     37.0077E-03
            3624            4087     43.5703E-03     43.0864E-03
            3624            4088     41.1947E-03     45.2744E-03
            3625            4041     36.2019E-03     37.0077E-03
            3625            4042     38.3216E-03     37.0175E-03
            3625            4088     41.1947E-03     45.2744E-03
            3625            4089     47.0241E-03     45.0400E-03
            3626            4042     38.3216E-03     37.0175E-03
            3626            4043     38.4539E-03     38.0527E-03
            3626            4089     47.0241E-03     45.0400E-03
            3626            4090     47.0868E-03     44.3170E-03
            3627            4043     38.4539E-03     38.0527E-03
            3627            4044     36.6332E-03     37.6759E-03
            3627            4090     47.0868E-03     44.3170E-03
            3627            4091     42.1228E-03     43.2317E-03
            3628            4044     36.6332E-03     37.6759E-03
            3628            4045     36.6420E-03     36.4146E-03
            3628            4091     42.1228E-03     43.2317E-03
            3628            4092     41.0014E-03     39.9934E-03
            3629            4045     36.6420E-03     36.4146E-03
            3629            4046     35.9036E-03     35.9339E-03
            3629            4092     41.0014E-03     39.9934E-03
            3629            4093     38.7671E-03     38.6775E-03
            3630            4046     35.9036E-03     35.9339E-03
            3630            4047     35.1749E-03     35.0663E-03
            3630            4093     38.7671E-03     38.6775E-03
            3630            4094     36.5643E-03     36.9514E-03
            3631            4047     35.1749E-03     35.0663E-03
            3631            4048     34.6974E-03     34.2892E-03
            3631            4094     36.5643E-03     36.9514E-03
            3631            4095     34.7270E-03     35.3033E-03
            3632            4048     34.6974E-03     34.2892E-03
            3632            4049     34.1588E-03     33.5420E-03
            3632            4095     34.7270E-03     35.3033E-03
            3632            4096     33.1101E-03     33.4322E-03
            3633            4049     34.1588E-03     33.5420E-03
            3633            4050     33.5816E-03     33.1653E-03
            3633            4096     33.1101E-03     33.4322E-03
            3633            4097     31.6789E-03     31.7197E-03
            3634            4050     33.5816E-03     33.1653E-03
            3634            4051     33.0424E-03     32.9647E-03
            3634            4097     31.6789E-03     31.7197E-03
            3634            4098     31.2936E-03     32.2440E-03
            3635            4051     33.0424E-03     32.9647E-03
            3635            4052     33.6758E-03     32.9936E-03
            3635            4098     31.2936E-03     32.2440E-03
            3635            4099     33.2885E-03     32.3905E-03
            3636            4052     33.6758E-03     32.9936E-03
            3636            4053     33.6339E-03     33.4501E-03
            3636            4099     33.2885E-03     32.3905E-03
            3636            4100     32.8349E-03     31.7426E-03
            3637            4053     33.6339E-03     33.4501E-03
            3637            4054     32.8270E-03     33.1251E-03
            3637            4100     32.8349E-03     31.7426E-03
            3637            4101     30.5230E-03     31.0691E-03
            3638            4054     32.8270E-03     33.1251E-03
            3638            4055     32.8172E-03     32.5962E-03
            3638            4101     30.5230E-03     31.0691E-03
            3638            4102     29.8840E-03     29.9036E-03
            3639            4055     32.8172E-03     32.5962E-03
            3639            4056     32.5901E-03     32.5177E-03
            3639            4102     29.8840E-03     29.9036E-03
            3639            4103     29.1381E-03     29.3331E-03
            3640            4056     32.5901E-03     32.5177E-03
            3640            4057     32.6323E-03     32.3957E-03
            3640            4103     29.1381E-03     29.3331E-03
            3640            4104     28.7940E-03     28.7971E-03
            3641            4057     32.6323E-03     32.3957E-03
            3641            4058     32.5389E-03     32.1256E-03
            3641            4104     28.7940E-03     28.7971E-03
            3641            4105     28.6800E-03     28.4685E-03
            3642             469     14.2702E-03     14.1772E-03
            3642             470     16.1199E-03     15.9736E-03
            3642            4058     32.5389E-03     32.1256E-03
            3642            4105     28.6800E-03     28.4685E-03
            3643             543     89.2527E-03     95.6405E-03
            3643             544     120.696E-03     134.137E-03
            3643            4059     96.5959E-03     92.1611E-03
            3643            4106     134.712E-03     129.516E-03
            3644            4059     96.5959E-03     92.1611E-03
            3644            4060     99.8168E-03     94.2370E-03
            3644            4106     134.712E-03     129.516E-03
            3644            4107     136.379E-03     125.868E-03
            3645            4060     99.8168E-03     94.2370E-03
            3645            4061     90.9372E-03     95.2094E-03
            3645            4107     136.379E-03     125.868E-03
            3645            4108     119.677E-03     126.408E-03
            3646            4061     90.9372E-03     95.2094E-03
            3646            4062     91.3040E-03     88.3576E-03
            3646            4108     119.677E-03     126.408E-03
            3646            4109     119.997E-03     114.960E-03
            3647            4062     91.3040E-03     88.3576E-03
            3647            4063     86.1493E-03     89.3273E-03
            3647            4109     119.997E-03     114.960E-03
            3647            4110     113.110E-03     118.261E-03
            3648            4063     86.1493E-03     89.3273E-03
            3648            4064     86.4951E-03     83.6668E-03
            3648            4110     113.110E-03     118.261E-03
            3648            4111     117.714E-03     112.616E-03
            3649            4064     86.4951E-03     83.6668E-03
            3649            4065     80.6131E-03     77.9987E-03
            3649            4111     117.714E-03     112.616E-03
            3649            4112     111.547E-03     108.778E-03
            3650            4065     80.6131E-03     77.9987E-03
            3650            4066     71.8240E-03     82.8272E-03
            3650            4112     111.547E-03     108.778E-03
            3650            4113     97.7867E-03     120.926E-03
            3651            4066     71.8240E-03     82.8272E-03
            3651            4067     84.9367E-03     80.9655E-03
            3651            4113     97.7867E-03     120.926E-03
            3651            4114     117.548E-03     113.773E-03
            3652            4067     84.9367E-03     80.9655E-03
            3652            4068     87.2383E-03     81.4102E-03
            3652            4114     117.548E-03     113.773E-03
            3652            4115     118.426E-03     109.240E-03
            3653            4068     87.2383E-03     81.4102E-03
            3653            4069     78.4095E-03     81.3396E-03
            3653            4115     118.426E-03     109.240E-03
            3653            4116     101.988E-03     108.637E-03
            3654            4069     78.4095E-03     81.3396E-03
            3654            4070     78.1156E-03     75.1385E-03
            3654            4116     101.988E-03     108.637E-03
            3654            4117     100.549E-03     98.1124E-03
            3655            4070     78.1156E-03     75.1385E-03
            3655            4071     74.7282E-03     73.7654E-03
            3655            4117     100.549E-03     98.1124E-03
            3655            4118     94.9771E-03     95.6515E-03
            3656            4071     74.7282E-03     73.7654E-03
            3656            4072     71.6600E-03     71.3760E-03
            3656            4118     94.9771E-03     95.6515E-03
            3656            4119     90.6409E-03     91.9461E-03
            3657            4072     71.6600E-03     71.3760E-03
            3657            4073     69.4142E-03     68.4710E-03
            3657            4119     90.6409E-03     91.9461E-03
            3657            4120     88.5415E-03     87.5828E-03
            3658            4073     69.4142E-03     68.4710E-03
            3658            4074     65.4881E-03     68.0135E-03
            3658            4120     88.5415E-03     87.5828E-03
            3658            4121     83.8327E-03     88.7980E-03
            3659            4074     65.4881E-03     68.0135E-03
            3659            4075     65.4959E-03     63.6164E-03
            3659            4121     83.8327E-03     88.7980E-03
            3659            4122     87.6151E-03     84.5605E-03
            3660            4075     65.4959E-03     63.6164E-03
            3660            4076     61.0446E-03     59.7219E-03
            3660            4122     87.6151E-03     84.5605E-03
            3660            4123     82.7863E-03     82.0080E-03
            3661            4076     61.0446E-03     59.7219E-03
            3661            4077     55.7634E-03     63.5250E-03
            3661            4123     82.7863E-03     82.0080E-03
            3661            4124     73.1237E-03     90.2428E-03
            3662            4077     55.7634E-03     63.5250E-03
            3662            4078     65.5334E-03     62.5200E-03
            3662            4124     73.1237E-03     90.2428E-03
            3662            4125     87.3416E-03     84.4385E-03
            3663            4078     65.5334E-03     62.5200E-03
            3663            4079     66.6398E-03     62.2642E-03
            3663            4125     87.3416E-03     84.4385E-03
            3663            4126     87.2900E-03     80.2950E-03
            3664            4079     66.6398E-03     62.2642E-03
            3664            4080     59.5425E-03     61.5291E-03
            3664            4126     87.2900E-03     80.2950E-03
            3664            4127     74.3324E-03     79.1399E-03
            3665            4080     59.5425E-03     61.5291E-03
            3665            4081     58.7319E-03     56.5749E-03
            3665            4127     74.3324E-03     79.1399E-03
            3665            4128     72.4647E-03     70.6491E-03
            3666            4081     58.7319E-03     56.5749E-03
            3666            4082     55.7457E-03     55.0950E-03
            3666            4128     72.4647E-03     70.6491E-03
            3666            4129     67.5966E-03     67.9445E-03
            3667            4082     55.7457E-03     55.0950E-03
            3667            4083     52.9172E-03     52.9033E-03
            3667            4129     67.5966E-03     67.9445E-03
            3667            4130     63.4023E-03     64.3600E-03
            3668            4083     52.9172E-03     52.9033E-03
            3668            4084     50.7181E-03     50.4545E-03
            3668            4130     63.4023E-03     64.3600E-03
            3668            4131     60.8561E-03     60.4675E-03
            3669            4084     50.7181E-03     50.4545E-03
            3669            4085     47.6736E-03     49.2455E-03
            3669            4131     60.8561E-03     60.4675E-03
            3669            4132     56.8020E-03     59.9074E-03
            3670            4085     47.6736E-03     49.2455E-03
            3670            4086     46.5009E-03     45.9842E-03
            3670            4132     56.8020E-03     59.9074E-03
            3670            4133     57.3619E-03     56.4635E-03
            3671            4086     46.5009E-03     45.9842E-03
            3671            4087     43.5703E-03     43.0864E-03
            3671            4133     57.3619E-03     56.4635E-03
            3671            4134     53.6926E-03     53.7580E-03
            3672            4087     43.5703E-03     43.0864E-03
            3672            4088     41.1947E-03     45.2744E-03
            3672            4134     53.6926E-03     53.7580E-03
            3672            4135     48.4862E-03     58.5856E-03
            3673            4088     41.1947E-03     45.2744E-03
            3673            4089     47.0241E-03     45.0400E-03
            3673            4135     48.4862E-03     58.5856E-03
            3673            4136     57.1889E-03     55.2069E-03
            3674            4089     47.0241E-03     45.0400E-03
            3674            4090     47.0868E-03     44.3170E-03
            3674            4136     57.1889E-03     55.2069E-03
            3674            4137     56.2827E-03     51.6135E-03
            3675            4090     47.0868E-03     44.3170E-03
            3675            4091     42.1228E-03     43.2317E-03
            3675            4137     56.2827E-03     51.6135E-03
            3675            4138     47.2262E-03     50.0033E-03
            3676            4091     42.1228E-03     43.2317E-03
            3676            4092     41.0014E-03     39.9934E-03
            3676            4138     47.2262E-03     50.0033E-03
            3676            4139     45.0790E-03     43.9813E-03
            3677            4092     41.0014E-03     39.9934E-03
            3677            4093     38.7671E-03     38.6775E-03
            3677            4139     45.0790E-03     43.9813E-03
            3677            4140     41.3981E-03     41.4064E-03
            3678            4093     38.7671E-03     38.6775E-03
            3678            4094     36.5643E-03     36.9514E-03
            3678            4140     41.3981E-03     41.4064E-03
            3678            4141     37.9023E-03     38.3042E-03
            3679            4094     36.5643E-03     36.9514E-03
            3679            4095     34.7270E-03     35.3033E-03
            3679            4141     37.9023E-03     38.3042E-03
            3679            4142     35.0322E-03     36.0816E-03
            3680            4095     34.7270E-03     35.3033E-03
            3680            4096     33.1101E-03     33.4322E-03
            3680            4142     35.0322E-03     36.0816E-03
            3680            4143     32.9996E-03     33.8377E-03
            3681            4096     33.1101E-03     33.4322E-03
            3681            4097     31.6789E-03     31.7197E-03
            3681            4143     32.9996E-03     33.8377E-03
            3681            4144     30.6048E-03     31.3302E-03
            3682            4097     31.6789E-03     31.7197E-03
            3682            4098     31.2936E-03     32.2440E-03
            3682            4144     30.6048E-03     31.3302E-03
            3682            4145     29.1502E-03     32.7440E-03
            3683            4098     31.2936E-03     32.2440E-03
            3683            4099     33.2885E-03     32.3905E-03
            3683            4145     29.1502E-03     32.7440E-03
            3683            4146     32.3496E-03     31.5275E-03
            3684            4099     33.2885E-03     32.3905E-03
            3684            4100     32.8349E-03     31.7426E-03
            3684            4146     32.3496E-03     31.5275E-03
            3684            4147     31.2031E-03     29.0463E-03
            3685            4100     32.8349E-03     31.7426E-03
            3685            4101     30.5230E-03     31.0691E-03
            3685            4147     31.2031E-03     29.0463E-03
            3685            4148     26.7576E-03     27.8872E-03
            3686            4101     30.5230E-03     31.0691E-03
            3686            4102     29.8840E-03     29.9036E-03
            3686            4148     26.7576E-03     27.8872E-03
            3686            4149     25.5009E-03     25.2463E-03
            3687            4102     29.8840E-03     29.9036E-03
            3687            4103     29.1381E-03     29.3331E-03
            3687            4149     25.5009E-03     25.2463E-03
            3687            4150     23.9655E-03     24.1398E-03
            3688            4103     29.1381E-03     29.3331E-03
            3688            4104     28.7940E-03     28.7971E-03
            3688            4150     23.9655E-03     24.1398E-03
            3688            4151     22.8189E-03     23.3698E-03
            3689            4104     28.7940E-03     28.7971E-03
            3689            4105     28.6800E-03     28.4685E-03
            3689            4151     22.8189E-03     23.3698E-03
            3689            4152     22.4148E-03     22.8918E-03
            3690             468     11.1108E-03     11.3797E-03
            3690             469     14.2702E-03     14.1772E-03
            3690            4105     28.6800E-03     28.4685E-03
            3690            4152     22.4148E-03     22.8918E-03
            3691             544     120.696E-03     134.137E-03
            3691             545     146.672E-03     167.166E-03
            3691            4106     134.712E-03     129.516E-03
            3691            4153     165.371E-03     163.094E-03
            3692            4106     134.712E-03     129.516E-03
            3692            4107     136.379E-03     125.868E-03
            3692            4153     165.371E-03     163.094E-03
            3692            4154     163.082E-03     154.659E-03
            3693            4107     136.379E-03     125.868E-03
            3693            4108     119.677E-03     126.408E-03
            3693            4154     163.082E-03     154.659E-03
            3693            4155     139.468E-03     153.828E-03
            3694            4108     119.677E-03     126.408E-03
            3694            4109     119.997E-03     114.960E-03
            3694            4155     139.468E-03     153.828E-03
            3694            4156     141.051E-03     138.125E-03
            3695            4109     119.997E-03     114.960E-03
            3695            4110     113.110E-03     118.261E-03
            3695            4156     141.051E-03     138.125E-03
            3695            4157     131.056E-03     142.096E-03
            3696            4110     113.110E-03     118.261E-03
            3696            4111     117.714E-03     112.616E-03
            3696            4157     131.056E-03     142.096E-03
            3696            4158     139.783E-03     136.018E-03
            3697            4111     117.714E-03     112.616E-03
            3697            4112     111.547E-03     108.778E-03
            3697            4158     139.783E-03     136.018E-03
            3697            4159     137.365E-03     135.835E-03
            3698            4112     111.547E-03     108.778E-03
            3698            4113     97.7867E-03     120.926E-03
            3698            4159     137.365E-03     135.835E-03
            3698            4160     120.223E-03     154.216E-03
            3699            4113     97.7867E-03     120.926E-03
            3699            4114     117.548E-03     113.773E-03
            3699            4160     120.223E-03     154.216E-03
            3699            4161     143.667E-03     142.356E-03
            3700            4114     117.548E-03     113.773E-03
            3700            4115     118.426E-03     109.240E-03
            3700            4161     143.667E-03     142.356E-03
            3700            4162     141.830E-03     134.368E-03
            3701            4115     118.426E-03     109.240E-03
            3701            4116     101.988E-03     108.637E-03
            3701            4162     141.830E-03     134.368E-03
            3701            4163     119.675E-03     132.704E-03
            3702            4116     101.988E-03     108.637E-03
            3702            4117     100.549E-03     98.1124E-03
            3702            4163     119.675E-03     132.704E-03
            3702            4164     118.719E-03     119.241E-03
            3703            4117     100.549E-03     98.1124E-03
            3703            4118     94.9771E-03     95.6515E-03
            3703            4164     118.719E-03     119.241E-03
            3703            4165     111.067E-03     116.140E-03
            3704            4118     94.9771E-03     95.6515E-03
            3704            4119     90.6409E-03     91.9461E-03
            3704            4165     111.067E-03     116.140E-03
            3704            4166     105.633E-03     110.895E-03
            3705            4119     90.6409E-03     91.9461E-03
            3705            4120     88.5415E-03     87.5828E-03
            3705            4166     105.633E-03     110.895E-03
            3705            4167     103.357E-03     104.555E-03
            3706            4120     88.5415E-03     87.5828E-03
            3706            4121     83.8327E-03     88.7980E-03
            3706            4167     103.357E-03     104.555E-03
            3706            4168     96.7663E-03     105.375E-03
            3707            4121     83.8327E-03     88.7980E-03
            3707            4122     87.6151E-03     84.5605E-03
            3707            4168     96.7663E-03     105.375E-03
            3707            4169     103.645E-03     101.041E-03
            3708            4122     87.6151E-03     84.5605E-03
            3708            4123     82.7863E-03     82.0080E-03
            3708            4169     103.645E-03     101.041E-03
            3708            4170     101.376E-03     101.302E-03
            3709            4123     82.7863E-03     82.0080E-03
            3709            4124     73.1237E-03     90.2428E-03
            3709            4170     101.376E-03     101.302E-03
            3709            4171     88.8463E-03     113.849E-03
            3710            4124     73.1237E-03     90.2428E-03
            3710            4125     87.3416E-03     84.4385E-03
            3710            4171     88.8463E-03     113.849E-03
            3710            4172     105.340E-03     104.331E-03
            3711            4125     87.3416E-03     84.4385E-03
            3711            4126     87.2900E-03     80.2950E-03
            3711            4172     105.340E-03     104.331E-03
            3711            4173     103.422E-03     97.6604E-03
            3712            4126     87.2900E-03     80.2950E-03
            3712            4127     74.3324E-03     79.1399E-03
            3712            4173     103.422E-03     97.6604E-03
            3712            4174     85.9656E-03     95.4864E-03
            3713            4127     74.3324E-03     79.1399E-03
            3713            4128     72.4647E-03     70.6491E-03
            3713            4174     85.9656E-03     95.4864E-03
            3713            4175     84.1002E-03     84.3156E-03
            3714            4128     72.4647E-03     70.6491E-03
            3714            4129     67.5966E-03     67.9445E-03
            3714            4175     84.1002E-03     84.3156E-03
            3714            4176     77.3388E-03     80.6944E-03
            3715            4129     67.5966E-03     67.9445E-03
            3715            4130     63.4023E-03     64.3600E-03
            3715            4176     77.3388E-03     80.6944E-03
            3715            4177     71.9641E-03     75.5027E-03
            3716            4130     63.4023E-03     64.3600E-03
            3716            4131     60.8561E-03     60.4675E-03
            3716            4177     71.9641E-03     75.5027E-03
            3716            4178     68.9067E-03     69.7833E-03
            3717            4131     60.8561E-03     60.4675E-03
            3717            4132     56.8020E-03     59.9074E-03
            3717            4178     68.9067E-03     69.7833E-03
            3717            4179     63.3361E-03     68.4349E-03
            3718            4132     56.8020E-03     59.9074E-03
            3718            4133     57.3619E-03     56.4635E-03
            3718            4179     63.3361E-03     68.4349E-03
            3718            4180     65.6281E-03     64.7299E-03
            3719            4133     57.3619E-03     56.4635E-03
            3719            4134     53.6926E-03     53.7580E-03
            3719            4180     65.6281E-03     64.7299E-03
            3719            4181     63.5324E-03     63.7706E-03
            3720            4134     53.6926E-03     53.7580E-03
            3720            4135     48.4862E-03     58.5856E-03
            3720            4181     63.5324E-03     63.7706E-03
            3720            4182     56.2145E-03     71.4959E-03
            3721            4135     48.4862E-03     58.5856E-03
            3721            4136     57.1889E-03     55.2069E-03
            3721            4182     56.2145E-03     71.4959E-03
            3721            4183     66.4195E-03     65.7726E-03
            3722            4136     57.1889E-03     55.2069E-03
            3722            4137     56.2827E-03     51.6135E-03
            3722            4183     66.4195E-03     65.7726E-03
            3722            4184     64.3311E-03     60.3436E-03
            3723            4137     56.2827E-03     51.6135E-03
            3723            4138     47.2262E-03     50.0033E-03
            3723            4184     64.3311E-03     60.3436E-03
            3723            4185     51.7597E-03     57.5281E-03
            3724            4138     47.2262E-03     50.0033E-03
            3724            4139     45.0790E-03     43.9813E-03
            3724            4185     51.7597E-03     57.5281E-03
            3724            4186     48.9486E-03     48.7991E-03
            3725            4139     45.0790E-03     43.9813E-03
            3725            4140     41.3981E-03     41.4064E-03
            3725            4186     48.9486E-03     48.7991E-03
            3725            4187     43.3519E-03     44.9066E-03
            3726            4140     41.3981E-03     41.4064E-03
            3726            4141     37.9023E-03     38.3042E-03
            3726            4187     43.3519E-03     44.9066E-03
            3726            4188     38.7170E-03     39.7834E-03
            3727            4141     37.9023E-03     38.3042E-03
            3727            4142     35.0322E-03     36.0816E-03
            3727            4188     38.7170E-03     39.7834E-03
            3727            4189     34.7437E-03     36.2047E-03
            3728            4142     35.0322E-03     36.0816E-03
            3728            4143     32.9996E-03     33.8377E-03
            3728            4189     34.7437E-03     36.2047E-03
            3728            4190     32.7527E-03     33.4754E-03
            3729            4143     32.9996E-03     33.8377E-03
            3729            4144     30.6048E-03     31.3302E-03
            3729            4190     32.7527E-03     33.4754E-03
            3729            4191     30.9752E-03     31.4684E-03
            3730            4144     30.6048E-03     31.3302E-03
            3730            4145     29.1502E-03     32.7440E-03
            3730            4191     30.9752E-03     31.4684E-03
            3730            4192     28.1334E-03     34.4381E-03
            3731            4145     29.1502E-03     32.7440E-03
            3731            4146     32.3496E-03     31.5275E-03
            3731            4192     28.1334E-03     34.4381E-03
            3731            4193     32.1156E-03     32.0810E-03
            3732            4146     32.3496E-03     31.5275E-03
            3732            4147     31.2031E-03     29.0463E-03
            3732            4193     32.1156E-03     32.0810E-03
            3732            4194     30.1176E-03     27.8099E-03
            3733            4147     31.2031E-03     29.0463E-03
            3733            4148     26.7576E-03     27.8872E-03
            3733            4194     30.1176E-03     27.8099E-03
            3733            4195     22.5121E-03     24.7742E-03
            3734            4148     26.7576E-03     27.8872E-03
            3734            4149     25.5009E-03     25.2463E-03
            3734            4195     22.5121E-03     24.7742E-03
            3734            4196     19.8401E-03     19.3591E-03
            3735            4149     25.5009E-03     25.2463E-03
            3735            4150     23.9655E-03     24.1398E-03
            3735            4196     19.8401E-03     19.3591E-03
            3735            4197     17.0511E-03     16.6897E-03
            3736            4150     23.9655E-03     24.1398E-03
            3736            4151     22.8189E-03     23.3698E-03
            3736            4197     17.0511E-03     16.6897E-03
            3736            4198     15.7344E-03     15.8178E-03
            3737            4151     22.8189E-03     23.3698E-03
            3737            4152     22.4148E-03     22.8918E-03
            3737            4198     15.7344E-03     15.8178E-03
            3737            4199     15.5781E-03     16.3514E-03
            3738             467     7.68379E-03     8.26430E-03
            3738             468     11.1108E-03     11.3797E-03
            3738            4152     22.4148E-03     22.8918E-03
            3738            4199     15.5781E-03     16.3514E-03
            3739             545     146.672E-03     167.166E-03
            3739             546     168.393E-03     185.649E-03
            3739            4153     165.371E-03     163.094E-03
            3739            4200     188.972E-03     185.671E-03
            3740            4153     165.371E-03     163.094E-03
            3740            4154     163.082E-03     154.659E-03
            3740            4200     188.972E-03     185.671E-03
            3740            4201     180.941E-03     173.912E-03
            3741            4154     163.082E-03     154.659E-03
            3741            4155     139.468E-03     153.828E-03
            3741            4201     180.941E-03     173.912E-03
            3741            4202     158.210E-03     170.762E-03
            3742            4155     139.468E-03     153.828E-03
            3742            4156     141.051E-03     138.125E-03
            3742            4202     158.210E-03     170.762E-03
            3742            4203     158.522E-03     155.141E-03
            3743            4156     141.051E-03     138.125E-03
            3743            4157     131.056E-03     142.096E-03
            3743            4203     158.522E-03     155.141E-03
            3743            4204     146.549E-03     156.154E-03
            3744            4157     131.056E-03     142.096E-03
            3744            4158     139.783E-03     136.018E-03
            3744            4204     146.549E-03     156.154E-03
            3744            4205     151.912E-03     147.692E-03
            3745            4158     139.783E-03     136.018E-03
            3745            4159     137.365E-03     135.835E-03
            3745            4205     151.912E-03     147.692E-03
            3745            4206     150.437E-03     146.498E-03
            3746            4159     137.365E-03     135.835E-03
            3746            4160     120.223E-03     154.216E-03
            3746            4206     150.437E-03     146.498E-03
            3746            4207     141.365E-03     168.449E-03
            3747            4160     120.223E-03     154.216E-03
            3747            4161     143.667E-03     142.356E-03
            3747            4207     141.365E-03     168.449E-03
            3747            4208     163.558E-03     160.889E-03
            3748            4161     143.667E-03     142.356E-03
            3748            4162     141.830E-03     134.368E-03
            3748            4208     163.558E-03     160.889E-03
            3748            4209     156.596E-03     150.338E-03
            3749            4162     141.830E-03     134.368E-03
            3749            4163     119.675E-03     132.704E-03
            3749            4209     156.596E-03     150.338E-03
            3749            4210     136.092E-03     146.546E-03
            3750            4163     119.675E-03     132.704E-03
            3750            4164     118.719E-03     119.241E-03
            3750            4210     136.092E-03     146.546E-03
            3750            4211     134.349E-03     133.729E-03
            3751            4164     118.719E-03     119.241E-03
            3751            4165     111.067E-03     116.140E-03
            3751            4211     134.349E-03     133.729E-03
            3751            4212     125.939E-03     129.777E-03
            3752            4165     111.067E-03     116.140E-03
            3752            4166     105.633E-03     110.895E-03
            3752            4212     125.939E-03     129.777E-03
            3752            4213     119.980E-03     123.404E-03
            3753            4166     105.633E-03     110.895E-03
            3753            4167     103.357E-03     104.555E-03
            3753            4213     119.980E-03     123.404E-03
            3753            4214     115.857E-03     116.188E-03
            3754            4167     103.357E-03     104.555E-03
            3754            4168     96.7663E-03     105.375E-03
            3754            4214     115.857E-03     116.188E-03
            3754            4215     107.847E-03     114.069E-03
            3755            4168     96.7663E-03     105.375E-03
            3755            4169     103.645E-03     101.041E-03
            3755            4215     107.847E-03     114.069E-03
            3755            4216     110.983E-03     107.782E-03
            3756            4169     103.645E-03     101.041E-03
            3756            4170     101.376E-03     101.302E-03
            3756            4216     110.983E-03     107.782E-03
            3756            4217     109.422E-03     106.417E-03
            3757            4170     101.376E-03     101.302E-03
            3757            4171     88.8463E-03     113.849E-03
            3757            4217     109.422E-03     106.417E-03
            3757            4218     103.728E-03     123.395E-03
            3758            4171     88.8463E-03     113.849E-03
            3758            4172     105.340E-03     104.331E-03
            3758            4218     103.728E-03     123.395E-03
            3758            4219     120.323E-03     118.549E-03
            3759            4172     105.340E-03     104.331E-03
            3759            4173     103.422E-03     97.6604E-03
            3759            4219     120.323E-03     118.549E-03
            3759            4220     114.146E-03     109.389E-03
            3760            4173     103.422E-03     97.6604E-03
            3760            4174     85.9656E-03     95.4864E-03
            3760            4220     114.146E-03     109.389E-03
            3760            4221     97.3872E-03     105.139E-03
            3761            4174     85.9656E-03     95.4864E-03
            3761            4175     84.1002E-03     84.3156E-03
            3761            4221     97.3872E-03     105.139E-03
            3761            4222     94.6099E-03     94.0219E-03
            3762            4175     84.1002E-03     84.3156E-03
            3762            4176     77.3388E-03     80.6944E-03
            3762            4222     94.6099E-03     94.0219E-03
            3762            4223     86.8821E-03     89.5387E-03
            3763            4176     77.3388E-03     80.6944E-03
            3763            4177     71.9641E-03     75.5027E-03
            3763            4223     86.8821E-03     89.5387E-03
            3763            4224     80.9333E-03     83.1760E-03
            3764            4177     71.9641E-03     75.5027E-03
            3764            4178     68.9067E-03     69.7833E-03
            3764            4224     80.9333E-03     83.1760E-03
            3764            4225     76.1553E-03     76.5116E-03
            3765            4178     68.9067E-03     69.7833E-03
            3765            4179     63.3361E-03     68.4349E-03
            3765            4225     76.1553E-03     76.5116E-03
            3765            4226     69.2155E-03     72.7225E-03
            3766            4179     63.3361E-03     68.4349E-03
            3766            4180     65.6281E-03     64.7299E-03
            3766            4226     69.2155E-03     72.7225E-03
            3766            4227     68.6613E-03     66.9515E-03
            3767            4180     65.6281E-03     64.7299E-03
            3767            4181     63.5324E-03     63.7706E-03
            3767            4227     68.6613E-03     66.9515E-03
            3767            4228     66.3886E-03     64.2815E-03
            3768            4181     63.5324E-03     63.7706E-03
            3768            4182     56.2145E-03     71.4959E-03
            3768            4228     66.3886E-03     64.2815E-03
            3768            4229     64.5968E-03     76.6798E-03
            3769            4182     56.2145E-03     71.4959E-03
            3769            4183     66.4195E-03     65.7726E-03
            3769            4229     64.5968E-03     76.6798E-03
            3769            4230     76.2573E-03     75.4071E-03
            3770            4183     66.4195E-03     65.7726E-03
            3770            4184     64.3311E-03     60.3436E-03
            3770            4230     76.2573E-03     75.4071E-03
            3770            4231     70.6919E-03     67.4618E-03
            3771            4184     64.3311E-03     60.3436E-03
            3771            4185     51.7597E-03     57.5281E-03
            3771            4231     70.6919E-03     67.4618E-03
            3771            4232     57.6368E-03     62.5722E-03
            3772            4185     51.7597E-03     57.5281E-03
            3772            4186     48.9486E-03     48.7991E-03
            3772            4232     57.6368E-03     62.5722E-03
            3772            4233     53.6635E-03     53.1232E-03
            3773            4186     48.9486E-03     48.7991E-03
            3773            4187     43.3519E-03     44.9066E-03
            3773            4233     53.6635E-03     53.1232E-03
            3773            4234     46.6021E-03     48.0726E-03
            3774            4187     43.3519E-03     44.9066E-03
            3774            4188     38.7170E-03     39.7834E-03
            3774            4234     46.6021E-03     48.0726E-03
            3774            4235     40.8678E-03     41.4469E-03
            3775            4188     38.7170E-03     39.7834E-03
            3775            4189     34.7437E-03     36.2047E-03
            3775            4235     40.8678E-03     41.4469E-03
            3775            4236     35.0610E-03     35.9353E-03
            3776            4189     34.7437E-03     36.2047E-03
            3776            4190     32.7527E-03     33.4754E-03
            3776            4236     35.0610E-03     35.9353E-03
            3776            4237     31.0082E-03     30.7040E-03
            3777            4190     32.7527E-03     33.4754E-03
            3777            4191     30.9752E-03     31.4684E-03
            3777            4237     31.0082E-03     30.7040E-03
            3777            4238     28.1192E-03     26.9299E-03
            3778            4191     30.9752E-03     31.4684E-03
            3778            4192     28.1334E-03     34.4381E-03
            3778            4238     28.1192E-03     26.9299E-03
            3778            4239     29.5267E-03     34.6806E-03
            3779            4192     28.1334E-03     34.4381E-03
            3779            4193     32.1156E-03     32.0810E-03
            3779            4239     29.5267E-03     34.6806E-03
            3779            4240     36.0521E-03     36.0911E-03
            3780            4193     32.1156E-03     32.0810E-03
            3780            4194     30.1176E-03     27.8099E-03
            3780            4240     36.0521E-03     36.0911E-03
            3780            4241     30.8323E-03     28.9167E-03
            3781            4194     30.1176E-03     27.8099E-03
            3781            4195     22.5121E-03     24.7742E-03
            3781            4241     30.8323E-03     28.9167E-03
            3781            4242     21.0751E-03     23.2768E-03
            3782            4195     22.5121E-03     24.7742E-03
            3782            4196     19.8401E-03     19.3591E-03
            3782            4242     21.0751E-03     23.2768E-03
            3782            4243     16.1376E-03     15.6870E-03
            3783            4196     19.8401E-03     19.3591E-03
            3783            4197     17.0511E-03     16.6897E-03
            3783            4243     16.1376E-03     15.6870E-03
            3783            4244     10.7525E-03     10.3009E-03
            3784            4197     17.0511E-03     16.6897E-03
            3784            4198     15.7344E-03     15.8178E-03
            3784            4244     10.7525E-03     10.3009E-03
            3784            4245     8.96576E-03     7.55310E-03
            3785            4198     15.7344E-03     15.8178E-03
            3785            4199     15.5781E-03     16.3514E-03
            3785            4245     8.96576E-03     7.55310E-03
            3785            4246     10.2717E-03     11.1770E-03
            3786             466     5.67093E-03     7.10534E-03
            3786             467     7.68379E-03     8.26430E-03
            3786            4199     15.5781E-03     16.3514E-03
            3786            4246     10.2717E-03     11.1770E-03
            3787              25     176.740E-03     183.696E-03
            3787             485     190.200E-03     187.359E-03
            3787             546     168.393E-03     185.649E-03
            3787            4200     188.972E-03     185.671E-03
            3788             485     190.200E-03     187.359E-03
            3788             486     182.557E-03     177.876E-03
            3788            4200     188.972E-03     185.671E-03
            3788            4201     180.941E-03     173.912E-03
            3789             486     182.557E-03     177.876E-03
            3789             487     169.963E-03     174.752E-03
            3789            4201     180.941E-03     173.912E-03
            3789            4202     158.210E-03     170.762E-03
            3790             487     169.963E-03     174.752E-03
            3790             488     166.697E-03     164.114E-03
            3790            4202     158.210E-03     170.762E-03
            3790            4203     158.522E-03     155.141E-03
            3791             488     166.697E-03     164.114E-03
            3791             489     157.843E-03     161.175E-03
            3791            4203     158.522E-03     155.141E-03
            3791            4204     146.549E-03     156.154E-03
            3792             489     157.843E-03     161.175E-03
            3792             490     155.217E-03     151.646E-03
            3792            4204     146.549E-03     156.154E-03
            3792            4205     151.912E-03     147.692E-03
            3793             490     155.217E-03     151.646E-03
            3793             491     149.370E-03     144.811E-03
            3793            4205     151.912E-03     147.692E-03
            3793            4206     150.437E-03     146.498E-03
            3794             491     149.370E-03     144.811E-03
            3794             492     149.809E-03     160.444E-03
            3794            4206     150.437E-03     146.498E-03
            3794            4207     141.365E-03     168.449E-03
            3795             492     149.809E-03     160.444E-03
            3795             493     163.179E-03     160.888E-03
            3795            4207     141.365E-03     168.449E-03
            3795            4208     163.558E-03     160.889E-03
            3796             493     163.179E-03     160.888E-03
            3796             494     155.832E-03     151.969E-03
            3796            4208     163.558E-03     160.889E-03
            3796            4209     156.596E-03     150.338E-03
            3797             494     155.832E-03     151.969E-03
            3797             495     144.500E-03     148.274E-03
            3797            4209     156.596E-03     150.338E-03
            3797            4210     136.092E-03     146.546E-03
            3798             495     144.500E-03     148.274E-03
            3798             496     140.664E-03     139.490E-03
            3798            4210     136.092E-03     146.546E-03
            3798            4211     134.349E-03     133.729E-03
            3799             496     140.664E-03     139.490E-03
            3799             497     134.044E-03     134.972E-03
            3799            4211     134.349E-03     133.729E-03
            3799            4212     125.939E-03     129.777E-03
            3800             497     134.044E-03     134.972E-03
            3800             498     128.658E-03     128.963E-03
            3800            4212     125.939E-03     129.777E-03
            3800            4213     119.980E-03     123.404E-03
            3801             498     128.658E-03     128.963E-03
            3801             499     123.225E-03     122.584E-03
            3801            4213     119.980E-03     123.404E-03
            3801            4214     115.857E-03     116.188E-03
            3802             499     123.225E-03     122.584E-03
            3802             500     116.597E-03     117.933E-03
            3802            4214     115.857E-03     116.188E-03
            3802            4215     107.847E-03     114.069E-03
            3803             500     116.597E-03     117.933E-03
            3803             501     112.959E-03     110.339E-03
            3803            4215     107.847E-03     114.069E-03
            3803            4216     110.983E-03     107.782E-03
            3804             501     112.959E-03     110.339E-03
            3804             502     107.838E-03     103.784E-03
            3804            4216     110.983E-03     107.782E-03
            3804            4217     109.422E-03     106.417E-03
            3805             502     107.838E-03     103.784E-03
            3805             503     109.379E-03     117.034E-03
            3805            4217     109.422E-03     106.417E-03
            3805            4218     103.728E-03     123.395E-03
            3806             503     109.379E-03     117.034E-03
            3806             504     120.244E-03     118.962E-03
            3806            4218     103.728E-03     123.395E-03
            3806            4219     120.323E-03     118.549E-03
            3807             504     120.244E-03     118.962E-03
            3807             505     113.268E-03     110.412E-03
            3807            4219     120.323E-03     118.549E-03
            3807            4220     114.146E-03     109.389E-03
            3808             505     113.268E-03     110.412E-03
            3808             506     103.179E-03     106.117E-03
            3808            4220     114.146E-03     109.389E-03
            3808            4221     97.3872E-03     105.139E-03
            3809             506     103.179E-03     106.117E-03
            3809             507     98.9219E-03     98.0214E-03
            3809            4221     97.3872E-03     105.139E-03
            3809            4222     94.6099E-03     94.0219E-03
            3810             507     98.9219E-03     98.0214E-03
            3810             508     92.5126E-03     93.2268E-03
            3810            4222     94.6099E-03     94.0219E-03
            3810            4223     86.8821E-03     89.5387E-03
            3811             508     92.5126E-03     93.2268E-03
            3811             509     87.1450E-03     87.2379E-03
            3811            4223     86.8821E-03     89.5387E-03
            3811            4224     80.9333E-03     83.1760E-03
            3812             509     87.1450E-03     87.2379E-03
            3812             510     81.5430E-03     81.1726E-03
            3812            4224     80.9333E-03     83.1760E-03
            3812            4225     76.1553E-03     76.5116E-03
            3813             510     81.5430E-03     81.1726E-03
            3813             511     75.3724E-03     75.8711E-03
            3813            4225     76.1553E-03     76.5116E-03
            3813            4226     69.2155E-03     72.7225E-03
            3814             511     75.3724E-03     75.8711E-03
            3814             512     70.5457E-03     68.9178E-03
            3814            4226     69.2155E-03     72.7225E-03
            3814            4227     68.6613E-03     66.9515E-03
            3815             512     70.5457E-03     68.9178E-03
            3815             513     65.1131E-03     62.0934E-03
            3815            4227     68.6613E-03     66.9515E-03
            3815            4228     66.3886E-03     64.2815E-03
            3816             513     65.1131E-03     62.0934E-03
            3816             514     68.0396E-03     72.8216E-03
            3816            4228     66.3886E-03     64.2815E-03
            3816            4229     64.5968E-03     76.6798E-03
            3817             514     68.0396E-03     72.8216E-03
            3817             515     76.6843E-03     76.3906E-03
            3817            4229     64.5968E-03     76.6798E-03
            3817            4230     76.2573E-03     75.4071E-03
            3818             515     76.6843E-03     76.3906E-03
            3818             516     69.9943E-03     68.1203E-03
            3818            4230     76.2573E-03     75.4071E-03
            3818            4231     70.6919E-03     67.4618E-03
            3819             516     69.9943E-03     68.1203E-03
            3819             517     61.1124E-03     63.1336E-03
            3819            4231     70.6919E-03     67.4618E-03
            3819            4232     57.6368E-03     62.5722E-03
            3820             517     61.1124E-03     63.1336E-03
            3820             518     56.3408E-03     55.6954E-03
            3820            4232     57.6368E-03     62.5722E-03
            3820            4233     53.6635E-03     53.1232E-03
            3821             518     56.3408E-03     55.6954E-03
            3821             519     50.1066E-03     50.5205E-03
            3821            4233     53.6635E-03     53.1232E-03
            3821            4234     46.6021E-03     48.0726E-03
            3822             519     50.1066E-03     50.5205E-03
            3822             520     44.5860E-03     44.3577E-03
            3822            4234     46.6021E-03     48.0726E-03
            3822            4235     40.8678E-03     41.4469E-03
            3823             520     44.5860E-03     44.3577E-03
            3823             521     38.6190E-03     38.5037E-03
            3823            4235     40.8678E-03     41.4469E-03
            3823            4236     35.0610E-03     35.9353E-03
            3824             521     38.6190E-03     38.5037E-03
            3824             522     32.8013E-03     32.0204E-03
            3824            4236     35.0610E-03     35.9353E-03
            3824            4237     31.0082E-03     30.7040E-03
            3825             522     32.8013E-03     32.0204E-03
            3825             523     27.0271E-03     25.2052E-03
            3825            4237     31.0082E-03     30.7040E-03
            3825            4238     28.1192E-03     26.9299E-03
            3826             523     27.0271E-03     25.2052E-03
            3826             524     30.7166E-03     33.0646E-03
            3826            4238     28.1192E-03     26.9299E-03
            3826            4239     29.5267E-03     34.6806E-03
            3827             524     30.7166E-03     33.0646E-03
            3827             525     36.7696E-03     37.3096E-03
            3827            4239     29.5267E-03     34.6806E-03
            3827            4240     36.0521E-03     36.0911E-03
            3828             525     36.7696E-03     37.3096E-03
            3828             526     30.2701E-03     29.2292E-03
            3828            4240     36.0521E-03     36.0911E-03
            3828            4241     30.8323E-03     28.9167E-03
            3829             526     30.2701E-03     29.2292E-03
            3829             527     22.5958E-03     23.5740E-03
            3829            4241     30.8323E-03     28.9167E-03
            3829            4242     21.0751E-03     23.2768E-03
            3830             527     22.5958E-03     23.5740E-03
            3830             528     17.4310E-03     16.9815E-03
            3830            4242     21.0751E-03     23.2768E-03
            3830            4243     16.1376E-03     15.6870E-03
            3831             528     17.4310E-03     16.9815E-03
            3831             529     11.8064E-03     11.5409E-03
            3831            4243     16.1376E-03     15.6870E-03
            3831            4244     10.7525E-03     10.3009E-03
            3832             529     11.8064E-03     11.5409E-03
            3832             530     9.29635E-03     7.72523E-03
            3832            4244     10.7525E-03     10.3009E-03
            3832            4245     8.96576E-03     7.55310E-03
            3833             530     9.29635E-03     7.72523E-03
            3833             531     9.51254E-03     10.8952E-03
            3833            4245     8.96576E-03     7.55310E-03
            3833            4246     10.2717E-03     11.1770E-03
            3834              23     5.10720E-03     7.25800E-03
            3834             466     5.67093E-03     7.10534E-03
            3834             531     9.51254E-03     10.8952E-03
            3834            4246     10.2717E-03     11.1770E-03
            3947              21     155.627E-03     155.647E-03
            3947             460     167.345E-03     169.440E-03
            3947             748     159.372E-03     161.910E-03
            3947            4331     167.253E-03     170.341E-03
            3948               6     176.740E-03     183.696E-03
            3948             172     172.249E-03     174.369E-03
            3948             460     167.345E-03     169.440E-03
            3948            4331     167.253E-03     170.341E-03
            3949             747     162.865E-03     166.377E-03
            3949             748     159.372E-03     161.910E-03
            3949            4331     167.253E-03     170.341E-03
            3949            4332     169.998E-03     174.653E-03
            3950             171     175.129E-03     184.021E-03
            3950             172     172.249E-03     174.369E-03
            3950            4331     167.253E-03     170.341E-03
            3950            4332     169.998E-03     174.653E-03
            3951             746     173.753E-03     174.573E-03
            3951             747     162.865E-03     166.377E-03
            3951            4332     169.998E-03     174.653E-03
            3951            4333     179.694E-03     179.361E-03
            3952             170     186.084E-03     179.802E-03
            3952             171     175.129E-03     184.021E-03
            3952            4332     169.998E-03     174.653E-03
            3952            4333     179.694E-03     179.361E-03
            3953             745     180.484E-03     183.014E-03
            3953             746     173.753E-03     174.573E-03
            3953            4333     179.694E-03     179.361E-03
            3953            4334     187.811E-03     190.602E-03
            3954             169     190.484E-03     191.045E-03
            3954             170     186.084E-03     179.802E-03
            3954            4333     179.694E-03     179.361E-03
            3954            4334     187.811E-03     190.602E-03
            3955             744     181.799E-03     185.513E-03
            3955             745     180.484E-03     183.014E-03
            3955            4334     187.811E-03     190.602E-03
            3955            4335     193.396E-03     195.802E-03
            3956             168     200.373E-03     198.149E-03
            3956             169     190.484E-03     191.045E-03
            3956            4334     187.811E-03     190.602E-03
            3956            4335     193.396E-03     195.802E-03
            3957             743     176.200E-03     181.515E-03
            3957             744     181.799E-03     185.513E-03
            3957            4335     193.396E-03     195.802E-03
            3957            4336     192.767E-03     196.172E-03
            3958             167     210.194E-03     206.333E-03
            3958             168     200.373E-03     198.149E-03
            3958            4335     193.396E-03     195.802E-03
            3958            4336     192.767E-03     196.172E-03
            3959              31     170.736E-03     176.096E-03
            3959             721     188.912E-03     197.869E-03
            3959             743     176.200E-03     181.515E-03
            3959            4336     192.767E-03     196.172E-03
            3960               8     205.716E-03     226.350E-03
            3960             167     210.194E-03     206.333E-03
            3960             721     188.912E-03     197.869E-03
            3960            4336     192.767E-03     196.172E-03
            3961              12     21.5121E-03     21.3608E-03
            3961             196     20.7215E-03     20.5485E-03
            3961             245     43.1180E-03     42.9392E-03
            3961            4337     41.6574E-03     41.5067E-03
            3962             244     43.4883E-03     43.1803E-03
            3962             245     43.1180E-03     42.9392E-03
            3962            4337     41.6574E-03     41.5067E-03
            3962            4338     42.1850E-03     41.8894E-03
            3963             243     43.3478E-03     42.7202E-03
            3963             244     43.4883E-03     43.1803E-03
            3963            4338     42.1850E-03     41.8894E-03
            3963            4339     41.9527E-03     41.4612E-03
            3964             242     44.0554E-03     43.4846E-03
            3964             243     43.3478E-03     42.7202E-03
            3964            4339     41.9527E-03     41.4612E-03
            3964            4340     42.3229E-03     41.9655E-03
            3965             241     45.4799E-03     44.6794E-03
            3965             242     44.0554E-03     43.4846E-03
            3965            4340     42.3229E-03     41.9655E-03
            3965            4341     43.5466E-03     42.9732E-03
            3966             240     45.7097E-03     44.7300E-03
            3966             241     45.4799E-03     44.6794E-03
            3966            4341     43.5466E-03     42.9732E-03
            3966            4342     43.9767E-03     43.3223E-03
            3967             239     45.6956E-03     44.8389E-03
            3967             240     45.7097E-03     44.7300E-03
            3967            4342     43.9767E-03     43.3223E-03
            3967            4343     44.2660E-03     43.8235E-03
            3968             238     45.7052E-03     44.8863E-03
            3968             239     45.6956E-03     44.8389E-03
            3968            4343     44.2660E-03     43.8235E-03
            3968            4344     44.7581E-03     44.4627E-03
            3969             237     45.5944E-03     45.1810E-03
            3969             238     45.7052E-03     44.8863E-03
            3969            4344     44.7581E-03     44.4627E-03
            3969            4345     45.2467E-03     45.2699E-03
            3970             236     45.5522E-03     45.6495E-03
            3970             237     45.5944E-03     45.1810E-03
            3970            4345     45.2467E-03     45.2699E-03
            3970            4346     46.0338E-03     46.0941E-03
            3971             235     45.5870E-03     45.8861E-03
            3971             236     45.5522E-03     45.6495E-03
            3971            4346     46.0338E-03     46.0941E-03
            3971            4347     46.8527E-03     46.5757E-03
            3972             234     45.1071E-03     46.3188E-03
            3972             235     45.5870E-03     45.8861E-03
            3972            4347     46.8527E-03     46.5757E-03
            3972            4348     46.9486E-03     47.9850E-03
            3973             233     46.0808E-03     46.5870E-03
            3973             234     45.1071E-03     46.3188E-03
            3973            4348     46.9486E-03     47.9850E-03
            3973            4349     49.0938E-03     48.5164E-03
            3974             232     46.2876E-03     45.0114E-03
            3974             233     46.0808E-03     46.5870E-03
            3974            4349     49.0938E-03     48.5164E-03
            3974            4350     49.0081E-03     47.4336E-03
            3975             231     45.7628E-03     45.2652E-03
            3975             232     46.2876E-03     45.0114E-03
            3975            4350     49.0081E-03     47.4336E-03
            3975            4351     46.6868E-03     47.3851E-03
            3976             230     46.5656E-03     46.0332E-03
            3976             231     45.7628E-03     45.2652E-03
            3976            4351     46.6868E-03     47.3851E-03
            3976            4352     47.7393E-03     47.0810E-03
            3977             229     47.2033E-03     45.4549E-03
            3977             230     46.5656E-03     46.0332E-03
            3977            4352     47.7393E-03     47.0810E-03
            3977            4353     49.1856E-03     47.8452E-03
            3978             228     47.5681E-03     45.9719E-03
            3978             229     47.2033E-03     45.4549E-03
            3978            4353     49.1856E-03     47.8452E-03
            3978            4354     50.2359E-03     49.6654E-03
            3979             227     47.3397E-03     46.4143E-03
            3979             228     47.5681E-03     45.9719E-03
            3979            4354     50.2359E-03     49.6654E-03
            3979            4355     51.2632E-03     51.0505E-03
            3980             226     47.2318E-03     47.1216E-03
            3980             227     47.3397E-03     46.4143E-03
            3980            4355     51.2632E-03     51.0505E-03
            3980            4356     52.5954E-03     52.5837E-03
            3981             225     47.0323E-03     47.5370E-03
            3981             226     47.2318E-03     47.1216E-03
            3981            4356     52.5954E-03     52.5837E-03
            3981            4357     53.6886E-03     53.3919E-03
            3982             224     46.0064E-03     48.1123E-03
            3982             225     47.0323E-03     47.5370E-03
            3982            4357     53.6886E-03     53.3919E-03
            3982            4358     53.3971E-03     55.5229E-03
            3983             223     47.3499E-03     48.3923E-03
            3983             224     46.0064E-03     48.1123E-03
            3983            4358     53.3971E-03     55.5229E-03
            3983            4359     56.4729E-03     55.6846E-03
            3984             222     47.5449E-03     45.9914E-03
            3984             223     47.3499E-03     48.3923E-03
            3984            4359     56.4729E-03     55.6846E-03
            3984            4360     55.8528E-03     53.6397E-03
            3985             221     46.8552E-03     46.7581E-03
            3985             222     47.5449E-03     45.9914E-03
            3985            4360     55.8528E-03     53.6397E-03
            3985            4361     52.0185E-03     54.1790E-03
            3986             220     48.4490E-03     47.9512E-03
            3986             221     46.8552E-03     46.7581E-03
            3986            4361     52.0185E-03     54.1790E-03
            3986            4362     54.6865E-03     53.6582E-03
            3987             219     49.5367E-03     46.9380E-03
            3987             220     48.4490E-03     47.9512E-03
            3987            4362     54.6865E-03     53.6582E-03
            3987            4363     57.2235E-03     54.9405E-03
            3988             218     50.1579E-03     47.9531E-03
            3988             219     49.5367E-03     46.9380E-03
            3988            4363     57.2235E-03     54.9405E-03
            3988            4364     58.3931E-03     57.9673E-03
            3989             217     49.9097E-03     48.7515E-03
            3989             218     50.1579E-03     47.9531E-03
            3989            4364     58.3931E-03     57.9673E-03
            3989            4365     59.9903E-03     59.6137E-03
            3990             216     49.7842E-03     49.8021E-03
            3990             217     49.9097E-03     48.7515E-03
            3990            4365     59.9903E-03     59.6137E-03
            3990            4366     61.6955E-03     61.6344E-03
            3991             215     49.4716E-03     50.3487E-03
            3991             216     49.7842E-03     49.8021E-03
            3991            4366     61.6955E-03     61.6344E-03
            3991            4367     62.8295E-03     62.5283E-03
            3992             214     47.9165E-03     51.0063E-03
            3992             215     49.4716E-03     50.3487E-03
            3992            4367     62.8295E-03     62.5283E-03
            3992            4368     61.9893E-03     65.1534E-03
            3993             213     49.7244E-03     51.1538E-03
            3993             214     47.9165E-03     51.0063E-03
            3993            4368     61.9893E-03     65.1534E-03
            3993            4369     65.8932E-03     64.7081E-03
            3994             212     49.8249E-03     47.8999E-03
            3994             213     49.7244E-03     51.1538E-03
            3994            4369     65.8932E-03     64.7081E-03
            3994            4370     64.5562E-03     61.6403E-03
            3995               9     40.9855E-03     40.3602E-03
            3995             212     49.8249E-03     47.8999E-03
            3995             749     54.9885E-03     56.8510E-03
            3995            4370     64.5562E-03     61.6403E-03
            3996             196     20.7215E-03     20.5485E-03
            3996             197     18.6453E-03     18.4853E-03
            3996            4337     41.6574E-03     41.5067E-03
            3996            4371     37.4325E-03     37.3645E-03
            3997            4337     41.6574E-03     41.5067E-03
            3997            4338     42.1850E-03     41.8894E-03
            3997            4371     37.4325E-03     37.3645E-03
            3997            4372     38.2912E-03     37.7411E-03
            3998            4338     42.1850E-03     41.8894E-03
            3998            4339     41.9527E-03     41.4612E-03
            3998            4372     38.2912E-03     37.7411E-03
            3998            4373     38.3336E-03     37.9959E-03
            3999            4339     41.9527E-03     41.4612E-03
            3999            4340     42.3229E-03     41.9655E-03
            3999            4373     38.3336E-03     37.9959E-03
            3999            4374     37.9294E-03     38.1895E-03
            4000            4340     42.3229E-03     41.9655E-03
            4000            4341     43.5466E-03     42.9732E-03
            4000            4374     37.9294E-03     38.1895E-03
            4000            4375     38.4213E-03     38.5821E-03
            4001            4341     43.5466E-03     42.9732E-03
            4001            4342     43.9767E-03     43.3223E-03
            4001            4375     38.4213E-03     38.5821E-03
            4001            4376     39.2544E-03     39.8068E-03
            4002            4342     43.9767E-03     43.3223E-03
            4002            4343     44.2660E-03     43.8235E-03
            4002            4376     39.2544E-03     39.8068E-03
            4002            4377     40.7295E-03     41.3851E-03
            4003            4343     44.2660E-03     43.8235E-03
            4003            4344     44.7581E-03     44.4627E-03
            4003            4377     40.7295E-03     41.3851E-03
            4003            4378     42.5067E-03     42.9626E-03
            4004            4344     44.7581E-03     44.4627E-03
            4004            4345     45.2467E-03     45.2699E-03
            4004            4378     42.5067E-03     42.9626E-03
            4004            4379     44.3800E-03     44.7397E-03
            4005            4345     45.2467E-03     45.2699E-03
            4005            4346     46.0338E-03     46.0941E-03
            4005            4379     44.3800E-03     44.7397E-03
            4005            4380     46.8032E-03     46.5552E-03
            4006            4346     46.0338E-03     46.0941E-03
            4006            4347     46.8527E-03     46.5757E-03
            4006            4380     46.8032E-03     46.5552E-03
            4006            4381     49.2841E-03     48.1014E-03
            4007            4347     46.8527E-03     46.5757E-03
            4007            4348     46.9486E-03     47.9850E-03
            4007            4381     49.2841E-03     48.1014E-03
            4007            4382     50.6920E-03     51.8138E-03
            4008            4348     46.9486E-03     47.9850E-03
            4008            4349     49.0938E-03     48.5164E-03
            4008            4382     50.6920E-03     51.8138E-03
            4008            4383     56.4617E-03     53.2300E-03
            4009            4349     49.0938E-03     48.5164E-03
            4009            4350     49.0081E-03     47.4336E-03
            4009            4383     56.4617E-03     53.2300E-03
            4009            4384     56.6008E-03     54.4103E-03
            4010            4350     49.0081E-03     47.4336E-03
            4010            4351     46.6868E-03     47.3851E-03
            4010            4384     56.6008E-03     54.4103E-03
            4010            4385     50.0805E-03     54.2667E-03
            4011            4351     46.6868E-03     47.3851E-03
            4011            4352     47.7393E-03     47.0810E-03
            4011            4385     50.0805E-03     54.2667E-03
            4011            4386     52.1088E-03     51.6919E-03
            4012            4352     47.7393E-03     47.0810E-03
            4012            4353     49.1856E-03     47.8452E-03
            4012            4386     52.1088E-03     51.6919E-03
            4012            4387     55.5093E-03     55.1301E-03
            4013            4353     49.1856E-03     47.8452E-03
            4013            4354     50.2359E-03     49.6654E-03
            4013            4387     55.5093E-03     55.1301E-03
            4013            4388     57.4715E-03     58.8653E-03
            4014            4354     50.2359E-03     49.6654E-03
            4014            4355     51.2632E-03     51.0505E-03
            4014            4388     57.4715E-03     58.8653E-03
            4014            4389     60.7958E-03     61.0934E-03
            4015            4355     51.2632E-03     51.0505E-03
            4015            4356     52.5954E-03     52.5837E-03
            4015            4389     60.7958E-03     61.0934E-03
            4015            4390     64.3654E-03     63.8872E-03
            4016            4356     52.5954E-03     52.5837E-03
            4016            4357     53.6886E-03     53.3919E-03
            4016            4390     64.3654E-03     63.8872E-03
            4016            4391     67.7112E-03     65.8927E-03
            4017            4357     53.6886E-03     53.3919E-03
            4017            4358     53.3971E-03     55.5229E-03
            4017            4391     67.7112E-03     65.8927E-03
            4017            4392     69.0849E-03     71.3105E-03
            4018            4358     53.3971E-03     55.5229E-03
            4018            4359     56.4729E-03     55.6846E-03
            4018            4392     69.0849E-03     71.3105E-03
            4018            4393     77.2859E-03     72.2736E-03
            4019            4359     56.4729E-03     55.6846E-03
            4019            4360     55.8528E-03     53.6397E-03
            4019            4393     77.2859E-03     72.2736E-03
            4019            4394     76.1430E-03     72.7313E-03
            4020            4360     55.8528E-03     53.6397E-03
            4020            4361     52.0185E-03     54.1790E-03
            4020            4394     76.1430E-03     72.7313E-03
            4020            4395     65.6116E-03     73.8299E-03
            4021            4361     52.0185E-03     54.1790E-03
            4021            4362     54.6865E-03     53.6582E-03
            4021            4395     65.6116E-03     73.8299E-03
            4021            4396     71.4509E-03     70.1234E-03
            4022            4362     54.6865E-03     53.6582E-03
            4022            4363     57.2235E-03     54.9405E-03
            4022            4396     71.4509E-03     70.1234E-03
            4022            4397     76.8498E-03     74.9027E-03
            4023            4363     57.2235E-03     54.9405E-03
            4023            4364     58.3931E-03     57.9673E-03
            4023            4397     76.8498E-03     74.9027E-03
            4023            4398     77.6930E-03     80.1333E-03
            4024            4364     58.3931E-03     57.9673E-03
            4024            4365     59.9903E-03     59.6137E-03
            4024            4398     77.6930E-03     80.1333E-03
            4024            4399     82.0240E-03     81.8549E-03
            4025            4365     59.9903E-03     59.6137E-03
            4025            4366     61.6955E-03     61.6344E-03
            4025            4399     82.0240E-03     81.8549E-03
            4025            4400     86.1216E-03     85.1617E-03
            4026            4366     61.6955E-03     61.6344E-03
            4026            4367     62.8295E-03     62.5283E-03
            4026            4400     86.1216E-03     85.1617E-03
            4026            4401     89.7459E-03     87.2348E-03
            4027            4367     62.8295E-03     62.5283E-03
            4027            4368     61.9893E-03     65.1534E-03
            4027            4401     89.7459E-03     87.2348E-03
            4027            4402     90.6807E-03     94.0090E-03
            4028            4368     61.9893E-03     65.1534E-03
            4028            4369     65.8932E-03     64.7081E-03
            4028            4402     90.6807E-03     94.0090E-03
            4028            4403     100.964E-03     94.1859E-03
            4029            4369     65.8932E-03     64.7081E-03
            4029            4370     64.5562E-03     61.6403E-03
            4029            4403     100.964E-03     94.1859E-03
            4029            4404     98.3132E-03     93.7805E-03
            4030             749     54.9885E-03     56.8510E-03
            4030             750     85.0087E-03     92.6749E-03
            4030            4370     64.5562E-03     61.6403E-03
            4030            4404     98.3132E-03     93.7805E-03
            4031             197     18.6453E-03     18.4853E-03
            4031             198     15.1397E-03     14.9746E-03
            4031            4371     37.4325E-03     37.3645E-03
            4031            4405     30.4301E-03     30.9575E-03
            4032            4371     37.4325E-03     37.3645E-03
            4032            4372     38.2912E-03     37.7411E-03
            4032            4405     30.4301E-03     30.9575E-03
            4032            4406     32.0783E-03     31.5997E-03
            4033            4372     38.2912E-03     37.7411E-03
            4033            4373     38.3336E-03     37.9959E-03
            4033            4406     32.0783E-03     31.5997E-03
            4033            4407     32.6231E-03     32.4443E-03
            4034            4373     38.3336E-03     37.9959E-03
            4034            4374     37.9294E-03     38.1895E-03
            4034            4407     32.6231E-03     32.4443E-03
            4034            4408     31.4353E-03     32.9133E-03
            4035            4374     37.9294E-03     38.1895E-03
            4035            4375     38.4213E-03     38.5821E-03
            4035            4408     31.4353E-03     32.9133E-03
            4035            4409     31.9231E-03     33.2575E-03
            4036            4375     38.4213E-03     38.5821E-03
            4036            4376     39.2544E-03     39.8068E-03
            4036            4409     31.9231E-03     33.2575E-03
            4036            4410     33.6892E-03     35.4004E-03
            4037            4376     39.2544E-03     39.8068E-03
            4037            4377     40.7295E-03     41.3851E-03
            4037            4410     33.6892E-03     35.4004E-03
            4037            4411     36.2818E-03     37.4335E-03
            4038            4377     40.7295E-03     41.3851E-03
            4038            4378     42.5067E-03     42.9626E-03
            4038            4411     36.2818E-03     37.4335E-03
            4038            4412     39.4397E-03     39.6692E-03
            4039            4378     42.5067E-03     42.9626E-03
            4039            4379     44.3800E-03     44.7397E-03
            4039            4412     39.4397E-03     39.6692E-03
            4039            4413     42.5198E-03     43.0430E-03
            4040            4379     44.3800E-03     44.7397E-03
            4040            4380     46.8032E-03     46.5552E-03
            4040            4413     42.5198E-03     43.0430E-03
            4040            4414     46.8750E-03     46.7081E-03
            4041            4380     46.8032E-03     46.5552E-03
            4041            4381     49.2841E-03     48.1014E-03
            4041            4414     46.8750E-03     46.7081E-03
            4041            4415     51.3138E-03     50.1624E-03
            4042            4381     49.2841E-03     48.1014E-03
            4042            4382     50.6920E-03     51.8138E-03
            4042            4415     51.3138E-03     50.1624E-03
            4042            4416     54.0550E-03     57.3017E-03
            4043            4382     50.6920E-03     51.8138E-03
            4043            4383     56.4617E-03     53.2300E-03
            4043            4416     54.0550E-03     57.3017E-03
            4043            4417     64.6362E-03     59.2679E-03
            4044            4383     56.4617E-03     53.2300E-03
            4044            4384     56.6008E-03     54.4103E-03
            4044            4417     64.6362E-03     59.2679E-03
            4044            4418     65.8307E-03     63.7711E-03
            4045            4384     56.6008E-03     54.4103E-03
            4045            4385     50.0805E-03     54.2667E-03
            4045            4418     65.8307E-03     63.7711E-03
            4045            4419     55.7481E-03     66.6032E-03
            4046            4385     50.0805E-03     54.2667E-03
            4046            4386     52.1088E-03     51.6919E-03
            4046            4419     55.7481E-03     66.6032E-03
            4046            4420     60.4843E-03     60.7915E-03
            4047            4386     52.1088E-03     51.6919E-03
            4047            4387     55.5093E-03     55.1301E-03
            4047            4420     60.4843E-03     60.7915E-03
            4047            4421     65.1683E-03     64.5645E-03
            4048            4387     55.5093E-03     55.1301E-03
            4048            4388     57.4715E-03     58.8653E-03
            4048            4421     65.1683E-03     64.5645E-03
            4048            4422     65.8960E-03     68.5872E-03
            4049            4388     57.4715E-03     58.8653E-03
            4049            4389     60.7958E-03     61.0934E-03
            4049            4422     65.8960E-03     68.5872E-03
            4049            4423     70.4078E-03     70.7854E-03
            4050            4389     60.7958E-03     61.0934E-03
            4050            4390     64.3654E-03     63.8872E-03
            4050            4423     70.4078E-03     70.7854E-03
            4050            4424     75.4967E-03     75.3730E-03
            4051            4390     64.3654E-03     63.8872E-03
            4051            4391     67.7112E-03     65.8927E-03
            4051            4424     75.4967E-03     75.3730E-03
            4051            4425     80.6534E-03     78.9016E-03
            4052            4391     67.7112E-03     65.8927E-03
            4052            4392     69.0849E-03     71.3105E-03
            4052            4425     80.6534E-03     78.9016E-03
            4052            4426     83.4971E-03     88.4501E-03
            4053            4392     69.0849E-03     71.3105E-03
            4053            4393     77.2859E-03     72.2736E-03
            4053            4426     83.4971E-03     88.4501E-03
            4053            4427     98.4781E-03     90.0440E-03
            4054            4393     77.2859E-03     72.2736E-03
            4054            4394     76.1430E-03     72.7313E-03
            4054            4427     98.4781E-03     90.0440E-03
            4054            4428     98.6172E-03     95.2376E-03
            4055            4394     76.1430E-03     72.7313E-03
            4055            4395     65.6116E-03     73.8299E-03
            4055            4428     98.6172E-03     95.2376E-03
            4055            4429     82.9917E-03     101.843E-03
            4056            4395     65.6116E-03     73.8299E-03
            4056            4396     71.4509E-03     70.1234E-03
            4056            4429     82.9917E-03     101.843E-03
            4056            4430     93.7448E-03     93.0805E-03
            4057            4396     71.4509E-03     70.1234E-03
            4057            4397     76.8498E-03     74.9027E-03
            4057            4430     93.7448E-03     93.0805E-03
            4057            4431     100.118E-03     96.8404E-03
            4058            4397     76.8498E-03     74.9027E-03
            4058            4398     77.6930E-03     80.1333E-03
            4058            4431     100.118E-03     96.8404E-03
            4058            4432     97.2679E-03     101.893E-03
            4059            4398     77.6930E-03     80.1333E-03
            4059            4399     82.0240E-03     81.8549E-03
            4059            4432     97.2679E-03     101.893E-03
            4059            4433     102.439E-03     102.452E-03
            4060            4399     82.0240E-03     81.8549E-03
            4060            4400     86.1216E-03     85.1617E-03
            4060            4433     102.439E-03     102.452E-03
            4060            4434     107.759E-03     107.552E-03
            4061            4400     86.1216E-03     85.1617E-03
            4061            4401     89.7459E-03     87.2348E-03
            4061            4434     107.759E-03     107.552E-03
            4061            4435     113.189E-03     110.961E-03
            4062            4401     89.7459E-03     87.2348E-03
            4062            4402     90.6807E-03     94.0090E-03
            4062            4435     113.189E-03     110.961E-03
            4062            4436     115.770E-03     122.651E-03
            4063            4402     90.6807E-03     94.0090E-03
            4063            4403     100.964E-03     94.1859E-03
            4063            4436     115.770E-03     122.651E-03
            4063            4437     134.844E-03     123.620E-03
            4064            4403     100.964E-03     94.1859E-03
            4064            4404     98.3132E-03     93.7805E-03
            4064            4437     134.844E-03     123.620E-03
            4064            4438     133.705E-03     129.270E-03
            4065             750     85.0087E-03     92.6749E-03
            4065             751     115.248E-03     131.148E-03
            4065            4404     98.3132E-03     93.7805E-03
            4065            4438     133.705E-03     129.270E-03
            4066             198     15.1397E-03     14.9746E-03
            4066             199     10.7323E-03     10.4398E-03
            4066            4405     30.4301E-03     30.9575E-03
            4066            4439     21.3329E-03     22.4438E-03
            4067            4405     30.4301E-03     30.9575E-03
            4067            4406     32.0783E-03     31.5997E-03
            4067            4439     21.3329E-03     22.4438E-03
            4067            4440     24.4145E-03     23.2104E-03
            4068            4406     32.0783E-03     31.5997E-03
            4068            4407     32.6231E-03     32.4443E-03
            4068            4440     24.4145E-03     23.2104E-03
            4068            4441     25.4836E-03     25.5378E-03
            4069            4407     32.6231E-03     32.4443E-03
            4069            4408     31.4353E-03     32.9133E-03
            4069            4441     25.4836E-03     25.5378E-03
            4069            4442     24.7729E-03     27.7725E-03
            4070            4408     31.4353E-03     32.9133E-03
            4070            4409     31.9231E-03     33.2575E-03
            4070            4442     24.7729E-03     27.7725E-03
            4070            4443     26.7720E-03     27.7778E-03
            4071            4409     31.9231E-03     33.2575E-03
            4071            4410     33.6892E-03     35.4004E-03
            4071            4443     26.7720E-03     27.7778E-03
            4071            4444     28.1810E-03     29.4824E-03
            4072            4410     33.6892E-03     35.4004E-03
            4072            4411     36.2818E-03     37.4335E-03
            4072            4444     28.1810E-03     29.4824E-03
            4072            4445     31.1468E-03     31.9842E-03
            4073            4411     36.2818E-03     37.4335E-03
            4073            4412     39.4397E-03     39.6692E-03
            4073            4445     31.1468E-03     31.9842E-03
            4073            4446     35.7378E-03     36.1493E-03
            4074            4412     39.4397E-03     39.6692E-03
            4074            4413     42.5198E-03     43.0430E-03
            4074            4446     35.7378E-03     36.1493E-03
            4074            4447     40.3339E-03     41.9142E-03
            4075            4413     42.5198E-03     43.0430E-03
            4075            4414     46.8750E-03     46.7081E-03
            4075            4447     40.3339E-03     41.9142E-03
            4075            4448     46.7952E-03     48.0972E-03
            4076            4414     46.8750E-03     46.7081E-03
            4076            4415     51.3138E-03     50.1624E-03
            4076            4448     46.7952E-03     48.0972E-03
            4076            4449     53.7415E-03     53.5397E-03
            4077            4415     51.3138E-03     50.1624E-03
            4077            4416     54.0550E-03     57.3017E-03
            4077            4449     53.7415E-03     53.5397E-03
            4077            4450     57.6134E-03     64.1322E-03
            4078            4416     54.0550E-03     57.3017E-03
            4078            4417     64.6362E-03     59.2679E-03
            4078            4450     57.6134E-03     64.1322E-03
            4078            4451     72.4807E-03     67.6291E-03
            4079            4417     64.6362E-03     59.2679E-03
            4079            4418     65.8307E-03     63.7711E-03
            4079            4451     72.4807E-03     67.6291E-03
            4079            4452     74.7710E-03     74.1575E-03
            4080            4418     65.8307E-03     63.7711E-03
            4080            4419     55.7481E-03     66.6032E-03
            4080            4452     74.7710E-03     74.1575E-03
            4080            4453     62.5499E-03     79.3007E-03
            4081            4419     55.7481E-03     66.6032E-03
            4081            4420     60.4843E-03     60.7915E-03
            4081            4453     62.5499E-03     79.3007E-03
            4081            4454     69.6556E-03     69.9754E-03
            4082            4420     60.4843E-03     60.7915E-03
            4082            4421     65.1683E-03     64.5645E-03
            4082            4454     69.6556E-03     69.9754E-03
            4082            4455     72.5911E-03     72.0644E-03
            4083            4421     65.1683E-03     64.5645E-03
            4083            4422     65.8960E-03     68.5872E-03
            4083            4455     72.5911E-03     72.0644E-03
            4083            4456     71.8997E-03     76.4796E-03
            4084            4422     65.8960E-03     68.5872E-03
            4084            4423     70.4078E-03     70.7854E-03
            4084            4456     71.8997E-03     76.4796E-03
            4084            4457     77.9230E-03     79.9118E-03
            4085            4423     70.4078E-03     70.7854E-03
            4085            4424     75.4967E-03     75.3730E-03
            4085            4457     77.9230E-03     79.9118E-03
            4085            4458     84.1128E-03     87.2443E-03
            4086            4424     75.4967E-03     75.3730E-03
            4086            4425     80.6534E-03     78.9016E-03
            4086            4458     84.1128E-03     87.2443E-03
            4086            4459     91.7160E-03     92.0975E-03
            4087            4425     80.6534E-03     78.9016E-03
            4087            4426     83.4971E-03     88.4501E-03
            4087            4459     91.7160E-03     92.0975E-03
            4087            4460     95.0316E-03     105.318E-03
            4088            4426     83.4971E-03     88.4501E-03
            4088            4427     98.4781E-03     90.0440E-03
            4088            4460     95.0316E-03     105.318E-03
            4088            4461     115.493E-03     108.377E-03
            4089            4427     98.4781E-03     90.0440E-03
            4089            4428     98.6172E-03     95.2376E-03
            4089            4461     115.493E-03     108.377E-03
            4089            4462     117.743E-03     116.656E-03
            4090            4428     98.6172E-03     95.2376E-03
            4090            4429     82.9917E-03     101.843E-03
            4090            4462     117.743E-03     116.656E-03
            4090            4463     99.3654E-03     127.586E-03
            4091            4429     82.9917E-03     101.843E-03
            4091            4430     93.7448E-03     93.0805E-03
            4091            4463     99.3654E-03     127.586E-03
            4091            4464     113.726E-03     113.658E-03
            4092            4430     93.7448E-03     93.0805E-03
            4092            4431     100.118E-03     96.8404E-03
            4092            4464     113.726E-03     113.658E-03
            4092            4465     117.080E-03     114.420E-03
            4093            4431     100.118E-03     96.8404E-03
            4093            4432     97.2679E-03     101.893E-03
            4093            4465     117.080E-03     114.420E-03
            4093            4466     111.181E-03     119.594E-03
            4094            4432     97.2679E-03     101.893E-03
            4094            4433     102.439E-03     102.452E-03
            4094            4466     111.181E-03     119.594E-03
            4094            4467     118.094E-03     120.818E-03
            4095            4433     102.439E-03     102.452E-03
            4095            4434     107.759E-03     107.552E-03
            4095            4467     118.094E-03     120.818E-03
            4095            4468     124.096E-03     128.938E-03
            4096            4434     107.759E-03     107.552E-03
            4096            4435     113.189E-03     110.961E-03
            4096            4468     124.096E-03     128.938E-03
            4096            4469     132.111E-03     133.189E-03
            4097            4435     113.189E-03     110.961E-03
            4097            4436     115.770E-03     122.651E-03
            4097            4469     132.111E-03     133.189E-03
            4097            4470     134.718E-03     148.858E-03
            4098            4436     115.770E-03     122.651E-03
            4098            4437     134.844E-03     123.620E-03
            4098            4470     134.718E-03     148.858E-03
            4098            4471     160.617E-03     151.356E-03
            4099            4437     134.844E-03     123.620E-03
            4099            4438     133.705E-03     129.270E-03
            4099            4471     160.617E-03     151.356E-03
            4099            4472     162.623E-03     161.155E-03
            4100             751     115.248E-03     131.148E-03
            4100             752     139.538E-03     163.007E-03
            4100            4438     133.705E-03     129.270E-03
            4100            4472     162.623E-03     161.155E-03
            4101             199     10.7323E-03     10.4398E-03
            4101             200     6.04289E-03     7.65198E-03
            4101            4439     21.3329E-03     22.4438E-03
            4101            4473     10.7846E-03     14.5411E-03
            4102            4439     21.3329E-03     22.4438E-03
            4102            4440     24.4145E-03     23.2104E-03
            4102            4473     10.7846E-03     14.5411E-03
            4102            4474     16.5882E-03     14.5802E-03
            4103            4440     24.4145E-03     23.2104E-03
            4103            4441     25.4836E-03     25.5378E-03
            4103            4474     16.5882E-03     14.5802E-03
            4103            4475     22.9411E-03     23.0423E-03
            4104            4441     25.4836E-03     25.5378E-03
            4104            4442     24.7729E-03     27.7725E-03
            4104            4475     22.9411E-03     23.0423E-03
            4104            4476     20.5744E-03     24.0819E-03
            4105            4442     24.7729E-03     27.7725E-03
            4105            4443     26.7720E-03     27.7778E-03
            4105            4476     20.5744E-03     24.0819E-03
            4105            4477     18.9262E-03     18.3929E-03
            4106            4443     26.7720E-03     27.7778E-03
            4106            4444     28.1810E-03     29.4824E-03
            4106            4477     18.9262E-03     18.3929E-03
            4106            4478     21.4676E-03     21.4009E-03
            4107            4444     28.1810E-03     29.4824E-03
            4107            4445     31.1468E-03     31.9842E-03
            4107            4478     21.4676E-03     21.4009E-03
            4107            4479     27.2939E-03     27.1856E-03
            4108            4445     31.1468E-03     31.9842E-03
            4108            4446     35.7378E-03     36.1493E-03
            4108            4479     27.2939E-03     27.1856E-03
            4108            4480     34.1280E-03     34.5238E-03
            4109            4446     35.7378E-03     36.1493E-03
            4109            4447     40.3339E-03     41.9142E-03
            4109            4480     34.1280E-03     34.5238E-03
            4109            4481     41.2249E-03     42.1510E-03
            4110            4447     40.3339E-03     41.9142E-03
            4110            4448     46.7952E-03     48.0972E-03
            4110            4481     41.2249E-03     42.1510E-03
            4110            4482     48.9423E-03     50.3275E-03
            4111            4448     46.7952E-03     48.0972E-03
            4111            4449     53.7415E-03     53.5397E-03
            4111            4482     48.9423E-03     50.3275E-03
            4111            4483     57.8058E-03     57.1232E-03
            4112            4449     53.7415E-03     53.5397E-03
            4112            4450     57.6134E-03     64.1322E-03
            4112            4483     57.8058E-03     57.1232E-03
            4112            4484     63.2451E-03     68.8670E-03
            4113            4450     57.6134E-03     64.1322E-03
            4113            4451     72.4807E-03     67.6291E-03
            4113            4484     63.2451E-03     68.8670E-03
            4113            4485     79.0761E-03     75.1117E-03
            4114            4451     72.4807E-03     67.6291E-03
            4114            4452     74.7710E-03     74.1575E-03
            4114            4485     79.0761E-03     75.1117E-03
            4114            4486     85.7105E-03     84.9321E-03
            4115            4452     74.7710E-03     74.1575E-03
            4115            4453     62.5499E-03     79.3007E-03
            4115            4486     85.7105E-03     84.9321E-03
            4115            4487     70.9703E-03     84.3386E-03
            4116            4453     62.5499E-03     79.3007E-03
            4116            4454     69.6556E-03     69.9754E-03
            4116            4487     70.9703E-03     84.3386E-03
            4116            4488     71.2592E-03     68.8934E-03
            4117            4454     69.6556E-03     69.9754E-03
            4117            4455     72.5911E-03     72.0644E-03
            4117            4488     71.2592E-03     68.8934E-03
            4117            4489     74.8522E-03     73.1843E-03
            4118            4455     72.5911E-03     72.0644E-03
            4118            4456     71.8997E-03     76.4796E-03
            4118            4489     74.8522E-03     73.1843E-03
            4118            4490     77.3465E-03     80.6903E-03
            4119            4456     71.8997E-03     76.4796E-03
            4119            4457     77.9230E-03     79.9118E-03
            4119            4490     77.3465E-03     80.6903E-03
            4119            4491     85.8066E-03     86.7175E-03
            4120            4457     77.9230E-03     79.9118E-03
            4120            4458     84.1128E-03     87.2443E-03
            4120            4491     85.8066E-03     86.7175E-03
            4120            4492     93.0770E-03     95.9831E-03
            4121            4458     84.1128E-03     87.2443E-03
            4121            4459     91.7160E-03     92.0975E-03
            4121            4492     93.0770E-03     95.9831E-03
            4121            4493     102.681E-03     102.142E-03
            4122            4459     91.7160E-03     92.0975E-03
            4122            4460     95.0316E-03     105.318E-03
            4122            4493     102.681E-03     102.142E-03
            4122            4494     107.223E-03     115.924E-03
            4123            4460     95.0316E-03     105.318E-03
            4123            4461     115.493E-03     108.377E-03
            4123            4494     107.223E-03     115.924E-03
            4123            4495     127.555E-03     121.756E-03
            4124            4461     115.493E-03     108.377E-03
            4124            4462     117.743E-03     116.656E-03
            4124            4495     127.555E-03     121.756E-03
            4124            4496     135.131E-03     133.369E-03
            4125            4462     117.743E-03     116.656E-03
            4125            4463     99.3654E-03     127.586E-03
            4125            4496     135.131E-03     133.369E-03
            4125            4497     115.810E-03     138.249E-03
            4126            4463     99.3654E-03     127.586E-03
            4126            4464     113.726E-03     113.658E-03
            4126            4497     115.810E-03     138.249E-03
            4126            4498     121.836E-03     118.422E-03
            4127            4464     113.726E-03     113.658E-03
            4127            4465     117.080E-03     114.420E-03
            4127            4498     121.836E-03     118.422E-03
            4127            4499     124.730E-03     121.223E-03
            4128            4465     117.080E-03     114.420E-03
            4128            4466     111.181E-03     119.594E-03
            4128            4499     124.730E-03     121.223E-03
            4128            4500     122.929E-03     129.392E-03
            4129            4466     111.181E-03     119.594E-03
            4129            4467     118.094E-03     120.818E-03
            4129            4500     122.929E-03     129.392E-03
            4129            4501     132.496E-03     133.551E-03
            4130            4467     118.094E-03     120.818E-03
            4130            4468     124.096E-03     128.938E-03
            4130            4501     132.496E-03     133.551E-03
            4130            4502     139.240E-03     143.654E-03
            4131            4468     124.096E-03     128.938E-03
            4131            4469     132.111E-03     133.189E-03
            4131            4502     139.240E-03     143.654E-03
            4131            4503     149.419E-03     149.015E-03
            4132            4469     132.111E-03     133.189E-03
            4132            4470     134.718E-03     148.858E-03
            4132            4503     149.419E-03     149.015E-03
            4132            4504     152.913E-03     164.718E-03
            4133            4470     134.718E-03     148.858E-03
            4133            4471     160.617E-03     151.356E-03
            4133            4504     152.913E-03     164.718E-03
            4133            4505     177.635E-03     169.981E-03
            4134            4471     160.617E-03     151.356E-03
            4134            4472     162.623E-03     161.155E-03
            4134            4505     177.635E-03     169.981E-03
            4134            4506     186.025E-03     183.229E-03
            4135             752     139.538E-03     163.007E-03
            4135             753     162.010E-03     182.474E-03
            4135            4472     162.623E-03     161.155E-03
            4135            4506     186.025E-03     183.229E-03
            4136              13     3.32713E-03     6.53520E-03
            4136             200     6.04289E-03     7.65198E-03
            4136             787     6.21144E-03     10.8485E-03
            4136            4473     10.7846E-03     14.5411E-03
            4137             786     13.0960E-03     11.3909E-03
            4137             787     6.21144E-03     10.8485E-03
            4137            4473     10.7846E-03     14.5411E-03
            4137            4474     16.5882E-03     14.5802E-03
            4138             785     22.3743E-03     23.2439E-03
            4138             786     13.0960E-03     11.3909E-03
            4138            4474     16.5882E-03     14.5802E-03
            4138            4475     22.9411E-03     23.0423E-03
            4139             784     20.2340E-03     23.4342E-03
            4139             785     22.3743E-03     23.2439E-03
            4139            4475     22.9411E-03     23.0423E-03
            4139            4476     20.5744E-03     24.0819E-03
            4140             783     17.9155E-03     17.1575E-03
            4140             784     20.2340E-03     23.4342E-03
            4140            4476     20.5744E-03     24.0819E-03
            4140            4477     18.9262E-03     18.3929E-03
            4141             782     23.8491E-03     23.1374E-03
            4141             783     17.9155E-03     17.1575E-03
            4141            4477     18.9262E-03     18.3929E-03
            4141            4478     21.4676E-03     21.4009E-03
            4142             781     31.3606E-03     30.5812E-03
            4142             782     23.8491E-03     23.1374E-03
            4142            4478     21.4676E-03     21.4009E-03
            4142            4479     27.2939E-03     27.1856E-03
            4143             780     38.3847E-03     38.2911E-03
            4143             781     31.3606E-03     30.5812E-03
            4143            4479     27.2939E-03     27.1856E-03
            4143            4480     34.1280E-03     34.5238E-03
            4144             779     45.7482E-03     45.4949E-03
            4144             780     38.3847E-03     38.2911E-03
            4144            4480     34.1280E-03     34.5238E-03
            4144            4481     41.2249E-03     42.1510E-03
            4145             778     52.5870E-03     53.1079E-03
            4145             779     45.7482E-03     45.4949E-03
            4145            4481     41.2249E-03     42.1510E-03
            4145            4482     48.9423E-03     50.3275E-03
            4146             777     60.4765E-03     59.7382E-03
            4146             778     52.5870E-03     53.1079E-03
            4146            4482     48.9423E-03     50.3275E-03
            4146            4483     57.8058E-03     57.1232E-03
            4147             776     66.6536E-03     69.0959E-03
            4147             777     60.4765E-03     59.7382E-03
            4147            4483     57.8058E-03     57.1232E-03
            4147            4484     63.2451E-03     68.8670E-03
            4148             775     77.7896E-03     75.5867E-03
            4148             776     66.6536E-03     69.0959E-03
            4148            4484     63.2451E-03     68.8670E-03
            4148            4485     79.0761E-03     75.1117E-03
            4149             774     86.1584E-03     86.2047E-03
            4149             775     77.7896E-03     75.5867E-03
            4149            4485     79.0761E-03     75.1117E-03
            4149            4486     85.7105E-03     84.9321E-03
            4150             773     74.6212E-03     80.0744E-03
            4150             774     86.1584E-03     86.2047E-03
            4150            4486     85.7105E-03     84.9321E-03
            4150            4487     70.9703E-03     84.3386E-03
            4151             772     69.5926E-03     66.1504E-03
            4151             773     74.6212E-03     80.0744E-03
            4151            4487     70.9703E-03     84.3386E-03
            4151            4488     71.2592E-03     68.8934E-03
            4152             771     77.2233E-03     75.3667E-03
            4152             772     69.5926E-03     66.1504E-03
            4152            4488     71.2592E-03     68.8934E-03
            4152            4489     74.8522E-03     73.1843E-03
            4153             770     84.0076E-03     84.5897E-03
            4153             771     77.2233E-03     75.3667E-03
            4153            4489     74.8522E-03     73.1843E-03
            4153            4490     77.3465E-03     80.6903E-03
            4154             769     92.3345E-03     91.8262E-03
            4154             770     84.0076E-03     84.5897E-03
            4154            4490     77.3465E-03     80.6903E-03
            4154            4491     85.8066E-03     86.7175E-03
            4155             768     99.4615E-03     100.316E-03
            4155             769     92.3345E-03     91.8262E-03
            4155            4491     85.8066E-03     86.7175E-03
            4155            4492     93.0770E-03     95.9831E-03
            4156             767     107.922E-03     106.864E-03
            4156             768     99.4615E-03     100.316E-03
            4156            4492     93.0770E-03     95.9831E-03
            4156            4493     102.681E-03     102.142E-03
            4157             766     113.854E-03     117.276E-03
            4157             767     107.922E-03     106.864E-03
            4157            4493     102.681E-03     102.142E-03
            4157            4494     107.223E-03     115.924E-03
            4158             765     126.695E-03     123.254E-03
            4158             766     113.854E-03     117.276E-03
            4158            4494     107.223E-03     115.924E-03
            4158            4495     127.555E-03     121.756E-03
            4159             764     135.665E-03     134.524E-03
            4159             765     126.695E-03     123.254E-03
            4159            4495     127.555E-03     121.756E-03
            4159            4496     135.131E-03     133.369E-03
            4160             763     122.538E-03     131.340E-03
            4160             764     135.665E-03     134.524E-03
            4160            4496     135.131E-03     133.369E-03
            4160            4497     115.810E-03     138.249E-03
            4161             762     119.973E-03     115.319E-03
            4161             763     122.538E-03     131.340E-03
            4161            4497     115.810E-03     138.249E-03
            4161            4498     121.836E-03     118.422E-03
            4162             761     127.342E-03     124.240E-03
            4162             762     119.973E-03     115.319E-03
            4162            4498     121.836E-03     118.422E-03
            4162            4499     124.730E-03     121.223E-03
            4163             760     132.673E-03     134.306E-03
            4163             761     127.342E-03     124.240E-03
            4163            4499     124.730E-03     121.223E-03
            4163            4500     122.929E-03     129.392E-03
            4164             759     141.620E-03     140.764E-03
            4164             760     132.673E-03     134.306E-03
            4164            4500     122.929E-03     129.392E-03
            4164            4501     132.496E-03     133.551E-03
            4165             758     148.455E-03     149.776E-03
            4165             759     141.620E-03     140.764E-03
            4165            4501     132.496E-03     133.551E-03
            4165            4502     139.240E-03     143.654E-03
            4166             757     157.275E-03     155.864E-03
            4166             758     148.455E-03     149.776E-03
            4166            4502     139.240E-03     143.654E-03
            4166            4503     149.419E-03     149.015E-03
            4167             756     162.650E-03     167.119E-03
            4167             757     157.275E-03     155.864E-03
            4167            4503     149.419E-03     149.015E-03
            4167            4504     152.913E-03     164.718E-03
            4168             755     177.029E-03     172.324E-03
            4168             756     162.650E-03     167.119E-03
            4168            4504     152.913E-03     164.718E-03
            4168            4505     177.635E-03     169.981E-03
            4169             754     186.358E-03     184.053E-03
            4169             755     177.029E-03     172.324E-03
            4169            4505     177.635E-03     169.981E-03
            4169            4506     186.025E-03     183.229E-03
            4170              34     171.135E-03     181.925E-03
            4170             753     162.010E-03     182.474E-03
            4170             754     186.358E-03     184.053E-03
            4170            4506     186.025E-03     183.229E-03
            4171              34     171.135E-03     181.925E-03
            4171             754     186.358E-03     184.053E-03
            4171             788     158.086E-03     163.429E-03
            4171            4507     163.147E-03     165.947E-03
            4172              35     143.340E-03     146.610E-03
            4172             788     158.086E-03     163.429E-03
            4172             789     141.936E-03     145.727E-03
            4172            4507     163.147E-03     165.947E-03
            4173             754     186.358E-03     184.053E-03
            4173             755     177.029E-03     172.324E-03
            4173            4507     163.147E-03     165.947E-03
            4173            4508     163.100E-03     164.015E-03
            4174             789     141.936E-03     145.727E-03
            4174             790     147.174E-03     149.761E-03
            4174            4507     163.147E-03     165.947E-03
            4174            4508     163.100E-03     164.015E-03
            4175             755     177.029E-03     172.324E-03
            4175             756     162.650E-03     167.119E-03
            4175            4508     163.100E-03     164.015E-03
            4175            4509     157.621E-03     160.566E-03
            4176             790     147.174E-03     149.761E-03
            4176             791     146.876E-03     149.603E-03
            4176            4508     163.100E-03     164.015E-03
            4176            4509     157.621E-03     160.566E-03
            4177             756     162.650E-03     167.119E-03
            4177             757     157.275E-03     155.864E-03
            4177            4509     157.621E-03     160.566E-03
            4177            4510     152.546E-03     154.524E-03
            4178             791     146.876E-03     149.603E-03
            4178             792     143.704E-03     146.848E-03
            4178            4509     157.621E-03     160.566E-03
            4178            4510     152.546E-03     154.524E-03
            4179             757     157.275E-03     155.864E-03
            4179             758     148.455E-03     149.776E-03
            4179            4510     152.546E-03     154.524E-03
            4179            4511     146.583E-03     148.817E-03
            4180             792     143.704E-03     146.848E-03
            4180             793     139.972E-03     142.669E-03
            4180            4510     152.546E-03     154.524E-03
            4180            4511     146.583E-03     148.817E-03
            4181             758     148.455E-03     149.776E-03
            4181             759     141.620E-03     140.764E-03
            4181            4511     146.583E-03     148.817E-03
            4181            4512     140.749E-03     142.459E-03
            4182             793     139.972E-03     142.669E-03
            4182             794     135.253E-03     138.025E-03
            4182            4511     146.583E-03     148.817E-03
            4182            4512     140.749E-03     142.459E-03
            4183             759     141.620E-03     140.764E-03
            4183             760     132.673E-03     134.306E-03
            4183            4512     140.749E-03     142.459E-03
            4183            4513     134.019E-03     135.829E-03
            4184             794     135.253E-03     138.025E-03
            4184             795     130.053E-03     132.282E-03
            4184            4512     140.749E-03     142.459E-03
            4184            4513     134.019E-03     135.829E-03
            4185             760     132.673E-03     134.306E-03
            4185             761     127.342E-03     124.240E-03
            4185            4513     134.019E-03     135.829E-03
            4185            4514     126.618E-03     127.299E-03
            4186             795     130.053E-03     132.282E-03
            4186             796     124.205E-03     125.237E-03
            4186            4513     134.019E-03     135.829E-03
            4186            4514     126.618E-03     127.299E-03
            4187             761     127.342E-03     124.240E-03
            4187             762     119.973E-03     115.319E-03
            4187            4514     126.618E-03     127.299E-03
            4187            4515     118.576E-03     116.523E-03
            4188             796     124.205E-03     125.237E-03
            4188             797     118.066E-03     116.352E-03
            4188            4514     126.618E-03     127.299E-03
            4188            4515     118.576E-03     116.523E-03
            4189             762     119.973E-03     115.319E-03
            4189             763     122.538E-03     131.340E-03
            4189            4515     118.576E-03     116.523E-03
            4189            4516     114.233E-03     116.324E-03
            4190             797     118.066E-03     116.352E-03
            4190             798     105.478E-03     105.656E-03
            4190            4515     118.576E-03     116.523E-03
            4190            4516     114.233E-03     116.324E-03
            4191             763     122.538E-03     131.340E-03
            4191             764     135.665E-03     134.524E-03
            4191            4516     114.233E-03     116.324E-03
            4191            4517     116.505E-03     119.209E-03
            4192             798     105.478E-03     105.656E-03
            4192             799     98.6239E-03     102.085E-03
            4192            4516     114.233E-03     116.324E-03
            4192            4517     116.505E-03     119.209E-03
            4193             764     135.665E-03     134.524E-03
            4193             765     126.695E-03     123.254E-03
            4193            4517     116.505E-03     119.209E-03
            4193            4518     115.225E-03     115.827E-03
            4194             799     98.6239E-03     102.085E-03
            4194             800     101.993E-03     103.973E-03
            4194            4517     116.505E-03     119.209E-03
            4194            4518     115.225E-03     115.827E-03
            4195             765     126.695E-03     123.254E-03
            4195             766     113.854E-03     117.276E-03
            4195            4518     115.225E-03     115.827E-03
            4195            4519     109.481E-03     111.589E-03
            4196             800     101.993E-03     103.973E-03
            4196             801     100.784E-03     102.677E-03
            4196            4518     115.225E-03     115.827E-03
            4196            4519     109.481E-03     111.589E-03
            4197             766     113.854E-03     117.276E-03
            4197             767     107.922E-03     106.864E-03
            4197            4519     109.481E-03     111.589E-03
            4197            4520     104.175E-03     105.499E-03
            4198             801     100.784E-03     102.677E-03
            4198             802     97.2791E-03     99.4279E-03
            4198            4519     109.481E-03     111.589E-03
            4198            4520     104.175E-03     105.499E-03
            4199             767     107.922E-03     106.864E-03
            4199             768     99.4615E-03     100.316E-03
            4199            4520     104.175E-03     105.499E-03
            4199            4521     98.2709E-03     99.7150E-03
            4200             802     97.2791E-03     99.4279E-03
            4200             803     93.3936E-03     95.1790E-03
            4200            4520     104.175E-03     105.499E-03
            4200            4521     98.2709E-03     99.7150E-03
            4201             768     99.4615E-03     100.316E-03
            4201             769     92.3345E-03     91.8262E-03
            4201            4521     98.2709E-03     99.7150E-03
            4201            4522     92.4481E-03     93.5002E-03
            4202             803     93.3936E-03     95.1790E-03
            4202             804     88.8359E-03     90.6110E-03
            4202            4521     98.2709E-03     99.7150E-03
            4202            4522     92.4481E-03     93.5002E-03
            4203             769     92.3345E-03     91.8262E-03
            4203             770     84.0076E-03     84.5897E-03
            4203            4522     92.4481E-03     93.5002E-03
            4203            4523     86.0172E-03     86.9837E-03
            4204             804     88.8359E-03     90.6110E-03
            4204             805     83.9749E-03     85.3673E-03
            4204            4522     92.4481E-03     93.5002E-03
            4204            4523     86.0172E-03     86.9837E-03
            4205             770     84.0076E-03     84.5897E-03
            4205             771     77.2233E-03     75.3667E-03
            4205            4523     86.0172E-03     86.9837E-03
            4205            4524     78.9587E-03     79.3031E-03
            4206             805     83.9749E-03     85.3673E-03
            4206             806     79.0368E-03     79.4621E-03
            4206            4523     86.0172E-03     86.9837E-03
            4206            4524     78.9587E-03     79.3031E-03
            4207             771     77.2233E-03     75.3667E-03
            4207             772     69.5926E-03     66.1504E-03
            4207            4524     78.9587E-03     79.3031E-03
            4207            4525     72.1825E-03     70.0901E-03
            4208             806     79.0368E-03     79.4621E-03
            4208             807     74.7600E-03     72.7259E-03
            4208            4524     78.9587E-03     79.3031E-03
            4208            4525     72.1825E-03     70.0901E-03
            4209             772     69.5926E-03     66.1504E-03
            4209             773     74.6212E-03     80.0744E-03
            4209            4525     72.1825E-03     70.0901E-03
            4209            4526     69.2305E-03     70.7453E-03
            4210             807     74.7600E-03     72.7259E-03
            4210             808     63.2740E-03     63.4549E-03
            4210            4525     72.1825E-03     70.0901E-03
            4210            4526     69.2305E-03     70.7453E-03
            4211             773     74.6212E-03     80.0744E-03
            4211             774     86.1584E-03     86.2047E-03
            4211            4526     69.2305E-03     70.7453E-03
            4211            4527     70.5659E-03     73.2252E-03
            4212             808     63.2740E-03     63.4549E-03
            4212             809     55.2895E-03     58.4412E-03
            4212            4526     69.2305E-03     70.7453E-03
            4212            4527     70.5659E-03     73.2252E-03
            4213             774     86.1584E-03     86.2047E-03
            4213             775     77.7896E-03     75.5867E-03
            4213            4527     70.5659E-03     73.2252E-03
            4213            4528     68.2986E-03     68.5369E-03
            4214             809     55.2895E-03     58.4412E-03
            4214             810     56.8628E-03     58.1956E-03
            4214            4527     70.5659E-03     73.2252E-03
            4214            4528     68.2986E-03     68.5369E-03
            4215             775     77.7896E-03     75.5867E-03
            4215             776     66.6536E-03     69.0959E-03
            4215            4528     68.2986E-03     68.5369E-03
            4215            4529     62.4726E-03     63.7105E-03
            4216             810     56.8628E-03     58.1956E-03
            4216             811     54.7934E-03     55.7882E-03
            4216            4528     68.2986E-03     68.5369E-03
            4216            4529     62.4726E-03     63.7105E-03
            4217             776     66.6536E-03     69.0959E-03
            4217             777     60.4765E-03     59.7382E-03
            4217            4529     62.4726E-03     63.7105E-03
            4217            4530     57.1501E-03     57.7836E-03
            4218             811     54.7934E-03     55.7882E-03
            4218             812     50.9856E-03     52.0835E-03
            4218            4529     62.4726E-03     63.7105E-03
            4218            4530     57.1501E-03     57.7836E-03
            4219             777     60.4765E-03     59.7382E-03
            4219             778     52.5870E-03     53.1079E-03
            4219            4530     57.1501E-03     57.7836E-03
            4219            4531     51.5614E-03     52.1966E-03
            4220             812     50.9856E-03     52.0835E-03
            4220             813     47.0306E-03     47.8115E-03
            4220            4530     57.1501E-03     57.7836E-03
            4220            4531     51.5614E-03     52.1966E-03
            4221             778     52.5870E-03     53.1079E-03
            4221             779     45.7482E-03     45.4949E-03
            4221            4531     51.5614E-03     52.1966E-03
            4221            4532     46.1444E-03     46.4748E-03
            4222             813     47.0306E-03     47.8115E-03
            4222             814     42.6720E-03     43.4215E-03
            4222            4531     51.5614E-03     52.1966E-03
            4222            4532     46.1444E-03     46.4748E-03
            4223             779     45.7482E-03     45.4949E-03
            4223             780     38.3847E-03     38.2911E-03
            4223            4532     46.1444E-03     46.4748E-03
            4223            4533     40.4898E-03     40.6813E-03
            4224             814     42.6720E-03     43.4215E-03
            4224             815     38.2706E-03     38.7880E-03
            4224            4532     46.1444E-03     46.4748E-03
            4224            4533     40.4898E-03     40.6813E-03
            4225             780     38.3847E-03     38.2911E-03
            4225             781     31.3606E-03     30.5812E-03
            4225            4533     40.4898E-03     40.6813E-03
            4225            4534     34.7290E-03     34.6009E-03
            4226             815     38.2706E-03     38.7880E-03
            4226             816     33.6151E-03     34.0335E-03
            4226            4533     40.4898E-03     40.6813E-03
            4226            4534     34.7290E-03     34.6009E-03
            4227             781     31.3606E-03     30.5812E-03
            4227             782     23.8491E-03     23.1374E-03
            4227            4534     34.7290E-03     34.6009E-03
            4227            4535     28.6286E-03     28.3260E-03
            4228             816     33.6151E-03     34.0335E-03
            4228             817     29.5649E-03     29.2914E-03
            4228            4534     34.7290E-03     34.6009E-03
            4228            4535     28.6286E-03     28.3260E-03
            4229             782     23.8491E-03     23.1374E-03
            4229             783     17.9155E-03     17.1575E-03
            4229            4535     28.6286E-03     28.3260E-03
            4229            4536     23.7868E-03     22.5799E-03
            4230             817     29.5649E-03     29.2914E-03
            4230             818     27.2277E-03     25.0186E-03
            4230            4535     28.6286E-03     28.3260E-03
            4230            4536     23.7868E-03     22.5799E-03
            4231             783     17.9155E-03     17.1575E-03
            4231             784     20.2340E-03     23.4342E-03
            4231            4536     23.7868E-03     22.5799E-03
            4231            4537     19.6040E-03     21.2782E-03
            4232             818     27.2277E-03     25.0186E-03
            4232             819     18.3991E-03     18.7042E-03
            4232            4536     23.7868E-03     22.5799E-03
            4232            4537     19.6040E-03     21.2782E-03
            4233             784     20.2340E-03     23.4342E-03
            4233             785     22.3743E-03     23.2439E-03
            4233            4537     19.6040E-03     21.2782E-03
            4233            4538     16.2878E-03     18.6339E-03
            4234             819     18.3991E-03     18.7042E-03
            4234             820     11.3632E-03     14.1357E-03
            4234            4537     19.6040E-03     21.2782E-03
            4234            4538     16.2878E-03     18.6339E-03
            4235             785     22.3743E-03     23.2439E-03
            4235             786     13.0960E-03     11.3909E-03
            4235            4538     16.2878E-03     18.6339E-03
            4235            4539     12.5167E-03     12.1194E-03
            4236             820     11.3632E-03     14.1357E-03
            4236             821     12.6296E-03     12.8307E-03
            4236            4538     16.2878E-03     18.6339E-03
            4236            4539     12.5167E-03     12.1194E-03
            4237             786     13.0960E-03     11.3909E-03
            4237             787     6.21144E-03     10.8485E-03
            4237            4539     12.5167E-03     12.1194E-03
            4237            4540     8.95213E-03     9.34696E-03
            4238             821     12.6296E-03     12.8307E-03
            4238             822     12.0569E-03     9.73003E-03
            4238            4539     12.5167E-03     12.1194E-03
            4238            4540     8.95213E-03     9.34696E-03
            4239              13     3.32713E-03     6.53520E-03
            4239             787     6.21144E-03     10.8485E-03
            4239             823     4.20753E-03     4.57595E-03
            4239            4540     8.95213E-03     9.34696E-03
            4240              36     5.67083E-03     3.86388E-03
            4240             822     12.0569E-03     9.73003E-03
            4240             823     4.20753E-03     4.57595E-03
            4240            4540     8.95213E-03     9.34696E-03
            4241              22     9.28166E-03     9.98339E-03
            4241             407     12.3443E-03     12.6798E-03
            4241             602     7.46478E-03     8.98078E-03
            4241            4541     10.2262E-03     12.3460E-03
            4242             406     18.8503E-03     19.0203E-03
            4242             407     12.3443E-03     12.6798E-03
            4242            4541     10.2262E-03     12.3460E-03
            4242            4542     16.9045E-03     19.6215E-03
            4243             405     26.0474E-03     26.5344E-03
            4243             406     18.8503E-03     19.0203E-03
            4243            4542     16.9045E-03     19.6215E-03
            4243            4543     24.9142E-03     27.5918E-03
            4244             404     33.6582E-03     34.3694E-03
            4244             405     26.0474E-03     26.5344E-03
            4244            4543     24.9142E-03     27.5918E-03
            4244            4544     33.1364E-03     35.8003E-03
            4245             403     41.4618E-03     42.2998E-03
            4245             404     33.6582E-03     34.3694E-03
            4245            4544     33.1364E-03     35.8003E-03
            4245            4545     41.4486E-03     44.1035E-03
            4246             402     49.3826E-03     50.2660E-03
            4246             403     41.4618E-03     42.2998E-03
            4246            4545     41.4486E-03     44.1035E-03
            4246            4546     49.8072E-03     52.4526E-03
            4247             401     57.3487E-03     58.2518E-03
            4247             402     49.3826E-03     50.2660E-03
            4247            4546     49.8072E-03     52.4526E-03
            4247            4547     58.1876E-03     60.8327E-03
            4248             400     65.3408E-03     66.2333E-03
            4248             401     57.3487E-03     58.2518E-03
            4248            4547     58.1876E-03     60.8327E-03
            4248            4548     66.5871E-03     69.2264E-03
            4249             399     73.3245E-03     74.2137E-03
            4249             400     65.3408E-03     66.2333E-03
            4249            4548     66.5871E-03     69.2264E-03
            4249            4549     74.9930E-03     77.6357E-03
            4250             398     81.3052E-03     82.1660E-03
            4250             399     73.3245E-03     74.2137E-03
            4250            4549     74.9930E-03     77.6357E-03
            4250            4550     83.4142E-03     86.0448E-03
            4251             397     89.2436E-03     90.1071E-03
            4251             398     81.3052E-03     82.1660E-03
            4251            4550     83.4142E-03     86.0448E-03
            4251            4551     91.8238E-03     94.4769E-03
            4252             396     97.1890E-03     97.9838E-03
            4252             397     89.2436E-03     90.1071E-03
            4252            4551     91.8238E-03     94.4769E-03
            4252            4552     100.272E-03     102.879E-03
            4253             395     105.058E-03     105.863E-03
            4253             396     97.1890E-03     97.9838E-03
            4253            4552     100.272E-03     102.879E-03
            4253            4553     108.660E-03     111.350E-03
            4254             394     113.009E-03     113.632E-03
            4254             395     105.058E-03     105.863E-03
            4254            4553     108.660E-03     111.350E-03
            4254            4554     117.164E-03     119.713E-03
            4255             393     120.854E-03     121.489E-03
            4255             394     113.009E-03     113.632E-03
            4255            4554     117.164E-03     119.713E-03
            4255            4555     125.497E-03     128.262E-03
            4256             392     128.986E-03     129.235E-03
            4256             393     120.854E-03     121.489E-03
            4256            4555     125.497E-03     128.262E-03
            4256            4556     134.100E-03     136.560E-03
            4257             391     137.092E-03     137.362E-03
            4257             392     128.986E-03     129.235E-03
            4257            4556     134.100E-03     136.560E-03
            4257            4557     142.377E-03     145.206E-03
            4258             390     145.867E-03     145.723E-03
            4258             391     137.092E-03     137.362E-03
            4258            4557     142.377E-03     145.206E-03
            4258            4558     150.982E-03     153.472E-03
            4259              21     155.627E-03     155.647E-03
            4259             390     145.867E-03     145.723E-03
            4259             748     159.372E-03     161.910E-03
            4259            4558     150.982E-03     153.472E-03
            4260             602     7.46478E-03     8.98078E-03
            4260             603     11.2596E-03     15.4648E-03
            4260            4541     10.2262E-03     12.3460E-03
            4260            4559     13.8771E-03     18.0159E-03
            4261            4541     10.2262E-03     12.3460E-03
            4261            4542     16.9045E-03     19.6215E-03
            4261            4559     13.8771E-03     18.0159E-03
            4261            4560     20.1737E-03     24.2236E-03
            4262            4542     16.9045E-03     19.6215E-03
            4262            4543     24.9142E-03     27.5918E-03
            4262            4560     20.1737E-03     24.2236E-03
            4262            4561     27.8646E-03     31.9244E-03
            4263            4543     24.9142E-03     27.5918E-03
            4263            4544     33.1364E-03     35.8003E-03
            4263            4561     27.8646E-03     31.9244E-03
            4263            4562     36.0605E-03     40.1667E-03
            4264            4544     33.1364E-03     35.8003E-03
            4264            4545     41.4486E-03     44.1035E-03
            4264            4562     36.0605E-03     40.1667E-03
            4264            4563     44.5293E-03     48.6196E-03
            4265            4545     41.4486E-03     44.1035E-03
            4265            4546     49.8072E-03     52.4526E-03
            4265            4563     44.5293E-03     48.6196E-03
            4265            4564     53.1327E-03     57.2047E-03
            4266            4546     49.8072E-03     52.4526E-03
            4266            4547     58.1876E-03     60.8327E-03
            4266            4564     53.1327E-03     57.2047E-03
            4266            4565     61.8064E-03     65.8733E-03
            4267            4547     58.1876E-03     60.8327E-03
            4267            4548     66.5871E-03     69.2264E-03
            4267            4565     61.8064E-03     65.8733E-03
            4267            4566     70.5273E-03     74.5911E-03
            4268            4548     66.5871E-03     69.2264E-03
            4268            4549     74.9930E-03     77.6357E-03
            4268            4566     70.5273E-03     74.5911E-03
            4268            4567     79.2657E-03     83.3335E-03
            4269            4549     74.9930E-03     77.6357E-03
            4269            4550     83.4142E-03     86.0448E-03
            4269            4567     79.2657E-03     83.3335E-03
            4269            4568     88.0206E-03     92.0896E-03
            4270            4550     83.4142E-03     86.0448E-03
            4270            4551     91.8238E-03     94.4769E-03
            4270            4568     88.0206E-03     92.0896E-03
            4270            4569     96.7556E-03     100.837E-03
            4271            4551     91.8238E-03     94.4769E-03
            4271            4552     100.272E-03     102.879E-03
            4271            4569     96.7556E-03     100.837E-03
            4271            4570     105.496E-03     109.566E-03
            4272            4552     100.272E-03     102.879E-03
            4272            4553     108.660E-03     111.350E-03
            4272            4570     105.496E-03     109.566E-03
            4272            4571     114.154E-03     118.264E-03
            4273            4553     108.660E-03     111.350E-03
            4273            4554     117.164E-03     119.713E-03
            4273            4571     114.154E-03     118.264E-03
            4273            4572     122.836E-03     126.883E-03
            4274            4554     117.164E-03     119.713E-03
            4274            4555     125.497E-03     128.262E-03
            4274            4572     122.836E-03     126.883E-03
            4274            4573     131.313E-03     135.460E-03
            4275            4555     125.497E-03     128.262E-03
            4275            4556     134.100E-03     136.560E-03
            4275            4573     131.313E-03     135.460E-03
            4275            4574     139.897E-03     143.806E-03
            4276            4556     134.100E-03     136.560E-03
            4276            4557     142.377E-03     145.206E-03
            4276            4574     139.897E-03     143.806E-03
            4276            4575     148.005E-03     152.077E-03
            4277            4557     142.377E-03     145.206E-03
            4277            4558     150.982E-03     153.472E-03
            4277            4575     148.005E-03     152.077E-03
            4277            4576     156.087E-03     159.764E-03
            4278             747     162.865E-03     166.377E-03
            4278             748     159.372E-03     161.910E-03
            4278            4558     150.982E-03     153.472E-03
            4278            4576     156.087E-03     159.764E-03
            4279             603     11.2596E-03     15.4648E-03
            4279             604     15.5554E-03     19.4038E-03
            4279            4559     13.8771E-03     18.0159E-03
            4279            4577     18.2323E-03     20.7905E-03
            4280            4559     13.8771E-03     18.0159E-03
            4280            4560     20.1737E-03     24.2236E-03
            4280            4577     18.2323E-03     20.7905E-03
            4280            4578     24.5699E-03     25.5437E-03
            4281            4560     20.1737E-03     24.2236E-03
            4281            4561     27.8646E-03     31.9244E-03
            4281            4578     24.5699E-03     25.5437E-03
            4281            4579     32.3497E-03     32.9627E-03
            4282            4561     27.8646E-03     31.9244E-03
            4282            4562     36.0605E-03     40.1667E-03
            4282            4579     32.3497E-03     32.9627E-03
            4282            4580     40.7836E-03     41.3139E-03
            4283            4562     36.0605E-03     40.1667E-03
            4283            4563     44.5293E-03     48.6196E-03
            4283            4580     40.7836E-03     41.3139E-03
            4283            4581     49.5237E-03     50.0528E-03
            4284            4563     44.5293E-03     48.6196E-03
            4284            4564     53.1327E-03     57.2047E-03
            4284            4581     49.5237E-03     50.0528E-03
            4284            4582     58.4548E-03     58.9939E-03
            4285            4564     53.1327E-03     57.2047E-03
            4285            4565     61.8064E-03     65.8733E-03
            4285            4582     58.4548E-03     58.9939E-03
            4285            4583     67.5071E-03     68.0410E-03
            4286            4565     61.8064E-03     65.8733E-03
            4286            4566     70.5273E-03     74.5911E-03
            4286            4583     67.5071E-03     68.0410E-03
            4286            4584     76.6215E-03     77.1582E-03
            4287            4566     70.5273E-03     74.5911E-03
            4287            4567     79.2657E-03     83.3335E-03
            4287            4584     76.6215E-03     77.1582E-03
            4287            4585     85.7800E-03     86.3167E-03
            4288            4567     79.2657E-03     83.3335E-03
            4288            4568     88.0206E-03     92.0896E-03
            4288            4585     85.7800E-03     86.3167E-03
            4288            4586     94.9509E-03     95.4902E-03
            4289            4568     88.0206E-03     92.0896E-03
            4289            4569     96.7556E-03     100.837E-03
            4289            4586     94.9509E-03     95.4902E-03
            4289            4587     104.131E-03     104.670E-03
            4290            4569     96.7556E-03     100.837E-03
            4290            4570     105.496E-03     109.566E-03
            4290            4587     104.131E-03     104.670E-03
            4290            4588     113.282E-03     113.826E-03
            4291            4570     105.496E-03     109.566E-03
            4291            4571     114.154E-03     118.264E-03
            4291            4588     113.282E-03     113.826E-03
            4291            4589     122.422E-03     122.960E-03
            4292            4571     114.154E-03     118.264E-03
            4292            4572     122.836E-03     126.883E-03
            4292            4589     122.422E-03     122.960E-03
            4292            4590     131.478E-03     132.030E-03
            4293            4572     122.836E-03     126.883E-03
            4293            4573     131.313E-03     135.460E-03
            4293            4590     131.478E-03     132.030E-03
            4293            4591     140.542E-03     141.041E-03
            4294            4573     131.313E-03     135.460E-03
            4294            4574     139.897E-03     143.806E-03
            4294            4591     140.542E-03     141.041E-03
            4294            4592     149.405E-03     149.950E-03
            4295            4574     139.897E-03     143.806E-03
            4295            4575     148.005E-03     152.077E-03
            4295            4592     149.405E-03     149.950E-03
            4295            4593     158.333E-03     158.683E-03
            4296            4575     148.005E-03     152.077E-03
            4296            4576     156.087E-03     159.764E-03
            4296            4593     158.333E-03     158.683E-03
            4296            4594     166.660E-03     167.003E-03
            4297             746     173.753E-03     174.573E-03
            4297             747     162.865E-03     166.377E-03
            4297            4576     156.087E-03     159.764E-03
            4297            4594     166.660E-03     167.003E-03
            4298             604     15.5554E-03     19.4038E-03
            4298             605     11.1682E-03     12.9648E-03
            4298            4577     18.2323E-03     20.7905E-03
            4298            4595     13.5048E-03     16.3108E-03
            4299            4577     18.2323E-03     20.7905E-03
            4299            4578     24.5699E-03     25.5437E-03
            4299            4595     13.5048E-03     16.3108E-03
            4299            4596     20.2002E-03     23.2199E-03
            4300            4578     24.5699E-03     25.5437E-03
            4300            4579     32.3497E-03     32.9627E-03
            4300            4596     20.2002E-03     23.2199E-03
            4300            4597     29.0652E-03     31.1239E-03
            4301            4579     32.3497E-03     32.9627E-03
            4301            4580     40.7836E-03     41.3139E-03
            4301            4597     29.0652E-03     31.1239E-03
            4301            4598     38.0672E-03     40.0162E-03
            4302            4580     40.7836E-03     41.3139E-03
            4302            4581     49.5237E-03     50.0528E-03
            4302            4598     38.0672E-03     40.0162E-03
            4302            4599     47.1510E-03     49.1699E-03
            4303            4581     49.5237E-03     50.0528E-03
            4303            4582     58.4548E-03     58.9939E-03
            4303            4599     47.1510E-03     49.1699E-03
            4303            4600     56.3463E-03     58.4076E-03
            4304            4582     58.4548E-03     58.9939E-03
            4304            4583     67.5071E-03     68.0410E-03
            4304            4600     56.3463E-03     58.4076E-03
            4304            4601     65.5914E-03     67.6936E-03
            4305            4583     67.5071E-03     68.0410E-03
            4305            4584     76.6215E-03     77.1582E-03
            4305            4601     65.5914E-03     67.6936E-03
            4305            4602     74.8861E-03     77.0028E-03
            4306            4584     76.6215E-03     77.1582E-03
            4306            4585     85.7800E-03     86.3167E-03
            4306            4602     74.8861E-03     77.0028E-03
            4306            4603     84.2071E-03     86.3310E-03
            4307            4585     85.7800E-03     86.3167E-03
            4307            4586     94.9509E-03     95.4902E-03
            4307            4603     84.2071E-03     86.3310E-03
            4307            4604     93.5513E-03     95.6764E-03
            4308            4586     94.9509E-03     95.4902E-03
            4308            4587     104.131E-03     104.670E-03
            4308            4604     93.5513E-03     95.6764E-03
            4308            4605     102.910E-03     105.037E-03
            4309            4587     104.131E-03     104.670E-03
            4309            4588     113.282E-03     113.826E-03
            4309            4605     102.910E-03     105.037E-03
            4309            4606     112.293E-03     114.416E-03
            4310            4588     113.282E-03     113.826E-03
            4310            4589     122.422E-03     122.960E-03
            4310            4606     112.293E-03     114.416E-03
            4310            4607     121.693E-03     123.819E-03
            4311            4589     122.422E-03     122.960E-03
            4311            4590     131.478E-03     132.030E-03
            4311            4607     121.693E-03     123.819E-03
            4311            4608     131.145E-03     133.263E-03
            4312            4590     131.478E-03     132.030E-03
            4312            4591     140.542E-03     141.041E-03
            4312            4608     131.145E-03     133.263E-03
            4312            4609     140.630E-03     142.787E-03
            4313            4591     140.542E-03     141.041E-03
            4313            4592     149.405E-03     149.950E-03
            4313            4609     140.630E-03     142.787E-03
            4313            4610     150.260E-03     152.449E-03
            4314            4592     149.405E-03     149.950E-03
            4314            4593     158.333E-03     158.683E-03
            4314            4610     150.260E-03     152.449E-03
            4314            4611     159.902E-03     162.320E-03
            4315            4593     158.333E-03     158.683E-03
            4315            4594     166.660E-03     167.003E-03
            4315            4611     159.902E-03     162.320E-03
            4315            4612     170.150E-03     172.673E-03
            4316             745     180.484E-03     183.014E-03
            4316             746     173.753E-03     174.573E-03
            4316            4594     166.660E-03     167.003E-03
            4316            4612     170.150E-03     172.673E-03
            4317             605     11.1682E-03     12.9648E-03
            4317             606     5.39438E-03     8.45032E-03
            4317            4595     13.5048E-03     16.3108E-03
            4317            4613     9.22077E-03     12.8953E-03
            4318            4595     13.5048E-03     16.3108E-03
            4318            4596     20.2002E-03     23.2199E-03
            4318            4613     9.22077E-03     12.8953E-03
            4318            4614     17.6136E-03     21.6503E-03
            4319            4596     20.2002E-03     23.2199E-03
            4319            4597     29.0652E-03     31.1239E-03
            4319            4614     17.6136E-03     21.6503E-03
            4319            4615     26.8309E-03     30.5045E-03
            4320            4597     29.0652E-03     31.1239E-03
            4320            4598     38.0672E-03     40.0162E-03
            4320            4615     26.8309E-03     30.5045E-03
            4320            4616     36.1386E-03     39.7300E-03
            4321            4598     38.0672E-03     40.0162E-03
            4321            4599     47.1510E-03     49.1699E-03
            4321            4616     36.1386E-03     39.7300E-03
            4321            4617     45.4584E-03     49.0929E-03
            4322            4599     47.1510E-03     49.1699E-03
            4322            4600     56.3463E-03     58.4076E-03
            4322            4617     45.4584E-03     49.0929E-03
            4322            4618     54.7949E-03     58.4742E-03
            4323            4600     56.3463E-03     58.4076E-03
            4323            4601     65.5914E-03     67.6936E-03
            4323            4618     54.7949E-03     58.4742E-03
            4323            4619     64.1560E-03     67.8663E-03
            4324            4601     65.5914E-03     67.6936E-03
            4324            4602     74.8861E-03     77.0028E-03
            4324            4619     64.1560E-03     67.8663E-03
            4324            4620     73.5377E-03     77.2583E-03
            4325            4602     74.8861E-03     77.0028E-03
            4325            4603     84.2071E-03     86.3310E-03
            4325            4620     73.5377E-03     77.2583E-03
            4325            4621     82.9307E-03     86.6542E-03
            4326            4603     84.2071E-03     86.3310E-03
            4326            4604     93.5513E-03     95.6764E-03
            4326            4621     82.9307E-03     86.6542E-03
            4326            4622     92.3357E-03     96.0605E-03
            4327            4604     93.5513E-03     95.6764E-03
            4327            4605     102.910E-03     105.037E-03
            4327            4622     92.3357E-03     96.0605E-03
            4327            4623     101.751E-03     105.473E-03
            4328            4605     102.910E-03     105.037E-03
            4328            4606     112.293E-03     114.416E-03
            4328            4623     101.751E-03     105.473E-03
            4328            4624     111.185E-03     114.906E-03
            4329            4606     112.293E-03     114.416E-03
            4329            4607     121.693E-03     123.819E-03
            4329            4624     111.185E-03     114.906E-03
            4329            4625     120.635E-03     124.352E-03
            4330            4607     121.693E-03     123.819E-03
            4330            4608     131.145E-03     133.263E-03
            4330            4625     120.635E-03     124.352E-03
            4330            4626     130.132E-03     133.847E-03
            4331            4608     131.145E-03     133.263E-03
            4331            4609     140.630E-03     142.787E-03
            4331            4626     130.132E-03     133.847E-03
            4331            4627     139.648E-03     143.396E-03
            4332            4609     140.630E-03     142.787E-03
            4332            4610     150.260E-03     152.449E-03
            4332            4627     139.648E-03     143.396E-03
            4332            4628     149.294E-03     153.070E-03
            4333            4610     150.260E-03     152.449E-03
            4333            4611     159.902E-03     162.320E-03
            4333            4628     149.294E-03     153.070E-03
            4333            4629     159.009E-03     163.052E-03
            4334            4611     159.902E-03     162.320E-03
            4334            4612     170.150E-03     172.673E-03
            4334            4629     159.009E-03     163.052E-03
            4334            4630     169.296E-03     173.525E-03
            4335             744     181.799E-03     185.513E-03
            4335             745     180.484E-03     183.014E-03
            4335            4612     170.150E-03     172.673E-03
            4335            4630     169.296E-03     173.525E-03
            4336             606     5.39438E-03     8.45032E-03
            4336             607     3.83041E-03     8.77686E-03
            4336            4613     9.22077E-03     12.8953E-03
            4336            4631     8.22278E-03     12.7473E-03
            4337            4613     9.22077E-03     12.8953E-03
            4337            4614     17.6136E-03     21.6503E-03
            4337            4631     8.22278E-03     12.7473E-03
            4337            4632     16.9585E-03     21.6045E-03
            4338            4614     17.6136E-03     21.6503E-03
            4338            4615     26.8309E-03     30.5045E-03
            4338            4632     16.9585E-03     21.6045E-03
            4338            4633     25.8909E-03     31.1487E-03
            4339            4615     26.8309E-03     30.5045E-03
            4339            4616     36.1386E-03     39.7300E-03
            4339            4633     25.8909E-03     31.1487E-03
            4339            4634     35.1631E-03     40.4713E-03
            4340            4616     36.1386E-03     39.7300E-03
            4340            4617     45.4584E-03     49.0929E-03
            4340            4634     35.1631E-03     40.4713E-03
            4340            4635     44.5069E-03     49.8237E-03
            4341            4617     45.4584E-03     49.0929E-03
            4341            4618     54.7949E-03     58.4742E-03
            4341            4635     44.5069E-03     49.8237E-03
            4341            4636     53.8584E-03     59.1864E-03
            4342            4618     54.7949E-03     58.4742E-03
            4342            4619     64.1560E-03     67.8663E-03
            4342            4636     53.8584E-03     59.1864E-03
            4342            4637     63.2319E-03     68.5478E-03
            4343            4619     64.1560E-03     67.8663E-03
            4343            4620     73.5377E-03     77.2583E-03
            4343            4637     63.2319E-03     68.5478E-03
            4343            4638     72.5958E-03     77.9115E-03
            4344            4620     73.5377E-03     77.2583E-03
            4344            4621     82.9307E-03     86.6542E-03
            4344            4638     72.5958E-03     77.9115E-03
            4344            4639     81.9583E-03     87.2740E-03
            4345            4621     82.9307E-03     86.6542E-03
            4345            4622     92.3357E-03     96.0605E-03
            4345            4639     81.9583E-03     87.2740E-03
            4345            4640     91.3053E-03     96.6210E-03
            4346            4622     92.3357E-03     96.0605E-03
            4346            4623     101.751E-03     105.473E-03
            4346            4640     91.3053E-03     96.6210E-03
            4346            4641     100.642E-03     105.960E-03
            4347            4623     101.751E-03     105.473E-03
            4347            4624     111.185E-03     114.906E-03
            4347            4641     100.642E-03     105.960E-03
            4347            4642     109.943E-03     115.261E-03
            4348            4624     111.185E-03     114.906E-03
            4348            4625     120.635E-03     124.352E-03
            4348            4642     109.943E-03     115.261E-03
            4348            4643     119.225E-03     124.543E-03
            4349            4625     120.635E-03     124.352E-03
            4349            4626     130.132E-03     133.847E-03
            4349            4643     119.225E-03     124.543E-03
            4349            4644     128.424E-03     133.747E-03
            4350            4626     130.132E-03     133.847E-03
            4350            4627     139.648E-03     143.396E-03
            4350            4644     128.424E-03     133.747E-03
            4350            4645     137.622E-03     142.905E-03
            4351            4627     139.648E-03     143.396E-03
            4351            4628     149.294E-03     153.070E-03
            4351            4645     137.622E-03     142.905E-03
            4351            4646     146.646E-03     151.960E-03
            4352            4628     149.294E-03     153.070E-03
            4352            4629     159.009E-03     163.052E-03
            4352            4646     146.646E-03     151.960E-03
            4352            4647     155.911E-03     161.061E-03
            4353            4629     159.009E-03     163.052E-03
            4353            4630     169.296E-03     173.525E-03
            4353            4647     155.911E-03     161.061E-03
            4353            4648     165.157E-03     170.321E-03
            4354             743     176.200E-03     181.515E-03
            4354             744     181.799E-03     185.513E-03
            4354            4630     169.296E-03     173.525E-03
            4354            4648     165.157E-03     170.321E-03
            4355              30     5.39200E-03     8.67389E-03
            4355             607     3.83041E-03     8.77686E-03
            4355             673     8.98236E-03     13.0165E-03
            4355            4631     8.22278E-03     12.7473E-03
            4356             673     8.98236E-03     13.0165E-03
            4356             674     16.7632E-03     22.0840E-03
            4356            4631     8.22278E-03     12.7473E-03
            4356            4632     16.9585E-03     21.6045E-03
            4357             674     16.7632E-03     22.0840E-03
            4357             675     25.3922E-03     31.4549E-03
            4357            4632     16.9585E-03     21.6045E-03
            4357            4633     25.8909E-03     31.1487E-03
            4358             675     25.3922E-03     31.4549E-03
            4358             676     34.3704E-03     40.7267E-03
            4358            4633     25.8909E-03     31.1487E-03
            4358            4634     35.1631E-03     40.4713E-03
            4359             676     34.3704E-03     40.7267E-03
            4359             677     43.5014E-03     49.9335E-03
            4359            4634     35.1631E-03     40.4713E-03
            4359            4635     44.5069E-03     49.8237E-03
            4360             677     43.5014E-03     49.9335E-03
            4360             678     52.7058E-03     59.1097E-03
            4360            4635     44.5069E-03     49.8237E-03
            4360            4636     53.8584E-03     59.1864E-03
            4361             678     52.7058E-03     59.1097E-03
            4361             679     61.9125E-03     68.2953E-03
            4361            4636     53.8584E-03     59.1864E-03
            4361            4637     63.2319E-03     68.5478E-03
            4362             679     61.9125E-03     68.2953E-03
            4362             680     71.1148E-03     77.4743E-03
            4362            4637     63.2319E-03     68.5478E-03
            4362            4638     72.5958E-03     77.9115E-03
            4363             680     71.1148E-03     77.4743E-03
            4363             681     80.2814E-03     86.6448E-03
            4363            4638     72.5958E-03     77.9115E-03
            4363            4639     81.9583E-03     87.2740E-03
            4364             681     80.2814E-03     86.6448E-03
            4364             682     89.4321E-03     95.7818E-03
            4364            4639     81.9583E-03     87.2740E-03
            4364            4640     91.3053E-03     96.6210E-03
            4365             682     89.4321E-03     95.7818E-03
            4365             683     98.5095E-03     104.881E-03
            4365            4640     91.3053E-03     96.6210E-03
            4365            4641     100.642E-03     105.960E-03
            4366             683     98.5095E-03     104.881E-03
            4366             684     107.556E-03     113.906E-03
            4366            4641     100.642E-03     105.960E-03
            4366            4642     109.943E-03     115.261E-03
            4367             684     107.556E-03     113.906E-03
            4367             685     116.467E-03     122.847E-03
            4367            4642     109.943E-03     115.261E-03
            4367            4643     119.225E-03     124.543E-03
            4368             685     116.467E-03     122.847E-03
            4368             686     125.337E-03     131.649E-03
            4368            4643     119.225E-03     124.543E-03
            4368            4644     128.424E-03     133.747E-03
            4369             686     125.337E-03     131.649E-03
            4369             687     133.992E-03     140.303E-03
            4369            4644     128.424E-03     133.747E-03
            4369            4645     137.622E-03     142.905E-03
            4370             687     133.992E-03     140.303E-03
            4370             688     142.726E-03     148.767E-03
            4370            4645     137.622E-03     142.905E-03
            4370            4646     146.646E-03     151.960E-03
            4371             688     142.726E-03     148.767E-03
            4371             689     151.261E-03     157.155E-03
            4371            4646     146.646E-03     151.960E-03
            4371            4647     155.911E-03     161.061E-03
            4372             689     151.261E-03     157.155E-03
            4372             690     160.670E-03     165.951E-03
            4372            4647     155.911E-03     161.061E-03
            4372            4648     165.157E-03     170.321E-03
            4373              31     170.736E-03     176.096E-03
            4373             690     160.670E-03     165.951E-03
            4373             743     176.200E-03     181.515E-03
            4373            4648     165.157E-03     170.321E-03
            4374              35     143.340E-03     146.610E-03
            4374             789     141.936E-03     145.727E-03
            4374             824     133.449E-03     136.346E-03
            4374            4649     128.270E-03     131.908E-03
            4375             824     133.449E-03     136.346E-03
            4375             825     124.551E-03     127.567E-03
            4375            4649     128.270E-03     131.908E-03
            4375            4650     118.357E-03     122.023E-03
            4376             825     124.551E-03     127.567E-03
            4376             826     116.528E-03     119.630E-03
            4376            4650     118.357E-03     122.023E-03
            4376            4651     109.701E-03     113.581E-03
            4377             826     116.528E-03     119.630E-03
            4377             827     108.787E-03     112.102E-03
            4377            4651     109.701E-03     113.581E-03
            4377            4652     102.042E-03     106.116E-03
            4378             827     108.787E-03     112.102E-03
            4378             828     101.331E-03     104.758E-03
            4378            4652     102.042E-03     106.116E-03
            4378            4653     94.7737E-03     99.0452E-03
            4379             828     101.331E-03     104.758E-03
            4379             829     93.9522E-03     97.5147E-03
            4379            4653     94.7737E-03     99.0452E-03
            4379            4654     87.7989E-03     92.2231E-03
            4380             829     93.9522E-03     97.5147E-03
            4380             830     86.6602E-03     90.2896E-03
            4380            4654     87.7989E-03     92.2231E-03
            4380            4655     80.9259E-03     85.4663E-03
            4381             830     86.6602E-03     90.2896E-03
            4381             831     79.3726E-03     83.0708E-03
            4381            4655     80.9259E-03     85.4663E-03
            4381            4656     74.1168E-03     78.7422E-03
            4382             831     79.3726E-03     83.0708E-03
            4382             832     72.1008E-03     75.8292E-03
            4382            4656     74.1168E-03     78.7422E-03
            4382            4657     67.3137E-03     71.9930E-03
            4383             832     72.1008E-03     75.8292E-03
            4383             833     64.8143E-03     68.5705E-03
            4383            4657     67.3137E-03     71.9930E-03
            4383            4658     60.5067E-03     65.2181E-03
            4384             833     64.8143E-03     68.5705E-03
            4384             834     57.5267E-03     61.2842E-03
            4384            4658     60.5067E-03     65.2181E-03
            4384            4659     53.6876E-03     58.4028E-03
            4385             834     57.5267E-03     61.2842E-03
            4385             835     50.2316E-03     53.9776E-03
            4385            4659     53.6876E-03     58.4028E-03
            4385            4660     46.8639E-03     51.5483E-03
            4386             835     50.2316E-03     53.9776E-03
            4386             836     42.9494E-03     46.6459E-03
            4386            4660     46.8639E-03     51.5483E-03
            4386            4661     40.0479E-03     44.6545E-03
            4387             836     42.9494E-03     46.6459E-03
            4387             837     35.6880E-03     39.2949E-03
            4387            4661     40.0479E-03     44.6545E-03
            4387            4662     33.2682E-03     37.7172E-03
            4388             837     35.6880E-03     39.2949E-03
            4388             838     28.4882E-03     31.9268E-03
            4388            4662     33.2682E-03     37.7172E-03
            4388            4663     26.5538E-03     30.7456E-03
            4389             838     28.4882E-03     31.9268E-03
            4389             839     21.3917E-03     24.5565E-03
            4389            4663     26.5538E-03     30.7456E-03
            4389            4664     19.9685E-03     23.7685E-03
            4390             839     21.3917E-03     24.5565E-03
            4390             840     14.5196E-03     17.2663E-03
            4390            4664     19.9685E-03     23.7685E-03
            4390            4665     13.6466E-03     16.8988E-03
            4391             840     14.5196E-03     17.2663E-03
            4391             841     8.04166E-03     10.4992E-03
            4391            4665     13.6466E-03     16.8988E-03
            4391            4666     7.74960E-03     11.2100E-03
            4392              33     4.91926E-03     7.34633E-03
            4392             841     8.04166E-03     10.4992E-03
            4392             842     4.92071E-03     8.89782E-03
            4392            4666     7.74960E-03     11.2100E-03
            4393             789     141.936E-03     145.727E-03
            4393             790     147.174E-03     149.761E-03
            4393            4649     128.270E-03     131.908E-03
            4393            4667     132.420E-03     136.103E-03
            4394            4649     128.270E-03     131.908E-03
            4394            4650     118.357E-03     122.023E-03
            4394            4667     132.420E-03     136.103E-03
            4394            4668     121.798E-03     125.678E-03
            4395            4650     118.357E-03     122.023E-03
            4395            4651     109.701E-03     113.581E-03
            4395            4668     121.798E-03     125.678E-03
            4395            4669     112.832E-03     116.726E-03
            4396            4651     109.701E-03     113.581E-03
            4396            4652     102.042E-03     106.116E-03
            4396            4669     112.832E-03     116.726E-03
            4396            4670     104.750E-03     108.708E-03
            4397            4652     102.042E-03     106.116E-03
            4397            4653     94.7737E-03     99.0452E-03
            4397            4670     104.750E-03     108.708E-03
            4397            4671     97.2273E-03     101.189E-03
            4398            4653     94.7737E-03     99.0452E-03
            4398            4654     87.7989E-03     92.2231E-03
            4398            4671     97.2273E-03     101.189E-03
            4398            4672     89.9466E-03     93.9425E-03
            4399            4654     87.7989E-03     92.2231E-03
            4399            4655     80.9259E-03     85.4663E-03
            4399            4672     89.9466E-03     93.9425E-03
            4399            4673     82.8272E-03     86.8397E-03
            4400            4655     80.9259E-03     85.4663E-03
            4400            4656     74.1168E-03     78.7422E-03
            4400            4673     82.8272E-03     86.8397E-03
            4400            4674     75.7628E-03     79.7958E-03
            4401            4656     74.1168E-03     78.7422E-03
            4401            4657     67.3137E-03     71.9930E-03
            4401            4674     75.7628E-03     79.7958E-03
            4401            4675     68.7326E-03     72.7775E-03
            4402            4657     67.3137E-03     71.9930E-03
            4402            4658     60.5067E-03     65.2181E-03
            4402            4675     68.7326E-03     72.7775E-03
            4402            4676     61.7065E-03     65.7553E-03
            4403            4658     60.5067E-03     65.2181E-03
            4403            4659     53.6876E-03     58.4028E-03
            4403            4676     61.7065E-03     65.7553E-03
            4403            4677     54.6822E-03     58.7235E-03
            4404            4659     53.6876E-03     58.4028E-03
            4404            4660     46.8639E-03     51.5483E-03
            4404            4677     54.6822E-03     58.7235E-03
            4404            4678     47.6558E-03     51.6733E-03
            4405            4660     46.8639E-03     51.5483E-03
            4405            4661     40.0479E-03     44.6545E-03
            4405            4678     47.6558E-03     51.6733E-03
            4405            4679     40.6351E-03     44.5994E-03
            4406            4661     40.0479E-03     44.6545E-03
            4406            4662     33.2682E-03     37.7172E-03
            4406            4679     40.6351E-03     44.5994E-03
            4406            4680     33.6208E-03     37.5038E-03
            4407            4662     33.2682E-03     37.7172E-03
            4407            4663     26.5538E-03     30.7456E-03
            4407            4680     33.6208E-03     37.5038E-03
            4407            4681     26.6318E-03     30.3820E-03
            4408            4663     26.5538E-03     30.7456E-03
            4408            4664     19.9685E-03     23.7685E-03
            4408            4681     26.6318E-03     30.3820E-03
            4408            4682     19.6609E-03     23.2461E-03
            4409            4664     19.9685E-03     23.7685E-03
            4409            4665     13.6466E-03     16.8988E-03
            4409            4682     19.6609E-03     23.2461E-03
            4409            4683     12.6294E-03     16.3252E-03
            4410            4665     13.6466E-03     16.8988E-03
            4410            4666     7.74960E-03     11.2100E-03
            4410            4683     12.6294E-03     16.3252E-03
            4410            4684     5.90063E-03     9.87815E-03
            4411             842     4.92071E-03     8.89782E-03
            4411             843     2.71892E-03     6.79085E-03
            4411            4666     7.74960E-03     11.2100E-03
            4411            4684     5.90063E-03     9.87815E-03
            4412             790     147.174E-03     149.761E-03
            4412             791     146.876E-03     149.603E-03
            4412            4667     132.420E-03     136.103E-03
            4412            4685     135.137E-03     138.404E-03
            4413            4667     132.420E-03     136.103E-03
            4413            4668     121.798E-03     125.678E-03
            4413            4685     135.137E-03     138.404E-03
            4413            4686     124.406E-03     128.176E-03
            4414            4668     121.798E-03     125.678E-03
            4414            4669     112.832E-03     116.726E-03
            4414            4686     124.406E-03     128.176E-03
            4414            4687     115.432E-03     119.217E-03
            4415            4669     112.832E-03     116.726E-03
            4415            4670     104.750E-03     108.708E-03
            4415            4687     115.432E-03     119.217E-03
            4415            4688     107.174E-03     110.891E-03
            4416            4670     104.750E-03     108.708E-03
            4416            4671     97.2273E-03     101.189E-03
            4416            4688     107.174E-03     110.891E-03
            4416            4689     99.4180E-03     103.058E-03
            4417            4671     97.2273E-03     101.189E-03
            4417            4672     89.9466E-03     93.9425E-03
            4417            4689     99.4180E-03     103.058E-03
            4417            4690     91.9296E-03     95.4854E-03
            4418            4672     89.9466E-03     93.9425E-03
            4418            4673     82.8272E-03     86.8397E-03
            4418            4690     91.9296E-03     95.4854E-03
            4418            4691     84.5875E-03     88.0905E-03
            4419            4673     82.8272E-03     86.8397E-03
            4419            4674     75.7628E-03     79.7958E-03
            4419            4691     84.5875E-03     88.0905E-03
            4419            4692     77.3331E-03     80.7926E-03
            4420            4674     75.7628E-03     79.7958E-03
            4420            4675     68.7326E-03     72.7775E-03
            4420            4692     77.3331E-03     80.7926E-03
            4420            4693     70.1215E-03     73.5546E-03
            4421            4675     68.7326E-03     72.7775E-03
            4421            4676     61.7065E-03     65.7553E-03
            4421            4693     70.1215E-03     73.5546E-03
            4421            4694     62.9388E-03     66.3524E-03
            4422            4676     61.7065E-03     65.7553E-03
            4422            4677     54.6822E-03     58.7235E-03
            4422            4694     62.9388E-03     66.3524E-03
            4422            4695     55.7714E-03     59.1703E-03
            4423            4677     54.6822E-03     58.7235E-03
            4423            4678     47.6558E-03     51.6733E-03
            4423            4695     55.7714E-03     59.1703E-03
            4423            4696     48.6159E-03     52.0050E-03
            4424            4678     47.6558E-03     51.6733E-03
            4424            4679     40.6351E-03     44.5994E-03
            4424            4696     48.6159E-03     52.0050E-03
            4424            4697     41.4733E-03     44.8515E-03
            4425            4679     40.6351E-03     44.5994E-03
            4425            4680     33.6208E-03     37.5038E-03
            4425            4697     41.4733E-03     44.8515E-03
            4425            4698     34.3452E-03     37.7064E-03
            4426            4680     33.6208E-03     37.5038E-03
            4426            4681     26.6318E-03     30.3820E-03
            4426            4698     34.3452E-03     37.7064E-03
            4426            4699     27.2429E-03     30.5814E-03
            4427            4681     26.6318E-03     30.3820E-03
            4427            4682     19.6609E-03     23.2461E-03
            4427            4699     27.2429E-03     30.5814E-03
            4427            4700     20.1669E-03     23.5047E-03
            4428            4682     19.6609E-03     23.2461E-03
            4428            4683     12.6294E-03     16.3252E-03
            4428            4700     20.1669E-03     23.5047E-03
            4428            4701     13.1445E-03     16.6083E-03
            4429            4683     12.6294E-03     16.3252E-03
            4429            4684     5.90063E-03     9.87815E-03
            4429            4701     13.1445E-03     16.6083E-03
            4429            4702     7.01140E-03     9.64543E-03
            4430             843     2.71892E-03     6.79085E-03
            4430             844     4.36392E-03     6.05472E-03
            4430            4684     5.90063E-03     9.87815E-03
            4430            4702     7.01140E-03     9.64543E-03
            4431             791     146.876E-03     149.603E-03
            4431             792     143.704E-03     146.848E-03
            4431            4685     135.137E-03     138.404E-03
            4431            4703     134.776E-03     138.105E-03
            4432            4685     135.137E-03     138.404E-03
            4432            4686     124.406E-03     128.176E-03
            4432            4703     134.776E-03     138.105E-03
            4432            4704     125.710E-03     129.162E-03
            4433            4686     124.406E-03     128.176E-03
            4433            4687     115.432E-03     119.217E-03
            4433            4704     125.710E-03     129.162E-03
            4433            4705     116.981E-03     120.512E-03
            4434            4687     115.432E-03     119.217E-03
            4434            4688     107.174E-03     110.891E-03
            4434            4705     116.981E-03     120.512E-03
            4434            4706     108.911E-03     112.269E-03
            4435            4688     107.174E-03     110.891E-03
            4435            4689     99.4180E-03     103.058E-03
            4435            4706     108.911E-03     112.269E-03
            4435            4707     101.081E-03     104.293E-03
            4436            4689     99.4180E-03     103.058E-03
            4436            4690     91.9296E-03     95.4854E-03
            4436            4707     101.081E-03     104.293E-03
            4436            4708     93.4956E-03     96.5636E-03
            4437            4690     91.9296E-03     95.4854E-03
            4437            4691     84.5875E-03     88.0905E-03
            4437            4708     93.4956E-03     96.5636E-03
            4437            4709     86.0285E-03     88.9864E-03
            4438            4691     84.5875E-03     88.0905E-03
            4438            4692     77.3331E-03     80.7926E-03
            4438            4709     86.0285E-03     88.9864E-03
            4438            4710     78.6561E-03     81.5357E-03
            4439            4692     77.3331E-03     80.7926E-03
            4439            4693     70.1215E-03     73.5546E-03
            4439            4710     78.6561E-03     81.5357E-03
            4439            4711     71.3435E-03     74.1682E-03
            4440            4693     70.1215E-03     73.5546E-03
            4440            4694     62.9388E-03     66.3524E-03
            4440            4711     71.3435E-03     74.1682E-03
            4440            4712     64.0767E-03     66.8675E-03
            4441            4694     62.9388E-03     66.3524E-03
            4441            4695     55.7714E-03     59.1703E-03
            4441            4712     64.0767E-03     66.8675E-03
            4441            4713     56.8451E-03     59.6228E-03
            4442            4695     55.7714E-03     59.1703E-03
            4442            4696     48.6159E-03     52.0050E-03
            4442            4713     56.8451E-03     59.6228E-03
            4442            4714     49.6455E-03     52.4271E-03
            4443            4696     48.6159E-03     52.0050E-03
            4443            4697     41.4733E-03     44.8515E-03
            4443            4714     49.6455E-03     52.4271E-03
            4443            4715     42.4712E-03     45.2914E-03
            4444            4697     41.4733E-03     44.8515E-03
            4444            4698     34.3452E-03     37.7064E-03
            4444            4715     42.4712E-03     45.2914E-03
            4444            4716     35.3467E-03     38.2202E-03
            4445            4698     34.3452E-03     37.7064E-03
            4445            4699     27.2429E-03     30.5814E-03
            4445            4716     35.3467E-03     38.2202E-03
            4445            4717     28.2857E-03     31.2146E-03
            4446            4699     27.2429E-03     30.5814E-03
            4446            4700     20.1669E-03     23.5047E-03
            4446            4717     28.2857E-03     31.2146E-03
            4446            4718     21.3676E-03     24.3745E-03
            4447            4700     20.1669E-03     23.5047E-03
            4447            4701     13.1445E-03     16.6083E-03
            4447            4718     21.3676E-03     24.3745E-03
            4447            4719     14.9347E-03     17.6002E-03
            4448            4701     13.1445E-03     16.6083E-03
            4448            4702     7.01140E-03     9.64543E-03
            4448            4719     14.9347E-03     17.6002E-03
            4448            4720     9.81047E-03     11.4082E-03
            4449             844     4.36392E-03     6.05472E-03
            4449             845     7.71982E-03     8.63442E-03
            4449            4702     7.01140E-03     9.64543E-03
            4449            4720     9.81047E-03     11.4082E-03
            4450             792     143.704E-03     146.848E-03
            4450             793     139.972E-03     142.669E-03
            4450            4703     134.776E-03     138.105E-03
            4450            4721     132.692E-03     135.953E-03
            4451            4703     134.776E-03     138.105E-03
            4451            4704     125.710E-03     129.162E-03
            4451            4721     132.692E-03     135.953E-03
            4451            4722     125.156E-03     128.403E-03
            4452            4704     125.710E-03     129.162E-03
            4452            4705     116.981E-03     120.512E-03
            4452            4722     125.156E-03     128.403E-03
            4452            4723     117.427E-03     120.462E-03
            4453            4705     116.981E-03     120.512E-03
            4453            4706     108.911E-03     112.269E-03
            4453            4723     117.427E-03     120.462E-03
            4453            4724     109.627E-03     112.508E-03
            4454            4706     108.911E-03     112.269E-03
            4454            4707     101.081E-03     104.293E-03
            4454            4724     109.627E-03     112.508E-03
            4454            4725     102.009E-03     104.658E-03
            4455            4707     101.081E-03     104.293E-03
            4455            4708     93.4956E-03     96.5636E-03
            4455            4725     102.009E-03     104.658E-03
            4455            4726     94.4402E-03     96.9328E-03
            4456            4708     93.4956E-03     96.5636E-03
            4456            4709     86.0285E-03     88.9864E-03
            4456            4726     94.4402E-03     96.9328E-03
            4456            4727     86.9886E-03     89.3483E-03
            4457            4709     86.0285E-03     88.9864E-03
            4457            4710     78.6561E-03     81.5357E-03
            4457            4727     86.9886E-03     89.3483E-03
            4457            4728     79.6016E-03     81.8709E-03
            4458            4710     78.6561E-03     81.5357E-03
            4458            4711     71.3435E-03     74.1682E-03
            4458            4728     79.6016E-03     81.8709E-03
            4458            4729     72.2889E-03     74.4951E-03
            4459            4711     71.3435E-03     74.1682E-03
            4459            4712     64.0767E-03     66.8675E-03
            4459            4729     72.2889E-03     74.4951E-03
            4459            4730     65.0330E-03     67.2026E-03
            4460            4712     64.0767E-03     66.8675E-03
            4460            4713     56.8451E-03     59.6228E-03
            4460            4730     65.0330E-03     67.2026E-03
            4460            4731     57.8325E-03     59.9892E-03
            4461            4713     56.8451E-03     59.6228E-03
            4461            4714     49.6455E-03     52.4271E-03
            4461            4731     57.8325E-03     59.9892E-03
            4461            4732     50.6812E-03     52.8632E-03
            4462            4714     49.6455E-03     52.4271E-03
            4462            4715     42.4712E-03     45.2914E-03
            4462            4732     50.6812E-03     52.8632E-03
            4462            4733     43.5887E-03     45.8331E-03
            4463            4715     42.4712E-03     45.2914E-03
            4463            4716     35.3467E-03     38.2202E-03
            4463            4733     43.5887E-03     45.8331E-03
            4463            4734     36.5592E-03     38.9430E-03
            4464            4716     35.3467E-03     38.2202E-03
            4464            4717     28.2857E-03     31.2146E-03
            4464            4734     36.5592E-03     38.9430E-03
            4464            4735     29.6855E-03     32.2298E-03
            4465            4717     28.2857E-03     31.2146E-03
            4465            4718     21.3676E-03     24.3745E-03
            4465            4735     29.6855E-03     32.2298E-03
            4465            4736     23.1318E-03     25.6554E-03
            4466            4718     21.3676E-03     24.3745E-03
            4466            4719     14.9347E-03     17.6002E-03
            4466            4736     23.1318E-03     25.6554E-03
            4466            4737     17.2465E-03     19.5255E-03
            4467            4719     14.9347E-03     17.6002E-03
            4467            4720     9.81047E-03     11.4082E-03
            4467            4737     17.2465E-03     19.5255E-03
            4467            4738     13.0876E-03     14.1432E-03
            4468             845     7.71982E-03     8.63442E-03
            4468             846     11.6362E-03     11.6318E-03
            4468            4720     9.81047E-03     11.4082E-03
            4468            4738     13.0876E-03     14.1432E-03
            4469             793     139.972E-03     142.669E-03
            4469             794     135.253E-03     138.025E-03
            4469            4721     132.692E-03     135.953E-03
            4469            4739     129.668E-03     132.518E-03
            4470            4721     132.692E-03     135.953E-03
            4470            4722     125.156E-03     128.403E-03
            4470            4739     129.668E-03     132.518E-03
            4470            4740     123.379E-03     126.084E-03
            4471            4722     125.156E-03     128.403E-03
            4471            4723     117.427E-03     120.462E-03
            4471            4740     123.379E-03     126.084E-03
            4471            4741     116.514E-03     118.966E-03
            4472            4723     117.427E-03     120.462E-03
            4472            4724     109.627E-03     112.508E-03
            4472            4741     116.514E-03     118.966E-03
            4472            4742     109.346E-03     111.503E-03
            4473            4724     109.627E-03     112.508E-03
            4473            4725     102.009E-03     104.658E-03
            4473            4742     109.346E-03     111.503E-03
            4473            4743     101.999E-03     103.975E-03
            4474            4725     102.009E-03     104.658E-03
            4474            4726     94.4402E-03     96.9328E-03
            4474            4743     101.999E-03     103.975E-03
            4474            4744     94.6723E-03     96.4797E-03
            4475            4726     94.4402E-03     96.9328E-03
            4475            4727     86.9886E-03     89.3483E-03
            4475            4744     94.6723E-03     96.4797E-03
            4475            4745     87.3502E-03     89.0549E-03
            4476            4727     86.9886E-03     89.3483E-03
            4476            4728     79.6016E-03     81.8709E-03
            4476            4745     87.3502E-03     89.0549E-03
            4476            4746     80.0969E-03     81.7215E-03
            4477            4728     79.6016E-03     81.8709E-03
            4477            4729     72.2889E-03     74.4951E-03
            4477            4746     80.0969E-03     81.7215E-03
            4477            4747     72.8975E-03     74.4723E-03
            4478            4729     72.2889E-03     74.4951E-03
            4478            4730     65.0330E-03     67.2026E-03
            4478            4747     72.8975E-03     74.4723E-03
            4478            4748     65.7679E-03     67.3112E-03
            4479            4730     65.0330E-03     67.2026E-03
            4479            4731     57.8325E-03     59.9892E-03
            4479            4748     65.7679E-03     67.3112E-03
            4479            4749     58.7044E-03     60.2410E-03
            4480            4731     57.8325E-03     59.9892E-03
            4480            4732     50.6812E-03     52.8632E-03
            4480            4749     58.7044E-03     60.2410E-03
            4480            4750     51.7127E-03     53.2750E-03
            4481            4732     50.6812E-03     52.8632E-03
            4481            4733     43.5887E-03     45.8331E-03
            4481            4750     51.7127E-03     53.2750E-03
            4481            4751     44.8029E-03     46.4518E-03
            4482            4733     43.5887E-03     45.8331E-03
            4482            4734     36.5592E-03     38.9430E-03
            4482            4751     44.8029E-03     46.4518E-03
            4482            4752     38.0029E-03     39.8203E-03
            4483            4734     36.5592E-03     38.9430E-03
            4483            4735     29.6855E-03     32.2298E-03
            4483            4752     38.0029E-03     39.8203E-03
            4483            4753     31.3849E-03     33.4986E-03
            4484            4735     29.6855E-03     32.2298E-03
            4484            4736     23.1318E-03     25.6554E-03
            4484            4753     31.3849E-03     33.4986E-03
            4484            4754     25.2339E-03     27.5333E-03
            4485            4736     23.1318E-03     25.6554E-03
            4485            4737     17.2465E-03     19.5255E-03
            4485            4754     25.2339E-03     27.5333E-03
            4485            4755     20.0014E-03     21.9301E-03
            4486            4737     17.2465E-03     19.5255E-03
            4486            4738     13.0876E-03     14.1432E-03
            4486            4755     20.0014E-03     21.9301E-03
            4486            4756     16.5098E-03     17.5031E-03
            4487             846     11.6362E-03     11.6318E-03
            4487             847     15.3448E-03     15.7722E-03
            4487            4738     13.0876E-03     14.1432E-03
            4487            4756     16.5098E-03     17.5031E-03
            4488             794     135.253E-03     138.025E-03
            4488             795     130.053E-03     132.282E-03
            4488            4739     129.668E-03     132.518E-03
            4488            4757     125.760E-03     127.917E-03
            4489            4739     129.668E-03     132.518E-03
            4489            4740     123.379E-03     126.084E-03
            4489            4757     125.760E-03     127.917E-03
            4489            4758     120.562E-03     122.372E-03
            4490            4740     123.379E-03     126.084E-03
            4490            4741     116.514E-03     118.966E-03
            4490            4758     120.562E-03     122.372E-03
            4490            4759     114.513E-03     116.015E-03
            4491            4741     116.514E-03     118.966E-03
            4491            4742     109.346E-03     111.503E-03
            4491            4759     114.513E-03     116.015E-03
            4491            4760     107.940E-03     109.229E-03
            4492            4742     109.346E-03     111.503E-03
            4492            4743     101.999E-03     103.975E-03
            4492            4760     107.940E-03     109.229E-03
            4492            4761     101.097E-03     102.233E-03
            4493            4743     101.999E-03     103.975E-03
            4493            4744     94.6723E-03     96.4797E-03
            4493            4761     101.097E-03     102.233E-03
            4493            4762     94.1154E-03     95.1717E-03
            4494            4744     94.6723E-03     96.4797E-03
            4494            4745     87.3502E-03     89.0549E-03
            4494            4762     94.1154E-03     95.1717E-03
            4494            4763     87.1177E-03     88.1121E-03
            4495            4745     87.3502E-03     89.0549E-03
            4495            4746     80.0969E-03     81.7215E-03
            4495            4763     87.1177E-03     88.1121E-03
            4495            4764     80.1246E-03     81.0885E-03
            4496            4746     80.0969E-03     81.7215E-03
            4496            4747     72.8975E-03     74.4723E-03
            4496            4764     80.1246E-03     81.0885E-03
            4496            4765     73.1825E-03     74.1209E-03
            4497            4747     72.8975E-03     74.4723E-03
            4497            4748     65.7679E-03     67.3112E-03
            4497            4765     73.1825E-03     74.1209E-03
            4497            4766     66.2961E-03     67.2212E-03
            4498            4748     65.7679E-03     67.3112E-03
            4498            4749     58.7044E-03     60.2410E-03
            4498            4766     66.2961E-03     67.2212E-03
            4498            4767     59.4847E-03     60.4071E-03
            4499            4749     58.7044E-03     60.2410E-03
            4499            4750     51.7127E-03     53.2750E-03
            4499            4767     59.4847E-03     60.4071E-03
            4499            4768     52.7634E-03     53.7042E-03
            4500            4750     51.7127E-03     53.2750E-03
            4500            4751     44.8029E-03     46.4518E-03
            4500            4768     52.7634E-03     53.7042E-03
            4500            4769     46.1486E-03     47.1627E-03
            4501            4751     44.8029E-03     46.4518E-03
            4501            4752     38.0029E-03     39.8203E-03
            4501            4769     46.1486E-03     47.1627E-03
            4501            4770     39.6921E-03     40.8691E-03
            4502            4752     38.0029E-03     39.8203E-03
            4502            4753     31.3849E-03     33.4986E-03
            4502            4770     39.6921E-03     40.8691E-03
            4502            4771     33.4420E-03     34.9678E-03
            4503            4753     31.3849E-03     33.4986E-03
            4503            4754     25.2339E-03     27.5333E-03
            4503            4771     33.4420E-03     34.9678E-03
            4503            4772     27.6177E-03     29.7689E-03
            4504            4754     25.2339E-03     27.5333E-03
            4504            4755     20.0014E-03     21.9301E-03
            4504            4772     27.6177E-03     29.7689E-03
            4504            4773     22.9792E-03     25.1432E-03
            4505            4755     20.0014E-03     21.9301E-03
            4505            4756     16.5098E-03     17.5031E-03
            4505            4773     22.9792E-03     25.1432E-03
            4505            4774     20.0989E-03     21.0308E-03
            4506             847     15.3448E-03     15.7722E-03
            4506             848     19.1113E-03     19.1749E-03
            4506            4756     16.5098E-03     17.5031E-03
            4506            4774     20.0989E-03     21.0308E-03
            4507             795     130.053E-03     132.282E-03
            4507             796     124.205E-03     125.237E-03
            4507            4757     125.760E-03     127.917E-03
            4507            4775     121.151E-03     121.835E-03
            4508            4757     125.760E-03     127.917E-03
            4508            4758     120.562E-03     122.372E-03
            4508            4775     121.151E-03     121.835E-03
            4508            4776     116.747E-03     117.174E-03
            4509            4758     120.562E-03     122.372E-03
            4509            4759     114.513E-03     116.015E-03
            4509            4776     116.747E-03     117.174E-03
            4509            4777     111.471E-03     111.725E-03
            4510            4759     114.513E-03     116.015E-03
            4510            4760     107.940E-03     109.229E-03
            4510            4777     111.471E-03     111.725E-03
            4510            4778     105.568E-03     105.790E-03
            4511            4760     107.940E-03     109.229E-03
            4511            4761     101.097E-03     102.233E-03
            4511            4778     105.568E-03     105.790E-03
            4511            4779     99.3280E-03     99.5547E-03
            4512            4761     101.097E-03     102.233E-03
            4512            4762     94.1154E-03     95.1717E-03
            4512            4779     99.3280E-03     99.5547E-03
            4512            4780     92.8896E-03     93.1378E-03
            4513            4762     94.1154E-03     95.1717E-03
            4513            4763     87.1177E-03     88.1121E-03
            4513            4780     92.8896E-03     93.1378E-03
            4513            4781     86.3514E-03     86.6355E-03
            4514            4763     87.1177E-03     88.1121E-03
            4514            4764     80.1246E-03     81.0885E-03
            4514            4781     86.3514E-03     86.6355E-03
            4514            4782     79.7868E-03     80.0919E-03
            4515            4764     80.1246E-03     81.0885E-03
            4515            4765     73.1825E-03     74.1209E-03
            4515            4782     79.7868E-03     80.0919E-03
            4515            4783     73.2246E-03     73.5515E-03
            4516            4765     73.1825E-03     74.1209E-03
            4516            4766     66.2961E-03     67.2212E-03
            4516            4783     73.2246E-03     73.5515E-03
            4516            4784     66.7057E-03     67.0413E-03
            4517            4766     66.2961E-03     67.2212E-03
            4517            4767     59.4847E-03     60.4071E-03
            4517            4784     66.7057E-03     67.0413E-03
            4517            4785     60.2514E-03     60.5929E-03
            4518            4767     59.4847E-03     60.4071E-03
            4518            4768     52.7634E-03     53.7042E-03
            4518            4785     60.2514E-03     60.5929E-03
            4518            4786     53.8971E-03     54.2491E-03
            4519            4768     52.7634E-03     53.7042E-03
            4519            4769     46.1486E-03     47.1627E-03
            4519            4786     53.8971E-03     54.2491E-03
            4519            4787     47.6863E-03     48.0641E-03
            4520            4769     46.1486E-03     47.1627E-03
            4520            4770     39.6921E-03     40.8691E-03
            4520            4787     47.6863E-03     48.0641E-03
            4520            4788     41.6626E-03     42.1518E-03
            4521            4770     39.6921E-03     40.8691E-03
            4521            4771     33.4420E-03     34.9678E-03
            4521            4788     41.6626E-03     42.1518E-03
            4521            4789     35.9287E-03     36.6763E-03
            4522            4771     33.4420E-03     34.9678E-03
            4522            4772     27.6177E-03     29.7689E-03
            4522            4789     35.9287E-03     36.6763E-03
            4522            4790     30.5313E-03     32.0086E-03
            4523            4772     27.6177E-03     29.7689E-03
            4523            4773     22.9792E-03     25.1432E-03
            4523            4790     30.5313E-03     32.0086E-03
            4523            4791     25.9231E-03     28.7119E-03
            4524            4773     22.9792E-03     25.1432E-03
            4524            4774     20.0989E-03     21.0308E-03
            4524            4791     25.9231E-03     28.7119E-03
            4524            4792     23.6609E-03     26.0296E-03
            4525             848     19.1113E-03     19.1749E-03
            4525             849     23.3796E-03     24.5853E-03
            4525            4774     20.0989E-03     21.0308E-03
            4525            4792     23.6609E-03     26.0296E-03
            4526             796     124.205E-03     125.237E-03
            4526             797     118.066E-03     116.352E-03
            4526            4775     121.151E-03     121.835E-03
            4526            4793     115.691E-03     114.037E-03
            4527            4775     121.151E-03     121.835E-03
            4527            4776     116.747E-03     117.174E-03
            4527            4793     115.691E-03     114.037E-03
            4527            4794     112.049E-03     110.597E-03
            4528            4776     116.747E-03     117.174E-03
            4528            4777     111.471E-03     111.725E-03
            4528            4794     112.049E-03     110.597E-03
            4528            4795     107.502E-03     106.351E-03
            4529            4777     111.471E-03     111.725E-03
            4529            4778     105.568E-03     105.790E-03
            4529            4795     107.502E-03     106.351E-03
            4529            4796     102.427E-03     101.524E-03
            4530            4778     105.568E-03     105.790E-03
            4530            4779     99.3280E-03     99.5547E-03
            4530            4796     102.427E-03     101.524E-03
            4530            4797     96.9353E-03     96.2488E-03
            4531            4779     99.3280E-03     99.5547E-03
            4531            4780     92.8896E-03     93.1378E-03
            4531            4797     96.9353E-03     96.2488E-03
            4531            4798     91.1938E-03     90.6810E-03
            4532            4780     92.8896E-03     93.1378E-03
            4532            4781     86.3514E-03     86.6355E-03
            4532            4798     91.1938E-03     90.6810E-03
            4532            4799     85.2822E-03     84.8882E-03
            4533            4781     86.3514E-03     86.6355E-03
            4533            4782     79.7868E-03     80.0919E-03
            4533            4799     85.2822E-03     84.8882E-03
            4533            4800     79.2676E-03     78.9705E-03
            4534            4782     79.7868E-03     80.0919E-03
            4534            4783     73.2246E-03     73.5515E-03
            4534            4800     79.2676E-03     78.9705E-03
            4534            4801     73.2106E-03     72.9723E-03
            4535            4783     73.2246E-03     73.5515E-03
            4535            4784     66.7057E-03     67.0413E-03
            4535            4801     73.2106E-03     72.9723E-03
            4535            4802     67.1478E-03     66.9554E-03
            4536            4784     66.7057E-03     67.0413E-03
            4536            4785     60.2514E-03     60.5929E-03
            4536            4802     67.1478E-03     66.9554E-03
            4536            4803     61.1358E-03     60.9652E-03
            4537            4785     60.2514E-03     60.5929E-03
            4537            4786     53.8971E-03     54.2491E-03
            4537            4803     61.1358E-03     60.9652E-03
            4537            4804     55.2172E-03     55.0571E-03
            4538            4786     53.8971E-03     54.2491E-03
            4538            4787     47.6863E-03     48.0641E-03
            4538            4804     55.2172E-03     55.0571E-03
            4538            4805     49.4708E-03     49.3022E-03
            4539            4787     47.6863E-03     48.0641E-03
            4539            4788     41.6626E-03     42.1518E-03
            4539            4805     49.4708E-03     49.3022E-03
            4539            4806     43.9637E-03     43.7978E-03
            4540            4788     41.6626E-03     42.1518E-03
            4540            4789     35.9287E-03     36.6763E-03
            4540            4806     43.9637E-03     43.7978E-03
            4540            4807     38.8271E-03     38.7151E-03
            4541            4789     35.9287E-03     36.6763E-03
            4541            4790     30.5313E-03     32.0086E-03
            4541            4807     38.8271E-03     38.7151E-03
            4541            4808     34.1228E-03     34.3257E-03
            4542            4790     30.5313E-03     32.0086E-03
            4542            4791     25.9231E-03     28.7119E-03
            4542            4808     34.1228E-03     34.3257E-03
            4542            4809     29.9003E-03     31.3810E-03
            4543            4791     25.9231E-03     28.7119E-03
            4543            4792     23.6609E-03     26.0296E-03
            4543            4809     29.9003E-03     31.3810E-03
            4543            4810     26.6605E-03     30.6650E-03
            4544             849     23.3796E-03     24.5853E-03
            4544             850     25.3833E-03     30.9133E-03
            4544            4792     23.6609E-03     26.0296E-03
            4544            4810     26.6605E-03     30.6650E-03
            4545             797     118.066E-03     116.352E-03
            4545             798     105.478E-03     105.656E-03
            4545            4793     115.691E-03     114.037E-03
            4545            4811     99.6303E-03     99.7259E-03
            4546            4793     115.691E-03     114.037E-03
            4546            4794     112.049E-03     110.597E-03
            4546            4811     99.6303E-03     99.7259E-03
            4546            4812     94.1217E-03     94.5956E-03
            4547            4794     112.049E-03     110.597E-03
            4547            4795     107.502E-03     106.351E-03
            4547            4812     94.1217E-03     94.5956E-03
            4547            4813     89.0641E-03     89.8226E-03
            4548            4795     107.502E-03     106.351E-03
            4548            4796     102.427E-03     101.524E-03
            4548            4813     89.0641E-03     89.8226E-03
            4548            4814     83.9887E-03     85.1187E-03
            4549            4796     102.427E-03     101.524E-03
            4549            4797     96.9353E-03     96.2488E-03
            4549            4814     83.9887E-03     85.1187E-03
            4549            4815     79.0029E-03     80.3579E-03
            4550            4797     96.9353E-03     96.2488E-03
            4550            4798     91.1938E-03     90.6810E-03
            4550            4815     79.0029E-03     80.3579E-03
            4550            4816     73.9403E-03     75.5154E-03
            4551            4798     91.1938E-03     90.6810E-03
            4551            4799     85.2822E-03     84.8882E-03
            4551            4816     73.9403E-03     75.5154E-03
            4551            4817     68.8703E-03     70.5707E-03
            4552            4799     85.2822E-03     84.8882E-03
            4552            4800     79.2676E-03     78.9705E-03
            4552            4817     68.8703E-03     70.5707E-03
            4552            4818     63.7379E-03     65.5519E-03
            4553            4800     79.2676E-03     78.9705E-03
            4553            4801     73.2106E-03     72.9723E-03
            4553            4818     63.7379E-03     65.5519E-03
            4553            4819     58.5883E-03     60.4629E-03
            4554            4801     73.2106E-03     72.9723E-03
            4554            4802     67.1478E-03     66.9554E-03
            4554            4819     58.5883E-03     60.4629E-03
            4554            4820     53.4155E-03     55.3444E-03
            4555            4802     67.1478E-03     66.9554E-03
            4555            4803     61.1358E-03     60.9652E-03
            4555            4820     53.4155E-03     55.3444E-03
            4555            4821     48.2583E-03     50.2066E-03
            4556            4803     61.1358E-03     60.9652E-03
            4556            4804     55.2172E-03     55.0571E-03
            4556            4821     48.2583E-03     50.2066E-03
            4556            4822     43.1392E-03     45.0920E-03
            4557            4804     55.2172E-03     55.0571E-03
            4557            4805     49.4708E-03     49.3022E-03
            4557            4822     43.1392E-03     45.0920E-03
            4557            4823     38.1097E-03     40.0255E-03
            4558            4805     49.4708E-03     49.3022E-03
            4558            4806     43.9637E-03     43.7978E-03
            4558            4823     38.1097E-03     40.0255E-03
            4558            4824     33.2193E-03     35.0528E-03
            4559            4806     43.9637E-03     43.7978E-03
            4559            4807     38.8271E-03     38.7151E-03
            4559            4824     33.2193E-03     35.0528E-03
            4559            4825     28.5469E-03     30.2601E-03
            4560            4807     38.8271E-03     38.7151E-03
            4560            4808     34.1228E-03     34.3257E-03
            4560            4825     28.5469E-03     30.2601E-03
            4560            4826     24.1621E-03     25.7014E-03
            4561            4808     34.1228E-03     34.3257E-03
            4561            4809     29.9003E-03     31.3810E-03
            4561            4826     24.1621E-03     25.7014E-03
            4561            4827     20.1275E-03     21.7634E-03
            4562            4809     29.9003E-03     31.3810E-03
            4562            4810     26.6605E-03     30.6650E-03
            4562            4827     20.1275E-03     21.7634E-03
            4562            4828     15.9612E-03     19.0400E-03
            4563             850     25.3833E-03     30.9133E-03
            4563             851     13.7097E-03     18.0255E-03
            4563            4810     26.6605E-03     30.6650E-03
            4563            4828     15.9612E-03     19.0400E-03
            4564             798     105.478E-03     105.656E-03
            4564             799     98.6239E-03     102.085E-03
            4564            4811     99.6303E-03     99.7259E-03
            4564            4829     87.6687E-03     90.9675E-03
            4565            4811     99.6303E-03     99.7259E-03
            4565            4812     94.1217E-03     94.5956E-03
            4565            4829     87.6687E-03     90.9675E-03
            4565            4830     80.0830E-03     83.3640E-03
            4566            4812     94.1217E-03     94.5956E-03
            4566            4813     89.0641E-03     89.8226E-03
            4566            4830     80.0830E-03     83.3640E-03
            4566            4831     73.7102E-03     77.1177E-03
            4567            4813     89.0641E-03     89.8226E-03
            4567            4814     83.9887E-03     85.1187E-03
            4567            4831     73.7102E-03     77.1177E-03
            4567            4832     68.2565E-03     71.7860E-03
            4568            4814     83.9887E-03     85.1187E-03
            4568            4815     79.0029E-03     80.3579E-03
            4568            4832     68.2565E-03     71.7860E-03
            4568            4833     63.1956E-03     66.8537E-03
            4569            4815     79.0029E-03     80.3579E-03
            4569            4816     73.9403E-03     75.5154E-03
            4569            4833     63.1956E-03     66.8537E-03
            4569            4834     58.4149E-03     62.1739E-03
            4570            4816     73.9403E-03     75.5154E-03
            4570            4817     68.8703E-03     70.5707E-03
            4570            4834     58.4149E-03     62.1739E-03
            4570            4835     53.7446E-03     57.5813E-03
            4571            4817     68.8703E-03     70.5707E-03
            4571            4818     63.7379E-03     65.5519E-03
            4571            4835     53.7446E-03     57.5813E-03
            4571            4836     49.1421E-03     53.0366E-03
            4572            4818     63.7379E-03     65.5519E-03
            4572            4819     58.5883E-03     60.4629E-03
            4572            4836     49.1421E-03     53.0366E-03
            4572            4837     44.5540E-03     48.4861E-03
            4573            4819     58.5883E-03     60.4629E-03
            4573            4820     53.4155E-03     55.3444E-03
            4573            4837     44.5540E-03     48.4861E-03
            4573            4838     39.9684E-03     43.9243E-03
            4574            4820     53.4155E-03     55.3444E-03
            4574            4821     48.2583E-03     50.2066E-03
            4574            4838     39.9684E-03     43.9243E-03
            4574            4839     35.3743E-03     39.3347E-03
            4575            4821     48.2583E-03     50.2066E-03
            4575            4822     43.1392E-03     45.0920E-03
            4575            4839     35.3743E-03     39.3347E-03
            4575            4840     30.7743E-03     34.7164E-03
            4576            4822     43.1392E-03     45.0920E-03
            4576            4823     38.1097E-03     40.0255E-03
            4576            4840     30.7743E-03     34.7164E-03
            4576            4841     26.1723E-03     30.0641E-03
            4577            4823     38.1097E-03     40.0255E-03
            4577            4824     33.2193E-03     35.0528E-03
            4577            4841     26.1723E-03     30.0641E-03
            4577            4842     21.5832E-03     25.3707E-03
            4578            4824     33.2193E-03     35.0528E-03
            4578            4825     28.5469E-03     30.2601E-03
            4578            4842     21.5832E-03     25.3707E-03
            4578            4843     17.0145E-03     20.6315E-03
            4579            4825     28.5469E-03     30.2601E-03
            4579            4826     24.1621E-03     25.7014E-03
            4579            4843     17.0145E-03     20.6315E-03
            4579            4844     12.4982E-03     15.8394E-03
            4580            4826     24.1621E-03     25.7014E-03
            4580            4827     20.1275E-03     21.7634E-03
            4580            4844     12.4982E-03     15.8394E-03
            4580            4845     8.09399E-03     10.9638E-03
            4581            4827     20.1275E-03     21.7634E-03
            4581            4828     15.9612E-03     19.0400E-03
            4581            4845     8.09399E-03     10.9638E-03
            4581            4846     3.96386E-03     6.21714E-03
            4582             851     13.7097E-03     18.0255E-03
            4582             852     1.99621E-03     3.92915E-03
            4582            4828     15.9612E-03     19.0400E-03
            4582            4846     3.96386E-03     6.21714E-03
            4583             799     98.6239E-03     102.085E-03
            4583             800     101.993E-03     103.973E-03
            4583            4829     87.6687E-03     90.9675E-03
            4583            4847     90.2537E-03     93.2007E-03
            4584            4829     87.6687E-03     90.9675E-03
            4584            4830     80.0830E-03     83.3640E-03
            4584            4847     90.2537E-03     93.2007E-03
            4584            4848     82.2354E-03     85.3831E-03
            4585            4830     80.0830E-03     83.3640E-03
            4585            4831     73.7102E-03     77.1177E-03
            4585            4848     82.2354E-03     85.3831E-03
            4585            4849     75.7399E-03     78.9243E-03
            4586            4831     73.7102E-03     77.1177E-03
            4586            4832     68.2565E-03     71.7860E-03
            4586            4849     75.7399E-03     78.9243E-03
            4586            4850     70.0686E-03     73.3102E-03
            4587            4832     68.2565E-03     71.7860E-03
            4587            4833     63.1956E-03     66.8537E-03
            4587            4850     70.0686E-03     73.3102E-03
            4587            4851     64.9089E-03     68.1536E-03
            4588            4833     63.1956E-03     66.8537E-03
            4588            4834     58.4149E-03     62.1739E-03
            4588            4851     64.9089E-03     68.1536E-03
            4588            4852     59.9773E-03     63.2460E-03
            4589            4834     58.4149E-03     62.1739E-03
            4589            4835     53.7446E-03     57.5813E-03
            4589            4852     59.9773E-03     63.2460E-03
            4589            4853     55.1936E-03     58.4703E-03
            4590            4835     53.7446E-03     57.5813E-03
            4590            4836     49.1421E-03     53.0366E-03
            4590            4853     55.1936E-03     58.4703E-03
            4590            4854     50.4621E-03     53.7514E-03
            4591            4836     49.1421E-03     53.0366E-03
            4591            4837     44.5540E-03     48.4861E-03
            4591            4854     50.4621E-03     53.7514E-03
            4591            4855     45.7642E-03     49.0591E-03
            4592            4837     44.5540E-03     48.4861E-03
            4592            4838     39.9684E-03     43.9243E-03
            4592            4855     45.7642E-03     49.0591E-03
            4592            4856     41.0724E-03     44.3678E-03
            4593            4838     39.9684E-03     43.9243E-03
            4593            4839     35.3743E-03     39.3347E-03
            4593            4856     41.0724E-03     44.3678E-03
            4593            4857     36.3864E-03     39.6730E-03
            4594            4839     35.3743E-03     39.3347E-03
            4594            4840     30.7743E-03     34.7164E-03
            4594            4857     36.3864E-03     39.6730E-03
            4594            4858     31.7040E-03     34.9667E-03
            4595            4840     30.7743E-03     34.7164E-03
            4595            4841     26.1723E-03     30.0641E-03
            4595            4858     31.7040E-03     34.9667E-03
            4595            4859     27.0339E-03     30.2456E-03
            4596            4841     26.1723E-03     30.0641E-03
            4596            4842     21.5832E-03     25.3707E-03
            4596            4859     27.0339E-03     30.2456E-03
            4596            4860     22.3848E-03     25.5100E-03
            4597            4842     21.5832E-03     25.3707E-03
            4597            4843     17.0145E-03     20.6315E-03
            4597            4860     22.3848E-03     25.5100E-03
            4597            4861     17.7829E-03     20.7503E-03
            4598            4843     17.0145E-03     20.6315E-03
            4598            4844     12.4982E-03     15.8394E-03
            4598            4861     17.7829E-03     20.7503E-03
            4598            4862     13.2624E-03     15.9716E-03
            4599            4844     12.4982E-03     15.8394E-03
            4599            4845     8.09399E-03     10.9638E-03
            4599            4862     13.2624E-03     15.9716E-03
            4599            4863     8.91888E-03     11.2325E-03
            4600            4845     8.09399E-03     10.9638E-03
            4600            4846     3.96386E-03     6.21714E-03
            4600            4863     8.91888E-03     11.2325E-03
            4600            4864     5.14548E-03     6.77705E-03
            4601             852     1.99621E-03     3.92915E-03
            4601             853     3.48297E-03     4.67479E-03
            4601            4846     3.96386E-03     6.21714E-03
            4601            4864     5.14548E-03     6.77705E-03
            4602             800     101.993E-03     103.973E-03
            4602             801     100.784E-03     102.677E-03
            4602            4847     90.2537E-03     93.2007E-03
            4602            4865     91.7504E-03     94.1149E-03
            4603            4847     90.2537E-03     93.2007E-03
            4603            4848     82.2354E-03     85.3831E-03
            4603            4865     91.7504E-03     94.1149E-03
            4603            4866     83.8076E-03     86.6421E-03
            4604            4848     82.2354E-03     85.3831E-03
            4604            4849     75.7399E-03     78.9243E-03
            4604            4866     83.8076E-03     86.6421E-03
            4604            4867     77.4567E-03     80.3492E-03
            4605            4849     75.7399E-03     78.9243E-03
            4605            4850     70.0686E-03     73.3102E-03
            4605            4867     77.4567E-03     80.3492E-03
            4605            4868     71.7606E-03     74.6271E-03
            4606            4850     70.0686E-03     73.3102E-03
            4606            4851     64.9089E-03     68.1536E-03
            4606            4868     71.7606E-03     74.6271E-03
            4606            4869     66.5029E-03     69.3283E-03
            4607            4851     64.9089E-03     68.1536E-03
            4607            4852     59.9773E-03     63.2460E-03
            4607            4869     66.5029E-03     69.3283E-03
            4607            4870     61.4793E-03     64.2451E-03
            4608            4852     59.9773E-03     63.2460E-03
            4608            4853     55.1936E-03     58.4703E-03
            4608            4870     61.4793E-03     64.2451E-03
            4608            4871     56.5756E-03     59.3063E-03
            4609            4853     55.1936E-03     58.4703E-03
            4609            4854     50.4621E-03     53.7514E-03
            4609            4871     56.5756E-03     59.3063E-03
            4609            4872     51.7476E-03     54.4448E-03
            4610            4854     50.4621E-03     53.7514E-03
            4610            4855     45.7642E-03     49.0591E-03
            4610            4872     51.7476E-03     54.4448E-03
            4610            4873     46.9545E-03     49.6314E-03
            4611            4855     45.7642E-03     49.0591E-03
            4611            4856     41.0724E-03     44.3678E-03
            4611            4873     46.9545E-03     49.6314E-03
            4611            4874     42.1896E-03     44.8482E-03
            4612            4856     41.0724E-03     44.3678E-03
            4612            4857     36.3864E-03     39.6730E-03
            4612            4874     42.1896E-03     44.8482E-03
            4612            4875     37.4434E-03     40.0847E-03
            4613            4857     36.3864E-03     39.6730E-03
            4613            4858     31.7040E-03     34.9667E-03
            4613            4875     37.4434E-03     40.0847E-03
            4613            4876     32.7196E-03     35.3405E-03
            4614            4858     31.7040E-03     34.9667E-03
            4614            4859     27.0339E-03     30.2456E-03
            4614            4876     32.7196E-03     35.3405E-03
            4614            4877     28.0281E-03     30.6142E-03
            4615            4859     27.0339E-03     30.2456E-03
            4615            4860     22.3848E-03     25.5100E-03
            4615            4877     28.0281E-03     30.6142E-03
            4615            4878     23.3861E-03     25.9042E-03
            4616            4860     22.3848E-03     25.5100E-03
            4616            4861     17.7829E-03     20.7503E-03
            4616            4878     23.3861E-03     25.9042E-03
            4616            4879     18.8344E-03     21.2281E-03
            4617            4861     17.7829E-03     20.7503E-03
            4617            4862     13.2624E-03     15.9716E-03
            4617            4879     18.8344E-03     21.2281E-03
            4617            4880     14.4506E-03     16.5962E-03
            4618            4862     13.2624E-03     15.9716E-03
            4618            4863     8.91888E-03     11.2325E-03
            4618            4880     14.4506E-03     16.5962E-03
            4618            4881     10.4006E-03     12.1554E-03
            4619            4863     8.91888E-03     11.2325E-03
            4619            4864     5.14548E-03     6.77705E-03
            4619            4881     10.4006E-03     12.1554E-03
            4619            4882     7.41274E-03     8.09380E-03
            4620             853     3.48297E-03     4.67479E-03
            4620             854     6.33345E-03     6.16408E-03
            4620            4864     5.14548E-03     6.77705E-03
            4620            4882     7.41274E-03     8.09380E-03
            4621             801     100.784E-03     102.677E-03
            4621             802     97.2791E-03     99.4279E-03
            4621            4865     91.7504E-03     94.1149E-03
            4621            4883     90.7801E-03     93.0920E-03
            4622            4865     91.7504E-03     94.1149E-03
            4622            4866     83.8076E-03     86.6421E-03
            4622            4883     90.7801E-03     93.0920E-03
            4622            4884     84.4295E-03     86.8629E-03
            4623            4866     83.8076E-03     86.6421E-03
            4623            4867     77.4567E-03     80.3492E-03
            4623            4884     84.4295E-03     86.8629E-03
            4623            4885     78.4430E-03     80.9738E-03
            4624            4867     77.4567E-03     80.3492E-03
            4624            4868     71.7606E-03     74.6271E-03
            4624            4885     78.4430E-03     80.9738E-03
            4624            4886     73.0145E-03     75.4428E-03
            4625            4868     71.7606E-03     74.6271E-03
            4625            4869     66.5029E-03     69.3283E-03
            4625            4886     73.0145E-03     75.4428E-03
            4625            4887     67.7799E-03     70.1109E-03
            4626            4869     66.5029E-03     69.3283E-03
            4626            4870     61.4793E-03     64.2451E-03
            4626            4887     67.7799E-03     70.1109E-03
            4626            4888     62.7266E-03     64.9634E-03
            4627            4870     61.4793E-03     64.2451E-03
            4627            4871     56.5756E-03     59.3063E-03
            4627            4888     62.7266E-03     64.9634E-03
            4627            4889     57.7662E-03     59.9252E-03
            4628            4871     56.5756E-03     59.3063E-03
            4628            4872     51.7476E-03     54.4448E-03
            4628            4889     57.7662E-03     59.9252E-03
            4628            4890     52.8751E-03     54.9805E-03
            4629            4872     51.7476E-03     54.4448E-03
            4629            4873     46.9545E-03     49.6314E-03
            4629            4890     52.8751E-03     54.9805E-03
            4629            4891     48.0348E-03     50.0990E-03
            4630            4873     46.9545E-03     49.6314E-03
            4630            4874     42.1896E-03     44.8482E-03
            4630            4891     48.0348E-03     50.0990E-03
            4630            4892     43.2347E-03     45.2717E-03
            4631            4874     42.1896E-03     44.8482E-03
            4631            4875     37.4434E-03     40.0847E-03
            4631            4892     43.2347E-03     45.2717E-03
            4631            4893     38.4742E-03     40.4938E-03
            4632            4875     37.4434E-03     40.0847E-03
            4632            4876     32.7196E-03     35.3405E-03
            4632            4893     38.4742E-03     40.4938E-03
            4632            4894     33.7562E-03     35.7642E-03
            4633            4876     32.7196E-03     35.3405E-03
            4633            4877     28.0281E-03     30.6142E-03
            4633            4894     33.7562E-03     35.7642E-03
            4633            4895     29.0900E-03     31.0947E-03
            4634            4877     28.0281E-03     30.6142E-03
            4634            4878     23.3861E-03     25.9042E-03
            4634            4895     29.0900E-03     31.0947E-03
            4634            4896     24.5130E-03     26.4945E-03
            4635            4878     23.3861E-03     25.9042E-03
            4635            4879     18.8344E-03     21.2281E-03
            4635            4896     24.5130E-03     26.4945E-03
            4635            4897     20.0758E-03     21.9712E-03
            4636            4879     18.8344E-03     21.2281E-03
            4636            4880     14.4506E-03     16.5962E-03
            4636            4897     20.0758E-03     21.9712E-03
            4636            4898     15.9008E-03     17.6174E-03
            4637            4880     14.4506E-03     16.5962E-03
            4637            4881     10.4006E-03     12.1554E-03
            4637            4898     15.9008E-03     17.6174E-03
            4637            4899     12.2951E-03     13.4731E-03
            4638            4881     10.4006E-03     12.1554E-03
            4638            4882     7.41274E-03     8.09380E-03
            4638            4899     12.2951E-03     13.4731E-03
            4638            4900     9.78603E-03     9.99656E-03
            4639             854     6.33345E-03     6.16408E-03
            4639             855     8.88774E-03     8.55116E-03
            4639            4882     7.41274E-03     8.09380E-03
            4639            4900     9.78603E-03     9.99656E-03
            4640             802     97.2791E-03     99.4279E-03
            4640             803     93.3936E-03     95.1790E-03
            4640            4883     90.7801E-03     93.0920E-03
            4640            4901     88.5330E-03     90.7197E-03
            4641            4883     90.7801E-03     93.0920E-03
            4641            4884     84.4295E-03     86.8629E-03
            4641            4901     88.5330E-03     90.7197E-03
            4641            4902     83.6668E-03     85.8481E-03
            4642            4884     84.4295E-03     86.8629E-03
            4642            4885     78.4430E-03     80.9738E-03
            4642            4902     83.6668E-03     85.8481E-03
            4642            4903     78.6727E-03     80.6990E-03
            4643            4885     78.4430E-03     80.9738E-03
            4643            4886     73.0145E-03     75.4428E-03
            4643            4903     78.6727E-03     80.6990E-03
            4643            4904     73.5759E-03     75.4896E-03
            4644            4886     73.0145E-03     75.4428E-03
            4644            4887     67.7799E-03     70.1109E-03
            4644            4904     73.5759E-03     75.4896E-03
            4644            4905     68.5629E-03     70.3183E-03
            4645            4887     67.7799E-03     70.1109E-03
            4645            4888     62.7266E-03     64.9634E-03
            4645            4905     68.5629E-03     70.3183E-03
            4645            4906     63.5620E-03     65.2086E-03
            4646            4888     62.7266E-03     64.9634E-03
            4646            4889     57.7662E-03     59.9252E-03
            4646            4906     63.5620E-03     65.2086E-03
            4646            4907     58.6312E-03     60.1887E-03
            4647            4889     57.7662E-03     59.9252E-03
            4647            4890     52.8751E-03     54.9805E-03
            4647            4907     58.6312E-03     60.1887E-03
            4647            4908     53.7475E-03     55.2420E-03
            4648            4890     52.8751E-03     54.9805E-03
            4648            4891     48.0348E-03     50.0990E-03
            4648            4908     53.7475E-03     55.2420E-03
            4648            4909     48.9211E-03     50.3719E-03
            4649            4891     48.0348E-03     50.0990E-03
            4649            4892     43.2347E-03     45.2717E-03
            4649            4909     48.9211E-03     50.3719E-03
            4649            4910     44.1477E-03     45.5700E-03
            4650            4892     43.2347E-03     45.2717E-03
            4650            4893     38.4742E-03     40.4938E-03
            4650            4910     44.1477E-03     45.5700E-03
            4650            4911     39.4299E-03     40.8387E-03
            4651            4893     38.4742E-03     40.4938E-03
            4651            4894     33.7562E-03     35.7642E-03
            4651            4911     39.4299E-03     40.8387E-03
            4651            4912     34.7734E-03     36.1888E-03
            4652            4894     33.7562E-03     35.7642E-03
            4652            4895     29.0900E-03     31.0947E-03
            4652            4912     34.7734E-03     36.1888E-03
            4652            4913     30.1944E-03     31.6336E-03
            4653            4895     29.0900E-03     31.0947E-03
            4653            4896     24.5130E-03     26.4945E-03
            4653            4913     30.1944E-03     31.6336E-03
            4653            4914     25.7208E-03     27.2134E-03
            4654            4896     24.5130E-03     26.4945E-03
            4654            4897     20.0758E-03     21.9712E-03
            4654            4914     25.7208E-03     27.2134E-03
            4654            4915     21.4537E-03     22.9572E-03
            4655            4897     20.0758E-03     21.9712E-03
            4655            4898     15.9008E-03     17.6174E-03
            4655            4915     21.4537E-03     22.9572E-03
            4655            4916     17.5440E-03     18.8789E-03
            4656            4898     15.9008E-03     17.6174E-03
            4656            4899     12.2951E-03     13.4731E-03
            4656            4916     17.5440E-03     18.8789E-03
            4656            4917     14.2857E-03     15.2191E-03
            4657            4899     12.2951E-03     13.4731E-03
            4657            4900     9.78603E-03     9.99656E-03
            4657            4917     14.2857E-03     15.2191E-03
            4657            4918     12.2107E-03     12.2044E-03
            4658             855     8.88774E-03     8.55116E-03
            4658             856     11.5470E-03     10.8602E-03
            4658            4900     9.78603E-03     9.99656E-03
            4658            4918     12.2107E-03     12.2044E-03
            4659             803     93.3936E-03     95.1790E-03
            4659             804     88.8359E-03     90.6110E-03
            4659            4901     88.5330E-03     90.7197E-03
            4659            4919     85.6752E-03     87.5095E-03
            4660            4901     88.5330E-03     90.7197E-03
            4660            4902     83.6668E-03     85.8481E-03
            4660            4919     85.6752E-03     87.5095E-03
            4660            4920     82.1032E-03     83.7923E-03
            4661            4902     83.6668E-03     85.8481E-03
            4661            4903     78.6727E-03     80.6990E-03
            4661            4920     82.1032E-03     83.7923E-03
            4661            4921     77.9774E-03     79.4349E-03
            4662            4903     78.6727E-03     80.6990E-03
            4662            4904     73.5759E-03     75.4896E-03
            4662            4921     77.9774E-03     79.4349E-03
            4662            4922     73.4460E-03     74.6807E-03
            4663            4904     73.5759E-03     75.4896E-03
            4663            4905     68.5629E-03     70.3183E-03
            4663            4922     73.4460E-03     74.6807E-03
            4663            4923     68.6903E-03     69.7944E-03
            4664            4905     68.5629E-03     70.3183E-03
            4664            4906     63.5620E-03     65.2086E-03
            4664            4923     68.6903E-03     69.7944E-03
            4664            4924     63.8923E-03     64.8802E-03
            4665            4906     63.5620E-03     65.2086E-03
            4665            4907     58.6312E-03     60.1887E-03
            4665            4924     63.8923E-03     64.8802E-03
            4665            4925     59.0738E-03     59.9930E-03
            4666            4907     58.6312E-03     60.1887E-03
            4666            4908     53.7475E-03     55.2420E-03
            4666            4925     59.0738E-03     59.9930E-03
            4666            4926     54.2980E-03     55.1640E-03
            4667            4908     53.7475E-03     55.2420E-03
            4667            4909     48.9211E-03     50.3719E-03
            4667            4926     54.2980E-03     55.1640E-03
            4667            4927     49.5659E-03     50.3988E-03
            4668            4909     48.9211E-03     50.3719E-03
            4668            4910     44.1477E-03     45.5700E-03
            4668            4927     49.5659E-03     50.3988E-03
            4668            4928     44.8957E-03     45.7078E-03
            4669            4910     44.1477E-03     45.5700E-03
            4669            4911     39.4299E-03     40.8387E-03
            4669            4928     44.8957E-03     45.7078E-03
            4669            4929     40.2922E-03     41.0990E-03
            4670            4911     39.4299E-03     40.8387E-03
            4670            4912     34.7734E-03     36.1888E-03
            4670            4929     40.2922E-03     41.0990E-03
            4670            4930     35.7649E-03     36.5895E-03
            4671            4912     34.7734E-03     36.1888E-03
            4671            4913     30.1944E-03     31.6336E-03
            4671            4930     35.7649E-03     36.5895E-03
            4671            4931     31.3340E-03     32.2145E-03
            4672            4913     30.1944E-03     31.6336E-03
            4672            4914     25.7208E-03     27.2134E-03
            4672            4931     31.3340E-03     32.2145E-03
            4672            4932     27.0311E-03     28.0191E-03
            4673            4914     25.7208E-03     27.2134E-03
            4673            4915     21.4537E-03     22.9572E-03
            4673            4932     27.0311E-03     28.0191E-03
            4673            4933     22.9370E-03     24.1032E-03
            4674            4915     21.4537E-03     22.9572E-03
            4674            4916     17.5440E-03     18.8789E-03
            4674            4933     22.9370E-03     24.1032E-03
            4674            4934     19.2957E-03     20.4789E-03
            4675            4916     17.5440E-03     18.8789E-03
            4675            4917     14.2857E-03     15.2191E-03
            4675            4934     19.2957E-03     20.4789E-03
            4675            4935     16.3787E-03     17.1660E-03
            4676            4917     14.2857E-03     15.2191E-03
            4676            4918     12.2107E-03     12.2044E-03
            4676            4935     16.3787E-03     17.1660E-03
            4676            4936     14.5680E-03     14.7072E-03
            4677             856     11.5470E-03     10.8602E-03
            4677             857     14.0079E-03     13.8050E-03
            4677            4918     12.2107E-03     12.2044E-03
            4677            4936     14.5680E-03     14.7072E-03
            4678             804     88.8359E-03     90.6110E-03
            4678             805     83.9749E-03     85.3673E-03
            4678            4919     85.6752E-03     87.5095E-03
            4678            4937     82.3812E-03     83.6378E-03
            4679            4919     85.6752E-03     87.5095E-03
            4679            4920     82.1032E-03     83.7923E-03
            4679            4937     82.3812E-03     83.6378E-03
            4679            4938     79.9729E-03     80.8533E-03
            4680            4920     82.1032E-03     83.7923E-03
            4680            4921     77.9774E-03     79.4349E-03
            4680            4938     79.9729E-03     80.8533E-03
            4680            4939     76.5405E-03     77.1602E-03
            4681            4921     77.9774E-03     79.4349E-03
            4681            4922     73.4460E-03     74.6807E-03
            4681            4939     76.5405E-03     77.1602E-03
            4681            4940     72.5220E-03     72.9739E-03
            4682            4922     73.4460E-03     74.6807E-03
            4682            4923     68.6903E-03     69.7944E-03
            4682            4940     72.5220E-03     72.9739E-03
            4682            4941     68.1696E-03     68.5083E-03
            4683            4923     68.6903E-03     69.7944E-03
            4683            4924     63.8923E-03     64.8802E-03
            4683            4941     68.1696E-03     68.5083E-03
            4683            4942     63.6458E-03     63.9338E-03
            4684            4924     63.8923E-03     64.8802E-03
            4684            4925     59.0738E-03     59.9930E-03
            4684            4942     63.6458E-03     63.9338E-03
            4684            4943     59.0798E-03     59.3276E-03
            4685            4925     59.0738E-03     59.9930E-03
            4685            4926     54.2980E-03     55.1640E-03
            4685            4943     59.0798E-03     59.3276E-03
            4685            4944     54.5054E-03     54.7372E-03
            4686            4926     54.2980E-03     55.1640E-03
            4686            4927     49.5659E-03     50.3988E-03
            4686            4944     54.5054E-03     54.7372E-03
            4686            4945     49.9715E-03     50.1897E-03
            4687            4927     49.5659E-03     50.3988E-03
            4687            4928     44.8957E-03     45.7078E-03
            4687            4945     49.9715E-03     50.1897E-03
            4687            4946     45.4883E-03     45.7023E-03
            4688            4928     44.8957E-03     45.7078E-03
            4688            4929     40.2922E-03     41.0990E-03
            4688            4946     45.4883E-03     45.7023E-03
            4688            4947     41.0765E-03     41.2957E-03
            4689            4929     40.2922E-03     41.0990E-03
            4689            4930     35.7649E-03     36.5895E-03
            4689            4947     41.0765E-03     41.2957E-03
            4689            4948     36.7533E-03     36.9949E-03
            4690            4930     35.7649E-03     36.5895E-03
            4690            4931     31.3340E-03     32.2145E-03
            4690            4948     36.7533E-03     36.9949E-03
            4690            4949     32.5357E-03     32.8461E-03
            4691            4931     31.3340E-03     32.2145E-03
            4691            4932     27.0311E-03     28.0191E-03
            4691            4949     32.5357E-03     32.8461E-03
            4691            4950     28.4714E-03     28.9216E-03
            4692            4932     27.0311E-03     28.0191E-03
            4692            4933     22.9370E-03     24.1032E-03
            4692            4950     28.4714E-03     28.9216E-03
            4692            4951     24.6014E-03     25.3350E-03
            4693            4933     22.9370E-03     24.1032E-03
            4693            4934     19.2957E-03     20.4789E-03
            4693            4951     24.6014E-03     25.3350E-03
            4693            4952     21.1053E-03     22.2937E-03
            4694            4934     19.2957E-03     20.4789E-03
            4694            4935     16.3787E-03     17.1660E-03
            4694            4952     21.1053E-03     22.2937E-03
            4694            4953     18.5138E-03     19.6148E-03
            4695            4935     16.3787E-03     17.1660E-03
            4695            4936     14.5680E-03     14.7072E-03
            4695            4953     18.5138E-03     19.6148E-03
            4695            4954     17.0132E-03     17.1943E-03
            4696             857     14.0079E-03     13.8050E-03
            4696             858     16.4996E-03     16.1022E-03
            4696            4936     14.5680E-03     14.7072E-03
            4696            4954     17.0132E-03     17.1943E-03
            4697             805     83.9749E-03     85.3673E-03
            4697             806     79.0368E-03     79.4621E-03
            4697            4937     82.3812E-03     83.6378E-03
            4697            4955     78.9956E-03     78.9459E-03
            4698            4937     82.3812E-03     83.6378E-03
            4698            4938     79.9729E-03     80.8533E-03
            4698            4955     78.9956E-03     78.9459E-03
            4698            4956     77.1949E-03     76.8970E-03
            4699            4938     79.9729E-03     80.8533E-03
            4699            4939     76.5405E-03     77.1602E-03
            4699            4956     77.1949E-03     76.8970E-03
            4699            4957     74.3827E-03     73.9412E-03
            4700            4939     76.5405E-03     77.1602E-03
            4700            4940     72.5220E-03     72.9739E-03
            4700            4957     74.3827E-03     73.9412E-03
            4700            4958     70.8813E-03     70.4065E-03
            4701            4940     72.5220E-03     72.9739E-03
            4701            4941     68.1696E-03     68.5083E-03
            4701            4958     70.8813E-03     70.4065E-03
            4701            4959     66.9954E-03     66.5294E-03
            4702            4941     68.1696E-03     68.5083E-03
            4702            4942     63.6458E-03     63.9338E-03
            4702            4959     66.9954E-03     66.5294E-03
            4702            4960     62.8965E-03     62.4472E-03
            4703            4942     63.6458E-03     63.9338E-03
            4703            4943     59.0798E-03     59.3276E-03
            4703            4960     62.8965E-03     62.4472E-03
            4703            4961     58.6838E-03     58.2677E-03
            4704            4943     59.0798E-03     59.3276E-03
            4704            4944     54.5054E-03     54.7372E-03
            4704            4961     58.6838E-03     58.2677E-03
            4704            4962     54.4398E-03     54.0440E-03
            4705            4944     54.5054E-03     54.7372E-03
            4705            4945     49.9715E-03     50.1897E-03
            4705            4962     54.4398E-03     54.0440E-03
            4705            4963     50.1940E-03     49.8224E-03
            4706            4945     49.9715E-03     50.1897E-03
            4706            4946     45.4883E-03     45.7023E-03
            4706            4963     50.1940E-03     49.8224E-03
            4706            4964     45.9877E-03     45.6322E-03
            4707            4946     45.4883E-03     45.7023E-03
            4707            4947     41.0765E-03     41.2957E-03
            4707            4964     45.9877E-03     45.6322E-03
            4707            4965     41.8405E-03     41.5039E-03
            4708            4947     41.0765E-03     41.2957E-03
            4708            4948     36.7533E-03     36.9949E-03
            4708            4965     41.8405E-03     41.5039E-03
            4708            4966     37.7836E-03     37.4760E-03
            4709            4948     36.7533E-03     36.9949E-03
            4709            4949     32.5357E-03     32.8461E-03
            4709            4966     37.7836E-03     37.4760E-03
            4709            4967     33.8507E-03     33.5955E-03
            4710            4949     32.5357E-03     32.8461E-03
            4710            4950     28.4714E-03     28.9216E-03
            4710            4967     33.8507E-03     33.5955E-03
            4710            4968     30.0750E-03     29.9548E-03
            4711            4950     28.4714E-03     28.9216E-03
            4711            4951     24.6014E-03     25.3350E-03
            4711            4968     30.0750E-03     29.9548E-03
            4711            4969     26.5272E-03     26.6728E-03
            4712            4951     24.6014E-03     25.3350E-03
            4712            4952     21.1053E-03     22.2937E-03
            4712            4969     26.5272E-03     26.6728E-03
            4712            4970     23.2201E-03     24.0187E-03
            4713            4952     21.1053E-03     22.2937E-03
            4713            4953     18.5138E-03     19.6148E-03
            4713            4970     23.2201E-03     24.0187E-03
            4713            4971     20.4813E-03     22.2962E-03
            4714            4953     18.5138E-03     19.6148E-03
            4714            4954     17.0132E-03     17.1943E-03
            4714            4971     20.4813E-03     22.2962E-03
            4714            4972     19.3472E-03     20.7946E-03
            4715             858     16.4996E-03     16.1022E-03
            4715             859     19.3445E-03     19.8994E-03
            4715            4954     17.0132E-03     17.1943E-03
            4715            4972     19.3472E-03     20.7946E-03
            4716             806     79.0368E-03     79.4621E-03
            4716             807     74.7600E-03     72.7259E-03
            4716            4955     78.9956E-03     78.9459E-03
            4716            4973     75.0985E-03     73.1056E-03
            4717            4955     78.9956E-03     78.9459E-03
            4717            4956     77.1949E-03     76.8970E-03
            4717            4973     75.0985E-03     73.1056E-03
            4717            4974     73.7834E-03     71.9533E-03
            4718            4956     77.1949E-03     76.8970E-03
            4718            4957     74.3827E-03     73.9412E-03
            4718            4974     73.7834E-03     71.9533E-03
            4718            4975     71.5159E-03     69.9050E-03
            4719            4957     74.3827E-03     73.9412E-03
            4719            4958     70.8813E-03     70.4065E-03
            4719            4975     71.5159E-03     69.9050E-03
            4719            4976     68.6383E-03     67.2121E-03
            4720            4958     70.8813E-03     70.4065E-03
            4720            4959     66.9954E-03     66.5294E-03
            4720            4976     68.6383E-03     67.2121E-03
            4720            4977     65.3443E-03     64.0721E-03
            4721            4959     66.9954E-03     66.5294E-03
            4721            4960     62.8965E-03     62.4472E-03
            4721            4977     65.3443E-03     64.0721E-03
            4721            4978     61.7848E-03     60.6423E-03
            4722            4960     62.8965E-03     62.4472E-03
            4722            4961     58.6838E-03     58.2677E-03
            4722            4978     61.7848E-03     60.6423E-03
            4722            4979     58.0614E-03     57.0080E-03
            4723            4961     58.6838E-03     58.2677E-03
            4723            4962     54.4398E-03     54.0440E-03
            4723            4979     58.0614E-03     57.0080E-03
            4723            4980     54.2365E-03     53.2620E-03
            4724            4962     54.4398E-03     54.0440E-03
            4724            4963     50.1940E-03     49.8224E-03
            4724            4980     54.2365E-03     53.2620E-03
            4724            4981     50.3731E-03     49.4520E-03
            4725            4963     50.1940E-03     49.8224E-03
            4725            4964     45.9877E-03     45.6322E-03
            4725            4981     50.3731E-03     49.4520E-03
            4725            4982     46.5037E-03     45.6328E-03
            4726            4964     45.9877E-03     45.6322E-03
            4726            4965     41.8405E-03     41.5039E-03
            4726            4982     46.5037E-03     45.6328E-03
            4726            4983     42.6782E-03     41.8455E-03
            4727            4965     41.8405E-03     41.5039E-03
            4727            4966     37.7836E-03     37.4760E-03
            4727            4983     42.6782E-03     41.8455E-03
            4727            4984     38.9288E-03     38.1375E-03
            4728            4966     37.7836E-03     37.4760E-03
            4728            4967     33.8507E-03     33.5955E-03
            4728            4984     38.9288E-03     38.1375E-03
            4728            4985     35.3162E-03     34.5657E-03
            4729            4967     33.8507E-03     33.5955E-03
            4729            4968     30.0750E-03     29.9548E-03
            4729            4985     35.3162E-03     34.5657E-03
            4729            4986     31.8811E-03     31.2061E-03
            4730            4968     30.0750E-03     29.9548E-03
            4730            4969     26.5272E-03     26.6728E-03
            4730            4986     31.8811E-03     31.2061E-03
            4730            4987     28.7109E-03     28.1824E-03
            4731            4969     26.5272E-03     26.6728E-03
            4731            4970     23.2201E-03     24.0187E-03
            4731            4987     28.7109E-03     28.1824E-03
            4731            4988     25.8180E-03     25.6709E-03
            4732            4970     23.2201E-03     24.0187E-03
            4732            4971     20.4813E-03     22.2962E-03
            4732            4988     25.8180E-03     25.6709E-03
            4732            4989     23.1823E-03     24.1931E-03
            4733            4971     20.4813E-03     22.2962E-03
            4733            4972     19.3472E-03     20.7946E-03
            4733            4989     23.1823E-03     24.1931E-03
            4733            4990     21.1527E-03     24.1546E-03
            4734             859     19.3445E-03     19.8994E-03
            4734             860     20.3620E-03     24.4931E-03
            4734            4972     19.3472E-03     20.7946E-03
            4734            4990     21.1527E-03     24.1546E-03
            4735             807     74.7600E-03     72.7259E-03
            4735             808     63.2740E-03     63.4549E-03
            4735            4973     75.0985E-03     73.1056E-03
            4735            4991     59.6208E-03     59.6437E-03
            4736            4973     75.0985E-03     73.1056E-03
            4736            4974     73.7834E-03     71.9533E-03
            4736            4991     59.6208E-03     59.6437E-03
            4736            4992     56.2453E-03     56.4650E-03
            4737            4974     73.7834E-03     71.9533E-03
            4737            4975     71.5159E-03     69.9050E-03
            4737            4992     56.2453E-03     56.4650E-03
            4737            4993     53.2474E-03     53.6025E-03
            4738            4975     71.5159E-03     69.9050E-03
            4738            4976     68.6383E-03     67.2121E-03
            4738            4993     53.2474E-03     53.6025E-03
            4738            4994     50.2861E-03     50.8496E-03
            4739            4976     68.6383E-03     67.2121E-03
            4739            4977     65.3443E-03     64.0721E-03
            4739            4994     50.2861E-03     50.8496E-03
            4739            4995     47.4140E-03     48.1046E-03
            4740            4977     65.3443E-03     64.0721E-03
            4740            4978     61.7848E-03     60.6423E-03
            4740            4995     47.4140E-03     48.1046E-03
            4740            4996     44.5185E-03     45.3365E-03
            4741            4978     61.7848E-03     60.6423E-03
            4741            4979     58.0614E-03     57.0080E-03
            4741            4996     44.5185E-03     45.3365E-03
            4741            4997     41.6301E-03     42.5255E-03
            4742            4979     58.0614E-03     57.0080E-03
            4742            4980     54.2365E-03     53.2620E-03
            4742            4997     41.6301E-03     42.5255E-03
            4742            4998     38.7187E-03     39.6832E-03
            4743            4980     54.2365E-03     53.2620E-03
            4743            4981     50.3731E-03     49.4520E-03
            4743            4998     38.7187E-03     39.6832E-03
            4743            4999     35.8068E-03     36.8114E-03
            4744            4981     50.3731E-03     49.4520E-03
            4744            4982     46.5037E-03     45.6328E-03
            4744            4999     35.8068E-03     36.8114E-03
            4744            5000     32.8979E-03     33.9364E-03
            4745            4982     46.5037E-03     45.6328E-03
            4745            4983     42.6782E-03     41.8455E-03
            4745            5000     32.8979E-03     33.9364E-03
            4745            5001     30.0164E-03     31.0691E-03
            4746            4983     42.6782E-03     41.8455E-03
            4746            4984     38.9288E-03     38.1375E-03
            4746            5001     30.0164E-03     31.0691E-03
            4746            5002     27.1847E-03     28.2396E-03
            4747            4984     38.9288E-03     38.1375E-03
            4747            4985     35.3162E-03     34.5657E-03
            4747            5002     27.1847E-03     28.2396E-03
            4747            5003     24.4383E-03     25.4768E-03
            4748            4985     35.3162E-03     34.5657E-03
            4748            4986     31.8811E-03     31.2061E-03
            4748            5003     24.4383E-03     25.4768E-03
            4748            5004     21.8223E-03     22.8136E-03
            4749            4986     31.8811E-03     31.2061E-03
            4749            4987     28.7109E-03     28.1824E-03
            4749            5004     21.8223E-03     22.8136E-03
            4749            5005     19.3882E-03     20.3393E-03
            4750            4987     28.7109E-03     28.1824E-03
            4750            4988     25.8180E-03     25.6709E-03
            4750            5005     19.3882E-03     20.3393E-03
            4750            5006     17.2092E-03     18.0877E-03
            4751            4988     25.8180E-03     25.6709E-03
            4751            4989     23.1823E-03     24.1931E-03
            4751            5006     17.2092E-03     18.0877E-03
            4751            5007     15.3428E-03     16.4215E-03
            4752            4989     23.1823E-03     24.1931E-03
            4752            4990     21.1527E-03     24.1546E-03
            4752            5007     15.3428E-03     16.4215E-03
            4752            5008     13.3902E-03     15.8252E-03
            4753             860     20.3620E-03     24.4931E-03
            4753             861     12.2784E-03     15.7987E-03
            4753            4990     21.1527E-03     24.1546E-03
            4753            5008     13.3902E-03     15.8252E-03
            4754             808     63.2740E-03     63.4549E-03
            4754             809     55.2895E-03     58.4412E-03
            4754            4991     59.6208E-03     59.6437E-03
            4754            5009     46.6626E-03     49.5697E-03
            4755            4991     59.6208E-03     59.6437E-03
            4755            4992     56.2453E-03     56.4650E-03
            4755            5009     46.6626E-03     49.5697E-03
            4755            5010     41.1529E-03     43.9365E-03
            4756            4992     56.2453E-03     56.4650E-03
            4756            4993     53.2474E-03     53.6025E-03
            4756            5010     41.1529E-03     43.9365E-03
            4756            5011     36.9227E-03     39.7040E-03
            4757            4993     53.2474E-03     53.6025E-03
            4757            4994     50.2861E-03     50.8496E-03
            4757            5011     36.9227E-03     39.7040E-03
            4757            5012     33.6347E-03     36.4359E-03
            4758            4994     50.2861E-03     50.8496E-03
            4758            4995     47.4140E-03     48.1046E-03
            4758            5012     33.6347E-03     36.4359E-03
            4758            5013     30.8142E-03     33.6543E-03
            4759            4995     47.4140E-03     48.1046E-03
            4759            4996     44.5185E-03     45.3365E-03
            4759            5013     30.8142E-03     33.6543E-03
            4759            5014     28.3240E-03     31.1986E-03
            4760            4996     44.5185E-03     45.3365E-03
            4760            4997     41.6301E-03     42.5255E-03
            4760            5014     28.3240E-03     31.1986E-03
            4760            5015     25.9972E-03     28.8960E-03
            4761            4997     41.6301E-03     42.5255E-03
            4761            4998     38.7187E-03     39.6832E-03
            4761            5015     25.9972E-03     28.8960E-03
            4761            5016     23.7793E-03     26.6944E-03
            4762            4998     38.7187E-03     39.6832E-03
            4762            4999     35.8068E-03     36.8114E-03
            4762            5016     23.7793E-03     26.6944E-03
            4762            5017     21.6147E-03     24.5308E-03
            4763            4999     35.8068E-03     36.8114E-03
            4763            5000     32.8979E-03     33.9364E-03
            4763            5017     21.6147E-03     24.5308E-03
            4763            5018     19.4884E-03     22.3942E-03
            4764            5000     32.8979E-03     33.9364E-03
            4764            5001     30.0164E-03     31.0691E-03
            4764            5018     19.4884E-03     22.3942E-03
            4764            5019     17.3898E-03     20.2645E-03
            4765            5001     30.0164E-03     31.0691E-03
            4765            5002     27.1847E-03     28.2396E-03
            4765            5019     17.3898E-03     20.2645E-03
            4765            5020     15.3236E-03     18.1463E-03
            4766            5002     27.1847E-03     28.2396E-03
            4766            5003     24.4383E-03     25.4768E-03
            4766            5020     15.3236E-03     18.1463E-03
            4766            5021     13.3042E-03     16.0379E-03
            4767            5003     24.4383E-03     25.4768E-03
            4767            5004     21.8223E-03     22.8136E-03
            4767            5021     13.3042E-03     16.0379E-03
            4767            5022     11.3511E-03     13.9580E-03
            4768            5004     21.8223E-03     22.8136E-03
            4768            5005     19.3882E-03     20.3393E-03
            4768            5022     11.3511E-03     13.9580E-03
            4768            5023     9.51298E-03     11.9276E-03
            4769            5005     19.3882E-03     20.3393E-03
            4769            5006     17.2092E-03     18.0877E-03
            4769            5023     9.51298E-03     11.9276E-03
            4769            5024     7.85090E-03     9.99948E-03
            4770            5006     17.2092E-03     18.0877E-03
            4770            5007     15.3428E-03     16.4215E-03
            4770            5024     7.85090E-03     9.99948E-03
            4770            5025     6.49231E-03     8.30540E-03
            4771            5007     15.3428E-03     16.4215E-03
            4771            5008     13.3902E-03     15.8252E-03
            4771            5025     6.49231E-03     8.30540E-03
            4771            5026     5.75472E-03     6.90866E-03
            4772             861     12.2784E-03     15.7987E-03
            4772             862     5.59429E-03     6.27872E-03
            4772            5008     13.3902E-03     15.8252E-03
            4772            5026     5.75472E-03     6.90866E-03
            4773             809     55.2895E-03     58.4412E-03
            4773             810     56.8628E-03     58.1956E-03
            4773            5009     46.6626E-03     49.5697E-03
            4773            5027     47.6764E-03     49.8119E-03
            4774            5009     46.6626E-03     49.5697E-03
            4774            5010     41.1529E-03     43.9365E-03
            4774            5027     47.6764E-03     49.8119E-03
            4774            5028     41.9972E-03     44.3146E-03
            4775            5010     41.1529E-03     43.9365E-03
            4775            5011     36.9227E-03     39.7040E-03
            4775            5028     41.9972E-03     44.3146E-03
            4775            5029     37.8388E-03     40.2005E-03
            4776            5011     36.9227E-03     39.7040E-03
            4776            5012     33.6347E-03     36.4359E-03
            4776            5029     37.8388E-03     40.2005E-03
            4776            5030     34.5303E-03     36.9387E-03
            4777            5012     33.6347E-03     36.4359E-03
            4777            5013     30.8142E-03     33.6543E-03
            4777            5030     34.5303E-03     36.9387E-03
            4777            5031     31.7687E-03     34.1776E-03
            4778            5013     30.8142E-03     33.6543E-03
            4778            5014     28.3240E-03     31.1986E-03
            4778            5031     31.7687E-03     34.1776E-03
            4778            5032     29.2786E-03     31.6941E-03
            4779            5014     28.3240E-03     31.1986E-03
            4779            5015     25.9972E-03     28.8960E-03
            4779            5032     29.2786E-03     31.6941E-03
            4779            5033     26.9701E-03     29.3782E-03
            4780            5015     25.9972E-03     28.8960E-03
            4780            5016     23.7793E-03     26.6944E-03
            4780            5033     26.9701E-03     29.3782E-03
            4780            5034     24.7466E-03     27.1453E-03
            4781            5016     23.7793E-03     26.6944E-03
            4781            5017     21.6147E-03     24.5308E-03
            4781            5034     24.7466E-03     27.1453E-03
            4781            5035     22.5840E-03     24.9654E-03
            4782            5017     21.6147E-03     24.5308E-03
            4782            5018     19.4884E-03     22.3942E-03
            4782            5035     22.5840E-03     24.9654E-03
            4782            5036     20.4567E-03     22.8106E-03
            4783            5018     19.4884E-03     22.3942E-03
            4783            5019     17.3898E-03     20.2645E-03
            4783            5036     20.4567E-03     22.8106E-03
            4783            5037     18.3670E-03     20.6789E-03
            4784            5019     17.3898E-03     20.2645E-03
            4784            5020     15.3236E-03     18.1463E-03
            4784            5037     18.3670E-03     20.6789E-03
            4784            5038     16.3206E-03     18.5657E-03
            4785            5020     15.3236E-03     18.1463E-03
            4785            5021     13.3042E-03     16.0379E-03
            4785            5038     16.3206E-03     18.5657E-03
            4785            5039     14.3374E-03     16.4827E-03
            4786            5021     13.3042E-03     16.0379E-03
            4786            5022     11.3511E-03     13.9580E-03
            4786            5039     14.3374E-03     16.4827E-03
            4786            5040     12.4486E-03     14.4412E-03
            4787            5022     11.3511E-03     13.9580E-03
            4787            5023     9.51298E-03     11.9276E-03
            4787            5040     12.4486E-03     14.4412E-03
            4787            5041     10.7066E-03     12.4701E-03
            4788            5023     9.51298E-03     11.9276E-03
            4788            5024     7.85090E-03     9.99948E-03
            4788            5041     10.7066E-03     12.4701E-03
            4788            5042     9.18329E-03     10.6314E-03
            4789            5024     7.85090E-03     9.99948E-03
            4789            5025     6.49231E-03     8.30540E-03
            4789            5042     9.18329E-03     10.6314E-03
            4789            5043     8.05890E-03     8.96293E-03
            4790            5025     6.49231E-03     8.30540E-03
            4790            5026     5.75472E-03     6.90866E-03
            4790            5043     8.05890E-03     8.96293E-03
            4790            5044     7.56850E-03     7.52820E-03
            4791             862     5.59429E-03     6.27872E-03
            4791             863     7.50572E-03     6.88671E-03
            4791            5026     5.75472E-03     6.90866E-03
            4791            5044     7.56850E-03     7.52820E-03
            4792             810     56.8628E-03     58.1956E-03
            4792             811     54.7934E-03     55.7882E-03
            4792            5027     47.6764E-03     49.8119E-03
            4792            5045     47.9065E-03     49.2997E-03
            4793            5027     47.6764E-03     49.8119E-03
            4793            5028     41.9972E-03     44.3146E-03
            4793            5045     47.9065E-03     49.2997E-03
            4793            5046     42.4836E-03     44.3117E-03
            4794            5028     41.9972E-03     44.3146E-03
            4794            5029     37.8388E-03     40.2005E-03
            4794            5046     42.4836E-03     44.3117E-03
            4794            5047     38.6286E-03     40.5775E-03
            4795            5029     37.8388E-03     40.2005E-03
            4795            5030     34.5303E-03     36.9387E-03
            4795            5047     38.6286E-03     40.5775E-03
            4795            5048     35.4802E-03     37.4573E-03
            4796            5030     34.5303E-03     36.9387E-03
            4796            5031     31.7687E-03     34.1776E-03
            4796            5048     35.4802E-03     37.4573E-03
            4796            5049     32.7682E-03     34.7509E-03
            4797            5031     31.7687E-03     34.1776E-03
            4797            5032     29.2786E-03     31.6941E-03
            4797            5049     32.7682E-03     34.7509E-03
            4797            5050     30.3118E-03     32.2652E-03
            4798            5032     29.2786E-03     31.6941E-03
            4798            5033     26.9701E-03     29.3782E-03
            4798            5050     30.3118E-03     32.2652E-03
            4798            5051     27.9868E-03     29.9175E-03
            4799            5033     26.9701E-03     29.3782E-03
            4799            5034     24.7466E-03     27.1453E-03
            4799            5051     27.9868E-03     29.9175E-03
            4799            5052     25.7519E-03     27.6515E-03
            4800            5034     24.7466E-03     27.1453E-03
            4800            5035     22.5840E-03     24.9654E-03
            4800            5052     25.7519E-03     27.6515E-03
            4800            5053     23.5680E-03     25.4384E-03
            4801            5035     22.5840E-03     24.9654E-03
            4801            5036     20.4567E-03     22.8106E-03
            4801            5053     23.5680E-03     25.4384E-03
            4801            5054     21.4318E-03     23.2656E-03
            4802            5036     20.4567E-03     22.8106E-03
            4802            5037     18.3670E-03     20.6789E-03
            4802            5054     21.4318E-03     23.2656E-03
            4802            5055     19.3402E-03     21.1275E-03
            4803            5037     18.3670E-03     20.6789E-03
            4803            5038     16.3206E-03     18.5657E-03
            4803            5055     19.3402E-03     21.1275E-03
            4803            5056     17.3096E-03     19.0285E-03
            4804            5038     16.3206E-03     18.5657E-03
            4804            5039     14.3374E-03     16.4827E-03
            4804            5056     17.3096E-03     19.0285E-03
            4804            5057     15.3591E-03     16.9748E-03
            4805            5039     14.3374E-03     16.4827E-03
            4805            5040     12.4486E-03     14.4412E-03
            4805            5057     15.3591E-03     16.9748E-03
            4805            5058     13.5326E-03     14.9836E-03
            4806            5040     12.4486E-03     14.4412E-03
            4806            5041     10.7066E-03     12.4701E-03
            4806            5058     13.5326E-03     14.9836E-03
            4806            5059     11.8788E-03     13.0784E-03
            4807            5041     10.7066E-03     12.4701E-03
            4807            5042     9.18329E-03     10.6314E-03
            4807            5059     11.8788E-03     13.0784E-03
            4807            5060     10.5023E-03     11.3010E-03
            4808            5042     9.18329E-03     10.6314E-03
            4808            5043     8.05890E-03     8.96293E-03
            4808            5060     10.5023E-03     11.3010E-03
            4808            5061     9.53984E-03     9.68169E-03
            4809            5043     8.05890E-03     8.96293E-03
            4809            5044     7.56850E-03     7.52820E-03
            4809            5061     9.53984E-03     9.68169E-03
            4809            5062     8.97830E-03     8.45002E-03
            4810             863     7.50572E-03     6.88671E-03
            4810             864     8.78123E-03     7.98611E-03
            4810            5044     7.56850E-03     7.52820E-03
            4810            5062     8.97830E-03     8.45002E-03
            4811             811     54.7934E-03     55.7882E-03
            4811             812     50.9856E-03     52.0835E-03
            4811            5045     47.9065E-03     49.2997E-03
            4811            5063     46.2609E-03     47.4980E-03
            4812            5045     47.9065E-03     49.2997E-03
            4812            5046     42.4836E-03     44.3117E-03
            4812            5063     46.2609E-03     47.4980E-03
            4812            5064     42.3152E-03     43.7221E-03
            4813            5046     42.4836E-03     44.3117E-03
            4813            5047     38.6286E-03     40.5775E-03
            4813            5064     42.3152E-03     43.7221E-03
            4813            5065     38.9825E-03     40.5459E-03
            4814            5047     38.6286E-03     40.5775E-03
            4814            5048     35.4802E-03     37.4573E-03
            4814            5065     38.9825E-03     40.5459E-03
            4814            5066     36.2138E-03     37.7780E-03
            4815            5048     35.4802E-03     37.4573E-03
            4815            5049     32.7682E-03     34.7509E-03
            4815            5066     36.2138E-03     37.7780E-03
            4815            5067     33.6623E-03     35.1976E-03
            4816            5049     32.7682E-03     34.7509E-03
            4816            5050     30.3118E-03     32.2652E-03
            4816            5067     33.6623E-03     35.1976E-03
            4816            5068     31.2661E-03     32.7612E-03
            4817            5050     30.3118E-03     32.2652E-03
            4817            5051     27.9868E-03     29.9175E-03
            4817            5068     31.2661E-03     32.7612E-03
            4817            5069     28.9548E-03     30.4041E-03
            4818            5051     27.9868E-03     29.9175E-03
            4818            5052     25.7519E-03     27.6515E-03
            4818            5069     28.9548E-03     30.4041E-03
            4818            5070     26.7053E-03     28.1175E-03
            4819            5052     25.7519E-03     27.6515E-03
            4819            5053     23.5680E-03     25.4384E-03
            4819            5070     26.7053E-03     28.1175E-03
            4819            5071     24.5083E-03     25.8825E-03
            4820            5053     23.5680E-03     25.4384E-03
            4820            5054     21.4318E-03     23.2656E-03
            4820            5071     24.5083E-03     25.8825E-03
            4820            5072     22.3609E-03     23.6997E-03
            4821            5054     21.4318E-03     23.2656E-03
            4821            5055     19.3402E-03     21.1275E-03
            4821            5072     22.3609E-03     23.6997E-03
            4821            5073     20.2726E-03     21.5682E-03
            4822            5055     19.3402E-03     21.1275E-03
            4822            5056     17.3096E-03     19.0285E-03
            4822            5073     20.2726E-03     21.5682E-03
            4822            5074     18.2556E-03     19.4958E-03
            4823            5056     17.3096E-03     19.0285E-03
            4823            5057     15.3591E-03     16.9748E-03
            4823            5074     18.2556E-03     19.4958E-03
            4823            5075     16.3423E-03     17.4904E-03
            4824            5057     15.3591E-03     16.9748E-03
            4824            5058     13.5326E-03     14.9836E-03
            4824            5075     16.3423E-03     17.4904E-03
            4824            5076     14.5654E-03     15.5651E-03
            4825            5058     13.5326E-03     14.9836E-03
            4825            5059     11.8788E-03     13.0784E-03
            4825            5076     14.5654E-03     15.5651E-03
            4825            5077     12.9981E-03     13.7477E-03
            4826            5059     11.8788E-03     13.0784E-03
            4826            5060     10.5023E-03     11.3010E-03
            4826            5077     12.9981E-03     13.7477E-03
            4826            5078     11.7184E-03     12.0508E-03
            4827            5060     10.5023E-03     11.3010E-03
            4827            5061     9.53984E-03     9.68169E-03
            4827            5078     11.7184E-03     12.0508E-03
            4827            5079     10.7689E-03     10.6146E-03
            4828            5061     9.53984E-03     9.68169E-03
            4828            5062     8.97830E-03     8.45002E-03
            4828            5079     10.7689E-03     10.6146E-03
            4828            5080     10.2448E-03     9.57226E-03
            4829             864     8.78123E-03     7.98611E-03
            4829             865     10.1074E-03     9.14881E-03
            4829            5062     8.97830E-03     8.45002E-03
            4829            5080     10.2448E-03     9.57226E-03
            4830             812     50.9856E-03     52.0835E-03
            4830             813     47.0306E-03     47.8115E-03
            4830            5063     46.2609E-03     47.4980E-03
            4830            5081     43.7520E-03     44.8608E-03
            4831            5063     46.2609E-03     47.4980E-03
            4831            5064     42.3152E-03     43.7221E-03
            4831            5081     43.7520E-03     44.8608E-03
            4831            5082     41.2239E-03     42.4190E-03
            4832            5064     42.3152E-03     43.7221E-03
            4832            5065     38.9825E-03     40.5459E-03
            4832            5082     41.2239E-03     42.4190E-03
            4832            5083     38.8932E-03     40.0681E-03
            4833            5065     38.9825E-03     40.5459E-03
            4833            5066     36.2138E-03     37.7780E-03
            4833            5083     38.8932E-03     40.0681E-03
            4833            5084     36.5772E-03     37.7285E-03
            4834            5066     36.2138E-03     37.7780E-03
            4834            5067     33.6623E-03     35.1976E-03
            4834            5084     36.5772E-03     37.7285E-03
            4834            5085     34.3123E-03     35.3876E-03
            4835            5067     33.6623E-03     35.1976E-03
            4835            5068     31.2661E-03     32.7612E-03
            4835            5085     34.3123E-03     35.3876E-03
            4835            5086     32.0219E-03     33.0394E-03
            4836            5068     31.2661E-03     32.7612E-03
            4836            5069     28.9548E-03     30.4041E-03
            4836            5086     32.0219E-03     33.0394E-03
            4836            5087     29.7620E-03     30.7273E-03
            4837            5069     28.9548E-03     30.4041E-03
            4837            5070     26.7053E-03     28.1175E-03
            4837            5087     29.7620E-03     30.7273E-03
            4837            5088     27.5258E-03     28.4483E-03
            4838            5070     26.7053E-03     28.1175E-03
            4838            5071     24.5083E-03     25.8825E-03
            4838            5088     27.5258E-03     28.4483E-03
            4838            5089     25.3354E-03     26.2242E-03
            4839            5071     24.5083E-03     25.8825E-03
            4839            5072     22.3609E-03     23.6997E-03
            4839            5089     25.3354E-03     26.2242E-03
            4839            5090     23.1970E-03     24.0556E-03
            4840            5072     22.3609E-03     23.6997E-03
            4840            5073     20.2726E-03     21.5682E-03
            4840            5090     23.1970E-03     24.0556E-03
            4840            5091     21.1251E-03     21.9564E-03
            4841            5073     20.2726E-03     21.5682E-03
            4841            5074     18.2556E-03     19.4958E-03
            4841            5091     21.1251E-03     21.9564E-03
            4841            5092     19.1376E-03     19.9336E-03
            4842            5074     18.2556E-03     19.4958E-03
            4842            5075     16.3423E-03     17.4904E-03
            4842            5092     19.1376E-03     19.9336E-03
            4842            5093     17.2587E-03     18.0042E-03
            4843            5075     16.3423E-03     17.4904E-03
            4843            5076     14.5654E-03     15.5651E-03
            4843            5093     17.2587E-03     18.0042E-03
            4843            5094     15.5400E-03     16.1785E-03
            4844            5076     14.5654E-03     15.5651E-03
            4844            5077     12.9981E-03     13.7477E-03
            4844            5094     15.5400E-03     16.1785E-03
            4844            5095     14.0321E-03     14.4661E-03
            4845            5077     12.9981E-03     13.7477E-03
            4845            5078     11.7184E-03     12.0508E-03
            4845            5095     14.0321E-03     14.4661E-03
            4845            5096     12.8045E-03     12.9348E-03
            4846            5078     11.7184E-03     12.0508E-03
            4846            5079     10.7689E-03     10.6146E-03
            4846            5096     12.8045E-03     12.9348E-03
            4846            5097     11.9355E-03     11.6181E-03
            4847            5079     10.7689E-03     10.6146E-03
            4847            5080     10.2448E-03     9.57226E-03
            4847            5097     11.9355E-03     11.6181E-03
            4847            5098     11.4321E-03     10.6801E-03
            4848             865     10.1074E-03     9.14881E-03
            4848             866     11.2669E-03     10.3508E-03
            4848            5080     10.2448E-03     9.57226E-03
            4848            5098     11.4321E-03     10.6801E-03
            4849             813     47.0306E-03     47.8115E-03
            4849             814     42.6720E-03     43.4215E-03
            4849            5081     43.7520E-03     44.8608E-03
            4849            5099     40.9798E-03     41.8574E-03
            4850            5081     43.7520E-03     44.8608E-03
            4850            5082     41.2239E-03     42.4190E-03
            4850            5099     40.9798E-03     41.8574E-03
            4850            5100     39.6990E-03     40.6168E-03
            4851            5082     41.2239E-03     42.4190E-03
            4851            5083     38.8932E-03     40.0681E-03
            4851            5100     39.6990E-03     40.6168E-03
            4851            5101     38.3099E-03     39.1246E-03
            4852            5083     38.8932E-03     40.0681E-03
            4852            5084     36.5772E-03     37.7285E-03
            4852            5101     38.3099E-03     39.1246E-03
            4852            5102     36.6012E-03     37.2728E-03
            4853            5084     36.5772E-03     37.7285E-03
            4853            5085     34.3123E-03     35.3876E-03
            4853            5102     36.6012E-03     37.2728E-03
            4853            5103     34.6029E-03     35.1957E-03
            4854            5085     34.3123E-03     35.3876E-03
            4854            5086     32.0219E-03     33.0394E-03
            4854            5103     34.6029E-03     35.1957E-03
            4854            5104     32.4987E-03     33.0123E-03
            4855            5086     32.0219E-03     33.0394E-03
            4855            5087     29.7620E-03     30.7273E-03
            4855            5104     32.4987E-03     33.0123E-03
            4855            5105     30.3179E-03     30.7845E-03
            4856            5087     29.7620E-03     30.7273E-03
            4856            5088     27.5258E-03     28.4483E-03
            4856            5105     30.3179E-03     30.7845E-03
            4856            5106     28.1453E-03     28.5747E-03
            4857            5088     27.5258E-03     28.4483E-03
            4857            5089     25.3354E-03     26.2242E-03
            4857            5106     28.1453E-03     28.5747E-03
            4857            5107     25.9961E-03     26.4012E-03
            4858            5089     25.3354E-03     26.2242E-03
            4858            5090     23.1970E-03     24.0556E-03
            4858            5107     25.9961E-03     26.4012E-03
            4858            5108     23.9028E-03     24.2919E-03
            4859            5090     23.1970E-03     24.0556E-03
            4859            5091     21.1251E-03     21.9564E-03
            4859            5108     23.9028E-03     24.2919E-03
            4859            5109     21.8768E-03     22.2580E-03
            4860            5091     21.1251E-03     21.9564E-03
            4860            5092     19.1376E-03     19.9336E-03
            4860            5109     21.8768E-03     22.2580E-03
            4860            5110     19.9402E-03     20.3205E-03
            4861            5092     19.1376E-03     19.9336E-03
            4861            5093     17.2587E-03     18.0042E-03
            4861            5110     19.9402E-03     20.3205E-03
            4861            5111     18.1161E-03     18.4949E-03
            4862            5093     17.2587E-03     18.0042E-03
            4862            5094     15.5400E-03     16.1785E-03
            4862            5111     18.1161E-03     18.4949E-03
            4862            5112     16.4435E-03     16.8075E-03
            4863            5094     15.5400E-03     16.1785E-03
            4863            5095     14.0321E-03     14.4661E-03
            4863            5112     16.4435E-03     16.8075E-03
            4863            5113     14.9948E-03     15.2616E-03
            4864            5095     14.0321E-03     14.4661E-03
            4864            5096     12.8045E-03     12.9348E-03
            4864            5113     14.9948E-03     15.2616E-03
            4864            5114     13.8263E-03     13.8646E-03
            4865            5096     12.8045E-03     12.9348E-03
            4865            5097     11.9355E-03     11.6181E-03
            4865            5114     13.8263E-03     13.8646E-03
            4865            5115     13.0090E-03     12.7187E-03
            4866            5097     11.9355E-03     11.6181E-03
            4866            5098     11.4321E-03     10.6801E-03
            4866            5115     13.0090E-03     12.7187E-03
            4866            5116     12.5828E-03     11.8363E-03
            4867             866     11.2669E-03     10.3508E-03
            4867             867     12.4639E-03     11.4459E-03
            4867            5098     11.4321E-03     10.6801E-03
            4867            5116     12.5828E-03     11.8363E-03
            4868             814     42.6720E-03     43.4215E-03
            4868             815     38.2706E-03     38.7880E-03
            4868            5099     40.9798E-03     41.8574E-03
            4868            5117     37.9752E-03     38.6803E-03
            4869            5099     40.9798E-03     41.8574E-03
            4869            5100     39.6990E-03     40.6168E-03
            4869            5117     37.9752E-03     38.6803E-03
            4869            5118     38.0403E-03     38.5570E-03
            4870            5100     39.6990E-03     40.6168E-03
            4870            5101     38.3099E-03     39.1246E-03
            4870            5118     38.0403E-03     38.5570E-03
            4870            5119     37.4608E-03     37.7545E-03
            4871            5101     38.3099E-03     39.1246E-03
            4871            5102     36.6012E-03     37.2728E-03
            4871            5119     37.4608E-03     37.7545E-03
            4871            5120     36.2005E-03     36.3528E-03
            4872            5102     36.6012E-03     37.2728E-03
            4872            5103     34.6029E-03     35.1957E-03
            4872            5120     36.2005E-03     36.3528E-03
            4872            5121     34.5380E-03     34.5780E-03
            4873            5103     34.6029E-03     35.1957E-03
            4873            5104     32.4987E-03     33.0123E-03
            4873            5121     34.5380E-03     34.5780E-03
            4873            5122     32.6083E-03     32.5965E-03
            4874            5104     32.4987E-03     33.0123E-03
            4874            5105     30.3179E-03     30.7845E-03
            4874            5122     32.6083E-03     32.5965E-03
            4874            5123     30.5836E-03     30.5321E-03
            4875            5105     30.3179E-03     30.7845E-03
            4875            5106     28.1453E-03     28.5747E-03
            4875            5123     30.5836E-03     30.5321E-03
            4875            5124     28.5141E-03     28.4460E-03
            4876            5106     28.1453E-03     28.5747E-03
            4876            5107     25.9961E-03     26.4012E-03
            4876            5124     28.5141E-03     28.4460E-03
            4876            5125     26.4670E-03     26.3900E-03
            4877            5107     25.9961E-03     26.4012E-03
            4877            5108     23.9028E-03     24.2919E-03
            4877            5125     26.4670E-03     26.3900E-03
            4877            5126     24.4611E-03     24.3880E-03
            4878            5108     23.9028E-03     24.2919E-03
            4878            5109     21.8768E-03     22.2580E-03
            4878            5126     24.4611E-03     24.3880E-03
            4878            5127     22.5257E-03     22.4668E-03
            4879            5109     21.8768E-03     22.2580E-03
            4879            5110     19.9402E-03     20.3205E-03
            4879            5127     22.5257E-03     22.4668E-03
            4879            5128     20.6724E-03     20.6480E-03
            4880            5110     19.9402E-03     20.3205E-03
            4880            5111     18.1161E-03     18.4949E-03
            4880            5128     20.6724E-03     20.6480E-03
            4880            5129     18.9298E-03     18.9599E-03
            4881            5111     18.1161E-03     18.4949E-03
            4881            5112     16.4435E-03     16.8075E-03
            4881            5129     18.9298E-03     18.9599E-03
            4881            5130     17.3179E-03     17.4318E-03
            4882            5112     16.4435E-03     16.8075E-03
            4882            5113     14.9948E-03     15.2616E-03
            4882            5130     17.3179E-03     17.4318E-03
            4882            5131     15.8992E-03     16.1046E-03
            4883            5113     14.9948E-03     15.2616E-03
            4883            5114     13.8263E-03     13.8646E-03
            4883            5131     15.8992E-03     16.1046E-03
            4883            5132     14.7997E-03     14.9157E-03
            4884            5114     13.8263E-03     13.8646E-03
            4884            5115     13.0090E-03     12.7187E-03
            4884            5132     14.7997E-03     14.9157E-03
            4884            5133     14.0358E-03     13.8463E-03
            4885            5115     13.0090E-03     12.7187E-03
            4885            5116     12.5828E-03     11.8363E-03
            4885            5133     14.0358E-03     13.8463E-03
            4885            5134     13.6301E-03     13.1365E-03
            4886             867     12.4639E-03     11.4459E-03
            4886             868     13.5322E-03     12.9137E-03
            4886            5116     12.5828E-03     11.8363E-03
            4886            5134     13.6301E-03     13.1365E-03
            4887             815     38.2706E-03     38.7880E-03
            4887             816     33.6151E-03     34.0335E-03
            4887            5117     37.9752E-03     38.6803E-03
            4887            5135     35.2365E-03     35.4520E-03
            4888            5117     37.9752E-03     38.6803E-03
            4888            5118     38.0403E-03     38.5570E-03
            4888            5135     35.2365E-03     35.4520E-03
            4888            5136     36.3771E-03     36.2345E-03
            4889            5118     38.0403E-03     38.5570E-03
            4889            5119     37.4608E-03     37.7545E-03
            4889            5136     36.3771E-03     36.2345E-03
            4889            5137     36.2972E-03     35.9341E-03
            4890            5119     37.4608E-03     37.7545E-03
            4890            5120     36.2005E-03     36.3528E-03
            4890            5137     36.2972E-03     35.9341E-03
            4890            5138     35.4303E-03     34.9381E-03
            4891            5120     36.2005E-03     36.3528E-03
            4891            5121     34.5380E-03     34.5780E-03
            4891            5138     35.4303E-03     34.9381E-03
            4891            5139     34.0345E-03     33.4880E-03
            4892            5121     34.5380E-03     34.5780E-03
            4892            5122     32.6083E-03     32.5965E-03
            4892            5139     34.0345E-03     33.4880E-03
            4892            5140     32.3597E-03     31.7845E-03
            4893            5122     32.6083E-03     32.5965E-03
            4893            5123     30.5836E-03     30.5321E-03
            4893            5140     32.3597E-03     31.7845E-03
            4893            5141     30.5261E-03     29.9518E-03
            4894            5123     30.5836E-03     30.5321E-03
            4894            5124     28.5141E-03     28.4460E-03
            4894            5141     30.5261E-03     29.9518E-03
            4894            5142     28.6414E-03     28.0733E-03
            4895            5124     28.5141E-03     28.4460E-03
            4895            5125     26.4670E-03     26.3900E-03
            4895            5142     28.6414E-03     28.0733E-03
            4895            5143     26.7483E-03     26.1989E-03
            4896            5125     26.4670E-03     26.3900E-03
            4896            5126     24.4611E-03     24.3880E-03
            4896            5143     26.7483E-03     26.1989E-03
            4896            5144     24.8915E-03     24.3664E-03
            4897            5126     24.4611E-03     24.3880E-03
            4897            5127     22.5257E-03     22.4668E-03
            4897            5144     24.8915E-03     24.3664E-03
            4897            5145     23.0886E-03     22.6042E-03
            4898            5127     22.5257E-03     22.4668E-03
            4898            5128     20.6724E-03     20.6480E-03
            4898            5145     23.0886E-03     22.6042E-03
            4898            5146     21.3657E-03     20.9398E-03
            4899            5128     20.6724E-03     20.6480E-03
            4899            5129     18.9298E-03     18.9599E-03
            4899            5146     21.3657E-03     20.9398E-03
            4899            5147     19.7309E-03     19.4103E-03
            4900            5129     18.9298E-03     18.9599E-03
            4900            5130     17.3179E-03     17.4318E-03
            4900            5147     19.7309E-03     19.4103E-03
            4900            5148     18.2191E-03     18.0532E-03
            4901            5130     17.3179E-03     17.4318E-03
            4901            5131     15.8992E-03     16.1046E-03
            4901            5148     18.2191E-03     18.0532E-03
            4901            5149     16.8333E-03     16.9243E-03
            4902            5131     15.8992E-03     16.1046E-03
            4902            5132     14.7997E-03     14.9157E-03
            4902            5149     16.8333E-03     16.9243E-03
            4902            5150     15.6812E-03     16.0764E-03
            4903            5132     14.7997E-03     14.9157E-03
            4903            5133     14.0358E-03     13.8463E-03
            4903            5150     15.6812E-03     16.0764E-03
            4903            5151     15.0260E-03     15.2501E-03
            4904            5133     14.0358E-03     13.8463E-03
            4904            5134     13.6301E-03     13.1365E-03
            4904            5151     15.0260E-03     15.2501E-03
            4904            5152     14.7246E-03     14.3507E-03
            4905             868     13.5322E-03     12.9137E-03
            4905             869     14.5972E-03     13.9255E-03
            4905            5134     13.6301E-03     13.1365E-03
            4905            5152     14.7246E-03     14.3507E-03
            4906             816     33.6151E-03     34.0335E-03
            4906             817     29.5649E-03     29.2914E-03
            4906            5135     35.2365E-03     35.4520E-03
            4906            5153     33.0161E-03     32.1924E-03
            4907            5135     35.2365E-03     35.4520E-03
            4907            5136     36.3771E-03     36.2345E-03
            4907            5153     33.0161E-03     32.1924E-03
            4907            5154     34.5183E-03     33.4230E-03
            4908            5136     36.3771E-03     36.2345E-03
            4908            5137     36.2972E-03     35.9341E-03
            4908            5154     34.5183E-03     33.4230E-03
            4908            5155     34.7663E-03     33.5874E-03
            4909            5137     36.2972E-03     35.9341E-03
            4909            5138     35.4303E-03     34.9381E-03
            4909            5155     34.7663E-03     33.5874E-03
            4909            5156     34.2060E-03     33.0062E-03
            4910            5138     35.4303E-03     34.9381E-03
            4910            5139     34.0345E-03     33.4880E-03
            4910            5156     34.2060E-03     33.0062E-03
            4910            5157     33.1314E-03     31.9545E-03
            4911            5139     34.0345E-03     33.4880E-03
            4911            5140     32.3597E-03     31.7845E-03
            4911            5157     33.1314E-03     31.9545E-03
            4911            5158     31.7549E-03     30.6170E-03
            4912            5140     32.3597E-03     31.7845E-03
            4912            5141     30.5261E-03     29.9518E-03
            4912            5158     31.7549E-03     30.6170E-03
            4912            5159     30.2055E-03     29.1086E-03
            4913            5141     30.5261E-03     29.9518E-03
            4913            5142     28.6414E-03     28.0733E-03
            4913            5159     30.2055E-03     29.1086E-03
            4913            5160     28.5668E-03     27.5176E-03
            4914            5142     28.6414E-03     28.0733E-03
            4914            5143     26.7483E-03     26.1989E-03
            4914            5160     28.5668E-03     27.5176E-03
            4914            5161     26.8996E-03     25.8968E-03
            4915            5143     26.7483E-03     26.1989E-03
            4915            5144     24.8915E-03     24.3664E-03
            4915            5161     26.8996E-03     25.8968E-03
            4915            5162     25.2395E-03     24.2903E-03
            4916            5144     24.8915E-03     24.3664E-03
            4916            5145     23.0886E-03     22.6042E-03
            4916            5162     25.2395E-03     24.2903E-03
            4916            5163     23.6183E-03     22.7304E-03
            4917            5145     23.0886E-03     22.6042E-03
            4917            5146     21.3657E-03     20.9398E-03
            4917            5163     23.6183E-03     22.7304E-03
            4917            5164     22.0561E-03     21.2519E-03
            4918            5146     21.3657E-03     20.9398E-03
            4918            5147     19.7309E-03     19.4103E-03
            4918            5164     22.0561E-03     21.2519E-03
            4918            5165     20.5756E-03     19.8877E-03
            4919            5147     19.7309E-03     19.4103E-03
            4919            5148     18.2191E-03     18.0532E-03
            4919            5165     20.5756E-03     19.8877E-03
            4919            5166     19.1835E-03     18.6934E-03
            4920            5148     18.2191E-03     18.0532E-03
            4920            5149     16.8333E-03     16.9243E-03
            4920            5166     19.1835E-03     18.6934E-03
            4920            5167     17.9068E-03     17.7144E-03
            4921            5149     16.8333E-03     16.9243E-03
            4921            5150     15.6812E-03     16.0764E-03
            4921            5167     17.9068E-03     17.7144E-03
            4921            5168     16.7004E-03     17.0869E-03
            4922            5150     15.6812E-03     16.0764E-03
            4922            5151     15.0260E-03     15.2501E-03
            4922            5168     16.7004E-03     17.0869E-03
            4922            5169     15.7631E-03     16.8476E-03
            4923            5151     15.0260E-03     15.2501E-03
            4923            5152     14.7246E-03     14.3507E-03
            4923            5169     15.7631E-03     16.8476E-03
            4923            5170     15.6791E-03     16.3751E-03
            4924             869     14.5972E-03     13.9255E-03
            4924             870     15.9277E-03     15.9500E-03
            4924            5152     14.7246E-03     14.3507E-03
            4924            5170     15.6791E-03     16.3751E-03
            4925             817     29.5649E-03     29.2914E-03
            4925             818     27.2277E-03     25.0186E-03
            4925            5153     33.0161E-03     32.1924E-03
            4925            5171     30.7444E-03     28.3869E-03
            4926            5153     33.0161E-03     32.1924E-03
            4926            5154     34.5183E-03     33.4230E-03
            4926            5171     30.7444E-03     28.3869E-03
            4926            5172     32.2321E-03     30.0262E-03
            4927            5154     34.5183E-03     33.4230E-03
            4927            5155     34.7663E-03     33.5874E-03
            4927            5172     32.2321E-03     30.0262E-03
            4927            5173     32.7744E-03     30.7108E-03
            4928            5155     34.7663E-03     33.5874E-03
            4928            5156     34.2060E-03     33.0062E-03
            4928            5173     32.7744E-03     30.7108E-03
            4928            5174     32.5639E-03     30.6531E-03
            4929            5156     34.2060E-03     33.0062E-03
            4929            5157     33.1314E-03     31.9545E-03
            4929            5174     32.5639E-03     30.6531E-03
            4929            5175     31.9096E-03     30.1252E-03
            4930            5157     33.1314E-03     31.9545E-03
            4930            5158     31.7549E-03     30.6170E-03
            4930            5175     31.9096E-03     30.1252E-03
            4930            5176     30.9249E-03     29.2475E-03
            4931            5158     31.7549E-03     30.6170E-03
            4931            5159     30.2055E-03     29.1086E-03
            4931            5176     30.9249E-03     29.2475E-03
            4931            5177     29.7363E-03     28.1567E-03
            4932            5159     30.2055E-03     29.1086E-03
            4932            5160     28.5668E-03     27.5176E-03
            4932            5177     29.7363E-03     28.1567E-03
            4932            5178     28.4143E-03     26.9190E-03
            4933            5160     28.5668E-03     27.5176E-03
            4933            5161     26.8996E-03     25.8968E-03
            4933            5178     28.4143E-03     26.9190E-03
            4933            5179     27.0198E-03     25.6079E-03
            4934            5161     26.8996E-03     25.8968E-03
            4934            5162     25.2395E-03     24.2903E-03
            4934            5179     27.0198E-03     25.6079E-03
            4934            5180     25.5959E-03     24.2666E-03
            4935            5162     25.2395E-03     24.2903E-03
            4935            5163     23.6183E-03     22.7304E-03
            4935            5180     25.5959E-03     24.2666E-03
            4935            5181     24.1810E-03     22.9383E-03
            4936            5163     23.6183E-03     22.7304E-03
            4936            5164     22.0561E-03     21.2519E-03
            4936            5181     24.1810E-03     22.9383E-03
            4936            5182     22.8010E-03     21.6599E-03
            4937            5164     22.0561E-03     21.2519E-03
            4937            5165     20.5756E-03     19.8877E-03
            4937            5182     22.8010E-03     21.6599E-03
            4937            5183     21.4904E-03     20.4662E-03
            4938            5165     20.5756E-03     19.8877E-03
            4938            5166     19.1835E-03     18.6934E-03
            4938            5183     21.4904E-03     20.4662E-03
            4938            5184     20.2573E-03     19.4018E-03
            4939            5166     19.1835E-03     18.6934E-03
            4939            5167     17.9068E-03     17.7144E-03
            4939            5184     20.2573E-03     19.4018E-03
            4939            5185     19.1323E-03     18.5212E-03
            4940            5167     17.9068E-03     17.7144E-03
            4940            5168     16.7004E-03     17.0869E-03
            4940            5185     19.1323E-03     18.5212E-03
            4940            5186     18.0739E-03     17.8921E-03
            4941            5168     16.7004E-03     17.0869E-03
            4941            5169     15.7631E-03     16.8476E-03
            4941            5186     18.0739E-03     17.8921E-03
            4941            5187     16.9988E-03     17.8075E-03
            4942            5169     15.7631E-03     16.8476E-03
            4942            5170     15.6791E-03     16.3751E-03
            4942            5187     16.9988E-03     17.8075E-03
            4942            5188     16.1399E-03     18.3420E-03
            4943             870     15.9277E-03     15.9500E-03
            4943             871     15.8196E-03     18.7195E-03
            4943            5170     15.6791E-03     16.3751E-03
            4943            5188     16.1399E-03     18.3420E-03
            4944             818     27.2277E-03     25.0186E-03
            4944             819     18.3991E-03     18.7042E-03
            4944            5171     30.7444E-03     28.3869E-03
            4944            5189     19.7317E-03     19.9313E-03
            4945            5171     30.7444E-03     28.3869E-03
            4945            5172     32.2321E-03     30.0262E-03
            4945            5189     19.7317E-03     19.9313E-03
            4945            5190     20.6096E-03     20.8430E-03
            4946            5172     32.2321E-03     30.0262E-03
            4946            5173     32.7744E-03     30.7108E-03
            4946            5190     20.6096E-03     20.8430E-03
            4946            5191     20.7385E-03     21.1376E-03
            4947            5173     32.7744E-03     30.7108E-03
            4947            5174     32.5639E-03     30.6531E-03
            4947            5191     20.7385E-03     21.1376E-03
            4947            5192     20.6639E-03     21.1106E-03
            4948            5174     32.5639E-03     30.6531E-03
            4948            5175     31.9096E-03     30.1252E-03
            4948            5192     20.6639E-03     21.1106E-03
            4948            5193     20.2941E-03     20.7871E-03
            4949            5175     31.9096E-03     30.1252E-03
            4949            5176     30.9249E-03     29.2475E-03
            4949            5193     20.2941E-03     20.7871E-03
            4949            5194     19.8274E-03     20.3147E-03
            4950            5176     30.9249E-03     29.2475E-03
            4950            5177     29.7363E-03     28.1567E-03
            4950            5194     19.8274E-03     20.3147E-03
            4950            5195     19.2271E-03     19.7040E-03
            4951            5177     29.7363E-03     28.1567E-03
            4951            5178     28.4143E-03     26.9190E-03
            4951            5195     19.2271E-03     19.7040E-03
            4951            5196     18.5823E-03     19.0240E-03
            4952            5178     28.4143E-03     26.9190E-03
            4952            5179     27.0198E-03     25.6079E-03
            4952            5196     18.5823E-03     19.0240E-03
            4952            5197     17.8885E-03     18.2921E-03
            4953            5179     27.0198E-03     25.6079E-03
            4953            5180     25.5959E-03     24.2666E-03
            4953            5197     17.8885E-03     18.2921E-03
            4953            5198     17.1899E-03     17.5423E-03
            4954            5180     25.5959E-03     24.2666E-03
            4954            5181     24.1810E-03     22.9383E-03
            4954            5198     17.1899E-03     17.5423E-03
            4954            5199     16.4948E-03     16.7960E-03
            4955            5181     24.1810E-03     22.9383E-03
            4955            5182     22.8010E-03     21.6599E-03
            4955            5199     16.4948E-03     16.7960E-03
            4955            5200     15.8271E-03     16.0703E-03
            4956            5182     22.8010E-03     21.6599E-03
            4956            5183     21.4904E-03     20.4662E-03
            4956            5200     15.8271E-03     16.0703E-03
            4956            5201     15.2005E-03     15.3903E-03
            4957            5183     21.4904E-03     20.4662E-03
            4957            5184     20.2573E-03     19.4018E-03
            4957            5201     15.2005E-03     15.3903E-03
            4957            5202     14.6321E-03     14.7612E-03
            4958            5184     20.2573E-03     19.4018E-03
            4958            5185     19.1323E-03     18.5212E-03
            4958            5202     14.6321E-03     14.7612E-03
            4958            5203     14.1146E-03     14.2486E-03
            4959            5185     19.1323E-03     18.5212E-03
            4959            5186     18.0739E-03     17.8921E-03
            4959            5203     14.1146E-03     14.2486E-03
            4959            5204     13.6992E-03     13.7731E-03
            4960            5186     18.0739E-03     17.8921E-03
            4960            5187     16.9988E-03     17.8075E-03
            4960            5204     13.6992E-03     13.7731E-03
            4960            5205     13.2624E-03     13.5444E-03
            4961            5187     16.9988E-03     17.8075E-03
            4961            5188     16.1399E-03     18.3420E-03
            4961            5205     13.2624E-03     13.5444E-03
            4961            5206     12.2390E-03     13.9962E-03
            4962             871     15.8196E-03     18.7195E-03
            4962             872     11.4894E-03     14.4158E-03
            4962            5188     16.1399E-03     18.3420E-03
            4962            5206     12.2390E-03     13.9962E-03
            4963             819     18.3991E-03     18.7042E-03
            4963             820     11.3632E-03     14.1357E-03
            4963            5189     19.7317E-03     19.9313E-03
            4963            5207     11.0525E-03     13.3854E-03
            4964            5189     19.7317E-03     19.9313E-03
            4964            5190     20.6096E-03     20.8430E-03
            4964            5207     11.0525E-03     13.3854E-03
            4964            5208     10.8693E-03     13.0785E-03
            4965            5190     20.6096E-03     20.8430E-03
            4965            5191     20.7385E-03     21.1376E-03
            4965            5208     10.8693E-03     13.0785E-03
            4965            5209     10.4348E-03     12.6606E-03
            4966            5191     20.7385E-03     21.1376E-03
            4966            5192     20.6639E-03     21.1106E-03
            4966            5209     10.4348E-03     12.6606E-03
            4966            5210     10.1816E-03     12.3190E-03
            4967            5192     20.6639E-03     21.1106E-03
            4967            5193     20.2941E-03     20.7871E-03
            4967            5210     10.1816E-03     12.3190E-03
            4967            5211     9.88569E-03     11.9507E-03
            4968            5193     20.2941E-03     20.7871E-03
            4968            5194     19.8274E-03     20.3147E-03
            4968            5211     9.88569E-03     11.9507E-03
            4968            5212     9.66526E-03     11.6329E-03
            4969            5194     19.8274E-03     20.3147E-03
            4969            5195     19.2271E-03     19.7040E-03
            4969            5212     9.66526E-03     11.6329E-03
            4969            5213     9.44657E-03     11.3108E-03
            4970            5195     19.2271E-03     19.7040E-03
            4970            5196     18.5823E-03     19.0240E-03
            4970            5213     9.44657E-03     11.3108E-03
            4970            5214     9.26616E-03     11.0161E-03
            4971            5196     18.5823E-03     19.0240E-03
            4971            5197     17.8885E-03     18.2921E-03
            4971            5214     9.26616E-03     11.0161E-03
            4971            5215     9.10087E-03     10.7275E-03
            4972            5197     17.8885E-03     18.2921E-03
            4972            5198     17.1899E-03     17.5423E-03
            4972            5215     9.10087E-03     10.7275E-03
            4972            5216     8.96327E-03     10.4584E-03
            4973            5198     17.1899E-03     17.5423E-03
            4973            5199     16.4948E-03     16.7960E-03
            4973            5216     8.96327E-03     10.4584E-03
            4973            5217     8.84643E-03     10.2010E-03
            4974            5199     16.4948E-03     16.7960E-03
            4974            5200     15.8271E-03     16.0703E-03
            4974            5217     8.84643E-03     10.2010E-03
            4974            5218     8.75520E-03     9.96127E-03
            4975            5200     15.8271E-03     16.0703E-03
            4975            5201     15.2005E-03     15.3903E-03
            4975            5218     8.75520E-03     9.96127E-03
            4975            5219     8.68708E-03     9.73708E-03
            4976            5201     15.2005E-03     15.3903E-03
            4976            5202     14.6321E-03     14.7612E-03
            4976            5219     8.68708E-03     9.73708E-03
            4976            5220     8.64455E-03     9.53477E-03
            4977            5202     14.6321E-03     14.7612E-03
            4977            5203     14.1146E-03     14.2486E-03
            4977            5220     8.64455E-03     9.53477E-03
            4977            5221     8.63148E-03     9.35050E-03
            4978            5203     14.1146E-03     14.2486E-03
            4978            5204     13.6992E-03     13.7731E-03
            4978            5221     8.63148E-03     9.35050E-03
            4978            5222     8.65375E-03     9.20285E-03
            4979            5204     13.6992E-03     13.7731E-03
            4979            5205     13.2624E-03     13.5444E-03
            4979            5222     8.65375E-03     9.20285E-03
            4979            5223     8.71502E-03     9.07779E-03
            4980            5205     13.2624E-03     13.5444E-03
            4980            5206     12.2390E-03     13.9962E-03
            4980            5223     8.71502E-03     9.07779E-03
            4980            5224     8.84098E-03     8.87489E-03
            4981             872     11.4894E-03     14.4158E-03
            4981             873     8.92675E-03     8.73808E-03
            4981            5206     12.2390E-03     13.9962E-03
            4981            5224     8.84098E-03     8.87489E-03
            4982             820     11.3632E-03     14.1357E-03
            4982             821     12.6296E-03     12.8307E-03
            4982            5207     11.0525E-03     13.3854E-03
            4982            5225     12.8720E-03     12.7520E-03
            4983            5207     11.0525E-03     13.3854E-03
            4983            5208     10.8693E-03     13.0785E-03
            4983            5225     12.8720E-03     12.7520E-03
            4983            5226     12.0312E-03     12.1772E-03
            4984            5208     10.8693E-03     13.0785E-03
            4984            5209     10.4348E-03     12.6606E-03
            4984            5226     12.0312E-03     12.1772E-03
            4984            5227     11.6550E-03     11.7382E-03
            4985            5209     10.4348E-03     12.6606E-03
            4985            5210     10.1816E-03     12.3190E-03
            4985            5227     11.6550E-03     11.7382E-03
            4985            5228     11.2743E-03     11.3686E-03
            4986            5210     10.1816E-03     12.3190E-03
            4986            5211     9.88569E-03     11.9507E-03
            4986            5228     11.2743E-03     11.3686E-03
            4986            5229     11.0019E-03     11.0953E-03
            4987            5211     9.88569E-03     11.9507E-03
            4987            5212     9.66526E-03     11.6329E-03
            4987            5229     11.0019E-03     11.0953E-03
            4987            5230     10.7234E-03     10.8147E-03
            4988            5212     9.66526E-03     11.6329E-03
            4988            5213     9.44657E-03     11.3108E-03
            4988            5230     10.7234E-03     10.8147E-03
            4988            5231     10.4802E-03     10.5659E-03
            4989            5213     9.44657E-03     11.3108E-03
            4989            5214     9.26616E-03     11.0161E-03
            4989            5231     10.4802E-03     10.5659E-03
            4989            5232     10.2397E-03     10.3221E-03
            4990            5214     9.26616E-03     11.0161E-03
            4990            5215     9.10087E-03     10.7275E-03
            4990            5232     10.2397E-03     10.3221E-03
            4990            5233     10.0234E-03     10.0997E-03
            4991            5215     9.10087E-03     10.7275E-03
            4991            5216     8.96327E-03     10.4584E-03
            4991            5233     10.0234E-03     10.0997E-03
            4991            5234     9.81928E-03     9.89036E-03
            4992            5216     8.96327E-03     10.4584E-03
            4992            5217     8.84643E-03     10.2010E-03
            4992            5234     9.81928E-03     9.89036E-03
            4992            5235     9.63639E-03     9.70135E-03
            4993            5217     8.84643E-03     10.2010E-03
            4993            5218     8.75520E-03     9.96127E-03
            4993            5235     9.63639E-03     9.70135E-03
            4993            5236     9.47156E-03     9.52822E-03
            4994            5218     8.75520E-03     9.96127E-03
            4994            5219     8.68708E-03     9.73708E-03
            4994            5236     9.47156E-03     9.52822E-03
            4994            5237     9.32636E-03     9.37846E-03
            4995            5219     8.68708E-03     9.73708E-03
            4995            5220     8.64455E-03     9.53477E-03
            4995            5237     9.32636E-03     9.37846E-03
            4995            5238     9.20092E-03     9.25042E-03
            4996            5220     8.64455E-03     9.53477E-03
            4996            5221     8.63148E-03     9.35050E-03
            4996            5238     9.20092E-03     9.25042E-03
            4996            5239     9.12596E-03     9.12187E-03
            4997            5221     8.63148E-03     9.35050E-03
            4997            5222     8.65375E-03     9.20285E-03
            4997            5239     9.12596E-03     9.12187E-03
            4997            5240     9.01603E-03     9.11940E-03
            4998            5222     8.65375E-03     9.20285E-03
            4998            5223     8.71502E-03     9.07779E-03
            4998            5240     9.01603E-03     9.11940E-03
            4998            5241     9.06250E-03     9.16500E-03
            4999            5223     8.71502E-03     9.07779E-03
            4999            5224     8.84098E-03     8.87489E-03
            4999            5241     9.06250E-03     9.16500E-03
            4999            5242     9.69729E-03     8.72793E-03
            5000             873     8.92675E-03     8.73808E-03
            5000             874     10.1945E-03     8.31120E-03
            5000            5224     8.84098E-03     8.87489E-03
            5000            5242     9.69729E-03     8.72793E-03
            5001             821     12.6296E-03     12.8307E-03
            5001             822     12.0569E-03     9.73003E-03
            5001            5225     12.8720E-03     12.7520E-03
            5001            5243     13.4436E-03     11.1394E-03
            5002            5225     12.8720E-03     12.7520E-03
            5002            5226     12.0312E-03     12.1772E-03
            5002            5243     13.4436E-03     11.1394E-03
            5002            5244     13.1666E-03     11.0957E-03
            5003            5226     12.0312E-03     12.1772E-03
            5003            5227     11.6550E-03     11.7382E-03
            5003            5244     13.1666E-03     11.0957E-03
            5003            5245     12.8282E-03     10.8231E-03
            5004            5227     11.6550E-03     11.7382E-03
            5004            5228     11.2743E-03     11.3686E-03
            5004            5245     12.8282E-03     10.8231E-03
            5004            5246     12.5090E-03     10.6084E-03
            5005            5228     11.2743E-03     11.3686E-03
            5005            5229     11.0019E-03     11.0953E-03
            5005            5246     12.5090E-03     10.6084E-03
            5005            5247     12.2115E-03     10.4000E-03
            5006            5229     11.0019E-03     11.0953E-03
            5006            5230     10.7234E-03     10.8147E-03
            5006            5247     12.2115E-03     10.4000E-03
            5006            5248     11.9300E-03     10.2125E-03
            5007            5230     10.7234E-03     10.8147E-03
            5007            5231     10.4802E-03     10.5659E-03
            5007            5248     11.9300E-03     10.2125E-03
            5007            5249     11.6493E-03     10.0315E-03
            5008            5231     10.4802E-03     10.5659E-03
            5008            5232     10.2397E-03     10.3221E-03
            5008            5249     11.6493E-03     10.0315E-03
            5008            5250     11.3798E-03     9.86640E-03
            5009            5232     10.2397E-03     10.3221E-03
            5009            5233     10.0234E-03     10.0997E-03
            5009            5250     11.3798E-03     9.86640E-03
            5009            5251     11.1171E-03     9.71541E-03
            5010            5233     10.0234E-03     10.0997E-03
            5010            5234     9.81928E-03     9.89036E-03
            5010            5251     11.1171E-03     9.71541E-03
            5010            5252     10.8681E-03     9.58321E-03
            5011            5234     9.81928E-03     9.89036E-03
            5011            5235     9.63639E-03     9.70135E-03
            5011            5252     10.8681E-03     9.58321E-03
            5011            5253     10.6308E-03     9.46979E-03
            5012            5235     9.63639E-03     9.70135E-03
            5012            5236     9.47156E-03     9.52822E-03
            5012            5253     10.6308E-03     9.46979E-03
            5012            5254     10.4093E-03     9.37764E-03
            5013            5236     9.47156E-03     9.52822E-03
            5013            5237     9.32636E-03     9.37846E-03
            5013            5254     10.4093E-03     9.37764E-03
            5013            5255     10.2025E-03     9.30625E-03
            5014            5237     9.32636E-03     9.37846E-03
            5014            5238     9.20092E-03     9.25042E-03
            5014            5255     10.2025E-03     9.30625E-03
            5014            5256     10.0156E-03     9.25690E-03
            5015            5238     9.20092E-03     9.25042E-03
            5015            5239     9.12596E-03     9.12187E-03
            5015            5256     10.0156E-03     9.25690E-03
            5015            5257     9.84596E-03     9.23549E-03
            5016            5239     9.12596E-03     9.12187E-03
            5016            5240     9.01603E-03     9.11940E-03
            5016            5257     9.84596E-03     9.23549E-03
            5016            5258     9.69676E-03     9.24488E-03
            5017            5240     9.01603E-03     9.11940E-03
            5017            5241     9.06250E-03     9.16500E-03
            5017            5258     9.69676E-03     9.24488E-03
            5017            5259     9.57411E-03     9.30168E-03
            5018            5241     9.06250E-03     9.16500E-03
            5018            5242     9.69729E-03     8.72793E-03
            5018            5259     9.57411E-03     9.30168E-03
            5018            5260     9.49393E-03     9.39839E-03
            5019             874     10.1945E-03     8.31120E-03
            5019             875     9.46900E-03     9.45102E-03
            5019            5242     9.69729E-03     8.72793E-03
            5019            5260     9.49393E-03     9.39839E-03
            5020              36     5.67083E-03     3.86388E-03
            5020             822     12.0569E-03     9.73003E-03
            5020             893     6.60577E-03     4.96770E-03
            5020            5243     13.4436E-03     11.1394E-03
            5021             892     6.89880E-03     5.25370E-03
            5021             893     6.60577E-03     4.96770E-03
            5021            5243     13.4436E-03     11.1394E-03
            5021            5244     13.1666E-03     11.0957E-03
            5022             891     6.68003E-03     5.17568E-03
            5022             892     6.89880E-03     5.25370E-03
            5022            5244     13.1666E-03     11.0957E-03
            5022            5245     12.8282E-03     10.8231E-03
            5023             890     6.58938E-03     5.15323E-03
            5023             891     6.68003E-03     5.17568E-03
            5023            5245     12.8282E-03     10.8231E-03
            5023            5246     12.5090E-03     10.6084E-03
            5024             889     6.41412E-03     5.04477E-03
            5024             890     6.58938E-03     5.15323E-03
            5024            5246     12.5090E-03     10.6084E-03
            5024            5247     12.2115E-03     10.4000E-03
            5025             888     6.28558E-03     4.99039E-03
            5025             889     6.41412E-03     5.04477E-03
            5025            5247     12.2115E-03     10.4000E-03
            5025            5248     11.9300E-03     10.2125E-03
            5026             887     6.13015E-03     4.90955E-03
            5026             888     6.28558E-03     4.99039E-03
            5026            5248     11.9300E-03     10.2125E-03
            5026            5249     11.6493E-03     10.0315E-03
            5027             886     5.99331E-03     4.85330E-03
            5027             887     6.13015E-03     4.90955E-03
            5027            5249     11.6493E-03     10.0315E-03
            5027            5250     11.3798E-03     9.86640E-03
            5028             885     5.84997E-03     4.79375E-03
            5028             886     5.99331E-03     4.85330E-03
            5028            5250     11.3798E-03     9.86640E-03
            5028            5251     11.1171E-03     9.71541E-03
            5029             884     5.71696E-03     4.75017E-03
            5029             885     5.84997E-03     4.79375E-03
            5029            5251     11.1171E-03     9.71541E-03
            5029            5252     10.8681E-03     9.58321E-03
            5030             883     5.58598E-03     4.71217E-03
            5030             884     5.71696E-03     4.75017E-03
            5030            5252     10.8681E-03     9.58321E-03
            5030            5253     10.6308E-03     9.46979E-03
            5031             882     5.46316E-03     4.68817E-03
            5031             883     5.58598E-03     4.71217E-03
            5031            5253     10.6308E-03     9.46979E-03
            5031            5254     10.4093E-03     9.37764E-03
            5032             881     5.34642E-03     4.67187E-03
            5032             882     5.46316E-03     4.68817E-03
            5032            5254     10.4093E-03     9.37764E-03
            5032            5255     10.2025E-03     9.30625E-03
            5033             880     5.23912E-03     4.66829E-03
            5033             881     5.34642E-03     4.67187E-03
            5033            5255     10.2025E-03     9.30625E-03
            5033            5256     10.0156E-03     9.25690E-03
            5034             879     5.12920E-03     4.68775E-03
            5034             880     5.23912E-03     4.66829E-03
            5034            5256     10.0156E-03     9.25690E-03
            5034            5257     9.84596E-03     9.23549E-03
            5035             878     5.05568E-03     4.67929E-03
            5035             879     5.12920E-03     4.68775E-03
            5035            5257     9.84596E-03     9.23549E-03
            5035            5258     9.69676E-03     9.24488E-03
            5036             877     4.93471E-03     4.69650E-03
            5036             878     5.05568E-03     4.67929E-03
            5036            5258     9.69676E-03     9.24488E-03
            5036            5259     9.57411E-03     9.30168E-03
            5037             876     4.56588E-03     4.93657E-03
            5037             877     4.93471E-03     4.69650E-03
            5037            5259     9.57411E-03     9.30168E-03
            5037            5260     9.49393E-03     9.39839E-03
            5038              37     4.30302E-03     5.13375E-03
            5038             875     9.46900E-03     9.45102E-03
            5038             876     4.56588E-03     4.93657E-03
            5038            5260     9.49393E-03     9.39839E-03
            5039              37     4.30302E-03     5.13375E-03
            5039             894     4.56588E-03     4.93657E-03
            5039             941     21.1857E-15     18.5065E-15
            5039            5261     18.6578E-15     18.7736E-15
            5040             894     4.56588E-03     4.93657E-03
            5040             895     4.93471E-03     4.69650E-03
            5040            5261     18.6578E-15     18.7736E-15
            5040            5262     16.2924E-15     14.4670E-15
            5041             895     4.93471E-03     4.69650E-03
            5041             896     5.05568E-03     4.67929E-03
            5041            5262     16.2924E-15     14.4670E-15
            5041            5263     15.7797E-15     13.1414E-15
            5042             896     5.05568E-03     4.67929E-03
            5042             897     5.12920E-03     4.68775E-03
            5042            5263     15.7797E-15     13.1414E-15
            5042            5264     16.7747E-15     11.9315E-15
            5043             897     5.12920E-03     4.68775E-03
            5043             898     5.23912E-03     4.66829E-03
            5043            5264     16.7747E-15     11.9315E-15
            5043            5265     16.1719E-15     16.5839E-15
            5044             898     5.23912E-03     4.66829E-03
            5044             899     5.34642E-03     4.67187E-03
            5044            5265     16.1719E-15     16.5839E-15
            5044            5266     13.3470E-15     17.1012E-15
            5045             899     5.34642E-03     4.67187E-03
            5045             900     5.46316E-03     4.68817E-03
            5045            5266     13.3470E-15     17.1012E-15
            5045            5267     9.37731E-15     10.7357E-15
            5046             900     5.46316E-03     4.68817E-03
            5046             901     5.58598E-03     4.71217E-03
            5046            5267     9.37731E-15     10.7357E-15
            5046            5268     8.32052E-15     7.67778E-15
            5047             901     5.58598E-03     4.71217E-03
            5047             902     5.71696E-03     4.75017E-03
            5047            5268     8.32052E-15     7.67778E-15
            5047            5269     8.28740E-15     8.25400E-15
            5048             902     5.71696E-03     4.75017E-03
            5048             903     5.84997E-03     4.79375E-03
            5048            5269     8.28740E-15     8.25400E-15
            5048            5270     13.2895E-15     13.0417E-15
            5049             903     5.84997E-03     4.79375E-03
            5049             904     5.99331E-03     4.85330E-03
            5049            5270     13.2895E-15     13.0417E-15
            5049            5271     14.8499E-15     15.4053E-15
            5050             904     5.99331E-03     4.85330E-03
            5050             905     6.13015E-03     4.90955E-03
            5050            5271     14.8499E-15     15.4053E-15
            5050            5272     10.4344E-15     11.8963E-15
            5051             905     6.13015E-03     4.90955E-03
            5051             906     6.28558E-03     4.99039E-03
            5051            5272     10.4344E-15     11.8963E-15
            5051            5273     11.9904E-15     10.9195E-15
            5052             906     6.28558E-03     4.99039E-03
            5052             907     6.41412E-03     5.04477E-03
            5052            5273     11.9904E-15     10.9195E-15
            5052            5274     13.1418E-15     12.1208E-15
            5053             907     6.41412E-03     5.04477E-03
            5053             908     6.58938E-03     5.15323E-03
            5053            5274     13.1418E-15     12.1208E-15
            5053            5275     13.0091E-15     13.1612E-15
            5054             908     6.58938E-03     5.15323E-03
            5054             909     6.68003E-03     5.17568E-03
            5054            5275     13.0091E-15     13.1612E-15
            5054            5276     13.8244E-15     14.4875E-15
            5055             909     6.68003E-03     5.17568E-03
            5055             910     6.89880E-03     5.25370E-03
            5055            5276     13.8244E-15     14.4875E-15
            5055            5277     15.0252E-15     12.5096E-15
            5056             910     6.89880E-03     5.25370E-03
            5056             911     6.60577E-03     4.96770E-03
            5056            5277     15.0252E-15     12.5096E-15
            5056            5278     11.6106E-15     8.49794E-15
            5057              38     5.67083E-03     3.86388E-03
            5057             911     6.60577E-03     4.96770E-03
            5057             912     11.6506E-15     10.1216E-15
            5057            5278     11.6106E-15     8.49794E-15
            5058             940     16.6766E-15     18.4384E-15
            5058             941     21.1857E-15     18.5065E-15
            5058            5261     18.6578E-15     18.7736E-15
            5058            5279     12.9463E-15     14.2943E-15
            5059            5261     18.6578E-15     18.7736E-15
            5059            5262     16.2924E-15     14.4670E-15
            5059            5279     12.9463E-15     14.2943E-15
            5059            5280     12.6934E-15     12.4098E-15
            5060            5262     16.2924E-15     14.4670E-15
            5060            5263     15.7797E-15     13.1414E-15
            5060            5280     12.6934E-15     12.4098E-15
            5060            5281     11.1668E-15     11.9976E-15
            5061            5263     15.7797E-15     13.1414E-15
            5061            5264     16.7747E-15     11.9315E-15
            5061            5281     11.1668E-15     11.9976E-15
            5061            5282     15.3750E-15     17.5218E-15
            5062            5264     16.7747E-15     11.9315E-15
            5062            5265     16.1719E-15     16.5839E-15
            5062            5282     15.3750E-15     17.5218E-15
            5062            5283     14.1796E-15     17.7635E-15
            5063            5265     16.1719E-15     16.5839E-15
            5063            5266     13.3470E-15     17.1012E-15
            5063            5283     14.1796E-15     17.7635E-15
            5063            5284     11.8878E-15     14.8067E-15
            5064            5266     13.3470E-15     17.1012E-15
            5064            5267     9.37731E-15     10.7357E-15
            5064            5284     11.8878E-15     14.8067E-15
            5064            5285     8.88760E-15     9.06551E-15
            5065            5267     9.37731E-15     10.7357E-15
            5065            5268     8.32052E-15     7.67778E-15
            5065            5285     8.88760E-15     9.06551E-15
            5065            5286     7.53514E-15     7.88868E-15
            5066            5268     8.32052E-15     7.67778E-15
            5066            5269     8.28740E-15     8.25400E-15
            5066            5286     7.53514E-15     7.88868E-15
            5066            5287     11.3707E-15     11.9799E-15
            5067            5269     8.28740E-15     8.25400E-15
            5067            5270     13.2895E-15     13.0417E-15
            5067            5287     11.3707E-15     11.9799E-15
            5067            5288     13.5907E-15     14.0450E-15
            5068            5270     13.2895E-15     13.0417E-15
            5068            5271     14.8499E-15     15.4053E-15
            5068            5288     13.5907E-15     14.0450E-15
            5068            5289     13.2456E-15     14.1623E-15
            5069            5271     14.8499E-15     15.4053E-15
            5069            5272     10.4344E-15     11.8963E-15
            5069            5289     13.2456E-15     14.1623E-15
            5069            5290     10.3414E-15     10.6506E-15
            5070            5272     10.4344E-15     11.8963E-15
            5070            5273     11.9904E-15     10.9195E-15
            5070            5290     10.3414E-15     10.6506E-15
            5070            5291     14.4569E-15     13.3987E-15
            5071            5273     11.9904E-15     10.9195E-15
            5071            5274     13.1418E-15     12.1208E-15
            5071            5291     14.4569E-15     13.3987E-15
            5071            5292     16.0868E-15     13.1063E-15
            5072            5274     13.1418E-15     12.1208E-15
            5072            5275     13.0091E-15     13.1612E-15
            5072            5292     16.0868E-15     13.1063E-15
            5072            5293     10.9726E-15     8.26031E-15
            5073            5275     13.0091E-15     13.1612E-15
            5073            5276     13.8244E-15     14.4875E-15
            5073            5293     10.9726E-15     8.26031E-15
            5073            5294     14.2657E-15     13.8742E-15
            5074            5276     13.8244E-15     14.4875E-15
            5074            5277     15.0252E-15     12.5096E-15
            5074            5294     14.2657E-15     13.8742E-15
            5074            5295     13.0211E-15     12.0195E-15
            5075            5277     15.0252E-15     12.5096E-15
            5075            5278     11.6106E-15     8.49794E-15
            5075            5295     13.0211E-15     12.0195E-15
            5075            5296     5.91617E-15     4.50627E-15
            5076             912     11.6506E-15     10.1216E-15
            5076             913     9.19125E-15     8.84661E-15
            5076            5278     11.6106E-15     8.49794E-15
            5076            5296     5.91617E-15     4.50627E-15
            5077             939     19.7321E-15     22.9116E-15
            5077             940     16.6766E-15     18.4384E-15
            5077            5279     12.9463E-15     14.2943E-15
            5077            5297     15.3463E-15     15.0629E-15
            5078            5279     12.9463E-15     14.2943E-15
            5078            5280     12.6934E-15     12.4098E-15
            5078            5297     15.3463E-15     15.0629E-15
            5078            5298     15.4404E-15     15.0422E-15
            5079            5280     12.6934E-15     12.4098E-15
            5079            5281     11.1668E-15     11.9976E-15
            5079            5298     15.4404E-15     15.0422E-15
            5079            5299     15.0240E-15     17.6868E-15
            5080            5281     11.1668E-15     11.9976E-15
            5080            5282     15.3750E-15     17.5218E-15
            5080            5299     15.0240E-15     17.6868E-15
            5080            5300     19.2101E-15     21.4162E-15
            5081            5282     15.3750E-15     17.5218E-15
            5081            5283     14.1796E-15     17.7635E-15
            5081            5300     19.2101E-15     21.4162E-15
            5081            5301     10.9657E-15     12.8308E-15
            5082            5283     14.1796E-15     17.7635E-15
            5082            5284     11.8878E-15     14.8067E-15
            5082            5301     10.9657E-15     12.8308E-15
            5082            5302     11.0085E-15     11.1587E-15
            5083            5284     11.8878E-15     14.8067E-15
            5083            5285     8.88760E-15     9.06551E-15
            5083            5302     11.0085E-15     11.1587E-15
            5083            5303     13.9332E-15     11.5774E-15
            5084            5285     8.88760E-15     9.06551E-15
            5084            5286     7.53514E-15     7.88868E-15
            5084            5303     13.9332E-15     11.5774E-15
            5084            5304     11.9255E-15     10.8406E-15
            5085            5286     7.53514E-15     7.88868E-15
            5085            5287     11.3707E-15     11.9799E-15
            5085            5304     11.9255E-15     10.8406E-15
            5085            5305     16.0731E-15     16.3453E-15
            5086            5287     11.3707E-15     11.9799E-15
            5086            5288     13.5907E-15     14.0450E-15
            5086            5305     16.0731E-15     16.3453E-15
            5086            5306     15.7639E-15     15.9402E-15
            5087            5288     13.5907E-15     14.0450E-15
            5087            5289     13.2456E-15     14.1623E-15
            5087            5306     15.7639E-15     15.9402E-15
            5087            5307     12.2349E-15     12.8133E-15
            5088            5289     13.2456E-15     14.1623E-15
            5088            5290     10.3414E-15     10.6506E-15
            5088            5307     12.2349E-15     12.8133E-15
            5088            5308     10.7581E-15     11.0353E-15
            5089            5290     10.3414E-15     10.6506E-15
            5089            5291     14.4569E-15     13.3987E-15
            5089            5308     10.7581E-15     11.0353E-15
            5089            5309     13.9706E-15     12.9038E-15
            5090            5291     14.4569E-15     13.3987E-15
            5090            5292     16.0868E-15     13.1063E-15
            5090            5309     13.9706E-15     12.9038E-15
            5090            5310     14.4964E-15     13.0480E-15
            5091            5292     16.0868E-15     13.1063E-15
            5091            5293     10.9726E-15     8.26031E-15
            5091            5310     14.4964E-15     13.0480E-15
            5091            5311     10.4394E-15     9.11808E-15
            5092            5293     10.9726E-15     8.26031E-15
            5092            5294     14.2657E-15     13.8742E-15
            5092            5311     10.4394E-15     9.11808E-15
            5092            5312     13.5850E-15     12.2891E-15
            5093            5294     14.2657E-15     13.8742E-15
            5093            5295     13.0211E-15     12.0195E-15
            5093            5312     13.5850E-15     12.2891E-15
            5093            5313     12.1214E-15     11.9212E-15
            5094            5295     13.0211E-15     12.0195E-15
            5094            5296     5.91617E-15     4.50627E-15
            5094            5313     12.1214E-15     11.9212E-15
            5094            5314     8.64314E-15     8.84433E-15
            5095             913     9.19125E-15     8.84661E-15
            5095             914     13.0137E-15     13.2488E-15
            5095            5296     5.91617E-15     4.50627E-15
            5095            5314     8.64314E-15     8.84433E-15
            5096             938     19.7456E-15     22.8006E-15
            5096             939     19.7321E-15     22.9116E-15
            5096            5297     15.3463E-15     15.0629E-15
            5096            5315     14.0690E-15     16.8361E-15
            5097            5297     15.3463E-15     15.0629E-15
            5097            5298     15.4404E-15     15.0422E-15
            5097            5315     14.0690E-15     16.8361E-15
            5097            5316     16.8333E-15     16.9436E-15
            5098            5298     15.4404E-15     15.0422E-15
            5098            5299     15.0240E-15     17.6868E-15
            5098            5316     16.8333E-15     16.9436E-15
            5098            5317     20.4275E-15     21.0808E-15
            5099            5299     15.0240E-15     17.6868E-15
            5099            5300     19.2101E-15     21.4162E-15
            5099            5317     20.4275E-15     21.0808E-15
            5099            5318     16.7033E-15     16.3837E-15
            5100            5300     19.2101E-15     21.4162E-15
            5100            5301     10.9657E-15     12.8308E-15
            5100            5318     16.7033E-15     16.3837E-15
            5100            5319     7.49680E-15     8.76122E-15
            5101            5301     10.9657E-15     12.8308E-15
            5101            5302     11.0085E-15     11.1587E-15
            5101            5319     7.49680E-15     8.76122E-15
            5101            5320     8.65227E-15     11.6933E-15
            5102            5302     11.0085E-15     11.1587E-15
            5102            5303     13.9332E-15     11.5774E-15
            5102            5320     8.65227E-15     11.6933E-15
            5102            5321     15.8822E-15     14.9550E-15
            5103            5303     13.9332E-15     11.5774E-15
            5103            5304     11.9255E-15     10.8406E-15
            5103            5321     15.8822E-15     14.9550E-15
            5103            5322     14.7386E-15     12.4123E-15
            5104            5304     11.9255E-15     10.8406E-15
            5104            5305     16.0731E-15     16.3453E-15
            5104            5322     14.7386E-15     12.4123E-15
            5104            5323     13.5093E-15     13.2832E-15
            5105            5305     16.0731E-15     16.3453E-15
            5105            5306     15.7639E-15     15.9402E-15
            5105            5323     13.5093E-15     13.2832E-15
            5105            5324     15.7008E-15     14.7278E-15
            5106            5306     15.7639E-15     15.9402E-15
            5106            5307     12.2349E-15     12.8133E-15
            5106            5324     15.7008E-15     14.7278E-15
            5106            5325     13.6125E-15     12.9905E-15
            5107            5307     12.2349E-15     12.8133E-15
            5107            5308     10.7581E-15     11.0353E-15
            5107            5325     13.6125E-15     12.9905E-15
            5107            5326     10.8684E-15     11.0363E-15
            5108            5308     10.7581E-15     11.0353E-15
            5108            5309     13.9706E-15     12.9038E-15
            5108            5326     10.8684E-15     11.0363E-15
            5108            5327     12.5343E-15     12.7712E-15
            5109            5309     13.9706E-15     12.9038E-15
            5109            5310     14.4964E-15     13.0480E-15
            5109            5327     12.5343E-15     12.7712E-15
            5109            5328     12.6977E-15     13.4705E-15
            5110            5310     14.4964E-15     13.0480E-15
            5110            5311     10.4394E-15     9.11808E-15
            5110            5328     12.6977E-15     13.4705E-15
            5110            5329     12.3789E-15     12.1223E-15
            5111            5311     10.4394E-15     9.11808E-15
            5111            5312     13.5850E-15     12.2891E-15
            5111            5329     12.3789E-15     12.1223E-15
            5111            5330     11.2914E-15     11.2434E-15
            5112            5312     13.5850E-15     12.2891E-15
            5112            5313     12.1214E-15     11.9212E-15
            5112            5330     11.2914E-15     11.2434E-15
            5112            5331     8.40844E-15     9.02759E-15
            5113            5313     12.1214E-15     11.9212E-15
            5113            5314     8.64314E-15     8.84433E-15
            5113            5331     8.40844E-15     9.02759E-15
            5113            5332     10.0237E-15     10.1113E-15
            5114             914     13.0137E-15     13.2488E-15
            5114             915     11.3941E-15     12.1112E-15
            5114            5314     8.64314E-15     8.84433E-15
            5114            5332     10.0237E-15     10.1113E-15
            5115             937     15.4788E-15     17.6803E-15
            5115             938     19.7456E-15     22.8006E-15
            5115            5315     14.0690E-15     16.8361E-15
            5115            5333     14.4825E-15     17.7555E-15
            5116            5315     14.0690E-15     16.8361E-15
            5116            5316     16.8333E-15     16.9436E-15
            5116            5333     14.4825E-15     17.7555E-15
            5116            5334     13.5312E-15     13.0606E-15
            5117            5316     16.8333E-15     16.9436E-15
            5117            5317     20.4275E-15     21.0808E-15
            5117            5334     13.5312E-15     13.0606E-15
            5117            5335     13.1249E-15     10.3487E-15
            5118            5317     20.4275E-15     21.0808E-15
            5118            5318     16.7033E-15     16.3837E-15
            5118            5335     13.1249E-15     10.3487E-15
            5118            5336     9.95869E-15     6.31609E-15
            5119            5318     16.7033E-15     16.3837E-15
            5119            5319     7.49680E-15     8.76122E-15
            5119            5336     9.95869E-15     6.31609E-15
            5119            5337     9.09471E-15     8.01936E-15
            5120            5319     7.49680E-15     8.76122E-15
            5120            5320     8.65227E-15     11.6933E-15
            5120            5337     9.09471E-15     8.01936E-15
            5120            5338     7.98251E-15     10.6414E-15
            5121            5320     8.65227E-15     11.6933E-15
            5121            5321     15.8822E-15     14.9550E-15
            5121            5338     7.98251E-15     10.6414E-15
            5121            5339     11.5863E-15     11.4310E-15
            5122            5321     15.8822E-15     14.9550E-15
            5122            5322     14.7386E-15     12.4123E-15
            5122            5339     11.5863E-15     11.4310E-15
            5122            5340     12.3090E-15     9.93873E-15
            5123            5322     14.7386E-15     12.4123E-15
            5123            5323     13.5093E-15     13.2832E-15
            5123            5340     12.3090E-15     9.93873E-15
            5123            5341     11.3817E-15     11.5112E-15
            5124            5323     13.5093E-15     13.2832E-15
            5124            5324     15.7008E-15     14.7278E-15
            5124            5341     11.3817E-15     11.5112E-15
            5124            5342     15.2641E-15     16.6067E-15
            5125            5324     15.7008E-15     14.7278E-15
            5125            5325     13.6125E-15     12.9905E-15
            5125            5342     15.2641E-15     16.6067E-15
            5125            5343     18.3435E-15     18.9127E-15
            5126            5325     13.6125E-15     12.9905E-15
            5126            5326     10.8684E-15     11.0363E-15
            5126            5343     18.3435E-15     18.9127E-15
            5126            5344     19.0452E-15     18.1123E-15
            5127            5326     10.8684E-15     11.0363E-15
            5127            5327     12.5343E-15     12.7712E-15
            5127            5344     19.0452E-15     18.1123E-15
            5127            5345     16.1285E-15     15.1596E-15
            5128            5327     12.5343E-15     12.7712E-15
            5128            5328     12.6977E-15     13.4705E-15
            5128            5345     16.1285E-15     15.1596E-15
            5128            5346     13.3412E-15     12.7502E-15
            5129            5328     12.6977E-15     13.4705E-15
            5129            5329     12.3789E-15     12.1223E-15
            5129            5346     13.3412E-15     12.7502E-15
            5129            5347     13.5324E-15     12.7175E-15
            5130            5329     12.3789E-15     12.1223E-15
            5130            5330     11.2914E-15     11.2434E-15
            5130            5347     13.5324E-15     12.7175E-15
            5130            5348     13.4557E-15     13.1938E-15
            5131            5330     11.2914E-15     11.2434E-15
            5131            5331     8.40844E-15     9.02759E-15
            5131            5348     13.4557E-15     13.1938E-15
            5131            5349     9.63409E-15     9.65513E-15
            5132            5331     8.40844E-15     9.02759E-15
            5132            5332     10.0237E-15     10.1113E-15
            5132            5349     9.63409E-15     9.65513E-15
            5132            5350     8.93121E-15     9.11156E-15
            5133             915     11.3941E-15     12.1112E-15
            5133             916     8.56875E-15     9.82951E-15
            5133            5332     10.0237E-15     10.1113E-15
            5133            5350     8.93121E-15     9.11156E-15
            5134             936     19.6295E-15     19.1058E-15
            5134             937     15.4788E-15     17.6803E-15
            5134            5333     14.4825E-15     17.7555E-15
            5134            5351     19.6257E-15     18.6653E-15
            5135            5333     14.4825E-15     17.7555E-15
            5135            5334     13.5312E-15     13.0606E-15
            5135            5351     19.6257E-15     18.6653E-15
            5135            5352     11.7862E-15     9.81617E-15
            5136            5334     13.5312E-15     13.0606E-15
            5136            5335     13.1249E-15     10.3487E-15
            5136            5352     11.7862E-15     9.81617E-15
            5136            5353     10.9038E-15     8.20978E-15
            5137            5335     13.1249E-15     10.3487E-15
            5137            5336     9.95869E-15     6.31609E-15
            5137            5353     10.9038E-15     8.20978E-15
            5137            5354     9.43410E-15     8.71311E-15
            5138            5336     9.95869E-15     6.31609E-15
            5138            5337     9.09471E-15     8.01936E-15
            5138            5354     9.43410E-15     8.71311E-15
            5138            5355     8.75200E-15     7.84445E-15
            5139            5337     9.09471E-15     8.01936E-15
            5139            5338     7.98251E-15     10.6414E-15
            5139            5355     8.75200E-15     7.84445E-15
            5139            5356     11.1381E-15     10.8278E-15
            5140            5338     7.98251E-15     10.6414E-15
            5140            5339     11.5863E-15     11.4310E-15
            5140            5356     11.1381E-15     10.8278E-15
            5140            5357     11.0470E-15     10.0983E-15
            5141            5339     11.5863E-15     11.4310E-15
            5141            5340     12.3090E-15     9.93873E-15
            5141            5357     11.0470E-15     10.0983E-15
            5141            5358     9.11119E-15     6.06437E-15
            5142            5340     12.3090E-15     9.93873E-15
            5142            5341     11.3817E-15     11.5112E-15
            5142            5358     9.11119E-15     6.06437E-15
            5142            5359     8.14063E-15     8.01019E-15
            5143            5341     11.3817E-15     11.5112E-15
            5143            5342     15.2641E-15     16.6067E-15
            5143            5359     8.14063E-15     8.01019E-15
            5143            5360     11.3115E-15     13.3756E-15
            5144            5342     15.2641E-15     16.6067E-15
            5144            5343     18.3435E-15     18.9127E-15
            5144            5360     11.3115E-15     13.3756E-15
            5144            5361     15.3771E-15     17.3634E-15
            5145            5343     18.3435E-15     18.9127E-15
            5145            5344     19.0452E-15     18.1123E-15
            5145            5361     15.3771E-15     17.3634E-15
            5145            5362     18.1516E-15     18.5747E-15
            5146            5344     19.0452E-15     18.1123E-15
            5146            5345     16.1285E-15     15.1596E-15
            5146            5362     18.1516E-15     18.5747E-15
            5146            5363     15.6753E-15     16.3916E-15
            5147            5345     16.1285E-15     15.1596E-15
            5147            5346     13.3412E-15     12.7502E-15
            5147            5363     15.6753E-15     16.3916E-15
            5147            5364     15.8955E-15     15.5939E-15
            5148            5346     13.3412E-15     12.7502E-15
            5148            5347     13.5324E-15     12.7175E-15
            5148            5364     15.8955E-15     15.5939E-15
            5148            5365     14.6572E-15     12.7779E-15
            5149            5347     13.5324E-15     12.7175E-15
            5149            5348     13.4557E-15     13.1938E-15
            5149            5365     14.6572E-15     12.7779E-15
            5149            5366     13.8847E-15     12.0849E-15
            5150            5348     13.4557E-15     13.1938E-15
            5150            5349     9.63409E-15     9.65513E-15
            5150            5366     13.8847E-15     12.0849E-15
            5150            5367     13.2850E-15     12.1568E-15
            5151            5349     9.63409E-15     9.65513E-15
            5151            5350     8.93121E-15     9.11156E-15
            5151            5367     13.2850E-15     12.1568E-15
            5151            5368     11.0164E-15     10.8600E-15
            5152             916     8.56875E-15     9.82951E-15
            5152             917     13.6523E-15     14.4301E-15
            5152            5350     8.93121E-15     9.11156E-15
            5152            5368     11.0164E-15     10.8600E-15
            5153              40     24.8354E-15     21.4583E-15
            5153             935     20.9943E-15     18.1398E-15
            5153             936     19.6295E-15     19.1058E-15
            5153            5351     19.6257E-15     18.6653E-15
            5154             934     12.9989E-15     11.5484E-15
            5154             935     20.9943E-15     18.1398E-15
            5154            5351     19.6257E-15     18.6653E-15
            5154            5352     11.7862E-15     9.81617E-15
            5155             933     13.2491E-15     13.3348E-15
            5155             934     12.9989E-15     11.5484E-15
            5155            5352     11.7862E-15     9.81617E-15
            5155            5353     10.9038E-15     8.20978E-15
            5156             932     10.3920E-15     13.8976E-15
            5156             933     13.2491E-15     13.3348E-15
            5156            5353     10.9038E-15     8.20978E-15
            5156            5354     9.43410E-15     8.71311E-15
            5157             931     8.07066E-15     8.52764E-15
            5157             932     10.3920E-15     13.8976E-15
            5157            5354     9.43410E-15     8.71311E-15
            5157            5355     8.75200E-15     7.84445E-15
            5158             930     12.5767E-15     11.7125E-15
            5158             931     8.07066E-15     8.52764E-15
            5158            5355     8.75200E-15     7.84445E-15
            5158            5356     11.1381E-15     10.8278E-15
            5159             929     12.1682E-15     11.2119E-15
            5159             930     12.5767E-15     11.7125E-15
            5159            5356     11.1381E-15     10.8278E-15
            5159            5357     11.0470E-15     10.0983E-15
            5160             928     9.76865E-15     5.29253E-15
            5160             929     12.1682E-15     11.2119E-15
            5160            5357     11.0470E-15     10.0983E-15
            5160            5358     9.11119E-15     6.06437E-15
            5161             927     5.47967E-15     3.82199E-15
            5161             928     9.76865E-15     5.29253E-15
            5161            5358     9.11119E-15     6.06437E-15
            5161            5359     8.14063E-15     8.01019E-15
            5162             926     4.37638E-15     4.07278E-15
            5162             927     5.47967E-15     3.82199E-15
            5162            5359     8.14063E-15     8.01019E-15
            5162            5360     11.3115E-15     13.3756E-15
            5163             925     8.83966E-15     9.47112E-15
            5163             926     4.37638E-15     4.07278E-15
            5163            5360     11.3115E-15     13.3756E-15
            5163            5361     15.3771E-15     17.3634E-15
            5164             924     11.1818E-15     12.3343E-15
            5164             925     8.83966E-15     9.47112E-15
            5164            5361     15.3771E-15     17.3634E-15
            5164            5362     18.1516E-15     18.5747E-15
            5165             923     12.9534E-15     16.1476E-15
            5165             924     11.1818E-15     12.3343E-15
            5165            5362     18.1516E-15     18.5747E-15
            5165            5363     15.6753E-15     16.3916E-15
            5166             922     17.5340E-15     18.6493E-15
            5166             923     12.9534E-15     16.1476E-15
            5166            5363     15.6753E-15     16.3916E-15
            5166            5364     15.8955E-15     15.5939E-15
            5167             921     15.2405E-15     12.4676E-15
            5167             922     17.5340E-15     18.6493E-15
            5167            5364     15.8955E-15     15.5939E-15
            5167            5365     14.6572E-15     12.7779E-15
            5168             920     15.2167E-15     13.1549E-15
            5168             921     15.2405E-15     12.4676E-15
            5168            5365     14.6572E-15     12.7779E-15
            5168            5366     13.8847E-15     12.0849E-15
            5169             919     14.6658E-15     13.5443E-15
            5169             920     15.2167E-15     13.1549E-15
            5169            5366     13.8847E-15     12.0849E-15
            5169            5367     13.2850E-15     12.1568E-15
            5170             918     10.8865E-15     10.1670E-15
            5170             919     14.6658E-15     13.5443E-15
            5170            5367     13.2850E-15     12.1568E-15
            5170            5368     11.0164E-15     10.8600E-15
            5171              39     18.5463E-15     18.6714E-15
            5171             917     13.6523E-15     14.4301E-15
            5171             918     10.8865E-15     10.1670E-15
            5171            5368     11.0164E-15     10.8600E-15
            5172              29     170.736E-03     176.096E-03
            5172             625     160.670E-03     165.951E-03
            5172             947     173.620E-03     178.838E-03
            5172            5369     160.977E-03     166.426E-03
            5173             624     151.261E-03     157.155E-03
            5173             625     160.670E-03     165.951E-03
            5173            5369     160.977E-03     166.426E-03
            5173            5370     151.344E-03     156.852E-03
            5174             623     142.726E-03     148.767E-03
            5174             624     151.261E-03     157.155E-03
            5174            5370     151.344E-03     156.852E-03
            5174            5371     142.143E-03     147.826E-03
            5175             622     133.992E-03     140.303E-03
            5175             623     142.726E-03     148.767E-03
            5175            5371     142.143E-03     147.826E-03
            5175            5372     133.311E-03     139.087E-03
            5176             621     125.337E-03     131.649E-03
            5176             622     133.992E-03     140.303E-03
            5176            5372     133.311E-03     139.087E-03
            5176            5373     124.455E-03     130.274E-03
            5177             620     116.467E-03     122.847E-03
            5177             621     125.337E-03     131.649E-03
            5177            5373     124.455E-03     130.274E-03
            5177            5374     115.575E-03     121.427E-03
            5178             619     107.556E-03     113.906E-03
            5178             620     116.467E-03     122.847E-03
            5178            5374     115.575E-03     121.427E-03
            5178            5375     106.632E-03     112.481E-03
            5179             618     98.5095E-03     104.881E-03
            5179             619     107.556E-03     113.906E-03
            5179            5375     106.632E-03     112.481E-03
            5179            5376     97.6339E-03     103.494E-03
            5180             617     89.4321E-03     95.7818E-03
            5180             618     98.5095E-03     104.881E-03
            5180            5376     97.6339E-03     103.494E-03
            5180            5377     88.5952E-03     94.4483E-03
            5181             616     80.2814E-03     86.6448E-03
            5181             617     89.4321E-03     95.7818E-03
            5181            5377     88.5952E-03     94.4483E-03
            5181            5378     79.5198E-03     85.3814E-03
            5182             615     71.1148E-03     77.4743E-03
            5182             616     80.2814E-03     86.6448E-03
            5182            5378     79.5198E-03     85.3814E-03
            5182            5379     70.4243E-03     76.2863E-03
            5183             614     61.9125E-03     68.2953E-03
            5183             615     71.1148E-03     77.4743E-03
            5183            5379     70.4243E-03     76.2863E-03
            5183            5380     61.3073E-03     67.1842E-03
            5184             613     52.7058E-03     59.1097E-03
            5184             614     61.9125E-03     68.2953E-03
            5184            5380     61.3073E-03     67.1842E-03
            5184            5381     52.1933E-03     58.0710E-03
            5185             612     43.5014E-03     49.9335E-03
            5185             613     52.7058E-03     59.1097E-03
            5185            5381     52.1933E-03     58.0710E-03
            5185            5382     43.0787E-03     48.9482E-03
            5186             611     34.3704E-03     40.7267E-03
            5186             612     43.5014E-03     49.9335E-03
            5186            5382     43.0787E-03     48.9482E-03
            5186            5383     34.0162E-03     39.8211E-03
            5187             610     25.3922E-03     31.4549E-03
            5187             611     34.3704E-03     40.7267E-03
            5187            5383     34.0162E-03     39.8211E-03
            5187            5384     25.0798E-03     30.5753E-03
            5188             609     16.7632E-03     22.0840E-03
            5188             610     25.3922E-03     31.4549E-03
            5188            5384     25.0798E-03     30.5753E-03
            5188            5385     16.3424E-03     21.2931E-03
            5189             608     8.98236E-03     13.0165E-03
            5189             609     16.7632E-03     22.0840E-03
            5189            5385     16.3424E-03     21.2931E-03
            5189            5386     7.95463E-03     12.5744E-03
            5190              30     5.39200E-03     8.67389E-03
            5190             608     8.98236E-03     13.0165E-03
            5190             720     3.86444E-03     8.45168E-03
            5190            5386     7.95463E-03     12.5744E-03
            5191             946     179.257E-03     183.414E-03
            5191             947     173.620E-03     178.838E-03
            5191            5369     160.977E-03     166.426E-03
            5191            5387     165.623E-03     170.570E-03
            5192            5369     160.977E-03     166.426E-03
            5192            5370     151.344E-03     156.852E-03
            5192            5387     165.623E-03     170.570E-03
            5192            5388     155.174E-03     159.915E-03
            5193            5370     151.344E-03     156.852E-03
            5193            5371     142.143E-03     147.826E-03
            5193            5388     155.174E-03     159.915E-03
            5193            5389     145.431E-03     149.953E-03
            5194            5371     142.143E-03     147.826E-03
            5194            5372     133.311E-03     139.087E-03
            5194            5389     145.431E-03     149.953E-03
            5194            5390     136.010E-03     140.425E-03
            5195            5372     133.311E-03     139.087E-03
            5195            5373     124.455E-03     130.274E-03
            5195            5390     136.010E-03     140.425E-03
            5195            5391     126.714E-03     131.075E-03
            5196            5373     124.455E-03     130.274E-03
            5196            5374     115.575E-03     121.427E-03
            5196            5391     126.714E-03     131.075E-03
            5196            5392     117.457E-03     121.802E-03
            5197            5374     115.575E-03     121.427E-03
            5197            5375     106.632E-03     112.481E-03
            5197            5392     117.457E-03     121.802E-03
            5197            5393     108.229E-03     112.578E-03
            5198            5375     106.632E-03     112.481E-03
            5198            5376     97.6339E-03     103.494E-03
            5198            5393     108.229E-03     112.578E-03
            5198            5394     99.0176E-03     103.363E-03
            5199            5376     97.6339E-03     103.494E-03
            5199            5377     88.5952E-03     94.4483E-03
            5199            5394     99.0176E-03     103.363E-03
            5199            5395     89.8183E-03     94.1705E-03
            5200            5377     88.5952E-03     94.4483E-03
            5200            5378     79.5198E-03     85.3814E-03
            5200            5395     89.8183E-03     94.1705E-03
            5200            5396     80.6331E-03     84.9784E-03
            5201            5378     79.5198E-03     85.3814E-03
            5201            5379     70.4243E-03     76.2863E-03
            5201            5396     80.6331E-03     84.9784E-03
            5201            5397     71.4573E-03     75.7994E-03
            5202            5379     70.4243E-03     76.2863E-03
            5202            5380     61.3073E-03     67.1842E-03
            5202            5397     71.4573E-03     75.7994E-03
            5202            5398     62.2970E-03     66.6178E-03
            5203            5380     61.3073E-03     67.1842E-03
            5203            5381     52.1933E-03     58.0710E-03
            5203            5398     62.2970E-03     66.6178E-03
            5203            5399     53.1520E-03     57.4514E-03
            5204            5381     52.1933E-03     58.0710E-03
            5204            5382     43.0787E-03     48.9482E-03
            5204            5399     53.1520E-03     57.4514E-03
            5204            5400     44.0217E-03     48.2881E-03
            5205            5382     43.0787E-03     48.9482E-03
            5205            5383     34.0162E-03     39.8211E-03
            5205            5400     44.0217E-03     48.2881E-03
            5205            5401     34.9068E-03     39.1868E-03
            5206            5383     34.0162E-03     39.8211E-03
            5206            5384     25.0798E-03     30.5753E-03
            5206            5401     34.9068E-03     39.1868E-03
            5206            5402     25.8621E-03     30.1506E-03
            5207            5384     25.0798E-03     30.5753E-03
            5207            5385     16.3424E-03     21.2931E-03
            5207            5402     25.8621E-03     30.1506E-03
            5207            5403     17.0128E-03     21.0890E-03
            5208            5385     16.3424E-03     21.2931E-03
            5208            5386     7.95463E-03     12.5744E-03
            5208            5403     17.0128E-03     21.0890E-03
            5208            5404     8.74121E-03     12.9726E-03
            5209             719     4.82585E-03     9.39868E-03
            5209             720     3.86444E-03     8.45168E-03
            5209            5386     7.95463E-03     12.5744E-03
            5209            5404     8.74121E-03     12.9726E-03
            5210             945     178.425E-03     182.079E-03
            5210             946     179.257E-03     183.414E-03
            5210            5387     165.623E-03     170.570E-03
            5210            5405     167.878E-03     171.442E-03
            5211            5387     165.623E-03     170.570E-03
            5211            5388     155.174E-03     159.915E-03
            5211            5405     167.878E-03     171.442E-03
            5211            5406     157.065E-03     160.597E-03
            5212            5388     155.174E-03     159.915E-03
            5212            5389     145.431E-03     149.953E-03
            5212            5406     157.065E-03     160.597E-03
            5212            5407     147.313E-03     150.472E-03
            5213            5389     145.431E-03     149.953E-03
            5213            5390     136.010E-03     140.425E-03
            5213            5407     147.313E-03     150.472E-03
            5213            5408     137.662E-03     140.640E-03
            5214            5390     136.010E-03     140.425E-03
            5214            5391     126.714E-03     131.075E-03
            5214            5408     137.662E-03     140.640E-03
            5214            5409     128.210E-03     131.095E-03
            5215            5391     126.714E-03     131.075E-03
            5215            5392     117.457E-03     121.802E-03
            5215            5409     128.210E-03     131.095E-03
            5215            5410     118.837E-03     121.693E-03
            5216            5392     117.457E-03     121.802E-03
            5216            5393     108.229E-03     112.578E-03
            5216            5410     118.837E-03     121.693E-03
            5216            5411     109.542E-03     112.382E-03
            5217            5393     108.229E-03     112.578E-03
            5217            5394     99.0176E-03     103.363E-03
            5217            5411     109.542E-03     112.382E-03
            5217            5412     100.294E-03     103.139E-03
            5218            5394     99.0176E-03     103.363E-03
            5218            5395     89.8183E-03     94.1705E-03
            5218            5412     100.294E-03     103.139E-03
            5218            5413     91.0921E-03     93.9308E-03
            5219            5395     89.8183E-03     94.1705E-03
            5219            5396     80.6331E-03     84.9784E-03
            5219            5413     91.0921E-03     93.9308E-03
            5219            5414     81.9231E-03     84.7580E-03
            5220            5396     80.6331E-03     84.9784E-03
            5220            5397     71.4573E-03     75.7994E-03
            5220            5414     81.9231E-03     84.7580E-03
            5220            5415     72.7905E-03     75.6043E-03
            5221            5397     71.4573E-03     75.7994E-03
            5221            5398     62.2970E-03     66.6178E-03
            5221            5415     72.7905E-03     75.6043E-03
            5221            5416     63.6968E-03     66.4805E-03
            5222            5398     62.2970E-03     66.6178E-03
            5222            5399     53.1520E-03     57.4514E-03
            5222            5416     63.6968E-03     66.4805E-03
            5222            5417     54.6413E-03     57.3832E-03
            5223            5399     53.1520E-03     57.4514E-03
            5223            5400     44.0217E-03     48.2881E-03
            5223            5417     54.6413E-03     57.3832E-03
            5223            5418     45.6465E-03     48.3588E-03
            5224            5400     44.0217E-03     48.2881E-03
            5224            5401     34.9068E-03     39.1868E-03
            5224            5418     45.6465E-03     48.3588E-03
            5224            5419     36.7003E-03     39.4438E-03
            5225            5401     34.9068E-03     39.1868E-03
            5225            5402     25.8621E-03     30.1506E-03
            5225            5419     36.7003E-03     39.4438E-03
            5225            5420     27.8236E-03     30.9179E-03
            5226            5402     25.8621E-03     30.1506E-03
            5226            5403     17.0128E-03     21.0890E-03
            5226            5420     27.8236E-03     30.9179E-03
            5226            5421     19.4796E-03     22.9346E-03
            5227            5403     17.0128E-03     21.0890E-03
            5227            5404     8.74121E-03     12.9726E-03
            5227            5421     19.4796E-03     22.9346E-03
            5227            5422     13.0631E-03     15.0255E-03
            5228             718     10.5894E-03     11.0046E-03
            5228             719     4.82585E-03     9.39868E-03
            5228            5404     8.74121E-03     12.9726E-03
            5228            5422     13.0631E-03     15.0255E-03
            5229             944     173.435E-03     176.098E-03
            5229             945     178.425E-03     182.079E-03
            5229            5405     167.878E-03     171.442E-03
            5229            5423     165.629E-03     167.683E-03
            5230            5405     167.878E-03     171.442E-03
            5230            5406     157.065E-03     160.597E-03
            5230            5423     165.629E-03     167.683E-03
            5230            5424     156.639E-03     158.279E-03
            5231            5406     157.065E-03     160.597E-03
            5231            5407     147.313E-03     150.472E-03
            5231            5424     156.639E-03     158.279E-03
            5231            5425     147.230E-03     148.751E-03
            5232            5407     147.313E-03     150.472E-03
            5232            5408     137.662E-03     140.640E-03
            5232            5425     147.230E-03     148.751E-03
            5232            5426     137.995E-03     139.391E-03
            5233            5408     137.662E-03     140.640E-03
            5233            5409     128.210E-03     131.095E-03
            5233            5426     137.995E-03     139.391E-03
            5233            5427     128.753E-03     130.128E-03
            5234            5409     128.210E-03     131.095E-03
            5234            5410     118.837E-03     121.693E-03
            5234            5427     128.753E-03     130.128E-03
            5234            5428     119.605E-03     120.953E-03
            5235            5410     118.837E-03     121.693E-03
            5235            5411     109.542E-03     112.382E-03
            5235            5428     119.605E-03     120.953E-03
            5235            5429     110.486E-03     111.841E-03
            5236            5411     109.542E-03     112.382E-03
            5236            5412     100.294E-03     103.139E-03
            5236            5429     110.486E-03     111.841E-03
            5236            5430     101.415E-03     102.762E-03
            5237            5412     100.294E-03     103.139E-03
            5237            5413     91.0921E-03     93.9308E-03
            5237            5430     101.415E-03     102.762E-03
            5237            5431     92.3660E-03     93.7163E-03
            5238            5413     91.0921E-03     93.9308E-03
            5238            5414     81.9231E-03     84.7580E-03
            5238            5431     92.3660E-03     93.7163E-03
            5238            5432     83.3546E-03     84.6938E-03
            5239            5414     81.9231E-03     84.7580E-03
            5239            5415     72.7905E-03     75.6043E-03
            5239            5432     83.3546E-03     84.6938E-03
            5239            5433     74.3793E-03     75.7053E-03
            5240            5415     72.7905E-03     75.6043E-03
            5240            5416     63.6968E-03     66.4805E-03
            5240            5433     74.3793E-03     75.7053E-03
            5240            5434     65.4581E-03     66.7581E-03
            5241            5416     63.6968E-03     66.4805E-03
            5241            5417     54.6413E-03     57.3832E-03
            5241            5434     65.4581E-03     66.7581E-03
            5241            5435     56.6160E-03     57.8775E-03
            5242            5417     54.6413E-03     57.3832E-03
            5242            5418     45.6465E-03     48.3588E-03
            5242            5435     56.6160E-03     57.8775E-03
            5242            5436     47.8749E-03     49.1136E-03
            5243            5418     45.6465E-03     48.3588E-03
            5243            5419     36.7003E-03     39.4438E-03
            5243            5436     47.8749E-03     49.1136E-03
            5243            5437     39.2984E-03     40.5775E-03
            5244            5419     36.7003E-03     39.4438E-03
            5244            5420     27.8236E-03     30.9179E-03
            5244            5437     39.2984E-03     40.5775E-03
            5244            5438     30.9265E-03     32.5633E-03
            5245            5420     27.8236E-03     30.9179E-03
            5245            5421     19.4796E-03     22.9346E-03
            5245            5438     30.9265E-03     32.5633E-03
            5245            5439     23.1430E-03     25.7763E-03
            5246            5421     19.4796E-03     22.9346E-03
            5246            5422     13.0631E-03     15.0255E-03
            5246            5439     23.1430E-03     25.7763E-03
            5246            5440     17.9396E-03     20.1863E-03
            5247             717     16.3765E-03     17.5616E-03
            5247             718     10.5894E-03     11.0046E-03
            5247            5422     13.0631E-03     15.0255E-03
            5247            5440     17.9396E-03     20.1863E-03
            5248             943     166.302E-03     165.661E-03
            5248             944     173.435E-03     176.098E-03
            5248            5423     165.629E-03     167.683E-03
            5248            5441     160.444E-03     159.957E-03
            5249            5423     165.629E-03     167.683E-03
            5249            5424     156.639E-03     158.279E-03
            5249            5441     160.444E-03     159.957E-03
            5249            5442     153.399E-03     152.930E-03
            5250            5424     156.639E-03     158.279E-03
            5250            5425     147.230E-03     148.751E-03
            5250            5442     153.399E-03     152.930E-03
            5250            5443     145.376E-03     145.036E-03
            5251            5425     147.230E-03     148.751E-03
            5251            5426     137.995E-03     139.391E-03
            5251            5443     145.376E-03     145.036E-03
            5251            5444     136.995E-03     136.802E-03
            5252            5426     137.995E-03     139.391E-03
            5252            5427     128.753E-03     130.128E-03
            5252            5444     136.995E-03     136.802E-03
            5252            5445     128.492E-03     128.319E-03
            5253            5427     128.753E-03     130.128E-03
            5253            5428     119.605E-03     120.953E-03
            5253            5445     128.492E-03     128.319E-03
            5253            5446     119.855E-03     119.733E-03
            5254            5428     119.605E-03     120.953E-03
            5254            5429     110.486E-03     111.841E-03
            5254            5446     119.855E-03     119.733E-03
            5254            5447     111.186E-03     111.057E-03
            5255            5429     110.486E-03     111.841E-03
            5255            5430     101.415E-03     102.762E-03
            5255            5447     111.186E-03     111.057E-03
            5255            5448     102.455E-03     102.339E-03
            5256            5430     101.415E-03     102.762E-03
            5256            5431     92.3660E-03     93.7163E-03
            5256            5448     102.455E-03     102.339E-03
            5256            5449     93.7156E-03     93.5941E-03
            5257            5431     92.3660E-03     93.7163E-03
            5257            5432     83.3546E-03     84.6938E-03
            5257            5449     93.7156E-03     93.5941E-03
            5257            5450     84.9674E-03     84.8526E-03
            5258            5432     83.3546E-03     84.6938E-03
            5258            5433     74.3793E-03     75.7053E-03
            5258            5450     84.9674E-03     84.8526E-03
            5258            5451     76.2508E-03     76.1395E-03
            5259            5433     74.3793E-03     75.7053E-03
            5259            5434     65.4581E-03     66.7581E-03
            5259            5451     76.2508E-03     76.1395E-03
            5259            5452     67.5878E-03     67.4871E-03
            5260            5434     65.4581E-03     66.7581E-03
            5260            5435     56.6160E-03     57.8775E-03
            5260            5452     67.5878E-03     67.4871E-03
            5260            5453     59.0351E-03     58.9467E-03
            5261            5435     56.6160E-03     57.8775E-03
            5261            5436     47.8749E-03     49.1136E-03
            5261            5453     59.0351E-03     58.9467E-03
            5261            5454     50.6477E-03     50.5748E-03
            5262            5436     47.8749E-03     49.1136E-03
            5262            5437     39.2984E-03     40.5775E-03
            5262            5454     50.6477E-03     50.5748E-03
            5262            5455     42.5604E-03     42.5280E-03
            5263            5437     39.2984E-03     40.5775E-03
            5263            5438     30.9265E-03     32.5633E-03
            5263            5455     42.5604E-03     42.5280E-03
            5263            5456     34.9127E-03     35.0198E-03
            5264            5438     30.9265E-03     32.5633E-03
            5264            5439     23.1430E-03     25.7763E-03
            5264            5456     34.9127E-03     35.0198E-03
            5264            5457     27.9795E-03     28.8402E-03
            5265            5439     23.1430E-03     25.7763E-03
            5265            5440     17.9396E-03     20.1863E-03
            5265            5457     27.9795E-03     28.8402E-03
            5265            5458     22.5128E-03     25.6079E-03
            5266             716     20.2712E-03     24.9588E-03
            5266             717     16.3765E-03     17.5616E-03
            5266            5440     17.9396E-03     20.1863E-03
            5266            5458     22.5128E-03     25.6079E-03
            5267             942     155.268E-03     155.169E-03
            5267             943     166.302E-03     165.661E-03
            5267            5441     160.444E-03     159.957E-03
            5267            5459     149.057E-03     149.179E-03
            5268            5441     160.444E-03     159.957E-03
            5268            5442     153.399E-03     152.930E-03
            5268            5459     149.057E-03     149.179E-03
            5268            5460     141.921E-03     142.372E-03
            5269            5442     153.399E-03     152.930E-03
            5269            5443     145.376E-03     145.036E-03
            5269            5460     141.921E-03     142.372E-03
            5269            5461     134.437E-03     135.043E-03
            5270            5443     145.376E-03     145.036E-03
            5270            5444     136.995E-03     136.802E-03
            5270            5461     134.437E-03     135.043E-03
            5270            5462     126.604E-03     127.332E-03
            5271            5444     136.995E-03     136.802E-03
            5271            5445     128.492E-03     128.319E-03
            5271            5462     126.604E-03     127.332E-03
            5271            5463     118.637E-03     119.398E-03
            5272            5445     128.492E-03     128.319E-03
            5272            5446     119.855E-03     119.733E-03
            5272            5463     118.637E-03     119.398E-03
            5272            5464     110.556E-03     111.363E-03
            5273            5446     119.855E-03     119.733E-03
            5273            5447     111.186E-03     111.057E-03
            5273            5464     110.556E-03     111.363E-03
            5273            5465     102.416E-03     103.208E-03
            5274            5447     111.186E-03     111.057E-03
            5274            5448     102.455E-03     102.339E-03
            5274            5465     102.416E-03     103.208E-03
            5274            5466     94.2184E-03     95.0310E-03
            5275            5448     102.455E-03     102.339E-03
            5275            5449     93.7156E-03     93.5941E-03
            5275            5466     94.2184E-03     95.0310E-03
            5275            5467     86.0011E-03     86.8007E-03
            5276            5449     93.7156E-03     93.5941E-03
            5276            5450     84.9674E-03     84.8526E-03
            5276            5467     86.0011E-03     86.8007E-03
            5276            5468     77.7651E-03     78.5816E-03
            5277            5450     84.9674E-03     84.8526E-03
            5277            5451     76.2508E-03     76.1395E-03
            5277            5468     77.7651E-03     78.5816E-03
            5277            5469     69.5425E-03     70.3605E-03
            5278            5451     76.2508E-03     76.1395E-03
            5278            5452     67.5878E-03     67.4871E-03
            5278            5469     69.5425E-03     70.3605E-03
            5278            5470     61.3444E-03     62.1875E-03
            5279            5452     67.5878E-03     67.4871E-03
            5279            5453     59.0351E-03     58.9467E-03
            5279            5470     61.3444E-03     62.1875E-03
            5279            5471     53.2082E-03     54.0714E-03
            5280            5453     59.0351E-03     58.9467E-03
            5280            5454     50.6477E-03     50.5748E-03
            5280            5471     53.2082E-03     54.0714E-03
            5280            5472     45.1729E-03     46.0672E-03
            5281            5454     50.6477E-03     50.5748E-03
            5281            5455     42.5604E-03     42.5280E-03
            5281            5472     45.1729E-03     46.0672E-03
            5281            5473     37.3216E-03     38.2361E-03
            5282            5455     42.5604E-03     42.5280E-03
            5282            5456     34.9127E-03     35.0198E-03
            5282            5473     37.3216E-03     38.2361E-03
            5282            5474     29.7576E-03     30.6594E-03
            5283            5456     34.9127E-03     35.0198E-03
            5283            5457     27.9795E-03     28.8402E-03
            5283            5474     29.7576E-03     30.6594E-03
            5283            5475     22.6616E-03     23.7632E-03
            5284            5457     27.9795E-03     28.8402E-03
            5284            5458     22.5128E-03     25.6079E-03
            5284            5475     22.6616E-03     23.7632E-03
            5284            5476     15.7655E-03     18.2537E-03
            5285             715     12.2651E-03     15.9253E-03
            5285             716     20.2712E-03     24.9588E-03
            5285            5458     22.5128E-03     25.6079E-03
            5285            5476     15.7655E-03     18.2537E-03
            5286              35     143.340E-03     146.610E-03
            5286             824     133.449E-03     136.346E-03
            5286             942     155.268E-03     155.169E-03
            5286            5459     149.057E-03     149.179E-03
            5287             824     133.449E-03     136.346E-03
            5287             825     124.551E-03     127.567E-03
            5287            5459     149.057E-03     149.179E-03
            5287            5460     141.921E-03     142.372E-03
            5288             825     124.551E-03     127.567E-03
            5288             826     116.528E-03     119.630E-03
            5288            5460     141.921E-03     142.372E-03
            5288            5461     134.437E-03     135.043E-03
            5289             826     116.528E-03     119.630E-03
            5289             827     108.787E-03     112.102E-03
            5289            5461     134.437E-03     135.043E-03
            5289            5462     126.604E-03     127.332E-03
            5290             827     108.787E-03     112.102E-03
            5290             828     101.331E-03     104.758E-03
            5290            5462     126.604E-03     127.332E-03
            5290            5463     118.637E-03     119.398E-03
            5291             828     101.331E-03     104.758E-03
            5291             829     93.9522E-03     97.5147E-03
            5291            5463     118.637E-03     119.398E-03
            5291            5464     110.556E-03     111.363E-03
            5292             829     93.9522E-03     97.5147E-03
            5292             830     86.6602E-03     90.2896E-03
            5292            5464     110.556E-03     111.363E-03
            5292            5465     102.416E-03     103.208E-03
            5293             830     86.6602E-03     90.2896E-03
            5293             831     79.3726E-03     83.0708E-03
            5293            5465     102.416E-03     103.208E-03
            5293            5466     94.2184E-03     95.0310E-03
            5294             831     79.3726E-03     83.0708E-03
            5294             832     72.1008E-03     75.8292E-03
            5294            5466     94.2184E-03     95.0310E-03
            5294            5467     86.0011E-03     86.8007E-03
            5295             832     72.1008E-03     75.8292E-03
            5295             833     64.8143E-03     68.5705E-03
            5295            5467     86.0011E-03     86.8007E-03
            5295            5468     77.7651E-03     78.5816E-03
            5296             833     64.8143E-03     68.5705E-03
            5296             834     57.5267E-03     61.2842E-03
            5296            5468     77.7651E-03     78.5816E-03
            5296            5469     69.5425E-03     70.3605E-03
            5297             834     57.5267E-03     61.2842E-03
            5297             835     50.2316E-03     53.9776E-03
            5297            5469     69.5425E-03     70.3605E-03
            5297            5470     61.3444E-03     62.1875E-03
            5298             835     50.2316E-03     53.9776E-03
            5298             836     42.9494E-03     46.6459E-03
            5298            5470     61.3444E-03     62.1875E-03
            5298            5471     53.2082E-03     54.0714E-03
            5299             836     42.9494E-03     46.6459E-03
            5299             837     35.6880E-03     39.2949E-03
            5299            5471     53.2082E-03     54.0714E-03
            5299            5472     45.1729E-03     46.0672E-03
            5300             837     35.6880E-03     39.2949E-03
            5300             838     28.4882E-03     31.9268E-03
            5300            5472     45.1729E-03     46.0672E-03
            5300            5473     37.3216E-03     38.2361E-03
            5301             838     28.4882E-03     31.9268E-03
            5301             839     21.3917E-03     24.5565E-03
            5301            5473     37.3216E-03     38.2361E-03
            5301            5474     29.7576E-03     30.6594E-03
            5302             839     21.3917E-03     24.5565E-03
            5302             840     14.5196E-03     17.2663E-03
            5302            5474     29.7576E-03     30.6594E-03
            5302            5475     22.6616E-03     23.7632E-03
            5303             840     14.5196E-03     17.2663E-03
            5303             841     8.04166E-03     10.4992E-03
            5303            5475     22.6616E-03     23.7632E-03
            5303            5476     15.7655E-03     18.2537E-03
            5304              33     4.91926E-03     7.34633E-03
            5304             715     12.2651E-03     15.9253E-03
            5304             841     8.04166E-03     10.4992E-03
            5304            5476     15.7655E-03     18.2537E-03
            5305              27     205.716E-03     226.350E-03
            5305             565     188.912E-03     197.869E-03
            5305             742     213.839E-03     211.593E-03
            5305            5477     193.088E-03     196.769E-03
            5306              29     170.736E-03     176.096E-03
            5306             565     188.912E-03     197.869E-03
            5306             947     173.620E-03     178.838E-03
            5306            5477     193.088E-03     196.769E-03
            5307             741     204.248E-03     197.587E-03
            5307             742     213.839E-03     211.593E-03
            5307            5477     193.088E-03     196.769E-03
            5307            5478     193.265E-03     194.924E-03
            5308             946     179.257E-03     183.414E-03
            5308             947     173.620E-03     178.838E-03
            5308            5477     193.088E-03     196.769E-03
            5308            5478     193.265E-03     194.924E-03
            5309             740     186.473E-03     194.116E-03
            5309             741     204.248E-03     197.587E-03
            5309            5478     193.265E-03     194.924E-03
            5309            5479     186.594E-03     190.967E-03
            5310             945     178.425E-03     182.079E-03
            5310             946     179.257E-03     183.414E-03
            5310            5478     193.265E-03     194.924E-03
            5310            5479     186.594E-03     190.967E-03
            5311             739     183.600E-03     177.835E-03
            5311             740     186.473E-03     194.116E-03
            5311            5479     186.594E-03     190.967E-03
            5311            5480     179.590E-03     181.161E-03
            5312             944     173.435E-03     176.098E-03
            5312             945     178.425E-03     182.079E-03
            5312            5479     186.594E-03     190.967E-03
            5312            5480     179.590E-03     181.161E-03
            5313             738     173.611E-03     169.312E-03
            5313             739     183.600E-03     177.835E-03
            5313            5480     179.590E-03     181.161E-03
            5313            5481     169.688E-03     168.704E-03
            5314             943     166.302E-03     165.661E-03
            5314             944     173.435E-03     176.098E-03
            5314            5480     179.590E-03     181.161E-03
            5314            5481     169.688E-03     168.704E-03
            5315             737     162.593E-03     166.884E-03
            5315             738     173.611E-03     169.312E-03
            5315            5481     169.688E-03     168.704E-03
            5315            5482     160.168E-03     160.597E-03
            5316             942     155.268E-03     155.169E-03
            5316             943     166.302E-03     165.661E-03
            5316            5481     169.688E-03     168.704E-03
            5316            5482     160.168E-03     160.597E-03
            5317              34     171.135E-03     181.925E-03
            5317             737     162.593E-03     166.884E-03
            5317             788     158.086E-03     163.429E-03
            5317            5482     160.168E-03     160.597E-03
            5318              35     143.340E-03     146.610E-03
            5318             788     158.086E-03     163.429E-03
            5318             942     155.268E-03     155.169E-03
            5318            5482     160.168E-03     160.597E-03
            5319              38     5.67083E-03     3.86388E-03
            5319             912     11.6506E-15     10.1216E-15
            5319             948     4.20753E-03     4.57595E-03
            5319            5483     10.9084E-15     10.3499E-15
            5320              15     3.32713E-03     6.53520E-03
            5320             948     4.20753E-03     4.57595E-03
            5320             949     6.82701E-15     7.19007E-15
            5320            5483     10.9084E-15     10.3499E-15
            5321             912     11.6506E-15     10.1216E-15
            5321             913     9.19125E-15     8.84661E-15
            5321            5483     10.9084E-15     10.3499E-15
            5321            5484     10.2397E-15     10.0035E-15
            5322             949     6.82701E-15     7.19007E-15
            5322             950     8.43066E-15     8.27034E-15
            5322            5483     10.9084E-15     10.3499E-15
            5322            5484     10.2397E-15     10.0035E-15
            5323             913     9.19125E-15     8.84661E-15
            5323             914     13.0137E-15     13.2488E-15
            5323            5484     10.2397E-15     10.0035E-15
            5323            5485     16.7009E-15     16.8633E-15
            5324             950     8.43066E-15     8.27034E-15
            5324             951     14.3068E-15     13.9660E-15
            5324            5484     10.2397E-15     10.0035E-15
            5324            5485     16.7009E-15     16.8633E-15
            5325             914     13.0137E-15     13.2488E-15
            5325             915     11.3941E-15     12.1112E-15
            5325            5485     16.7009E-15     16.8633E-15
            5325            5486     13.2243E-15     13.8804E-15
            5326             951     14.3068E-15     13.9660E-15
            5326             952     10.2157E-15     10.5896E-15
            5326            5485     16.7009E-15     16.8633E-15
            5326            5486     13.2243E-15     13.8804E-15
            5327             915     11.3941E-15     12.1112E-15
            5327             916     8.56875E-15     9.82951E-15
            5327            5486     13.2243E-15     13.8804E-15
            5327            5487     7.24593E-15     8.15079E-15
            5328             952     10.2157E-15     10.5896E-15
            5328             953     5.77447E-15     6.69546E-15
            5328            5486     13.2243E-15     13.8804E-15
            5328            5487     7.24593E-15     8.15079E-15
            5329             916     8.56875E-15     9.82951E-15
            5329             917     13.6523E-15     14.4301E-15
            5329            5487     7.24593E-15     8.15079E-15
            5329            5488     14.0468E-15     14.8542E-15
            5330             953     5.77447E-15     6.69546E-15
            5330             954     11.6447E-15     12.2692E-15
            5330            5487     7.24593E-15     8.15079E-15
            5330            5488     14.0468E-15     14.8542E-15
            5331              39     18.5463E-15     18.6714E-15
            5331             917     13.6523E-15     14.4301E-15
            5331             955     21.0818E-15     21.5669E-15
            5331            5488     14.0468E-15     14.8542E-15
            5332              41     15.7297E-15     16.3838E-15
            5332             954     11.6447E-15     12.2692E-15
            5332             955     21.0818E-15     21.5669E-15
            5332            5488     14.0468E-15     14.8542E-15
            5333               9     40.9855E-03     40.3602E-03
            5333             178     42.6243E-03     45.0865E-03
            5333             749     54.9885E-03     56.8510E-03
            5333            5489     56.3079E-03     59.7611E-03
            5334             177     50.5036E-03     52.3842E-03
            5334             178     42.6243E-03     45.0865E-03
            5334            5489     56.3079E-03     59.7611E-03
            5334            5490     65.5628E-03     65.3689E-03
            5335             176     51.4142E-03     50.4894E-03
            5335             177     50.5036E-03     52.3842E-03
            5335            5490     65.5628E-03     65.3689E-03
            5335            5491     68.5454E-03     66.2312E-03
            5336             175     49.9375E-03     51.6491E-03
            5336             176     51.4142E-03     50.4894E-03
            5336            5491     68.5454E-03     66.2312E-03
            5336            5492     66.2727E-03     71.2500E-03
            5337             174     51.7543E-03     51.6266E-03
            5337             175     49.9375E-03     51.6491E-03
            5337            5492     66.2727E-03     71.2500E-03
            5337            5493     71.3493E-03     70.1650E-03
            5338             173     51.6456E-03     48.4829E-03
            5338             174     51.7543E-03     51.6266E-03
            5338            5493     71.3493E-03     70.1650E-03
            5338            5494     70.0277E-03     67.2092E-03
            5339               7     43.2010E-03     42.0126E-03
            5339             173     51.6456E-03     48.4829E-03
            5339             557     59.3224E-03     64.5496E-03
            5339            5494     70.0277E-03     67.2092E-03
            5340             749     54.9885E-03     56.8510E-03
            5340             750     85.0087E-03     92.6749E-03
            5340            5489     56.3079E-03     59.7611E-03
            5340            5495     85.3338E-03     91.3537E-03
            5341            5489     56.3079E-03     59.7611E-03
            5341            5490     65.5628E-03     65.3689E-03
            5341            5495     85.3338E-03     91.3537E-03
            5341            5496     97.9328E-03     94.9177E-03
            5342            5490     65.5628E-03     65.3689E-03
            5342            5491     68.5454E-03     66.2312E-03
            5342            5496     97.9328E-03     94.9177E-03
            5342            5497     105.405E-03     100.305E-03
            5343            5491     68.5454E-03     66.2312E-03
            5343            5492     66.2727E-03     71.2500E-03
            5343            5497     105.405E-03     100.305E-03
            5343            5498     101.499E-03     110.745E-03
            5344            5492     66.2727E-03     71.2500E-03
            5344            5493     71.3493E-03     70.1650E-03
            5344            5498     101.499E-03     110.745E-03
            5344            5499     113.971E-03     107.662E-03
            5345            5493     71.3493E-03     70.1650E-03
            5345            5494     70.0277E-03     67.2092E-03
            5345            5499     113.971E-03     107.662E-03
            5345            5500     110.408E-03     106.270E-03
            5346             556     93.1505E-03     109.517E-03
            5346             557     59.3224E-03     64.5496E-03
            5346            5494     70.0277E-03     67.2092E-03
            5346            5500     110.408E-03     106.270E-03
            5347             750     85.0087E-03     92.6749E-03
            5347             751     115.248E-03     131.148E-03
            5347            5495     85.3338E-03     91.3537E-03
            5347            5501     114.319E-03     126.101E-03
            5348            5495     85.3338E-03     91.3537E-03
            5348            5496     97.9328E-03     94.9177E-03
            5348            5501     114.319E-03     126.101E-03
            5348            5502     131.949E-03     128.004E-03
            5349            5496     97.9328E-03     94.9177E-03
            5349            5497     105.405E-03     100.305E-03
            5349            5502     131.949E-03     128.004E-03
            5349            5503     141.386E-03     132.004E-03
            5350            5497     105.405E-03     100.305E-03
            5350            5498     101.499E-03     110.745E-03
            5350            5503     141.386E-03     132.004E-03
            5350            5504     132.840E-03     146.045E-03
            5351            5498     101.499E-03     110.745E-03
            5351            5499     113.971E-03     107.662E-03
            5351            5504     132.840E-03     146.045E-03
            5351            5505     154.255E-03     139.999E-03
            5352            5499     113.971E-03     107.662E-03
            5352            5500     110.408E-03     106.270E-03
            5352            5505     154.255E-03     139.999E-03
            5352            5506     151.058E-03     144.739E-03
            5353             555     126.833E-03     157.194E-03
            5353             556     93.1505E-03     109.517E-03
            5353            5500     110.408E-03     106.270E-03
            5353            5506     151.058E-03     144.739E-03
            5354             751     115.248E-03     131.148E-03
            5354             752     139.538E-03     163.007E-03
            5354            5501     114.319E-03     126.101E-03
            5354            5507     139.023E-03     156.297E-03
            5355            5501     114.319E-03     126.101E-03
            5355            5502     131.949E-03     128.004E-03
            5355            5507     139.023E-03     156.297E-03
            5355            5508     160.017E-03     158.110E-03
            5356            5502     131.949E-03     128.004E-03
            5356            5503     141.386E-03     132.004E-03
            5356            5508     160.017E-03     158.110E-03
            5356            5509     166.800E-03     157.415E-03
            5357            5503     141.386E-03     132.004E-03
            5357            5504     132.840E-03     146.045E-03
            5357            5509     166.800E-03     157.415E-03
            5357            5510     152.389E-03     174.141E-03
            5358            5504     132.840E-03     146.045E-03
            5358            5505     154.255E-03     139.999E-03
            5358            5510     152.389E-03     174.141E-03
            5358            5511     182.965E-03     169.123E-03
            5359            5505     154.255E-03     139.999E-03
            5359            5506     151.058E-03     144.739E-03
            5359            5511     182.965E-03     169.123E-03
            5359            5512     183.441E-03     180.713E-03
            5360             554     153.929E-03     200.847E-03
            5360             555     126.833E-03     157.194E-03
            5360            5506     151.058E-03     144.739E-03
            5360            5512     183.441E-03     180.713E-03
            5361             752     139.538E-03     163.007E-03
            5361             753     162.010E-03     182.474E-03
            5361            5507     139.023E-03     156.297E-03
            5361            5513     156.425E-03     169.613E-03
            5362            5507     139.023E-03     156.297E-03
            5362            5508     160.017E-03     158.110E-03
            5362            5513     156.425E-03     169.613E-03
            5362            5514     174.073E-03     170.563E-03
            5363            5508     160.017E-03     158.110E-03
            5363            5509     166.800E-03     157.415E-03
            5363            5514     174.073E-03     170.563E-03
            5363            5515     180.545E-03     171.366E-03
            5364            5509     166.800E-03     157.415E-03
            5364            5510     152.389E-03     174.141E-03
            5364            5515     180.545E-03     171.366E-03
            5364            5516     171.117E-03     190.063E-03
            5365            5510     152.389E-03     174.141E-03
            5365            5511     182.965E-03     169.123E-03
            5365            5516     171.117E-03     190.063E-03
            5365            5517     201.908E-03     190.452E-03
            5366            5511     182.965E-03     169.123E-03
            5366            5512     183.441E-03     180.713E-03
            5366            5517     201.908E-03     190.452E-03
            5366            5518     210.052E-03     207.309E-03
            5367             553     186.992E-03     228.948E-03
            5367             554     153.929E-03     200.847E-03
            5367            5512     183.441E-03     180.713E-03
            5367            5518     210.052E-03     207.309E-03
            5368              34     171.135E-03     181.925E-03
            5368             737     162.593E-03     166.884E-03
            5368             753     162.010E-03     182.474E-03
            5368            5513     156.425E-03     169.613E-03
            5369             737     162.593E-03     166.884E-03
            5369             738     173.611E-03     169.312E-03
            5369            5513     156.425E-03     169.613E-03
            5369            5514     174.073E-03     170.563E-03
            5370             738     173.611E-03     169.312E-03
            5370             739     183.600E-03     177.835E-03
            5370            5514     174.073E-03     170.563E-03
            5370            5515     180.545E-03     171.366E-03
            5371             739     183.600E-03     177.835E-03
            5371             740     186.473E-03     194.116E-03
            5371            5515     180.545E-03     171.366E-03
            5371            5516     171.117E-03     190.063E-03
            5372             740     186.473E-03     194.116E-03
            5372             741     204.248E-03     197.587E-03
            5372            5516     171.117E-03     190.063E-03
            5372            5517     201.908E-03     190.452E-03
            5373             741     204.248E-03     197.587E-03
            5373             742     213.839E-03     211.593E-03
            5373            5517     201.908E-03     190.452E-03
            5373            5518     210.052E-03     207.309E-03
            5374              27     205.716E-03     226.350E-03
            5374             553     186.992E-03     228.948E-03
            5374             742     213.839E-03     211.593E-03
            5374            5518     210.052E-03     207.309E-03
            5431              36     5.67083E-03     3.86388E-03
            5431             893     6.60577E-03     4.96770E-03
            5431             993     5.76675E-15     5.96842E-15
            5431            5561     8.35225E-15     9.43367E-15
            5432             892     6.89880E-03     5.25370E-03
            5432             893     6.60577E-03     4.96770E-03
            5432            5561     8.35225E-15     9.43367E-15
            5432            5562     15.1424E-15     17.0797E-15
            5433             891     6.68003E-03     5.17568E-03
            5433             892     6.89880E-03     5.25370E-03
            5433            5562     15.1424E-15     17.0797E-15
            5433            5563     18.1481E-15     19.4779E-15
            5434             890     6.58938E-03     5.15323E-03
            5434             891     6.68003E-03     5.17568E-03
            5434            5563     18.1481E-15     19.4779E-15
            5434            5564     14.2711E-15     15.3507E-15
            5435             889     6.41412E-03     5.04477E-03
            5435             890     6.58938E-03     5.15323E-03
            5435            5564     14.2711E-15     15.3507E-15
            5435            5565     9.57984E-15     11.8107E-15
            5436             888     6.28558E-03     4.99039E-03
            5436             889     6.41412E-03     5.04477E-03
            5436            5565     9.57984E-15     11.8107E-15
            5436            5566     8.31984E-15     10.3978E-15
            5437             887     6.13015E-03     4.90955E-03
            5437             888     6.28558E-03     4.99039E-03
            5437            5566     8.31984E-15     10.3978E-15
            5437            5567     7.64243E-15     9.11305E-15
            5438             886     5.99331E-03     4.85330E-03
            5438             887     6.13015E-03     4.90955E-03
            5438            5567     7.64243E-15     9.11305E-15
            5438            5568     8.66528E-15     10.1990E-15
            5439             885     5.84997E-03     4.79375E-03
            5439             886     5.99331E-03     4.85330E-03
            5439            5568     8.66528E-15     10.1990E-15
            5439            5569     11.5014E-15     13.5872E-15
            5440             884     5.71696E-03     4.75017E-03
            5440             885     5.84997E-03     4.79375E-03
            5440            5569     11.5014E-15     13.5872E-15
            5440            5570     9.19541E-15     10.3765E-15
            5441             883     5.58598E-03     4.71217E-03
            5441             884     5.71696E-03     4.75017E-03
            5441            5570     9.19541E-15     10.3765E-15
            5441            5571     8.56615E-15     6.89651E-15
            5442             882     5.46316E-03     4.68817E-03
            5442             883     5.58598E-03     4.71217E-03
            5442            5571     8.56615E-15     6.89651E-15
            5442            5572     9.37140E-15     9.93693E-15
            5443             881     5.34642E-03     4.67187E-03
            5443             882     5.46316E-03     4.68817E-03
            5443            5572     9.37140E-15     9.93693E-15
            5443            5573     9.83581E-15     10.3922E-15
            5444             880     5.23912E-03     4.66829E-03
            5444             881     5.34642E-03     4.67187E-03
            5444            5573     9.83581E-15     10.3922E-15
            5444            5574     15.1406E-15     10.0931E-15
            5445             879     5.12920E-03     4.68775E-03
            5445             880     5.23912E-03     4.66829E-03
            5445            5574     15.1406E-15     10.0931E-15
            5445            5575     15.3597E-15     13.7577E-15
            5446             878     5.05568E-03     4.67929E-03
            5446             879     5.12920E-03     4.68775E-03
            5446            5575     15.3597E-15     13.7577E-15
            5446            5576     8.80470E-15     10.9801E-15
            5447             877     4.93471E-03     4.69650E-03
            5447             878     5.05568E-03     4.67929E-03
            5447            5576     8.80470E-15     10.9801E-15
            5447            5577     13.2464E-15     13.6480E-15
            5448             876     4.56588E-03     4.93657E-03
            5448             877     4.93471E-03     4.69650E-03
            5448            5577     13.2464E-15     13.6480E-15
            5448            5578     21.6841E-15     18.1923E-15
            5449              37     4.30302E-03     5.13375E-03
            5449             876     4.56588E-03     4.93657E-03
            5449             941     21.1857E-15     18.5065E-15
            5449            5578     21.6841E-15     18.1923E-15
            5450             992     8.54089E-15     8.86219E-15
            5450             993     5.76675E-15     5.96842E-15
            5450            5561     8.35225E-15     9.43367E-15
            5450            5579     13.3599E-15     13.8799E-15
            5451            5561     8.35225E-15     9.43367E-15
            5451            5562     15.1424E-15     17.0797E-15
            5451            5579     13.3599E-15     13.8799E-15
            5451            5580     18.9224E-15     19.2304E-15
            5452            5562     15.1424E-15     17.0797E-15
            5452            5563     18.1481E-15     19.4779E-15
            5452            5580     18.9224E-15     19.2304E-15
            5452            5581     17.8505E-15     16.9592E-15
            5453            5563     18.1481E-15     19.4779E-15
            5453            5564     14.2711E-15     15.3507E-15
            5453            5581     17.8505E-15     16.9592E-15
            5453            5582     14.9959E-15     15.9090E-15
            5454            5564     14.2711E-15     15.3507E-15
            5454            5565     9.57984E-15     11.8107E-15
            5454            5582     14.9959E-15     15.9090E-15
            5454            5583     15.7998E-15     17.3643E-15
            5455            5565     9.57984E-15     11.8107E-15
            5455            5566     8.31984E-15     10.3978E-15
            5455            5583     15.7998E-15     17.3643E-15
            5455            5584     15.4226E-15     14.3922E-15
            5456            5566     8.31984E-15     10.3978E-15
            5456            5567     7.64243E-15     9.11305E-15
            5456            5584     15.4226E-15     14.3922E-15
            5456            5585     13.9950E-15     12.9853E-15
            5457            5567     7.64243E-15     9.11305E-15
            5457            5568     8.66528E-15     10.1990E-15
            5457            5585     13.9950E-15     12.9853E-15
            5457            5586     10.5975E-15     11.2644E-15
            5458            5568     8.66528E-15     10.1990E-15
            5458            5569     11.5014E-15     13.5872E-15
            5458            5586     10.5975E-15     11.2644E-15
            5458            5587     10.1401E-15     11.5397E-15
            5459            5569     11.5014E-15     13.5872E-15
            5459            5570     9.19541E-15     10.3765E-15
            5459            5587     10.1401E-15     11.5397E-15
            5459            5588     11.7496E-15     13.8730E-15
            5460            5570     9.19541E-15     10.3765E-15
            5460            5571     8.56615E-15     6.89651E-15
            5460            5588     11.7496E-15     13.8730E-15
            5460            5589     12.5567E-15     14.1912E-15
            5461            5571     8.56615E-15     6.89651E-15
            5461            5572     9.37140E-15     9.93693E-15
            5461            5589     12.5567E-15     14.1912E-15
            5461            5590     10.2259E-15     13.0718E-15
            5462            5572     9.37140E-15     9.93693E-15
            5462            5573     9.83581E-15     10.3922E-15
            5462            5590     10.2259E-15     13.0718E-15
            5462            5591     7.12169E-15     9.27223E-15
            5463            5573     9.83581E-15     10.3922E-15
            5463            5574     15.1406E-15     10.0931E-15
            5463            5591     7.12169E-15     9.27223E-15
            5463            5592     10.9370E-15     9.74792E-15
            5464            5574     15.1406E-15     10.0931E-15
            5464            5575     15.3597E-15     13.7577E-15
            5464            5592     10.9370E-15     9.74792E-15
            5464            5593     11.3084E-15     13.4070E-15
            5465            5575     15.3597E-15     13.7577E-15
            5465            5576     8.80470E-15     10.9801E-15
            5465            5593     11.3084E-15     13.4070E-15
            5465            5594     9.26095E-15     13.2274E-15
            5466            5576     8.80470E-15     10.9801E-15
            5466            5577     13.2464E-15     13.6480E-15
            5466            5594     9.26095E-15     13.2274E-15
            5466            5595     9.46509E-15     12.2511E-15
            5467            5577     13.2464E-15     13.6480E-15
            5467            5578     21.6841E-15     18.1923E-15
            5467            5595     9.46509E-15     12.2511E-15
            5467            5596     16.3945E-15     18.7715E-15
            5468             940     16.6766E-15     18.4384E-15
            5468             941     21.1857E-15     18.5065E-15
            5468            5578     21.6841E-15     18.1923E-15
            5468            5596     16.3945E-15     18.7715E-15
            5469             991     11.4300E-15     11.2903E-15
            5469             992     8.54089E-15     8.86219E-15
            5469            5579     13.3599E-15     13.8799E-15
            5469            5597     14.6173E-15     14.9094E-15
            5470            5579     13.3599E-15     13.8799E-15
            5470            5580     18.9224E-15     19.2304E-15
            5470            5597     14.6173E-15     14.9094E-15
            5470            5598     14.0199E-15     14.1279E-15
            5471            5580     18.9224E-15     19.2304E-15
            5471            5581     17.8505E-15     16.9592E-15
            5471            5598     14.0199E-15     14.1279E-15
            5471            5599     12.6752E-15     12.0525E-15
            5472            5581     17.8505E-15     16.9592E-15
            5472            5582     14.9959E-15     15.9090E-15
            5472            5599     12.6752E-15     12.0525E-15
            5472            5600     12.1758E-15     13.6011E-15
            5473            5582     14.9959E-15     15.9090E-15
            5473            5583     15.7998E-15     17.3643E-15
            5473            5600     12.1758E-15     13.6011E-15
            5473            5601     16.3646E-15     17.9547E-15
            5474            5583     15.7998E-15     17.3643E-15
            5474            5584     15.4226E-15     14.3922E-15
            5474            5601     16.3646E-15     17.9547E-15
            5474            5602     16.8281E-15     16.8097E-15
            5475            5584     15.4226E-15     14.3922E-15
            5475            5585     13.9950E-15     12.9853E-15
            5475            5602     16.8281E-15     16.8097E-15
            5475            5603     13.8526E-15     13.9398E-15
            5476            5585     13.9950E-15     12.9853E-15
            5476            5586     10.5975E-15     11.2644E-15
            5476            5603     13.8526E-15     13.9398E-15
            5476            5604     11.4038E-15     13.5551E-15
            5477            5586     10.5975E-15     11.2644E-15
            5477            5587     10.1401E-15     11.5397E-15
            5477            5604     11.4038E-15     13.5551E-15
            5477            5605     16.3500E-15     18.6906E-15
            5478            5587     10.1401E-15     11.5397E-15
            5478            5588     11.7496E-15     13.8730E-15
            5478            5605     16.3500E-15     18.6906E-15
            5478            5606     18.5081E-15     18.3577E-15
            5479            5588     11.7496E-15     13.8730E-15
            5479            5589     12.5567E-15     14.1912E-15
            5479            5606     18.5081E-15     18.3577E-15
            5479            5607     16.5594E-15     17.2238E-15
            5480            5589     12.5567E-15     14.1912E-15
            5480            5590     10.2259E-15     13.0718E-15
            5480            5607     16.5594E-15     17.2238E-15
            5480            5608     15.3702E-15     17.6904E-15
            5481            5590     10.2259E-15     13.0718E-15
            5481            5591     7.12169E-15     9.27223E-15
            5481            5608     15.3702E-15     17.6904E-15
            5481            5609     10.0111E-15     11.9661E-15
            5482            5591     7.12169E-15     9.27223E-15
            5482            5592     10.9370E-15     9.74792E-15
            5482            5609     10.0111E-15     11.9661E-15
            5482            5610     10.7058E-15     11.4509E-15
            5483            5592     10.9370E-15     9.74792E-15
            5483            5593     11.3084E-15     13.4070E-15
            5483            5610     10.7058E-15     11.4509E-15
            5483            5611     9.88446E-15     10.2806E-15
            5484            5593     11.3084E-15     13.4070E-15
            5484            5594     9.26095E-15     13.2274E-15
            5484            5611     9.88446E-15     10.2806E-15
            5484            5612     10.9535E-15     10.8801E-15
            5485            5594     9.26095E-15     13.2274E-15
            5485            5595     9.46509E-15     12.2511E-15
            5485            5612     10.9535E-15     10.8801E-15
            5485            5613     9.95770E-15     9.82451E-15
            5486            5595     9.46509E-15     12.2511E-15
            5486            5596     16.3945E-15     18.7715E-15
            5486            5613     9.95770E-15     9.82451E-15
            5486            5614     18.5367E-15     20.7714E-15
            5487             939     19.7321E-15     22.9116E-15
            5487             940     16.6766E-15     18.4384E-15
            5487            5596     16.3945E-15     18.7715E-15
            5487            5614     18.5367E-15     20.7714E-15
            5488             990     11.2779E-15     11.0129E-15
            5488             991     11.4300E-15     11.2903E-15
            5488            5597     14.6173E-15     14.9094E-15
            5488            5615     9.80780E-15     10.3150E-15
            5489            5597     14.6173E-15     14.9094E-15
            5489            5598     14.0199E-15     14.1279E-15
            5489            5615     9.80780E-15     10.3150E-15
            5489            5616     10.7998E-15     11.1963E-15
            5490            5598     14.0199E-15     14.1279E-15
            5490            5599     12.6752E-15     12.0525E-15
            5490            5616     10.7998E-15     11.1963E-15
            5490            5617     14.6846E-15     15.0841E-15
            5491            5599     12.6752E-15     12.0525E-15
            5491            5600     12.1758E-15     13.6011E-15
            5491            5617     14.6846E-15     15.0841E-15
            5491            5618     12.8314E-15     13.6778E-15
            5492            5600     12.1758E-15     13.6011E-15
            5492            5601     16.3646E-15     17.9547E-15
            5492            5618     12.8314E-15     13.6778E-15
            5492            5619     14.4960E-15     15.7786E-15
            5493            5601     16.3646E-15     17.9547E-15
            5493            5602     16.8281E-15     16.8097E-15
            5493            5619     14.4960E-15     15.7786E-15
            5493            5620     14.4256E-15     15.8140E-15
            5494            5602     16.8281E-15     16.8097E-15
            5494            5603     13.8526E-15     13.9398E-15
            5494            5620     14.4256E-15     15.8140E-15
            5494            5621     12.4576E-15     11.4021E-15
            5495            5603     13.8526E-15     13.9398E-15
            5495            5604     11.4038E-15     13.5551E-15
            5495            5621     12.4576E-15     11.4021E-15
            5495            5622     9.04821E-15     8.35184E-15
            5496            5604     11.4038E-15     13.5551E-15
            5496            5605     16.3500E-15     18.6906E-15
            5496            5622     9.04821E-15     8.35184E-15
            5496            5623     14.8153E-15     15.3798E-15
            5497            5605     16.3500E-15     18.6906E-15
            5497            5606     18.5081E-15     18.3577E-15
            5497            5623     14.8153E-15     15.3798E-15
            5497            5624     14.0425E-15     13.9295E-15
            5498            5606     18.5081E-15     18.3577E-15
            5498            5607     16.5594E-15     17.2238E-15
            5498            5624     14.0425E-15     13.9295E-15
            5498            5625     10.5343E-15     10.2546E-15
            5499            5607     16.5594E-15     17.2238E-15
            5499            5608     15.3702E-15     17.6904E-15
            5499            5625     10.5343E-15     10.2546E-15
            5499            5626     13.9176E-15     13.7318E-15
            5500            5608     15.3702E-15     17.6904E-15
            5500            5609     10.0111E-15     11.9661E-15
            5500            5626     13.9176E-15     13.7318E-15
            5500            5627     12.2692E-15     12.6208E-15
            5501            5609     10.0111E-15     11.9661E-15
            5501            5610     10.7058E-15     11.4509E-15
            5501            5627     12.2692E-15     12.6208E-15
            5501            5628     10.8802E-15     11.3918E-15
            5502            5610     10.7058E-15     11.4509E-15
            5502            5611     9.88446E-15     10.2806E-15
            5502            5628     10.8802E-15     11.3918E-15
            5502            5629     8.35731E-15     8.13443E-15
            5503            5611     9.88446E-15     10.2806E-15
            5503            5612     10.9535E-15     10.8801E-15
            5503            5629     8.35731E-15     8.13443E-15
            5503            5630     11.5143E-15     10.1664E-15
            5504            5612     10.9535E-15     10.8801E-15
            5504            5613     9.95770E-15     9.82451E-15
            5504            5630     11.5143E-15     10.1664E-15
            5504            5631     13.4821E-15     12.0470E-15
            5505            5613     9.95770E-15     9.82451E-15
            5505            5614     18.5367E-15     20.7714E-15
            5505            5631     13.4821E-15     12.0470E-15
            5505            5632     19.7524E-15     19.0282E-15
            5506             938     19.7456E-15     22.8006E-15
            5506             939     19.7321E-15     22.9116E-15
            5506            5614     18.5367E-15     20.7714E-15
            5506            5632     19.7524E-15     19.0282E-15
            5507             989     8.31670E-15     8.27889E-15
            5507             990     11.2779E-15     11.0129E-15
            5507            5615     9.80780E-15     10.3150E-15
            5507            5633     8.64852E-15     8.07561E-15
            5508            5615     9.80780E-15     10.3150E-15
            5508            5616     10.7998E-15     11.1963E-15
            5508            5633     8.64852E-15     8.07561E-15
            5508            5634     10.5106E-15     9.70303E-15
            5509            5616     10.7998E-15     11.1963E-15
            5509            5617     14.6846E-15     15.0841E-15
            5509            5634     10.5106E-15     9.70303E-15
            5509            5635     15.4282E-15     15.0835E-15
            5510            5617     14.6846E-15     15.0841E-15
            5510            5618     12.8314E-15     13.6778E-15
            5510            5635     15.4282E-15     15.0835E-15
            5510            5636     15.1005E-15     14.7895E-15
            5511            5618     12.8314E-15     13.6778E-15
            5511            5619     14.4960E-15     15.7786E-15
            5511            5636     15.1005E-15     14.7895E-15
            5511            5637     13.3957E-15     13.3240E-15
            5512            5619     14.4960E-15     15.7786E-15
            5512            5620     14.4256E-15     15.8140E-15
            5512            5637     13.3957E-15     13.3240E-15
            5512            5638     13.4647E-15     13.8545E-15
            5513            5620     14.4256E-15     15.8140E-15
            5513            5621     12.4576E-15     11.4021E-15
            5513            5638     13.4647E-15     13.8545E-15
            5513            5639     12.1630E-15     11.6787E-15
            5514            5621     12.4576E-15     11.4021E-15
            5514            5622     9.04821E-15     8.35184E-15
            5514            5639     12.1630E-15     11.6787E-15
            5514            5640     7.69722E-15     7.39525E-15
            5515            5622     9.04821E-15     8.35184E-15
            5515            5623     14.8153E-15     15.3798E-15
            5515            5640     7.69722E-15     7.39525E-15
            5515            5641     6.49090E-15     7.43904E-15
            5516            5623     14.8153E-15     15.3798E-15
            5516            5624     14.0425E-15     13.9295E-15
            5516            5641     6.49090E-15     7.43904E-15
            5516            5642     8.46284E-15     7.66313E-15
            5517            5624     14.0425E-15     13.9295E-15
            5517            5625     10.5343E-15     10.2546E-15
            5517            5642     8.46284E-15     7.66313E-15
            5517            5643     14.0085E-15     10.0631E-15
            5518            5625     10.5343E-15     10.2546E-15
            5518            5626     13.9176E-15     13.7318E-15
            5518            5643     14.0085E-15     10.0631E-15
            5518            5644     15.4193E-15     13.9443E-15
            5519            5626     13.9176E-15     13.7318E-15
            5519            5627     12.2692E-15     12.6208E-15
            5519            5644     15.4193E-15     13.9443E-15
            5519            5645     9.88916E-15     11.2487E-15
            5520            5627     12.2692E-15     12.6208E-15
            5520            5628     10.8802E-15     11.3918E-15
            5520            5645     9.88916E-15     11.2487E-15
            5520            5646     6.10057E-15     7.25717E-15
            5521            5628     10.8802E-15     11.3918E-15
            5521            5629     8.35731E-15     8.13443E-15
            5521            5646     6.10057E-15     7.25717E-15
            5521            5647     5.14742E-15     5.86712E-15
            5522            5629     8.35731E-15     8.13443E-15
            5522            5630     11.5143E-15     10.1664E-15
            5522            5647     5.14742E-15     5.86712E-15
            5522            5648     11.2729E-15     11.0186E-15
            5523            5630     11.5143E-15     10.1664E-15
            5523            5631     13.4821E-15     12.0470E-15
            5523            5648     11.2729E-15     11.0186E-15
            5523            5649     16.4810E-15     16.4150E-15
            5524            5631     13.4821E-15     12.0470E-15
            5524            5632     19.7524E-15     19.0282E-15
            5524            5649     16.4810E-15     16.4150E-15
            5524            5650     15.4718E-15     14.8974E-15
            5525             937     15.4788E-15     17.6803E-15
            5525             938     19.7456E-15     22.8006E-15
            5525            5632     19.7524E-15     19.0282E-15
            5525            5650     15.4718E-15     14.8974E-15
            5526             988     10.6331E-15     10.3124E-15
            5526             989     8.31670E-15     8.27889E-15
            5526            5633     8.64852E-15     8.07561E-15
            5526            5651     13.5880E-15     12.6677E-15
            5527            5633     8.64852E-15     8.07561E-15
            5527            5634     10.5106E-15     9.70303E-15
            5527            5651     13.5880E-15     12.6677E-15
            5527            5652     12.9813E-15     12.3724E-15
            5528            5634     10.5106E-15     9.70303E-15
            5528            5635     15.4282E-15     15.0835E-15
            5528            5652     12.9813E-15     12.3724E-15
            5528            5653     12.8033E-15     11.4028E-15
            5529            5635     15.4282E-15     15.0835E-15
            5529            5636     15.1005E-15     14.7895E-15
            5529            5653     12.8033E-15     11.4028E-15
            5529            5654     15.3311E-15     12.9339E-15
            5530            5636     15.1005E-15     14.7895E-15
            5530            5637     13.3957E-15     13.3240E-15
            5530            5654     15.3311E-15     12.9339E-15
            5530            5655     13.6766E-15     11.2046E-15
            5531            5637     13.3957E-15     13.3240E-15
            5531            5638     13.4647E-15     13.8545E-15
            5531            5655     13.6766E-15     11.2046E-15
            5531            5656     14.0621E-15     13.2663E-15
            5532            5638     13.4647E-15     13.8545E-15
            5532            5639     12.1630E-15     11.6787E-15
            5532            5656     14.0621E-15     13.2663E-15
            5532            5657     11.7719E-15     13.1109E-15
            5533            5639     12.1630E-15     11.6787E-15
            5533            5640     7.69722E-15     7.39525E-15
            5533            5657     11.7719E-15     13.1109E-15
            5533            5658     6.42940E-15     7.31631E-15
            5534            5640     7.69722E-15     7.39525E-15
            5534            5641     6.49090E-15     7.43904E-15
            5534            5658     6.42940E-15     7.31631E-15
            5534            5659     4.89390E-15     6.15253E-15
            5535            5641     6.49090E-15     7.43904E-15
            5535            5642     8.46284E-15     7.66313E-15
            5535            5659     4.89390E-15     6.15253E-15
            5535            5660     5.97583E-15     7.06649E-15
            5536            5642     8.46284E-15     7.66313E-15
            5536            5643     14.0085E-15     10.0631E-15
            5536            5660     5.97583E-15     7.06649E-15
            5536            5661     16.9539E-15     13.9366E-15
            5537            5643     14.0085E-15     10.0631E-15
            5537            5644     15.4193E-15     13.9443E-15
            5537            5661     16.9539E-15     13.9366E-15
            5537            5662     19.4443E-15     16.0464E-15
            5538            5644     15.4193E-15     13.9443E-15
            5538            5645     9.88916E-15     11.2487E-15
            5538            5662     19.4443E-15     16.0464E-15
            5538            5663     13.0411E-15     15.1740E-15
            5539            5645     9.88916E-15     11.2487E-15
            5539            5646     6.10057E-15     7.25717E-15
            5539            5663     13.0411E-15     15.1740E-15
            5539            5664     9.11614E-15     14.5399E-15
            5540            5646     6.10057E-15     7.25717E-15
            5540            5647     5.14742E-15     5.86712E-15
            5540            5664     9.11614E-15     14.5399E-15
            5540            5665     5.79678E-15     7.09496E-15
            5541            5647     5.14742E-15     5.86712E-15
            5541            5648     11.2729E-15     11.0186E-15
            5541            5665     5.79678E-15     7.09496E-15
            5541            5666     9.17987E-15     6.98825E-15
            5542            5648     11.2729E-15     11.0186E-15
            5542            5649     16.4810E-15     16.4150E-15
            5542            5666     9.17987E-15     6.98825E-15
            5542            5667     15.8315E-15     13.4697E-15
            5543            5649     16.4810E-15     16.4150E-15
            5543            5650     15.4718E-15     14.8974E-15
            5543            5667     15.8315E-15     13.4697E-15
            5543            5668     17.7517E-15     15.4897E-15
            5544             936     19.6295E-15     19.1058E-15
            5544             937     15.4788E-15     17.6803E-15
            5544            5650     15.4718E-15     14.8974E-15
            5544            5668     17.7517E-15     15.4897E-15
            5545              42     12.3991E-15     11.5616E-15
            5545             987     17.4640E-15     16.9386E-15
            5545             988     10.6331E-15     10.3124E-15
            5545            5651     13.5880E-15     12.6677E-15
            5546             986     15.4795E-15     16.3531E-15
            5546             987     17.4640E-15     16.9386E-15
            5546            5651     13.5880E-15     12.6677E-15
            5546            5652     12.9813E-15     12.3724E-15
            5547             985     10.6705E-15     9.66334E-15
            5547             986     15.4795E-15     16.3531E-15
            5547            5652     12.9813E-15     12.3724E-15
            5547            5653     12.8033E-15     11.4028E-15
            5548             984     16.6328E-15     12.8461E-15
            5548             985     10.6705E-15     9.66334E-15
            5548            5653     12.8033E-15     11.4028E-15
            5548            5654     15.3311E-15     12.9339E-15
            5549             983     17.1850E-15     12.9978E-15
            5549             984     16.6328E-15     12.8461E-15
            5549            5654     15.3311E-15     12.9339E-15
            5549            5655     13.6766E-15     11.2046E-15
            5550             982     18.1426E-15     16.7366E-15
            5550             983     17.1850E-15     12.9978E-15
            5550            5655     13.6766E-15     11.2046E-15
            5550            5656     14.0621E-15     13.2663E-15
            5551             981     14.4328E-15     15.5363E-15
            5551             982     18.1426E-15     16.7366E-15
            5551            5656     14.0621E-15     13.2663E-15
            5551            5657     11.7719E-15     13.1109E-15
            5552             980     5.58116E-15     5.58997E-15
            5552             981     14.4328E-15     15.5363E-15
            5552            5657     11.7719E-15     13.1109E-15
            5552            5658     6.42940E-15     7.31631E-15
            5553             979     5.68460E-15     6.04811E-15
            5553             980     5.58116E-15     5.58997E-15
            5553            5658     6.42940E-15     7.31631E-15
            5553            5659     4.89390E-15     6.15253E-15
            5554             978     4.36561E-15     8.55103E-15
            5554             979     5.68460E-15     6.04811E-15
            5554            5659     4.89390E-15     6.15253E-15
            5554            5660     5.97583E-15     7.06649E-15
            5555             977     14.6871E-15     15.0769E-15
            5555             978     4.36561E-15     8.55103E-15
            5555            5660     5.97583E-15     7.06649E-15
            5555            5661     16.9539E-15     13.9366E-15
            5556             976     17.8625E-15     11.9779E-15
            5556             977     14.6871E-15     15.0769E-15
            5556            5661     16.9539E-15     13.9366E-15
            5556            5662     19.4443E-15     16.0464E-15
            5557             975     14.7770E-15     15.1223E-15
            5557             976     17.8625E-15     11.9779E-15
            5557            5662     19.4443E-15     16.0464E-15
            5557            5663     13.0411E-15     15.1740E-15
            5558             974     12.9157E-15     20.3250E-15
            5558             975     14.7770E-15     15.1223E-15
            5558            5663     13.0411E-15     15.1740E-15
            5558            5664     9.11614E-15     14.5399E-15
            5559             973     6.81986E-15     8.21743E-15
            5559             974     12.9157E-15     20.3250E-15
            5559            5664     9.11614E-15     14.5399E-15
            5559            5665     5.79678E-15     7.09496E-15
            5560             972     7.91834E-15     4.34544E-15
            5560             973     6.81986E-15     8.21743E-15
            5560            5665     5.79678E-15     7.09496E-15
            5560            5666     9.17987E-15     6.98825E-15
            5561             971     14.9148E-15     9.23193E-15
            5561             972     7.91834E-15     4.34544E-15
            5561            5666     9.17987E-15     6.98825E-15
            5561            5667     15.8315E-15     13.4697E-15
            5562             970     23.3021E-15     16.3439E-15
            5562             971     14.9148E-15     9.23193E-15
            5562            5667     15.8315E-15     13.4697E-15
            5562            5668     17.7517E-15     15.4897E-15
            5563              40     24.8354E-15     21.4583E-15
            5563             936     19.6295E-15     19.1058E-15
            5563             970     23.3021E-15     16.3439E-15
            5563            5668     17.7517E-15     15.4897E-15
            5564              33     4.91926E-03     7.34633E-03
            5564             714     8.04166E-03     10.4992E-03
            5564             842     4.92071E-03     8.89782E-03
            5564            5669     7.74960E-03     11.2100E-03
            5565             713     14.5196E-03     17.2663E-03
            5565             714     8.04166E-03     10.4992E-03
            5565            5669     7.74960E-03     11.2100E-03
            5565            5670     13.6466E-03     16.8988E-03
            5566             712     21.3917E-03     24.5565E-03
            5566             713     14.5196E-03     17.2663E-03
            5566            5670     13.6466E-03     16.8988E-03
            5566            5671     19.9685E-03     23.7685E-03
            5567             711     28.4882E-03     31.9268E-03
            5567             712     21.3917E-03     24.5565E-03
            5567            5671     19.9685E-03     23.7685E-03
            5567            5672     26.5538E-03     30.7456E-03
            5568             710     35.6880E-03     39.2949E-03
            5568             711     28.4882E-03     31.9268E-03
            5568            5672     26.5538E-03     30.7456E-03
            5568            5673     33.2682E-03     37.7172E-03
            5569             709     42.9494E-03     46.6459E-03
            5569             710     35.6880E-03     39.2949E-03
            5569            5673     33.2682E-03     37.7172E-03
            5569            5674     40.0479E-03     44.6545E-03
            5570             708     50.2316E-03     53.9776E-03
            5570             709     42.9494E-03     46.6459E-03
            5570            5674     40.0479E-03     44.6545E-03
            5570            5675     46.8639E-03     51.5483E-03
            5571             707     57.5267E-03     61.2842E-03
            5571             708     50.2316E-03     53.9776E-03
            5571            5675     46.8639E-03     51.5483E-03
            5571            5676     53.6876E-03     58.4028E-03
            5572             706     64.8143E-03     68.5705E-03
            5572             707     57.5267E-03     61.2842E-03
            5572            5676     53.6876E-03     58.4028E-03
            5572            5677     60.5067E-03     65.2181E-03
            5573             705     72.1008E-03     75.8292E-03
            5573             706     64.8143E-03     68.5705E-03
            5573            5677     60.5067E-03     65.2181E-03
            5573            5678     67.3137E-03     71.9930E-03
            5574             704     79.3726E-03     83.0708E-03
            5574             705     72.1008E-03     75.8292E-03
            5574            5678     67.3137E-03     71.9930E-03
            5574            5679     74.1168E-03     78.7422E-03
            5575             703     86.6602E-03     90.2896E-03
            5575             704     79.3726E-03     83.0708E-03
            5575            5679     74.1168E-03     78.7422E-03
            5575            5680     80.9259E-03     85.4663E-03
            5576             702     93.9522E-03     97.5147E-03
            5576             703     86.6602E-03     90.2896E-03
            5576            5680     80.9259E-03     85.4663E-03
            5576            5681     87.7989E-03     92.2231E-03
            5577             701     101.331E-03     104.758E-03
            5577             702     93.9522E-03     97.5147E-03
            5577            5681     87.7989E-03     92.2231E-03
            5577            5682     94.7737E-03     99.0452E-03
            5578             700     108.787E-03     112.102E-03
            5578             701     101.331E-03     104.758E-03
            5578            5682     94.7737E-03     99.0452E-03
            5578            5683     102.042E-03     106.116E-03
            5579             699     116.528E-03     119.630E-03
            5579             700     108.787E-03     112.102E-03
            5579            5683     102.042E-03     106.116E-03
            5579            5684     109.701E-03     113.581E-03
            5580             698     124.551E-03     127.567E-03
            5580             699     116.528E-03     119.630E-03
            5580            5684     109.701E-03     113.581E-03
            5580            5685     118.357E-03     122.023E-03
            5581             697     133.449E-03     136.346E-03
            5581             698     124.551E-03     127.567E-03
            5581            5685     118.357E-03     122.023E-03
            5581            5686     128.270E-03     131.908E-03
            5582              32     143.340E-03     146.610E-03
            5582             697     133.449E-03     136.346E-03
            5582             994     141.936E-03     145.727E-03
            5582            5686     128.270E-03     131.908E-03
            5583             842     4.92071E-03     8.89782E-03
            5583             843     2.71892E-03     6.79085E-03
            5583            5669     7.74960E-03     11.2100E-03
            5583            5687     5.90063E-03     9.87815E-03
            5584            5669     7.74960E-03     11.2100E-03
            5584            5670     13.6466E-03     16.8988E-03
            5584            5687     5.90063E-03     9.87815E-03
            5584            5688     12.6294E-03     16.3252E-03
            5585            5670     13.6466E-03     16.8988E-03
            5585            5671     19.9685E-03     23.7685E-03
            5585            5688     12.6294E-03     16.3252E-03
            5585            5689     19.6609E-03     23.2461E-03
            5586            5671     19.9685E-03     23.7685E-03
            5586            5672     26.5538E-03     30.7456E-03
            5586            5689     19.6609E-03     23.2461E-03
            5586            5690     26.6318E-03     30.3820E-03
            5587            5672     26.5538E-03     30.7456E-03
            5587            5673     33.2682E-03     37.7172E-03
            5587            5690     26.6318E-03     30.3820E-03
            5587            5691     33.6208E-03     37.5038E-03
            5588            5673     33.2682E-03     37.7172E-03
            5588            5674     40.0479E-03     44.6545E-03
            5588            5691     33.6208E-03     37.5038E-03
            5588            5692     40.6351E-03     44.5994E-03
            5589            5674     40.0479E-03     44.6545E-03
            5589            5675     46.8639E-03     51.5483E-03
            5589            5692     40.6351E-03     44.5994E-03
            5589            5693     47.6558E-03     51.6733E-03
            5590            5675     46.8639E-03     51.5483E-03
            5590            5676     53.6876E-03     58.4028E-03
            5590            5693     47.6558E-03     51.6733E-03
            5590            5694     54.6822E-03     58.7235E-03
            5591            5676     53.6876E-03     58.4028E-03
            5591            5677     60.5067E-03     65.2181E-03
            5591            5694     54.6822E-03     58.7235E-03
            5591            5695     61.7065E-03     65.7553E-03
            5592            5677     60.5067E-03     65.2181E-03
            5592            5678     67.3137E-03     71.9930E-03
            5592            5695     61.7065E-03     65.7553E-03
            5592            5696     68.7326E-03     72.7775E-03
            5593            5678     67.3137E-03     71.9930E-03
            5593            5679     74.1168E-03     78.7422E-03
            5593            5696     68.7326E-03     72.7775E-03
            5593            5697     75.7628E-03     79.7958E-03
            5594            5679     74.1168E-03     78.7422E-03
            5594            5680     80.9259E-03     85.4663E-03
            5594            5697     75.7628E-03     79.7958E-03
            5594            5698     82.8272E-03     86.8397E-03
            5595            5680     80.9259E-03     85.4663E-03
            5595            5681     87.7989E-03     92.2231E-03
            5595            5698     82.8272E-03     86.8397E-03
            5595            5699     89.9466E-03     93.9425E-03
            5596            5681     87.7989E-03     92.2231E-03
            5596            5682     94.7737E-03     99.0452E-03
            5596            5699     89.9466E-03     93.9425E-03
            5596            5700     97.2273E-03     101.189E-03
            5597            5682     94.7737E-03     99.0452E-03
            5597            5683     102.042E-03     106.116E-03
            5597            5700     97.2273E-03     101.189E-03
            5597            5701     104.750E-03     108.708E-03
            5598            5683     102.042E-03     106.116E-03
            5598            5684     109.701E-03     113.581E-03
            5598            5701     104.750E-03     108.708E-03
            5598            5702     112.832E-03     116.726E-03
            5599            5684     109.701E-03     113.581E-03
            5599            5685     118.357E-03     122.023E-03
            5599            5702     112.832E-03     116.726E-03
            5599            5703     121.798E-03     125.678E-03
            5600            5685     118.357E-03     122.023E-03
            5600            5686     128.270E-03     131.908E-03
            5600            5703     121.798E-03     125.678E-03
            5600            5704     132.420E-03     136.103E-03
            5601             994     141.936E-03     145.727E-03
            5601             995     147.174E-03     149.761E-03
            5601            5686     128.270E-03     131.908E-03
            5601            5704     132.420E-03     136.103E-03
            5602             843     2.71892E-03     6.79085E-03
            5602             844     4.36392E-03     6.05472E-03
            5602            5687     5.90063E-03     9.87815E-03
            5602            5705     7.01140E-03     9.64543E-03
            5603            5687     5.90063E-03     9.87815E-03
            5603            5688     12.6294E-03     16.3252E-03
            5603            5705     7.01140E-03     9.64543E-03
            5603            5706     13.1445E-03     16.6083E-03
            5604            5688     12.6294E-03     16.3252E-03
            5604            5689     19.6609E-03     23.2461E-03
            5604            5706     13.1445E-03     16.6083E-03
            5604            5707     20.1669E-03     23.5047E-03
            5605            5689     19.6609E-03     23.2461E-03
            5605            5690     26.6318E-03     30.3820E-03
            5605            5707     20.1669E-03     23.5047E-03
            5605            5708     27.2429E-03     30.5814E-03
            5606            5690     26.6318E-03     30.3820E-03
            5606            5691     33.6208E-03     37.5038E-03
            5606            5708     27.2429E-03     30.5814E-03
            5606            5709     34.3452E-03     37.7064E-03
            5607            5691     33.6208E-03     37.5038E-03
            5607            5692     40.6351E-03     44.5994E-03
            5607            5709     34.3452E-03     37.7064E-03
            5607            5710     41.4733E-03     44.8515E-03
            5608            5692     40.6351E-03     44.5994E-03
            5608            5693     47.6558E-03     51.6733E-03
            5608            5710     41.4733E-03     44.8515E-03
            5608            5711     48.6159E-03     52.0050E-03
            5609            5693     47.6558E-03     51.6733E-03
            5609            5694     54.6822E-03     58.7235E-03
            5609            5711     48.6159E-03     52.0050E-03
            5609            5712     55.7714E-03     59.1703E-03
            5610            5694     54.6822E-03     58.7235E-03
            5610            5695     61.7065E-03     65.7553E-03
            5610            5712     55.7714E-03     59.1703E-03
            5610            5713     62.9388E-03     66.3524E-03
            5611            5695     61.7065E-03     65.7553E-03
            5611            5696     68.7326E-03     72.7775E-03
            5611            5713     62.9388E-03     66.3524E-03
            5611            5714     70.1215E-03     73.5546E-03
            5612            5696     68.7326E-03     72.7775E-03
            5612            5697     75.7628E-03     79.7958E-03
            5612            5714     70.1215E-03     73.5546E-03
            5612            5715     77.3331E-03     80.7926E-03
            5613            5697     75.7628E-03     79.7958E-03
            5613            5698     82.8272E-03     86.8397E-03
            5613            5715     77.3331E-03     80.7926E-03
            5613            5716     84.5875E-03     88.0905E-03
            5614            5698     82.8272E-03     86.8397E-03
            5614            5699     89.9466E-03     93.9425E-03
            5614            5716     84.5875E-03     88.0905E-03
            5614            5717     91.9296E-03     95.4854E-03
            5615            5699     89.9466E-03     93.9425E-03
            5615            5700     97.2273E-03     101.189E-03
            5615            5717     91.9296E-03     95.4854E-03
            5615            5718     99.4180E-03     103.058E-03
            5616            5700     97.2273E-03     101.189E-03
            5616            5701     104.750E-03     108.708E-03
            5616            5718     99.4180E-03     103.058E-03
            5616            5719     107.174E-03     110.891E-03
            5617            5701     104.750E-03     108.708E-03
            5617            5702     112.832E-03     116.726E-03
            5617            5719     107.174E-03     110.891E-03
            5617            5720     115.432E-03     119.217E-03
            5618            5702     112.832E-03     116.726E-03
            5618            5703     121.798E-03     125.678E-03
            5618            5720     115.432E-03     119.217E-03
            5618            5721     124.406E-03     128.176E-03
            5619            5703     121.798E-03     125.678E-03
            5619            5704     132.420E-03     136.103E-03
            5619            5721     124.406E-03     128.176E-03
            5619            5722     135.137E-03     138.404E-03
            5620             995     147.174E-03     149.761E-03
            5620             996     146.876E-03     149.603E-03
            5620            5704     132.420E-03     136.103E-03
            5620            5722     135.137E-03     138.404E-03
            5621             844     4.36392E-03     6.05472E-03
            5621             845     7.71982E-03     8.63442E-03
            5621            5705     7.01140E-03     9.64543E-03
            5621            5723     9.81047E-03     11.4082E-03
            5622            5705     7.01140E-03     9.64543E-03
            5622            5706     13.1445E-03     16.6083E-03
            5622            5723     9.81047E-03     11.4082E-03
            5622            5724     14.9347E-03     17.6002E-03
            5623            5706     13.1445E-03     16.6083E-03
            5623            5707     20.1669E-03     23.5047E-03
            5623            5724     14.9347E-03     17.6002E-03
            5623            5725     21.3676E-03     24.3745E-03
            5624            5707     20.1669E-03     23.5047E-03
            5624            5708     27.2429E-03     30.5814E-03
            5624            5725     21.3676E-03     24.3745E-03
            5624            5726     28.2857E-03     31.2146E-03
            5625            5708     27.2429E-03     30.5814E-03
            5625            5709     34.3452E-03     37.7064E-03
            5625            5726     28.2857E-03     31.2146E-03
            5625            5727     35.3467E-03     38.2202E-03
            5626            5709     34.3452E-03     37.7064E-03
            5626            5710     41.4733E-03     44.8515E-03
            5626            5727     35.3467E-03     38.2202E-03
            5626            5728     42.4712E-03     45.2914E-03
            5627            5710     41.4733E-03     44.8515E-03
            5627            5711     48.6159E-03     52.0050E-03
            5627            5728     42.4712E-03     45.2914E-03
            5627            5729     49.6455E-03     52.4271E-03
            5628            5711     48.6159E-03     52.0050E-03
            5628            5712     55.7714E-03     59.1703E-03
            5628            5729     49.6455E-03     52.4271E-03
            5628            5730     56.8451E-03     59.6228E-03
            5629            5712     55.7714E-03     59.1703E-03
            5629            5713     62.9388E-03     66.3524E-03
            5629            5730     56.8451E-03     59.6228E-03
            5629            5731     64.0767E-03     66.8675E-03
            5630            5713     62.9388E-03     66.3524E-03
            5630            5714     70.1215E-03     73.5546E-03
            5630            5731     64.0767E-03     66.8675E-03
            5630            5732     71.3435E-03     74.1682E-03
            5631            5714     70.1215E-03     73.5546E-03
            5631            5715     77.3331E-03     80.7926E-03
            5631            5732     71.3435E-03     74.1682E-03
            5631            5733     78.6561E-03     81.5357E-03
            5632            5715     77.3331E-03     80.7926E-03
            5632            5716     84.5875E-03     88.0905E-03
            5632            5733     78.6561E-03     81.5357E-03
            5632            5734     86.0285E-03     88.9864E-03
            5633            5716     84.5875E-03     88.0905E-03
            5633            5717     91.9296E-03     95.4854E-03
            5633            5734     86.0285E-03     88.9864E-03
            5633            5735     93.4956E-03     96.5636E-03
            5634            5717     91.9296E-03     95.4854E-03
            5634            5718     99.4180E-03     103.058E-03
            5634            5735     93.4956E-03     96.5636E-03
            5634            5736     101.081E-03     104.293E-03
            5635            5718     99.4180E-03     103.058E-03
            5635            5719     107.174E-03     110.891E-03
            5635            5736     101.081E-03     104.293E-03
            5635            5737     108.911E-03     112.269E-03
            5636            5719     107.174E-03     110.891E-03
            5636            5720     115.432E-03     119.217E-03
            5636            5737     108.911E-03     112.269E-03
            5636            5738     116.981E-03     120.512E-03
            5637            5720     115.432E-03     119.217E-03
            5637            5721     124.406E-03     128.176E-03
            5637            5738     116.981E-03     120.512E-03
            5637            5739     125.710E-03     129.162E-03
            5638            5721     124.406E-03     128.176E-03
            5638            5722     135.137E-03     138.404E-03
            5638            5739     125.710E-03     129.162E-03
            5638            5740     134.776E-03     138.105E-03
            5639             996     146.876E-03     149.603E-03
            5639             997     143.704E-03     146.848E-03
            5639            5722     135.137E-03     138.404E-03
            5639            5740     134.776E-03     138.105E-03
            5640             845     7.71982E-03     8.63442E-03
            5640             846     11.6362E-03     11.6318E-03
            5640            5723     9.81047E-03     11.4082E-03
            5640            5741     13.0876E-03     14.1432E-03
            5641            5723     9.81047E-03     11.4082E-03
            5641            5724     14.9347E-03     17.6002E-03
            5641            5741     13.0876E-03     14.1432E-03
            5641            5742     17.2465E-03     19.5255E-03
            5642            5724     14.9347E-03     17.6002E-03
            5642            5725     21.3676E-03     24.3745E-03
            5642            5742     17.2465E-03     19.5255E-03
            5642            5743     23.1318E-03     25.6554E-03
            5643            5725     21.3676E-03     24.3745E-03
            5643            5726     28.2857E-03     31.2146E-03
            5643            5743     23.1318E-03     25.6554E-03
            5643            5744     29.6855E-03     32.2298E-03
            5644            5726     28.2857E-03     31.2146E-03
            5644            5727     35.3467E-03     38.2202E-03
            5644            5744     29.6855E-03     32.2298E-03
            5644            5745     36.5592E-03     38.9430E-03
            5645            5727     35.3467E-03     38.2202E-03
            5645            5728     42.4712E-03     45.2914E-03
            5645            5745     36.5592E-03     38.9430E-03
            5645            5746     43.5887E-03     45.8331E-03
            5646            5728     42.4712E-03     45.2914E-03
            5646            5729     49.6455E-03     52.4271E-03
            5646            5746     43.5887E-03     45.8331E-03
            5646            5747     50.6812E-03     52.8632E-03
            5647            5729     49.6455E-03     52.4271E-03
            5647            5730     56.8451E-03     59.6228E-03
            5647            5747     50.6812E-03     52.8632E-03
            5647            5748     57.8325E-03     59.9892E-03
            5648            5730     56.8451E-03     59.6228E-03
            5648            5731     64.0767E-03     66.8675E-03
            5648            5748     57.8325E-03     59.9892E-03
            5648            5749     65.0330E-03     67.2026E-03
            5649            5731     64.0767E-03     66.8675E-03
            5649            5732     71.3435E-03     74.1682E-03
            5649            5749     65.0330E-03     67.2026E-03
            5649            5750     72.2889E-03     74.4951E-03
            5650            5732     71.3435E-03     74.1682E-03
            5650            5733     78.6561E-03     81.5357E-03
            5650            5750     72.2889E-03     74.4951E-03
            5650            5751     79.6016E-03     81.8709E-03
            5651            5733     78.6561E-03     81.5357E-03
            5651            5734     86.0285E-03     88.9864E-03
            5651            5751     79.6016E-03     81.8709E-03
            5651            5752     86.9886E-03     89.3483E-03
            5652            5734     86.0285E-03     88.9864E-03
            5652            5735     93.4956E-03     96.5636E-03
            5652            5752     86.9886E-03     89.3483E-03
            5652            5753     94.4402E-03     96.9328E-03
            5653            5735     93.4956E-03     96.5636E-03
            5653            5736     101.081E-03     104.293E-03
            5653            5753     94.4402E-03     96.9328E-03
            5653            5754     102.009E-03     104.658E-03
            5654            5736     101.081E-03     104.293E-03
            5654            5737     108.911E-03     112.269E-03
            5654            5754     102.009E-03     104.658E-03
            5654            5755     109.627E-03     112.508E-03
            5655            5737     108.911E-03     112.269E-03
            5655            5738     116.981E-03     120.512E-03
            5655            5755     109.627E-03     112.508E-03
            5655            5756     117.427E-03     120.462E-03
            5656            5738     116.981E-03     120.512E-03
            5656            5739     125.710E-03     129.162E-03
            5656            5756     117.427E-03     120.462E-03
            5656            5757     125.156E-03     128.403E-03
            5657            5739     125.710E-03     129.162E-03
            5657            5740     134.776E-03     138.105E-03
            5657            5757     125.156E-03     128.403E-03
            5657            5758     132.692E-03     135.953E-03
            5658             997     143.704E-03     146.848E-03
            5658             998     139.972E-03     142.669E-03
            5658            5740     134.776E-03     138.105E-03
            5658            5758     132.692E-03     135.953E-03
            5659             846     11.6362E-03     11.6318E-03
            5659             847     15.3448E-03     15.7722E-03
            5659            5741     13.0876E-03     14.1432E-03
            5659            5759     16.5098E-03     17.5031E-03
            5660            5741     13.0876E-03     14.1432E-03
            5660            5742     17.2465E-03     19.5255E-03
            5660            5759     16.5098E-03     17.5031E-03
            5660            5760     20.0014E-03     21.9301E-03
            5661            5742     17.2465E-03     19.5255E-03
            5661            5743     23.1318E-03     25.6554E-03
            5661            5760     20.0014E-03     21.9301E-03
            5661            5761     25.2339E-03     27.5333E-03
            5662            5743     23.1318E-03     25.6554E-03
            5662            5744     29.6855E-03     32.2298E-03
            5662            5761     25.2339E-03     27.5333E-03
            5662            5762     31.3849E-03     33.4986E-03
            5663            5744     29.6855E-03     32.2298E-03
            5663            5745     36.5592E-03     38.9430E-03
            5663            5762     31.3849E-03     33.4986E-03
            5663            5763     38.0029E-03     39.8203E-03
            5664            5745     36.5592E-03     38.9430E-03
            5664            5746     43.5887E-03     45.8331E-03
            5664            5763     38.0029E-03     39.8203E-03
            5664            5764     44.8029E-03     46.4518E-03
            5665            5746     43.5887E-03     45.8331E-03
            5665            5747     50.6812E-03     52.8632E-03
            5665            5764     44.8029E-03     46.4518E-03
            5665            5765     51.7127E-03     53.2750E-03
            5666            5747     50.6812E-03     52.8632E-03
            5666            5748     57.8325E-03     59.9892E-03
            5666            5765     51.7127E-03     53.2750E-03
            5666            5766     58.7044E-03     60.2410E-03
            5667            5748     57.8325E-03     59.9892E-03
            5667            5749     65.0330E-03     67.2026E-03
            5667            5766     58.7044E-03     60.2410E-03
            5667            5767     65.7679E-03     67.3112E-03
            5668            5749     65.0330E-03     67.2026E-03
            5668            5750     72.2889E-03     74.4951E-03
            5668            5767     65.7679E-03     67.3112E-03
            5668            5768     72.8975E-03     74.4723E-03
            5669            5750     72.2889E-03     74.4951E-03
            5669            5751     79.6016E-03     81.8709E-03
            5669            5768     72.8975E-03     74.4723E-03
            5669            5769     80.0969E-03     81.7215E-03
            5670            5751     79.6016E-03     81.8709E-03
            5670            5752     86.9886E-03     89.3483E-03
            5670            5769     80.0969E-03     81.7215E-03
            5670            5770     87.3502E-03     89.0549E-03
            5671            5752     86.9886E-03     89.3483E-03
            5671            5753     94.4402E-03     96.9328E-03
            5671            5770     87.3502E-03     89.0549E-03
            5671            5771     94.6723E-03     96.4797E-03
            5672            5753     94.4402E-03     96.9328E-03
            5672            5754     102.009E-03     104.658E-03
            5672            5771     94.6723E-03     96.4797E-03
            5672            5772     101.999E-03     103.975E-03
            5673            5754     102.009E-03     104.658E-03
            5673            5755     109.627E-03     112.508E-03
            5673            5772     101.999E-03     103.975E-03
            5673            5773     109.346E-03     111.503E-03
            5674            5755     109.627E-03     112.508E-03
            5674            5756     117.427E-03     120.462E-03
            5674            5773     109.346E-03     111.503E-03
            5674            5774     116.514E-03     118.966E-03
            5675            5756     117.427E-03     120.462E-03
            5675            5757     125.156E-03     128.403E-03
            5675            5774     116.514E-03     118.966E-03
            5675            5775     123.379E-03     126.084E-03
            5676            5757     125.156E-03     128.403E-03
            5676            5758     132.692E-03     135.953E-03
            5676            5775     123.379E-03     126.084E-03
            5676            5776     129.668E-03     132.518E-03
            5677             998     139.972E-03     142.669E-03
            5677             999     135.253E-03     138.025E-03
            5677            5758     132.692E-03     135.953E-03
            5677            5776     129.668E-03     132.518E-03
            5678             847     15.3448E-03     15.7722E-03
            5678             848     19.1113E-03     19.1749E-03
            5678            5759     16.5098E-03     17.5031E-03
            5678            5777     20.0989E-03     21.0308E-03
            5679            5759     16.5098E-03     17.5031E-03
            5679            5760     20.0014E-03     21.9301E-03
            5679            5777     20.0989E-03     21.0308E-03
            5679            5778     22.9792E-03     25.1432E-03
            5680            5760     20.0014E-03     21.9301E-03
            5680            5761     25.2339E-03     27.5333E-03
            5680            5778     22.9792E-03     25.1432E-03
            5680            5779     27.6177E-03     29.7689E-03
            5681            5761     25.2339E-03     27.5333E-03
            5681            5762     31.3849E-03     33.4986E-03
            5681            5779     27.6177E-03     29.7689E-03
            5681            5780     33.4420E-03     34.9678E-03
            5682            5762     31.3849E-03     33.4986E-03
            5682            5763     38.0029E-03     39.8203E-03
            5682            5780     33.4420E-03     34.9678E-03
            5682            5781     39.6921E-03     40.8691E-03
            5683            5763     38.0029E-03     39.8203E-03
            5683            5764     44.8029E-03     46.4518E-03
            5683            5781     39.6921E-03     40.8691E-03
            5683            5782     46.1486E-03     47.1627E-03
            5684            5764     44.8029E-03     46.4518E-03
            5684            5765     51.7127E-03     53.2750E-03
            5684            5782     46.1486E-03     47.1627E-03
            5684            5783     52.7634E-03     53.7042E-03
            5685            5765     51.7127E-03     53.2750E-03
            5685            5766     58.7044E-03     60.2410E-03
            5685            5783     52.7634E-03     53.7042E-03
            5685            5784     59.4847E-03     60.4071E-03
            5686            5766     58.7044E-03     60.2410E-03
            5686            5767     65.7679E-03     67.3112E-03
            5686            5784     59.4847E-03     60.4071E-03
            5686            5785     66.2961E-03     67.2212E-03
            5687            5767     65.7679E-03     67.3112E-03
            5687            5768     72.8975E-03     74.4723E-03
            5687            5785     66.2961E-03     67.2212E-03
            5687            5786     73.1825E-03     74.1209E-03
            5688            5768     72.8975E-03     74.4723E-03
            5688            5769     80.0969E-03     81.7215E-03
            5688            5786     73.1825E-03     74.1209E-03
            5688            5787     80.1246E-03     81.0885E-03
            5689            5769     80.0969E-03     81.7215E-03
            5689            5770     87.3502E-03     89.0549E-03
            5689            5787     80.1246E-03     81.0885E-03
            5689            5788     87.1177E-03     88.1121E-03
            5690            5770     87.3502E-03     89.0549E-03
            5690            5771     94.6723E-03     96.4797E-03
            5690            5788     87.1177E-03     88.1121E-03
            5690            5789     94.1154E-03     95.1717E-03
            5691            5771     94.6723E-03     96.4797E-03
            5691            5772     101.999E-03     103.975E-03
            5691            5789     94.1154E-03     95.1717E-03
            5691            5790     101.097E-03     102.233E-03
            5692            5772     101.999E-03     103.975E-03
            5692            5773     109.346E-03     111.503E-03
            5692            5790     101.097E-03     102.233E-03
            5692            5791     107.940E-03     109.229E-03
            5693            5773     109.346E-03     111.503E-03
            5693            5774     116.514E-03     118.966E-03
            5693            5791     107.940E-03     109.229E-03
            5693            5792     114.513E-03     116.015E-03
            5694            5774     116.514E-03     118.966E-03
            5694            5775     123.379E-03     126.084E-03
            5694            5792     114.513E-03     116.015E-03
            5694            5793     120.562E-03     122.372E-03
            5695            5775     123.379E-03     126.084E-03
            5695            5776     129.668E-03     132.518E-03
            5695            5793     120.562E-03     122.372E-03
            5695            5794     125.760E-03     127.917E-03
            5696             999     135.253E-03     138.025E-03
            5696            1000     130.053E-03     132.282E-03
            5696            5776     129.668E-03     132.518E-03
            5696            5794     125.760E-03     127.917E-03
            5697             848     19.1113E-03     19.1749E-03
            5697             849     23.3796E-03     24.5853E-03
            5697            5777     20.0989E-03     21.0308E-03
            5697            5795     23.6609E-03     26.0296E-03
            5698            5777     20.0989E-03     21.0308E-03
            5698            5778     22.9792E-03     25.1432E-03
            5698            5795     23.6609E-03     26.0296E-03
            5698            5796     25.9231E-03     28.7119E-03
            5699            5778     22.9792E-03     25.1432E-03
            5699            5779     27.6177E-03     29.7689E-03
            5699            5796     25.9231E-03     28.7119E-03
            5699            5797     30.5313E-03     32.0086E-03
            5700            5779     27.6177E-03     29.7689E-03
            5700            5780     33.4420E-03     34.9678E-03
            5700            5797     30.5313E-03     32.0086E-03
            5700            5798     35.9287E-03     36.6763E-03
            5701            5780     33.4420E-03     34.9678E-03
            5701            5781     39.6921E-03     40.8691E-03
            5701            5798     35.9287E-03     36.6763E-03
            5701            5799     41.6626E-03     42.1518E-03
            5702            5781     39.6921E-03     40.8691E-03
            5702            5782     46.1486E-03     47.1627E-03
            5702            5799     41.6626E-03     42.1518E-03
            5702            5800     47.6863E-03     48.0641E-03
            5703            5782     46.1486E-03     47.1627E-03
            5703            5783     52.7634E-03     53.7042E-03
            5703            5800     47.6863E-03     48.0641E-03
            5703            5801     53.8971E-03     54.2491E-03
            5704            5783     52.7634E-03     53.7042E-03
            5704            5784     59.4847E-03     60.4071E-03
            5704            5801     53.8971E-03     54.2491E-03
            5704            5802     60.2514E-03     60.5929E-03
            5705            5784     59.4847E-03     60.4071E-03
            5705            5785     66.2961E-03     67.2212E-03
            5705            5802     60.2514E-03     60.5929E-03
            5705            5803     66.7057E-03     67.0413E-03
            5706            5785     66.2961E-03     67.2212E-03
            5706            5786     73.1825E-03     74.1209E-03
            5706            5803     66.7057E-03     67.0413E-03
            5706            5804     73.2246E-03     73.5515E-03
            5707            5786     73.1825E-03     74.1209E-03
            5707            5787     80.1246E-03     81.0885E-03
            5707            5804     73.2246E-03     73.5515E-03
            5707            5805     79.7868E-03     80.0919E-03
            5708            5787     80.1246E-03     81.0885E-03
            5708            5788     87.1177E-03     88.1121E-03
            5708            5805     79.7868E-03     80.0919E-03
            5708            5806     86.3514E-03     86.6355E-03
            5709            5788     87.1177E-03     88.1121E-03
            5709            5789     94.1154E-03     95.1717E-03
            5709            5806     86.3514E-03     86.6355E-03
            5709            5807     92.8896E-03     93.1378E-03
            5710            5789     94.1154E-03     95.1717E-03
            5710            5790     101.097E-03     102.233E-03
            5710            5807     92.8896E-03     93.1378E-03
            5710            5808     99.3280E-03     99.5547E-03
            5711            5790     101.097E-03     102.233E-03
            5711            5791     107.940E-03     109.229E-03
            5711            5808     99.3280E-03     99.5547E-03
            5711            5809     105.568E-03     105.790E-03
            5712            5791     107.940E-03     109.229E-03
            5712            5792     114.513E-03     116.015E-03
            5712            5809     105.568E-03     105.790E-03
            5712            5810     111.471E-03     111.725E-03
            5713            5792     114.513E-03     116.015E-03
            5713            5793     120.562E-03     122.372E-03
            5713            5810     111.471E-03     111.725E-03
            5713            5811     116.747E-03     117.174E-03
            5714            5793     120.562E-03     122.372E-03
            5714            5794     125.760E-03     127.917E-03
            5714            5811     116.747E-03     117.174E-03
            5714            5812     121.151E-03     121.835E-03
            5715            1000     130.053E-03     132.282E-03
            5715            1001     124.205E-03     125.237E-03
            5715            5794     125.760E-03     127.917E-03
            5715            5812     121.151E-03     121.835E-03
            5716             849     23.3796E-03     24.5853E-03
            5716             850     25.3833E-03     30.9133E-03
            5716            5795     23.6609E-03     26.0296E-03
            5716            5813     26.6605E-03     30.6650E-03
            5717            5795     23.6609E-03     26.0296E-03
            5717            5796     25.9231E-03     28.7119E-03
            5717            5813     26.6605E-03     30.6650E-03
            5717            5814     29.9003E-03     31.3810E-03
            5718            5796     25.9231E-03     28.7119E-03
            5718            5797     30.5313E-03     32.0086E-03
            5718            5814     29.9003E-03     31.3810E-03
            5718            5815     34.1228E-03     34.3257E-03
            5719            5797     30.5313E-03     32.0086E-03
            5719            5798     35.9287E-03     36.6763E-03
            5719            5815     34.1228E-03     34.3257E-03
            5719            5816     38.8271E-03     38.7151E-03
            5720            5798     35.9287E-03     36.6763E-03
            5720            5799     41.6626E-03     42.1518E-03
            5720            5816     38.8271E-03     38.7151E-03
            5720            5817     43.9637E-03     43.7978E-03
            5721            5799     41.6626E-03     42.1518E-03
            5721            5800     47.6863E-03     48.0641E-03
            5721            5817     43.9637E-03     43.7978E-03
            5721            5818     49.4708E-03     49.3022E-03
            5722            5800     47.6863E-03     48.0641E-03
            5722            5801     53.8971E-03     54.2491E-03
            5722            5818     49.4708E-03     49.3022E-03
            5722            5819     55.2172E-03     55.0571E-03
            5723            5801     53.8971E-03     54.2491E-03
            5723            5802     60.2514E-03     60.5929E-03
            5723            5819     55.2172E-03     55.0571E-03
            5723            5820     61.1358E-03     60.9652E-03
            5724            5802     60.2514E-03     60.5929E-03
            5724            5803     66.7057E-03     67.0413E-03
            5724            5820     61.1358E-03     60.9652E-03
            5724            5821     67.1478E-03     66.9554E-03
            5725            5803     66.7057E-03     67.0413E-03
            5725            5804     73.2246E-03     73.5515E-03
            5725            5821     67.1478E-03     66.9554E-03
            5725            5822     73.2106E-03     72.9723E-03
            5726            5804     73.2246E-03     73.5515E-03
            5726            5805     79.7868E-03     80.0919E-03
            5726            5822     73.2106E-03     72.9723E-03
            5726            5823     79.2676E-03     78.9705E-03
            5727            5805     79.7868E-03     80.0919E-03
            5727            5806     86.3514E-03     86.6355E-03
            5727            5823     79.2676E-03     78.9705E-03
            5727            5824     85.2822E-03     84.8882E-03
            5728            5806     86.3514E-03     86.6355E-03
            5728            5807     92.8896E-03     93.1378E-03
            5728            5824     85.2822E-03     84.8882E-03
            5728            5825     91.1938E-03     90.6810E-03
            5729            5807     92.8896E-03     93.1378E-03
            5729            5808     99.3280E-03     99.5547E-03
            5729            5825     91.1938E-03     90.6810E-03
            5729            5826     96.9353E-03     96.2488E-03
            5730            5808     99.3280E-03     99.5547E-03
            5730            5809     105.568E-03     105.790E-03
            5730            5826     96.9353E-03     96.2488E-03
            5730            5827     102.427E-03     101.524E-03
            5731            5809     105.568E-03     105.790E-03
            5731            5810     111.471E-03     111.725E-03
            5731            5827     102.427E-03     101.524E-03
            5731            5828     107.502E-03     106.351E-03
            5732            5810     111.471E-03     111.725E-03
            5732            5811     116.747E-03     117.174E-03
            5732            5828     107.502E-03     106.351E-03
            5732            5829     112.049E-03     110.597E-03
            5733            5811     116.747E-03     117.174E-03
            5733            5812     121.151E-03     121.835E-03
            5733            5829     112.049E-03     110.597E-03
            5733            5830     115.691E-03     114.037E-03
            5734            1001     124.205E-03     125.237E-03
            5734            1002     118.066E-03     116.352E-03
            5734            5812     121.151E-03     121.835E-03
            5734            5830     115.691E-03     114.037E-03
            5735             850     25.3833E-03     30.9133E-03
            5735             851     13.7097E-03     18.0255E-03
            5735            5813     26.6605E-03     30.6650E-03
            5735            5831     15.9612E-03     19.0400E-03
            5736            5813     26.6605E-03     30.6650E-03
            5736            5814     29.9003E-03     31.3810E-03
            5736            5831     15.9612E-03     19.0400E-03
            5736            5832     20.1275E-03     21.7634E-03
            5737            5814     29.9003E-03     31.3810E-03
            5737            5815     34.1228E-03     34.3257E-03
            5737            5832     20.1275E-03     21.7634E-03
            5737            5833     24.1621E-03     25.7014E-03
            5738            5815     34.1228E-03     34.3257E-03
            5738            5816     38.8271E-03     38.7151E-03
            5738            5833     24.1621E-03     25.7014E-03
            5738            5834     28.5469E-03     30.2601E-03
            5739            5816     38.8271E-03     38.7151E-03
            5739            5817     43.9637E-03     43.7978E-03
            5739            5834     28.5469E-03     30.2601E-03
            5739            5835     33.2193E-03     35.0528E-03
            5740            5817     43.9637E-03     43.7978E-03
            5740            5818     49.4708E-03     49.3022E-03
            5740            5835     33.2193E-03     35.0528E-03
            5740            5836     38.1097E-03     40.0255E-03
            5741            5818     49.4708E-03     49.3022E-03
            5741            5819     55.2172E-03     55.0571E-03
            5741            5836     38.1097E-03     40.0255E-03
            5741            5837     43.1392E-03     45.0920E-03
            5742            5819     55.2172E-03     55.0571E-03
            5742            5820     61.1358E-03     60.9652E-03
            5742            5837     43.1392E-03     45.0920E-03
            5742            5838     48.2583E-03     50.2066E-03
            5743            5820     61.1358E-03     60.9652E-03
            5743            5821     67.1478E-03     66.9554E-03
            5743            5838     48.2583E-03     50.2066E-03
            5743            5839     53.4155E-03     55.3444E-03
            5744            5821     67.1478E-03     66.9554E-03
            5744            5822     73.2106E-03     72.9723E-03
            5744            5839     53.4155E-03     55.3444E-03
            5744            5840     58.5883E-03     60.4629E-03
            5745            5822     73.2106E-03     72.9723E-03
            5745            5823     79.2676E-03     78.9705E-03
            5745            5840     58.5883E-03     60.4629E-03
            5745            5841     63.7379E-03     65.5519E-03
            5746            5823     79.2676E-03     78.9705E-03
            5746            5824     85.2822E-03     84.8882E-03
            5746            5841     63.7379E-03     65.5519E-03
            5746            5842     68.8703E-03     70.5707E-03
            5747            5824     85.2822E-03     84.8882E-03
            5747            5825     91.1938E-03     90.6810E-03
            5747            5842     68.8703E-03     70.5707E-03
            5747            5843     73.9403E-03     75.5154E-03
            5748            5825     91.1938E-03     90.6810E-03
            5748            5826     96.9353E-03     96.2488E-03
            5748            5843     73.9403E-03     75.5154E-03
            5748            5844     79.0029E-03     80.3579E-03
            5749            5826     96.9353E-03     96.2488E-03
            5749            5827     102.427E-03     101.524E-03
            5749            5844     79.0029E-03     80.3579E-03
            5749            5845     83.9887E-03     85.1187E-03
            5750            5827     102.427E-03     101.524E-03
            5750            5828     107.502E-03     106.351E-03
            5750            5845     83.9887E-03     85.1187E-03
            5750            5846     89.0641E-03     89.8226E-03
            5751            5828     107.502E-03     106.351E-03
            5751            5829     112.049E-03     110.597E-03
            5751            5846     89.0641E-03     89.8226E-03
            5751            5847     94.1217E-03     94.5956E-03
            5752            5829     112.049E-03     110.597E-03
            5752            5830     115.691E-03     114.037E-03
            5752            5847     94.1217E-03     94.5956E-03
            5752            5848     99.6303E-03     99.7259E-03
            5753            1002     118.066E-03     116.352E-03
            5753            1003     105.478E-03     105.656E-03
            5753            5830     115.691E-03     114.037E-03
            5753            5848     99.6303E-03     99.7259E-03
            5754             851     13.7097E-03     18.0255E-03
            5754             852     1.99621E-03     3.92915E-03
            5754            5831     15.9612E-03     19.0400E-03
            5754            5849     3.96386E-03     6.21714E-03
            5755            5831     15.9612E-03     19.0400E-03
            5755            5832     20.1275E-03     21.7634E-03
            5755            5849     3.96386E-03     6.21714E-03
            5755            5850     8.09399E-03     10.9638E-03
            5756            5832     20.1275E-03     21.7634E-03
            5756            5833     24.1621E-03     25.7014E-03
            5756            5850     8.09399E-03     10.9638E-03
            5756            5851     12.4982E-03     15.8394E-03
            5757            5833     24.1621E-03     25.7014E-03
            5757            5834     28.5469E-03     30.2601E-03
            5757            5851     12.4982E-03     15.8394E-03
            5757            5852     17.0145E-03     20.6315E-03
            5758            5834     28.5469E-03     30.2601E-03
            5758            5835     33.2193E-03     35.0528E-03
            5758            5852     17.0145E-03     20.6315E-03
            5758            5853     21.5832E-03     25.3707E-03
            5759            5835     33.2193E-03     35.0528E-03
            5759            5836     38.1097E-03     40.0255E-03
            5759            5853     21.5832E-03     25.3707E-03
            5759            5854     26.1723E-03     30.0641E-03
            5760            5836     38.1097E-03     40.0255E-03
            5760            5837     43.1392E-03     45.0920E-03
            5760            5854     26.1723E-03     30.0641E-03
            5760            5855     30.7743E-03     34.7164E-03
            5761            5837     43.1392E-03     45.0920E-03
            5761            5838     48.2583E-03     50.2066E-03
            5761            5855     30.7743E-03     34.7164E-03
            5761            5856     35.3743E-03     39.3347E-03
            5762            5838     48.2583E-03     50.2066E-03
            5762            5839     53.4155E-03     55.3444E-03
            5762            5856     35.3743E-03     39.3347E-03
            5762            5857     39.9684E-03     43.9243E-03
            5763            5839     53.4155E-03     55.3444E-03
            5763            5840     58.5883E-03     60.4629E-03
            5763            5857     39.9684E-03     43.9243E-03
            5763            5858     44.5540E-03     48.4861E-03
            5764            5840     58.5883E-03     60.4629E-03
            5764            5841     63.7379E-03     65.5519E-03
            5764            5858     44.5540E-03     48.4861E-03
            5764            5859     49.1421E-03     53.0366E-03
            5765            5841     63.7379E-03     65.5519E-03
            5765            5842     68.8703E-03     70.5707E-03
            5765            5859     49.1421E-03     53.0366E-03
            5765            5860     53.7446E-03     57.5813E-03
            5766            5842     68.8703E-03     70.5707E-03
            5766            5843     73.9403E-03     75.5154E-03
            5766            5860     53.7446E-03     57.5813E-03
            5766            5861     58.4149E-03     62.1739E-03
            5767            5843     73.9403E-03     75.5154E-03
            5767            5844     79.0029E-03     80.3579E-03
            5767            5861     58.4149E-03     62.1739E-03
            5767            5862     63.1956E-03     66.8537E-03
            5768            5844     79.0029E-03     80.3579E-03
            5768            5845     83.9887E-03     85.1187E-03
            5768            5862     63.1956E-03     66.8537E-03
            5768            5863     68.2565E-03     71.7860E-03
            5769            5845     83.9887E-03     85.1187E-03
            5769            5846     89.0641E-03     89.8226E-03
            5769            5863     68.2565E-03     71.7860E-03
            5769            5864     73.7102E-03     77.1177E-03
            5770            5846     89.0641E-03     89.8226E-03
            5770            5847     94.1217E-03     94.5956E-03
            5770            5864     73.7102E-03     77.1177E-03
            5770            5865     80.0830E-03     83.3640E-03
            5771            5847     94.1217E-03     94.5956E-03
            5771            5848     99.6303E-03     99.7259E-03
            5771            5865     80.0830E-03     83.3640E-03
            5771            5866     87.6687E-03     90.9675E-03
            5772            1003     105.478E-03     105.656E-03
            5772            1004     98.6239E-03     102.085E-03
            5772            5848     99.6303E-03     99.7259E-03
            5772            5866     87.6687E-03     90.9675E-03
            5773             852     1.99621E-03     3.92915E-03
            5773             853     3.48297E-03     4.67479E-03
            5773            5849     3.96386E-03     6.21714E-03
            5773            5867     5.14548E-03     6.77705E-03
            5774            5849     3.96386E-03     6.21714E-03
            5774            5850     8.09399E-03     10.9638E-03
            5774            5867     5.14548E-03     6.77705E-03
            5774            5868     8.91888E-03     11.2325E-03
            5775            5850     8.09399E-03     10.9638E-03
            5775            5851     12.4982E-03     15.8394E-03
            5775            5868     8.91888E-03     11.2325E-03
            5775            5869     13.2624E-03     15.9716E-03
            5776            5851     12.4982E-03     15.8394E-03
            5776            5852     17.0145E-03     20.6315E-03
            5776            5869     13.2624E-03     15.9716E-03
            5776            5870     17.7829E-03     20.7503E-03
            5777            5852     17.0145E-03     20.6315E-03
            5777            5853     21.5832E-03     25.3707E-03
            5777            5870     17.7829E-03     20.7503E-03
            5777            5871     22.3848E-03     25.5100E-03
            5778            5853     21.5832E-03     25.3707E-03
            5778            5854     26.1723E-03     30.0641E-03
            5778            5871     22.3848E-03     25.5100E-03
            5778            5872     27.0339E-03     30.2456E-03
            5779            5854     26.1723E-03     30.0641E-03
            5779            5855     30.7743E-03     34.7164E-03
            5779            5872     27.0339E-03     30.2456E-03
            5779            5873     31.7040E-03     34.9667E-03
            5780            5855     30.7743E-03     34.7164E-03
            5780            5856     35.3743E-03     39.3347E-03
            5780            5873     31.7040E-03     34.9667E-03
            5780            5874     36.3864E-03     39.6730E-03
            5781            5856     35.3743E-03     39.3347E-03
            5781            5857     39.9684E-03     43.9243E-03
            5781            5874     36.3864E-03     39.6730E-03
            5781            5875     41.0724E-03     44.3678E-03
            5782            5857     39.9684E-03     43.9243E-03
            5782            5858     44.5540E-03     48.4861E-03
            5782            5875     41.0724E-03     44.3678E-03
            5782            5876     45.7642E-03     49.0591E-03
            5783            5858     44.5540E-03     48.4861E-03
            5783            5859     49.1421E-03     53.0366E-03
            5783            5876     45.7642E-03     49.0591E-03
            5783            5877     50.4621E-03     53.7514E-03
            5784            5859     49.1421E-03     53.0366E-03
            5784            5860     53.7446E-03     57.5813E-03
            5784            5877     50.4621E-03     53.7514E-03
            5784            5878     55.1936E-03     58.4703E-03
            5785            5860     53.7446E-03     57.5813E-03
            5785            5861     58.4149E-03     62.1739E-03
            5785            5878     55.1936E-03     58.4703E-03
            5785            5879     59.9773E-03     63.2460E-03
            5786            5861     58.4149E-03     62.1739E-03
            5786            5862     63.1956E-03     66.8537E-03
            5786            5879     59.9773E-03     63.2460E-03
            5786            5880     64.9089E-03     68.1536E-03
            5787            5862     63.1956E-03     66.8537E-03
            5787            5863     68.2565E-03     71.7860E-03
            5787            5880     64.9089E-03     68.1536E-03
            5787            5881     70.0686E-03     73.3102E-03
            5788            5863     68.2565E-03     71.7860E-03
            5788            5864     73.7102E-03     77.1177E-03
            5788            5881     70.0686E-03     73.3102E-03
            5788            5882     75.7399E-03     78.9243E-03
            5789            5864     73.7102E-03     77.1177E-03
            5789            5865     80.0830E-03     83.3640E-03
            5789            5882     75.7399E-03     78.9243E-03
            5789            5883     82.2354E-03     85.3831E-03
            5790            5865     80.0830E-03     83.3640E-03
            5790            5866     87.6687E-03     90.9675E-03
            5790            5883     82.2354E-03     85.3831E-03
            5790            5884     90.2537E-03     93.2007E-03
            5791            1004     98.6239E-03     102.085E-03
            5791            1005     101.993E-03     103.973E-03
            5791            5866     87.6687E-03     90.9675E-03
            5791            5884     90.2537E-03     93.2007E-03
            5792             853     3.48297E-03     4.67479E-03
            5792             854     6.33345E-03     6.16408E-03
            5792            5867     5.14548E-03     6.77705E-03
            5792            5885     7.41274E-03     8.09380E-03
            5793            5867     5.14548E-03     6.77705E-03
            5793            5868     8.91888E-03     11.2325E-03
            5793            5885     7.41274E-03     8.09380E-03
            5793            5886     10.4006E-03     12.1554E-03
            5794            5868     8.91888E-03     11.2325E-03
            5794            5869     13.2624E-03     15.9716E-03
            5794            5886     10.4006E-03     12.1554E-03
            5794            5887     14.4506E-03     16.5962E-03
            5795            5869     13.2624E-03     15.9716E-03
            5795            5870     17.7829E-03     20.7503E-03
            5795            5887     14.4506E-03     16.5962E-03
            5795            5888     18.8344E-03     21.2281E-03
            5796            5870     17.7829E-03     20.7503E-03
            5796            5871     22.3848E-03     25.5100E-03
            5796            5888     18.8344E-03     21.2281E-03
            5796            5889     23.3861E-03     25.9042E-03
            5797            5871     22.3848E-03     25.5100E-03
            5797            5872     27.0339E-03     30.2456E-03
            5797            5889     23.3861E-03     25.9042E-03
            5797            5890     28.0281E-03     30.6142E-03
            5798            5872     27.0339E-03     30.2456E-03
            5798            5873     31.7040E-03     34.9667E-03
            5798            5890     28.0281E-03     30.6142E-03
            5798            5891     32.7196E-03     35.3405E-03
            5799            5873     31.7040E-03     34.9667E-03
            5799            5874     36.3864E-03     39.6730E-03
            5799            5891     32.7196E-03     35.3405E-03
            5799            5892     37.4434E-03     40.0847E-03
            5800            5874     36.3864E-03     39.6730E-03
            5800            5875     41.0724E-03     44.3678E-03
            5800            5892     37.4434E-03     40.0847E-03
            5800            5893     42.1896E-03     44.8482E-03
            5801            5875     41.0724E-03     44.3678E-03
            5801            5876     45.7642E-03     49.0591E-03
            5801            5893     42.1896E-03     44.8482E-03
            5801            5894     46.9545E-03     49.6314E-03
            5802            5876     45.7642E-03     49.0591E-03
            5802            5877     50.4621E-03     53.7514E-03
            5802            5894     46.9545E-03     49.6314E-03
            5802            5895     51.7476E-03     54.4448E-03
            5803            5877     50.4621E-03     53.7514E-03
            5803            5878     55.1936E-03     58.4703E-03
            5803            5895     51.7476E-03     54.4448E-03
            5803            5896     56.5756E-03     59.3063E-03
            5804            5878     55.1936E-03     58.4703E-03
            5804            5879     59.9773E-03     63.2460E-03
            5804            5896     56.5756E-03     59.3063E-03
            5804            5897     61.4793E-03     64.2451E-03
            5805            5879     59.9773E-03     63.2460E-03
            5805            5880     64.9089E-03     68.1536E-03
            5805            5897     61.4793E-03     64.2451E-03
            5805            5898     66.5029E-03     69.3283E-03
            5806            5880     64.9089E-03     68.1536E-03
            5806            5881     70.0686E-03     73.3102E-03
            5806            5898     66.5029E-03     69.3283E-03
            5806            5899     71.7606E-03     74.6271E-03
            5807            5881     70.0686E-03     73.3102E-03
            5807            5882     75.7399E-03     78.9243E-03
            5807            5899     71.7606E-03     74.6271E-03
            5807            5900     77.4567E-03     80.3492E-03
            5808            5882     75.7399E-03     78.9243E-03
            5808            5883     82.2354E-03     85.3831E-03
            5808            5900     77.4567E-03     80.3492E-03
            5808            5901     83.8076E-03     86.6421E-03
            5809            5883     82.2354E-03     85.3831E-03
            5809            5884     90.2537E-03     93.2007E-03
            5809            5901     83.8076E-03     86.6421E-03
            5809            5902     91.7504E-03     94.1149E-03
            5810            1005     101.993E-03     103.973E-03
            5810            1006     100.784E-03     102.677E-03
            5810            5884     90.2537E-03     93.2007E-03
            5810            5902     91.7504E-03     94.1149E-03
            5811             854     6.33345E-03     6.16408E-03
            5811             855     8.88774E-03     8.55116E-03
            5811            5885     7.41274E-03     8.09380E-03
            5811            5903     9.78603E-03     9.99656E-03
            5812            5885     7.41274E-03     8.09380E-03
            5812            5886     10.4006E-03     12.1554E-03
            5812            5903     9.78603E-03     9.99656E-03
            5812            5904     12.2951E-03     13.4731E-03
            5813            5886     10.4006E-03     12.1554E-03
            5813            5887     14.4506E-03     16.5962E-03
            5813            5904     12.2951E-03     13.4731E-03
            5813            5905     15.9008E-03     17.6174E-03
            5814            5887     14.4506E-03     16.5962E-03
            5814            5888     18.8344E-03     21.2281E-03
            5814            5905     15.9008E-03     17.6174E-03
            5814            5906     20.0758E-03     21.9712E-03
            5815            5888     18.8344E-03     21.2281E-03
            5815            5889     23.3861E-03     25.9042E-03
            5815            5906     20.0758E-03     21.9712E-03
            5815            5907     24.5130E-03     26.4945E-03
            5816            5889     23.3861E-03     25.9042E-03
            5816            5890     28.0281E-03     30.6142E-03
            5816            5907     24.5130E-03     26.4945E-03
            5816            5908     29.0900E-03     31.0947E-03
            5817            5890     28.0281E-03     30.6142E-03
            5817            5891     32.7196E-03     35.3405E-03
            5817            5908     29.0900E-03     31.0947E-03
            5817            5909     33.7562E-03     35.7642E-03
            5818            5891     32.7196E-03     35.3405E-03
            5818            5892     37.4434E-03     40.0847E-03
            5818            5909     33.7562E-03     35.7642E-03
            5818            5910     38.4742E-03     40.4938E-03
            5819            5892     37.4434E-03     40.0847E-03
            5819            5893     42.1896E-03     44.8482E-03
            5819            5910     38.4742E-03     40.4938E-03
            5819            5911     43.2347E-03     45.2717E-03
            5820            5893     42.1896E-03     44.8482E-03
            5820            5894     46.9545E-03     49.6314E-03
            5820            5911     43.2347E-03     45.2717E-03
            5820            5912     48.0348E-03     50.0990E-03
            5821            5894     46.9545E-03     49.6314E-03
            5821            5895     51.7476E-03     54.4448E-03
            5821            5912     48.0348E-03     50.0990E-03
            5821            5913     52.8751E-03     54.9805E-03
            5822            5895     51.7476E-03     54.4448E-03
            5822            5896     56.5756E-03     59.3063E-03
            5822            5913     52.8751E-03     54.9805E-03
            5822            5914     57.7662E-03     59.9252E-03
            5823            5896     56.5756E-03     59.3063E-03
            5823            5897     61.4793E-03     64.2451E-03
            5823            5914     57.7662E-03     59.9252E-03
            5823            5915     62.7266E-03     64.9634E-03
            5824            5897     61.4793E-03     64.2451E-03
            5824            5898     66.5029E-03     69.3283E-03
            5824            5915     62.7266E-03     64.9634E-03
            5824            5916     67.7799E-03     70.1109E-03
            5825            5898     66.5029E-03     69.3283E-03
            5825            5899     71.7606E-03     74.6271E-03
            5825            5916     67.7799E-03     70.1109E-03
            5825            5917     73.0145E-03     75.4428E-03
            5826            5899     71.7606E-03     74.6271E-03
            5826            5900     77.4567E-03     80.3492E-03
            5826            5917     73.0145E-03     75.4428E-03
            5826            5918     78.4430E-03     80.9738E-03
            5827            5900     77.4567E-03     80.3492E-03
            5827            5901     83.8076E-03     86.6421E-03
            5827            5918     78.4430E-03     80.9738E-03
            5827            5919     84.4295E-03     86.8629E-03
            5828            5901     83.8076E-03     86.6421E-03
            5828            5902     91.7504E-03     94.1149E-03
            5828            5919     84.4295E-03     86.8629E-03
            5828            5920     90.7801E-03     93.0920E-03
            5829            1006     100.784E-03     102.677E-03
            5829            1007     97.2791E-03     99.4279E-03
            5829            5902     91.7504E-03     94.1149E-03
            5829            5920     90.7801E-03     93.0920E-03
            5830             855     8.88774E-03     8.55116E-03
            5830             856     11.5470E-03     10.8602E-03
            5830            5903     9.78603E-03     9.99656E-03
            5830            5921     12.2107E-03     12.2044E-03
            5831            5903     9.78603E-03     9.99656E-03
            5831            5904     12.2951E-03     13.4731E-03
            5831            5921     12.2107E-03     12.2044E-03
            5831            5922     14.2857E-03     15.2191E-03
            5832            5904     12.2951E-03     13.4731E-03
            5832            5905     15.9008E-03     17.6174E-03
            5832            5922     14.2857E-03     15.2191E-03
            5832            5923     17.5440E-03     18.8789E-03
            5833            5905     15.9008E-03     17.6174E-03
            5833            5906     20.0758E-03     21.9712E-03
            5833            5923     17.5440E-03     18.8789E-03
            5833            5924     21.4537E-03     22.9572E-03
            5834            5906     20.0758E-03     21.9712E-03
            5834            5907     24.5130E-03     26.4945E-03
            5834            5924     21.4537E-03     22.9572E-03
            5834            5925     25.7208E-03     27.2134E-03
            5835            5907     24.5130E-03     26.4945E-03
            5835            5908     29.0900E-03     31.0947E-03
            5835            5925     25.7208E-03     27.2134E-03
            5835            5926     30.1944E-03     31.6336E-03
            5836            5908     29.0900E-03     31.0947E-03
            5836            5909     33.7562E-03     35.7642E-03
            5836            5926     30.1944E-03     31.6336E-03
            5836            5927     34.7734E-03     36.1888E-03
            5837            5909     33.7562E-03     35.7642E-03
            5837            5910     38.4742E-03     40.4938E-03
            5837            5927     34.7734E-03     36.1888E-03
            5837            5928     39.4299E-03     40.8387E-03
            5838            5910     38.4742E-03     40.4938E-03
            5838            5911     43.2347E-03     45.2717E-03
            5838            5928     39.4299E-03     40.8387E-03
            5838            5929     44.1477E-03     45.5700E-03
            5839            5911     43.2347E-03     45.2717E-03
            5839            5912     48.0348E-03     50.0990E-03
            5839            5929     44.1477E-03     45.5700E-03
            5839            5930     48.9211E-03     50.3719E-03
            5840            5912     48.0348E-03     50.0990E-03
            5840            5913     52.8751E-03     54.9805E-03
            5840            5930     48.9211E-03     50.3719E-03
            5840            5931     53.7475E-03     55.2420E-03
            5841            5913     52.8751E-03     54.9805E-03
            5841            5914     57.7662E-03     59.9252E-03
            5841            5931     53.7475E-03     55.2420E-03
            5841            5932     58.6312E-03     60.1887E-03
            5842            5914     57.7662E-03     59.9252E-03
            5842            5915     62.7266E-03     64.9634E-03
            5842            5932     58.6312E-03     60.1887E-03
            5842            5933     63.5620E-03     65.2086E-03
            5843            5915     62.7266E-03     64.9634E-03
            5843            5916     67.7799E-03     70.1109E-03
            5843            5933     63.5620E-03     65.2086E-03
            5843            5934     68.5629E-03     70.3183E-03
            5844            5916     67.7799E-03     70.1109E-03
            5844            5917     73.0145E-03     75.4428E-03
            5844            5934     68.5629E-03     70.3183E-03
            5844            5935     73.5759E-03     75.4896E-03
            5845            5917     73.0145E-03     75.4428E-03
            5845            5918     78.4430E-03     80.9738E-03
            5845            5935     73.5759E-03     75.4896E-03
            5845            5936     78.6727E-03     80.6990E-03
            5846            5918     78.4430E-03     80.9738E-03
            5846            5919     84.4295E-03     86.8629E-03
            5846            5936     78.6727E-03     80.6990E-03
            5846            5937     83.6668E-03     85.8481E-03
            5847            5919     84.4295E-03     86.8629E-03
            5847            5920     90.7801E-03     93.0920E-03
            5847            5937     83.6668E-03     85.8481E-03
            5847            5938     88.5330E-03     90.7197E-03
            5848            1007     97.2791E-03     99.4279E-03
            5848            1008     93.3936E-03     95.1790E-03
            5848            5920     90.7801E-03     93.0920E-03
            5848            5938     88.5330E-03     90.7197E-03
            5849             856     11.5470E-03     10.8602E-03
            5849             857     14.0079E-03     13.8050E-03
            5849            5921     12.2107E-03     12.2044E-03
            5849            5939     14.5680E-03     14.7072E-03
            5850            5921     12.2107E-03     12.2044E-03
            5850            5922     14.2857E-03     15.2191E-03
            5850            5939     14.5680E-03     14.7072E-03
            5850            5940     16.3787E-03     17.1660E-03
            5851            5922     14.2857E-03     15.2191E-03
            5851            5923     17.5440E-03     18.8789E-03
            5851            5940     16.3787E-03     17.1660E-03
            5851            5941     19.2957E-03     20.4789E-03
            5852            5923     17.5440E-03     18.8789E-03
            5852            5924     21.4537E-03     22.9572E-03
            5852            5941     19.2957E-03     20.4789E-03
            5852            5942     22.9370E-03     24.1032E-03
            5853            5924     21.4537E-03     22.9572E-03
            5853            5925     25.7208E-03     27.2134E-03
            5853            5942     22.9370E-03     24.1032E-03
            5853            5943     27.0311E-03     28.0191E-03
            5854            5925     25.7208E-03     27.2134E-03
            5854            5926     30.1944E-03     31.6336E-03
            5854            5943     27.0311E-03     28.0191E-03
            5854            5944     31.3340E-03     32.2145E-03
            5855            5926     30.1944E-03     31.6336E-03
            5855            5927     34.7734E-03     36.1888E-03
            5855            5944     31.3340E-03     32.2145E-03
            5855            5945     35.7649E-03     36.5895E-03
            5856            5927     34.7734E-03     36.1888E-03
            5856            5928     39.4299E-03     40.8387E-03
            5856            5945     35.7649E-03     36.5895E-03
            5856            5946     40.2922E-03     41.0990E-03
            5857            5928     39.4299E-03     40.8387E-03
            5857            5929     44.1477E-03     45.5700E-03
            5857            5946     40.2922E-03     41.0990E-03
            5857            5947     44.8957E-03     45.7078E-03
            5858            5929     44.1477E-03     45.5700E-03
            5858            5930     48.9211E-03     50.3719E-03
            5858            5947     44.8957E-03     45.7078E-03
            5858            5948     49.5659E-03     50.3988E-03
            5859            5930     48.9211E-03     50.3719E-03
            5859            5931     53.7475E-03     55.2420E-03
            5859            5948     49.5659E-03     50.3988E-03
            5859            5949     54.2980E-03     55.1640E-03
            5860            5931     53.7475E-03     55.2420E-03
            5860            5932     58.6312E-03     60.1887E-03
            5860            5949     54.2980E-03     55.1640E-03
            5860            5950     59.0738E-03     59.9930E-03
            5861            5932     58.6312E-03     60.1887E-03
            5861            5933     63.5620E-03     65.2086E-03
            5861            5950     59.0738E-03     59.9930E-03
            5861            5951     63.8923E-03     64.8802E-03
            5862            5933     63.5620E-03     65.2086E-03
            5862            5934     68.5629E-03     70.3183E-03
            5862            5951     63.8923E-03     64.8802E-03
            5862            5952     68.6903E-03     69.7944E-03
            5863            5934     68.5629E-03     70.3183E-03
            5863            5935     73.5759E-03     75.4896E-03
            5863            5952     68.6903E-03     69.7944E-03
            5863            5953     73.4460E-03     74.6807E-03
            5864            5935     73.5759E-03     75.4896E-03
            5864            5936     78.6727E-03     80.6990E-03
            5864            5953     73.4460E-03     74.6807E-03
            5864            5954     77.9774E-03     79.4349E-03
            5865            5936     78.6727E-03     80.6990E-03
            5865            5937     83.6668E-03     85.8481E-03
            5865            5954     77.9774E-03     79.4349E-03
            5865            5955     82.1032E-03     83.7923E-03
            5866            5937     83.6668E-03     85.8481E-03
            5866            5938     88.5330E-03     90.7197E-03
            5866            5955     82.1032E-03     83.7923E-03
            5866            5956     85.6752E-03     87.5095E-03
            5867            1008     93.3936E-03     95.1790E-03
            5867            1009     88.8359E-03     90.6110E-03
            5867            5938     88.5330E-03     90.7197E-03
            5867            5956     85.6752E-03     87.5095E-03
            5868             857     14.0079E-03     13.8050E-03
            5868             858     16.4996E-03     16.1022E-03
            5868            5939     14.5680E-03     14.7072E-03
            5868            5957     17.0132E-03     17.1943E-03
            5869            5939     14.5680E-03     14.7072E-03
            5869            5940     16.3787E-03     17.1660E-03
            5869            5957     17.0132E-03     17.1943E-03
            5869            5958     18.5138E-03     19.6148E-03
            5870            5940     16.3787E-03     17.1660E-03
            5870            5941     19.2957E-03     20.4789E-03
            5870            5958     18.5138E-03     19.6148E-03
            5870            5959     21.1053E-03     22.2937E-03
            5871            5941     19.2957E-03     20.4789E-03
            5871            5942     22.9370E-03     24.1032E-03
            5871            5959     21.1053E-03     22.2937E-03
            5871            5960     24.6014E-03     25.3350E-03
            5872            5942     22.9370E-03     24.1032E-03
            5872            5943     27.0311E-03     28.0191E-03
            5872            5960     24.6014E-03     25.3350E-03
            5872            5961     28.4714E-03     28.9216E-03
            5873            5943     27.0311E-03     28.0191E-03
            5873            5944     31.3340E-03     32.2145E-03
            5873            5961     28.4714E-03     28.9216E-03
            5873            5962     32.5357E-03     32.8461E-03
            5874            5944     31.3340E-03     32.2145E-03
            5874            5945     35.7649E-03     36.5895E-03
            5874            5962     32.5357E-03     32.8461E-03
            5874            5963     36.7533E-03     36.9949E-03
            5875            5945     35.7649E-03     36.5895E-03
            5875            5946     40.2922E-03     41.0990E-03
            5875            5963     36.7533E-03     36.9949E-03
            5875            5964     41.0765E-03     41.2957E-03
            5876            5946     40.2922E-03     41.0990E-03
            5876            5947     44.8957E-03     45.7078E-03
            5876            5964     41.0765E-03     41.2957E-03
            5876            5965     45.4883E-03     45.7023E-03
            5877            5947     44.8957E-03     45.7078E-03
            5877            5948     49.5659E-03     50.3988E-03
            5877            5965     45.4883E-03     45.7023E-03
            5877            5966     49.9715E-03     50.1897E-03
            5878            5948     49.5659E-03     50.3988E-03
            5878            5949     54.2980E-03     55.1640E-03
            5878            5966     49.9715E-03     50.1897E-03
            5878            5967     54.5054E-03     54.7372E-03
            5879            5949     54.2980E-03     55.1640E-03
            5879            5950     59.0738E-03     59.9930E-03
            5879            5967     54.5054E-03     54.7372E-03
            5879            5968     59.0798E-03     59.3276E-03
            5880            5950     59.0738E-03     59.9930E-03
            5880            5951     63.8923E-03     64.8802E-03
            5880            5968     59.0798E-03     59.3276E-03
            5880            5969     63.6458E-03     63.9338E-03
            5881            5951     63.8923E-03     64.8802E-03
            5881            5952     68.6903E-03     69.7944E-03
            5881            5969     63.6458E-03     63.9338E-03
            5881            5970     68.1696E-03     68.5083E-03
            5882            5952     68.6903E-03     69.7944E-03
            5882            5953     73.4460E-03     74.6807E-03
            5882            5970     68.1696E-03     68.5083E-03
            5882            5971     72.5220E-03     72.9739E-03
            5883            5953     73.4460E-03     74.6807E-03
            5883            5954     77.9774E-03     79.4349E-03
            5883            5971     72.5220E-03     72.9739E-03
            5883            5972     76.5405E-03     77.1602E-03
            5884            5954     77.9774E-03     79.4349E-03
            5884            5955     82.1032E-03     83.7923E-03
            5884            5972     76.5405E-03     77.1602E-03
            5884            5973     79.9729E-03     80.8533E-03
            5885            5955     82.1032E-03     83.7923E-03
            5885            5956     85.6752E-03     87.5095E-03
            5885            5973     79.9729E-03     80.8533E-03
            5885            5974     82.3812E-03     83.6378E-03
            5886            1009     88.8359E-03     90.6110E-03
            5886            1010     83.9749E-03     85.3673E-03
            5886            5956     85.6752E-03     87.5095E-03
            5886            5974     82.3812E-03     83.6378E-03
            5887             858     16.4996E-03     16.1022E-03
            5887             859     19.3445E-03     19.8994E-03
            5887            5957     17.0132E-03     17.1943E-03
            5887            5975     19.3472E-03     20.7946E-03
            5888            5957     17.0132E-03     17.1943E-03
            5888            5958     18.5138E-03     19.6148E-03
            5888            5975     19.3472E-03     20.7946E-03
            5888            5976     20.4813E-03     22.2962E-03
            5889            5958     18.5138E-03     19.6148E-03
            5889            5959     21.1053E-03     22.2937E-03
            5889            5976     20.4813E-03     22.2962E-03
            5889            5977     23.2201E-03     24.0187E-03
            5890            5959     21.1053E-03     22.2937E-03
            5890            5960     24.6014E-03     25.3350E-03
            5890            5977     23.2201E-03     24.0187E-03
            5890            5978     26.5272E-03     26.6728E-03
            5891            5960     24.6014E-03     25.3350E-03
            5891            5961     28.4714E-03     28.9216E-03
            5891            5978     26.5272E-03     26.6728E-03
            5891            5979     30.0750E-03     29.9548E-03
            5892            5961     28.4714E-03     28.9216E-03
            5892            5962     32.5357E-03     32.8461E-03
            5892            5979     30.0750E-03     29.9548E-03
            5892            5980     33.8507E-03     33.5955E-03
            5893            5962     32.5357E-03     32.8461E-03
            5893            5963     36.7533E-03     36.9949E-03
            5893            5980     33.8507E-03     33.5955E-03
            5893            5981     37.7836E-03     37.4760E-03
            5894            5963     36.7533E-03     36.9949E-03
            5894            5964     41.0765E-03     41.2957E-03
            5894            5981     37.7836E-03     37.4760E-03
            5894            5982     41.8405E-03     41.5039E-03
            5895            5964     41.0765E-03     41.2957E-03
            5895            5965     45.4883E-03     45.7023E-03
            5895            5982     41.8405E-03     41.5039E-03
            5895            5983     45.9877E-03     45.6322E-03
            5896            5965     45.4883E-03     45.7023E-03
            5896            5966     49.9715E-03     50.1897E-03
            5896            5983     45.9877E-03     45.6322E-03
            5896            5984     50.1940E-03     49.8224E-03
            5897            5966     49.9715E-03     50.1897E-03
            5897            5967     54.5054E-03     54.7372E-03
            5897            5984     50.1940E-03     49.8224E-03
            5897            5985     54.4398E-03     54.0440E-03
            5898            5967     54.5054E-03     54.7372E-03
            5898            5968     59.0798E-03     59.3276E-03
            5898            5985     54.4398E-03     54.0440E-03
            5898            5986     58.6838E-03     58.2677E-03
            5899            5968     59.0798E-03     59.3276E-03
            5899            5969     63.6458E-03     63.9338E-03
            5899            5986     58.6838E-03     58.2677E-03
            5899            5987     62.8965E-03     62.4472E-03
            5900            5969     63.6458E-03     63.9338E-03
            5900            5970     68.1696E-03     68.5083E-03
            5900            5987     62.8965E-03     62.4472E-03
            5900            5988     66.9954E-03     66.5294E-03
            5901            5970     68.1696E-03     68.5083E-03
            5901            5971     72.5220E-03     72.9739E-03
            5901            5988     66.9954E-03     66.5294E-03
            5901            5989     70.8813E-03     70.4065E-03
            5902            5971     72.5220E-03     72.9739E-03
            5902            5972     76.5405E-03     77.1602E-03
            5902            5989     70.8813E-03     70.4065E-03
            5902            5990     74.3827E-03     73.9412E-03
            5903            5972     76.5405E-03     77.1602E-03
            5903            5973     79.9729E-03     80.8533E-03
            5903            5990     74.3827E-03     73.9412E-03
            5903            5991     77.1949E-03     76.8970E-03
            5904            5973     79.9729E-03     80.8533E-03
            5904            5974     82.3812E-03     83.6378E-03
            5904            5991     77.1949E-03     76.8970E-03
            5904            5992     78.9956E-03     78.9459E-03
            5905            1010     83.9749E-03     85.3673E-03
            5905            1011     79.0368E-03     79.4621E-03
            5905            5974     82.3812E-03     83.6378E-03
            5905            5992     78.9956E-03     78.9459E-03
            5906             859     19.3445E-03     19.8994E-03
            5906             860     20.3620E-03     24.4931E-03
            5906            5975     19.3472E-03     20.7946E-03
            5906            5993     21.1527E-03     24.1546E-03
            5907            5975     19.3472E-03     20.7946E-03
            5907            5976     20.4813E-03     22.2962E-03
            5907            5993     21.1527E-03     24.1546E-03
            5907            5994     23.1823E-03     24.1931E-03
            5908            5976     20.4813E-03     22.2962E-03
            5908            5977     23.2201E-03     24.0187E-03
            5908            5994     23.1823E-03     24.1931E-03
            5908            5995     25.8180E-03     25.6709E-03
            5909            5977     23.2201E-03     24.0187E-03
            5909            5978     26.5272E-03     26.6728E-03
            5909            5995     25.8180E-03     25.6709E-03
            5909            5996     28.7109E-03     28.1824E-03
            5910            5978     26.5272E-03     26.6728E-03
            5910            5979     30.0750E-03     29.9548E-03
            5910            5996     28.7109E-03     28.1824E-03
            5910            5997     31.8811E-03     31.2061E-03
            5911            5979     30.0750E-03     29.9548E-03
            5911            5980     33.8507E-03     33.5955E-03
            5911            5997     31.8811E-03     31.2061E-03
            5911            5998     35.3162E-03     34.5657E-03
            5912            5980     33.8507E-03     33.5955E-03
            5912            5981     37.7836E-03     37.4760E-03
            5912            5998     35.3162E-03     34.5657E-03
            5912            5999     38.9288E-03     38.1375E-03
            5913            5981     37.7836E-03     37.4760E-03
            5913            5982     41.8405E-03     41.5039E-03
            5913            5999     38.9288E-03     38.1375E-03
            5913            6000     42.6782E-03     41.8455E-03
            5914            5982     41.8405E-03     41.5039E-03
            5914            5983     45.9877E-03     45.6322E-03
            5914            6000     42.6782E-03     41.8455E-03
            5914            6001     46.5037E-03     45.6328E-03
            5915            5983     45.9877E-03     45.6322E-03
            5915            5984     50.1940E-03     49.8224E-03
            5915            6001     46.5037E-03     45.6328E-03
            5915            6002     50.3731E-03     49.4520E-03
            5916            5984     50.1940E-03     49.8224E-03
            5916            5985     54.4398E-03     54.0440E-03
            5916            6002     50.3731E-03     49.4520E-03
            5916            6003     54.2365E-03     53.2620E-03
            5917            5985     54.4398E-03     54.0440E-03
            5917            5986     58.6838E-03     58.2677E-03
            5917            6003     54.2365E-03     53.2620E-03
            5917            6004     58.0614E-03     57.0080E-03
            5918            5986     58.6838E-03     58.2677E-03
            5918            5987     62.8965E-03     62.4472E-03
            5918            6004     58.0614E-03     57.0080E-03
            5918            6005     61.7848E-03     60.6423E-03
            5919            5987     62.8965E-03     62.4472E-03
            5919            5988     66.9954E-03     66.5294E-03
            5919            6005     61.7848E-03     60.6423E-03
            5919            6006     65.3443E-03     64.0721E-03
            5920            5988     66.9954E-03     66.5294E-03
            5920            5989     70.8813E-03     70.4065E-03
            5920            6006     65.3443E-03     64.0721E-03
            5920            6007     68.6383E-03     67.2121E-03
            5921            5989     70.8813E-03     70.4065E-03
            5921            5990     74.3827E-03     73.9412E-03
            5921            6007     68.6383E-03     67.2121E-03
            5921            6008     71.5159E-03     69.9050E-03
            5922            5990     74.3827E-03     73.9412E-03
            5922            5991     77.1949E-03     76.8970E-03
            5922            6008     71.5159E-03     69.9050E-03
            5922            6009     73.7834E-03     71.9533E-03
            5923            5991     77.1949E-03     76.8970E-03
            5923            5992     78.9956E-03     78.9459E-03
            5923            6009     73.7834E-03     71.9533E-03
            5923            6010     75.0985E-03     73.1056E-03
            5924            1011     79.0368E-03     79.4621E-03
            5924            1012     74.7600E-03     72.7259E-03
            5924            5992     78.9956E-03     78.9459E-03
            5924            6010     75.0985E-03     73.1056E-03
            5925             860     20.3620E-03     24.4931E-03
            5925             861     12.2784E-03     15.7987E-03
            5925            5993     21.1527E-03     24.1546E-03
            5925            6011     13.3902E-03     15.8252E-03
            5926            5993     21.1527E-03     24.1546E-03
            5926            5994     23.1823E-03     24.1931E-03
            5926            6011     13.3902E-03     15.8252E-03
            5926            6012     15.3428E-03     16.4215E-03
            5927            5994     23.1823E-03     24.1931E-03
            5927            5995     25.8180E-03     25.6709E-03
            5927            6012     15.3428E-03     16.4215E-03
            5927            6013     17.2092E-03     18.0877E-03
            5928            5995     25.8180E-03     25.6709E-03
            5928            5996     28.7109E-03     28.1824E-03
            5928            6013     17.2092E-03     18.0877E-03
            5928            6014     19.3882E-03     20.3393E-03
            5929            5996     28.7109E-03     28.1824E-03
            5929            5997     31.8811E-03     31.2061E-03
            5929            6014     19.3882E-03     20.3393E-03
            5929            6015     21.8223E-03     22.8136E-03
            5930            5997     31.8811E-03     31.2061E-03
            5930            5998     35.3162E-03     34.5657E-03
            5930            6015     21.8223E-03     22.8136E-03
            5930            6016     24.4383E-03     25.4768E-03
            5931            5998     35.3162E-03     34.5657E-03
            5931            5999     38.9288E-03     38.1375E-03
            5931            6016     24.4383E-03     25.4768E-03
            5931            6017     27.1847E-03     28.2396E-03
            5932            5999     38.9288E-03     38.1375E-03
            5932            6000     42.6782E-03     41.8455E-03
            5932            6017     27.1847E-03     28.2396E-03
            5932            6018     30.0164E-03     31.0691E-03
            5933            6000     42.6782E-03     41.8455E-03
            5933            6001     46.5037E-03     45.6328E-03
            5933            6018     30.0164E-03     31.0691E-03
            5933            6019     32.8979E-03     33.9364E-03
            5934            6001     46.5037E-03     45.6328E-03
            5934            6002     50.3731E-03     49.4520E-03
            5934            6019     32.8979E-03     33.9364E-03
            5934            6020     35.8068E-03     36.8114E-03
            5935            6002     50.3731E-03     49.4520E-03
            5935            6003     54.2365E-03     53.2620E-03
            5935            6020     35.8068E-03     36.8114E-03
            5935            6021     38.7187E-03     39.6832E-03
            5936            6003     54.2365E-03     53.2620E-03
            5936            6004     58.0614E-03     57.0080E-03
            5936            6021     38.7187E-03     39.6832E-03
            5936            6022     41.6301E-03     42.5255E-03
            5937            6004     58.0614E-03     57.0080E-03
            5937            6005     61.7848E-03     60.6423E-03
            5937            6022     41.6301E-03     42.5255E-03
            5937            6023     44.5185E-03     45.3365E-03
            5938            6005     61.7848E-03     60.6423E-03
            5938            6006     65.3443E-03     64.0721E-03
            5938            6023     44.5185E-03     45.3365E-03
            5938            6024     47.4140E-03     48.1046E-03
            5939            6006     65.3443E-03     64.0721E-03
            5939            6007     68.6383E-03     67.2121E-03
            5939            6024     47.4140E-03     48.1046E-03
            5939            6025     50.2861E-03     50.8496E-03
            5940            6007     68.6383E-03     67.2121E-03
            5940            6008     71.5159E-03     69.9050E-03
            5940            6025     50.2861E-03     50.8496E-03
            5940            6026     53.2474E-03     53.6025E-03
            5941            6008     71.5159E-03     69.9050E-03
            5941            6009     73.7834E-03     71.9533E-03
            5941            6026     53.2474E-03     53.6025E-03
            5941            6027     56.2453E-03     56.4650E-03
            5942            6009     73.7834E-03     71.9533E-03
            5942            6010     75.0985E-03     73.1056E-03
            5942            6027     56.2453E-03     56.4650E-03
            5942            6028     59.6208E-03     59.6437E-03
            5943            1012     74.7600E-03     72.7259E-03
            5943            1013     63.2740E-03     63.4549E-03
            5943            6010     75.0985E-03     73.1056E-03
            5943            6028     59.6208E-03     59.6437E-03
            5944             861     12.2784E-03     15.7987E-03
            5944             862     5.59429E-03     6.27872E-03
            5944            6011     13.3902E-03     15.8252E-03
            5944            6029     5.75472E-03     6.90866E-03
            5945            6011     13.3902E-03     15.8252E-03
            5945            6012     15.3428E-03     16.4215E-03
            5945            6029     5.75472E-03     6.90866E-03
            5945            6030     6.49231E-03     8.30540E-03
            5946            6012     15.3428E-03     16.4215E-03
            5946            6013     17.2092E-03     18.0877E-03
            5946            6030     6.49231E-03     8.30540E-03
            5946            6031     7.85090E-03     9.99948E-03
            5947            6013     17.2092E-03     18.0877E-03
            5947            6014     19.3882E-03     20.3393E-03
            5947            6031     7.85090E-03     9.99948E-03
            5947            6032     9.51298E-03     11.9276E-03
            5948            6014     19.3882E-03     20.3393E-03
            5948            6015     21.8223E-03     22.8136E-03
            5948            6032     9.51298E-03     11.9276E-03
            5948            6033     11.3511E-03     13.9580E-03
            5949            6015     21.8223E-03     22.8136E-03
            5949            6016     24.4383E-03     25.4768E-03
            5949            6033     11.3511E-03     13.9580E-03
            5949            6034     13.3042E-03     16.0379E-03
            5950            6016     24.4383E-03     25.4768E-03
            5950            6017     27.1847E-03     28.2396E-03
            5950            6034     13.3042E-03     16.0379E-03
            5950            6035     15.3236E-03     18.1463E-03
            5951            6017     27.1847E-03     28.2396E-03
            5951            6018     30.0164E-03     31.0691E-03
            5951            6035     15.3236E-03     18.1463E-03
            5951            6036     17.3898E-03     20.2645E-03
            5952            6018     30.0164E-03     31.0691E-03
            5952            6019     32.8979E-03     33.9364E-03
            5952            6036     17.3898E-03     20.2645E-03
            5952            6037     19.4884E-03     22.3942E-03
            5953            6019     32.8979E-03     33.9364E-03
            5953            6020     35.8068E-03     36.8114E-03
            5953            6037     19.4884E-03     22.3942E-03
            5953            6038     21.6147E-03     24.5308E-03
            5954            6020     35.8068E-03     36.8114E-03
            5954            6021     38.7187E-03     39.6832E-03
            5954            6038     21.6147E-03     24.5308E-03
            5954            6039     23.7793E-03     26.6944E-03
            5955            6021     38.7187E-03     39.6832E-03
            5955            6022     41.6301E-03     42.5255E-03
            5955            6039     23.7793E-03     26.6944E-03
            5955            6040     25.9972E-03     28.8960E-03
            5956            6022     41.6301E-03     42.5255E-03
            5956            6023     44.5185E-03     45.3365E-03
            5956            6040     25.9972E-03     28.8960E-03
            5956            6041     28.3240E-03     31.1986E-03
            5957            6023     44.5185E-03     45.3365E-03
            5957            6024     47.4140E-03     48.1046E-03
            5957            6041     28.3240E-03     31.1986E-03
            5957            6042     30.8142E-03     33.6543E-03
            5958            6024     47.4140E-03     48.1046E-03
            5958            6025     50.2861E-03     50.8496E-03
            5958            6042     30.8142E-03     33.6543E-03
            5958            6043     33.6347E-03     36.4359E-03
            5959            6025     50.2861E-03     50.8496E-03
            5959            6026     53.2474E-03     53.6025E-03
            5959            6043     33.6347E-03     36.4359E-03
            5959            6044     36.9227E-03     39.7040E-03
            5960            6026     53.2474E-03     53.6025E-03
            5960            6027     56.2453E-03     56.4650E-03
            5960            6044     36.9227E-03     39.7040E-03
            5960            6045     41.1529E-03     43.9365E-03
            5961            6027     56.2453E-03     56.4650E-03
            5961            6028     59.6208E-03     59.6437E-03
            5961            6045     41.1529E-03     43.9365E-03
            5961            6046     46.6626E-03     49.5697E-03
            5962            1013     63.2740E-03     63.4549E-03
            5962            1014     55.2895E-03     58.4412E-03
            5962            6028     59.6208E-03     59.6437E-03
            5962            6046     46.6626E-03     49.5697E-03
            5963             862     5.59429E-03     6.27872E-03
            5963             863     7.50572E-03     6.88671E-03
            5963            6029     5.75472E-03     6.90866E-03
            5963            6047     7.56850E-03     7.52820E-03
            5964            6029     5.75472E-03     6.90866E-03
            5964            6030     6.49231E-03     8.30540E-03
            5964            6047     7.56850E-03     7.52820E-03
            5964            6048     8.05890E-03     8.96293E-03
            5965            6030     6.49231E-03     8.30540E-03
            5965            6031     7.85090E-03     9.99948E-03
            5965            6048     8.05890E-03     8.96293E-03
            5965            6049     9.18329E-03     10.6314E-03
            5966            6031     7.85090E-03     9.99948E-03
            5966            6032     9.51298E-03     11.9276E-03
            5966            6049     9.18329E-03     10.6314E-03
            5966            6050     10.7066E-03     12.4701E-03
            5967            6032     9.51298E-03     11.9276E-03
            5967            6033     11.3511E-03     13.9580E-03
            5967            6050     10.7066E-03     12.4701E-03
            5967            6051     12.4486E-03     14.4412E-03
            5968            6033     11.3511E-03     13.9580E-03
            5968            6034     13.3042E-03     16.0379E-03
            5968            6051     12.4486E-03     14.4412E-03
            5968            6052     14.3374E-03     16.4827E-03
            5969            6034     13.3042E-03     16.0379E-03
            5969            6035     15.3236E-03     18.1463E-03
            5969            6052     14.3374E-03     16.4827E-03
            5969            6053     16.3206E-03     18.5657E-03
            5970            6035     15.3236E-03     18.1463E-03
            5970            6036     17.3898E-03     20.2645E-03
            5970            6053     16.3206E-03     18.5657E-03
            5970            6054     18.3670E-03     20.6789E-03
            5971            6036     17.3898E-03     20.2645E-03
            5971            6037     19.4884E-03     22.3942E-03
            5971            6054     18.3670E-03     20.6789E-03
            5971            6055     20.4567E-03     22.8106E-03
            5972            6037     19.4884E-03     22.3942E-03
            5972            6038     21.6147E-03     24.5308E-03
            5972            6055     20.4567E-03     22.8106E-03
            5972            6056     22.5840E-03     24.9654E-03
            5973            6038     21.6147E-03     24.5308E-03
            5973            6039     23.7793E-03     26.6944E-03
            5973            6056     22.5840E-03     24.9654E-03
            5973            6057     24.7466E-03     27.1453E-03
            5974            6039     23.7793E-03     26.6944E-03
            5974            6040     25.9972E-03     28.8960E-03
            5974            6057     24.7466E-03     27.1453E-03
            5974            6058     26.9701E-03     29.3782E-03
            5975            6040     25.9972E-03     28.8960E-03
            5975            6041     28.3240E-03     31.1986E-03
            5975            6058     26.9701E-03     29.3782E-03
            5975            6059     29.2786E-03     31.6941E-03
            5976            6041     28.3240E-03     31.1986E-03
            5976            6042     30.8142E-03     33.6543E-03
            5976            6059     29.2786E-03     31.6941E-03
            5976            6060     31.7687E-03     34.1776E-03
            5977            6042     30.8142E-03     33.6543E-03
            5977            6043     33.6347E-03     36.4359E-03
            5977            6060     31.7687E-03     34.1776E-03
            5977            6061     34.5303E-03     36.9387E-03
            5978            6043     33.6347E-03     36.4359E-03
            5978            6044     36.9227E-03     39.7040E-03
            5978            6061     34.5303E-03     36.9387E-03
            5978            6062     37.8388E-03     40.2005E-03
            5979            6044     36.9227E-03     39.7040E-03
            5979            6045     41.1529E-03     43.9365E-03
            5979            6062     37.8388E-03     40.2005E-03
            5979            6063     41.9972E-03     44.3146E-03
            5980            6045     41.1529E-03     43.9365E-03
            5980            6046     46.6626E-03     49.5697E-03
            5980            6063     41.9972E-03     44.3146E-03
            5980            6064     47.6764E-03     49.8119E-03
            5981            1014     55.2895E-03     58.4412E-03
            5981            1015     56.8628E-03     58.1956E-03
            5981            6046     46.6626E-03     49.5697E-03
            5981            6064     47.6764E-03     49.8119E-03
            5982             863     7.50572E-03     6.88671E-03
            5982             864     8.78123E-03     7.98611E-03
            5982            6047     7.56850E-03     7.52820E-03
            5982            6065     8.97830E-03     8.45002E-03
            5983            6047     7.56850E-03     7.52820E-03
            5983            6048     8.05890E-03     8.96293E-03
            5983            6065     8.97830E-03     8.45002E-03
            5983            6066     9.53984E-03     9.68169E-03
            5984            6048     8.05890E-03     8.96293E-03
            5984            6049     9.18329E-03     10.6314E-03
            5984            6066     9.53984E-03     9.68169E-03
            5984            6067     10.5023E-03     11.3010E-03
            5985            6049     9.18329E-03     10.6314E-03
            5985            6050     10.7066E-03     12.4701E-03
            5985            6067     10.5023E-03     11.3010E-03
            5985            6068     11.8788E-03     13.0784E-03
            5986            6050     10.7066E-03     12.4701E-03
            5986            6051     12.4486E-03     14.4412E-03
            5986            6068     11.8788E-03     13.0784E-03
            5986            6069     13.5326E-03     14.9836E-03
            5987            6051     12.4486E-03     14.4412E-03
            5987            6052     14.3374E-03     16.4827E-03
            5987            6069     13.5326E-03     14.9836E-03
            5987            6070     15.3591E-03     16.9748E-03
            5988            6052     14.3374E-03     16.4827E-03
            5988            6053     16.3206E-03     18.5657E-03
            5988            6070     15.3591E-03     16.9748E-03
            5988            6071     17.3096E-03     19.0285E-03
            5989            6053     16.3206E-03     18.5657E-03
            5989            6054     18.3670E-03     20.6789E-03
            5989            6071     17.3096E-03     19.0285E-03
            5989            6072     19.3402E-03     21.1275E-03
            5990            6054     18.3670E-03     20.6789E-03
            5990            6055     20.4567E-03     22.8106E-03
            5990            6072     19.3402E-03     21.1275E-03
            5990            6073     21.4318E-03     23.2656E-03
            5991            6055     20.4567E-03     22.8106E-03
            5991            6056     22.5840E-03     24.9654E-03
            5991            6073     21.4318E-03     23.2656E-03
            5991            6074     23.5680E-03     25.4384E-03
            5992            6056     22.5840E-03     24.9654E-03
            5992            6057     24.7466E-03     27.1453E-03
            5992            6074     23.5680E-03     25.4384E-03
            5992            6075     25.7519E-03     27.6515E-03
            5993            6057     24.7466E-03     27.1453E-03
            5993            6058     26.9701E-03     29.3782E-03
            5993            6075     25.7519E-03     27.6515E-03
            5993            6076     27.9868E-03     29.9175E-03
            5994            6058     26.9701E-03     29.3782E-03
            5994            6059     29.2786E-03     31.6941E-03
            5994            6076     27.9868E-03     29.9175E-03
            5994            6077     30.3118E-03     32.2652E-03
            5995            6059     29.2786E-03     31.6941E-03
            5995            6060     31.7687E-03     34.1776E-03
            5995            6077     30.3118E-03     32.2652E-03
            5995            6078     32.7682E-03     34.7509E-03
            5996            6060     31.7687E-03     34.1776E-03
            5996            6061     34.5303E-03     36.9387E-03
            5996            6078     32.7682E-03     34.7509E-03
            5996            6079     35.4802E-03     37.4573E-03
            5997            6061     34.5303E-03     36.9387E-03
            5997            6062     37.8388E-03     40.2005E-03
            5997            6079     35.4802E-03     37.4573E-03
            5997            6080     38.6286E-03     40.5775E-03
            5998            6062     37.8388E-03     40.2005E-03
            5998            6063     41.9972E-03     44.3146E-03
            5998            6080     38.6286E-03     40.5775E-03
            5998            6081     42.4836E-03     44.3117E-03
            5999            6063     41.9972E-03     44.3146E-03
            5999            6064     47.6764E-03     49.8119E-03
            5999            6081     42.4836E-03     44.3117E-03
            5999            6082     47.9065E-03     49.2997E-03
            6000            1015     56.8628E-03     58.1956E-03
            6000            1016     54.7934E-03     55.7882E-03
            6000            6064     47.6764E-03     49.8119E-03
            6000            6082     47.9065E-03     49.2997E-03
            6001             864     8.78123E-03     7.98611E-03
            6001             865     10.1074E-03     9.14881E-03
            6001            6065     8.97830E-03     8.45002E-03
            6001            6083     10.2448E-03     9.57226E-03
            6002            6065     8.97830E-03     8.45002E-03
            6002            6066     9.53984E-03     9.68169E-03
            6002            6083     10.2448E-03     9.57226E-03
            6002            6084     10.7689E-03     10.6146E-03
            6003            6066     9.53984E-03     9.68169E-03
            6003            6067     10.5023E-03     11.3010E-03
            6003            6084     10.7689E-03     10.6146E-03
            6003            6085     11.7184E-03     12.0508E-03
            6004            6067     10.5023E-03     11.3010E-03
            6004            6068     11.8788E-03     13.0784E-03
            6004            6085     11.7184E-03     12.0508E-03
            6004            6086     12.9981E-03     13.7477E-03
            6005            6068     11.8788E-03     13.0784E-03
            6005            6069     13.5326E-03     14.9836E-03
            6005            6086     12.9981E-03     13.7477E-03
            6005            6087     14.5654E-03     15.5651E-03
            6006            6069     13.5326E-03     14.9836E-03
            6006            6070     15.3591E-03     16.9748E-03
            6006            6087     14.5654E-03     15.5651E-03
            6006            6088     16.3423E-03     17.4904E-03
            6007            6070     15.3591E-03     16.9748E-03
            6007            6071     17.3096E-03     19.0285E-03
            6007            6088     16.3423E-03     17.4904E-03
            6007            6089     18.2556E-03     19.4958E-03
            6008            6071     17.3096E-03     19.0285E-03
            6008            6072     19.3402E-03     21.1275E-03
            6008            6089     18.2556E-03     19.4958E-03
            6008            6090     20.2726E-03     21.5682E-03
            6009            6072     19.3402E-03     21.1275E-03
            6009            6073     21.4318E-03     23.2656E-03
            6009            6090     20.2726E-03     21.5682E-03
            6009            6091     22.3609E-03     23.6997E-03
            6010            6073     21.4318E-03     23.2656E-03
            6010            6074     23.5680E-03     25.4384E-03
            6010            6091     22.3609E-03     23.6997E-03
            6010            6092     24.5083E-03     25.8825E-03
            6011            6074     23.5680E-03     25.4384E-03
            6011            6075     25.7519E-03     27.6515E-03
            6011            6092     24.5083E-03     25.8825E-03
            6011            6093     26.7053E-03     28.1175E-03
            6012            6075     25.7519E-03     27.6515E-03
            6012            6076     27.9868E-03     29.9175E-03
            6012            6093     26.7053E-03     28.1175E-03
            6012            6094     28.9548E-03     30.4041E-03
            6013            6076     27.9868E-03     29.9175E-03
            6013            6077     30.3118E-03     32.2652E-03
            6013            6094     28.9548E-03     30.4041E-03
            6013            6095     31.2661E-03     32.7612E-03
            6014            6077     30.3118E-03     32.2652E-03
            6014            6078     32.7682E-03     34.7509E-03
            6014            6095     31.2661E-03     32.7612E-03
            6014            6096     33.6623E-03     35.1976E-03
            6015            6078     32.7682E-03     34.7509E-03
            6015            6079     35.4802E-03     37.4573E-03
            6015            6096     33.6623E-03     35.1976E-03
            6015            6097     36.2138E-03     37.7780E-03
            6016            6079     35.4802E-03     37.4573E-03
            6016            6080     38.6286E-03     40.5775E-03
            6016            6097     36.2138E-03     37.7780E-03
            6016            6098     38.9825E-03     40.5459E-03
            6017            6080     38.6286E-03     40.5775E-03
            6017            6081     42.4836E-03     44.3117E-03
            6017            6098     38.9825E-03     40.5459E-03
            6017            6099     42.3152E-03     43.7221E-03
            6018            6081     42.4836E-03     44.3117E-03
            6018            6082     47.9065E-03     49.2997E-03
            6018            6099     42.3152E-03     43.7221E-03
            6018            6100     46.2609E-03     47.4980E-03
            6019            1016     54.7934E-03     55.7882E-03
            6019            1017     50.9856E-03     52.0835E-03
            6019            6082     47.9065E-03     49.2997E-03
            6019            6100     46.2609E-03     47.4980E-03
            6020             865     10.1074E-03     9.14881E-03
            6020             866     11.2669E-03     10.3508E-03
            6020            6083     10.2448E-03     9.57226E-03
            6020            6101     11.4321E-03     10.6801E-03
            6021            6083     10.2448E-03     9.57226E-03
            6021            6084     10.7689E-03     10.6146E-03
            6021            6101     11.4321E-03     10.6801E-03
            6021            6102     11.9355E-03     11.6181E-03
            6022            6084     10.7689E-03     10.6146E-03
            6022            6085     11.7184E-03     12.0508E-03
            6022            6102     11.9355E-03     11.6181E-03
            6022            6103     12.8045E-03     12.9348E-03
            6023            6085     11.7184E-03     12.0508E-03
            6023            6086     12.9981E-03     13.7477E-03
            6023            6103     12.8045E-03     12.9348E-03
            6023            6104     14.0321E-03     14.4661E-03
            6024            6086     12.9981E-03     13.7477E-03
            6024            6087     14.5654E-03     15.5651E-03
            6024            6104     14.0321E-03     14.4661E-03
            6024            6105     15.5400E-03     16.1785E-03
            6025            6087     14.5654E-03     15.5651E-03
            6025            6088     16.3423E-03     17.4904E-03
            6025            6105     15.5400E-03     16.1785E-03
            6025            6106     17.2587E-03     18.0042E-03
            6026            6088     16.3423E-03     17.4904E-03
            6026            6089     18.2556E-03     19.4958E-03
            6026            6106     17.2587E-03     18.0042E-03
            6026            6107     19.1376E-03     19.9336E-03
            6027            6089     18.2556E-03     19.4958E-03
            6027            6090     20.2726E-03     21.5682E-03
            6027            6107     19.1376E-03     19.9336E-03
            6027            6108     21.1251E-03     21.9564E-03
            6028            6090     20.2726E-03     21.5682E-03
            6028            6091     22.3609E-03     23.6997E-03
            6028            6108     21.1251E-03     21.9564E-03
            6028            6109     23.1970E-03     24.0556E-03
            6029            6091     22.3609E-03     23.6997E-03
            6029            6092     24.5083E-03     25.8825E-03
            6029            6109     23.1970E-03     24.0556E-03
            6029            6110     25.3354E-03     26.2242E-03
            6030            6092     24.5083E-03     25.8825E-03
            6030            6093     26.7053E-03     28.1175E-03
            6030            6110     25.3354E-03     26.2242E-03
            6030            6111     27.5258E-03     28.4483E-03
            6031            6093     26.7053E-03     28.1175E-03
            6031            6094     28.9548E-03     30.4041E-03
            6031            6111     27.5258E-03     28.4483E-03
            6031            6112     29.7620E-03     30.7273E-03
            6032            6094     28.9548E-03     30.4041E-03
            6032            6095     31.2661E-03     32.7612E-03
            6032            6112     29.7620E-03     30.7273E-03
            6032            6113     32.0219E-03     33.0394E-03
            6033            6095     31.2661E-03     32.7612E-03
            6033            6096     33.6623E-03     35.1976E-03
            6033            6113     32.0219E-03     33.0394E-03
            6033            6114     34.3123E-03     35.3876E-03
            6034            6096     33.6623E-03     35.1976E-03
            6034            6097     36.2138E-03     37.7780E-03
            6034            6114     34.3123E-03     35.3876E-03
            6034            6115     36.5772E-03     37.7285E-03
            6035            6097     36.2138E-03     37.7780E-03
            6035            6098     38.9825E-03     40.5459E-03
            6035            6115     36.5772E-03     37.7285E-03
            6035            6116     38.8932E-03     40.0681E-03
            6036            6098     38.9825E-03     40.5459E-03
            6036            6099     42.3152E-03     43.7221E-03
            6036            6116     38.8932E-03     40.0681E-03
            6036            6117     41.2239E-03     42.4190E-03
            6037            6099     42.3152E-03     43.7221E-03
            6037            6100     46.2609E-03     47.4980E-03
            6037            6117     41.2239E-03     42.4190E-03
            6037            6118     43.7520E-03     44.8608E-03
            6038            1017     50.9856E-03     52.0835E-03
            6038            1018     47.0306E-03     47.8115E-03
            6038            6100     46.2609E-03     47.4980E-03
            6038            6118     43.7520E-03     44.8608E-03
            6039             866     11.2669E-03     10.3508E-03
            6039             867     12.4639E-03     11.4459E-03
            6039            6101     11.4321E-03     10.6801E-03
            6039            6119     12.5828E-03     11.8363E-03
            6040            6101     11.4321E-03     10.6801E-03
            6040            6102     11.9355E-03     11.6181E-03
            6040            6119     12.5828E-03     11.8363E-03
            6040            6120     13.0090E-03     12.7187E-03
            6041            6102     11.9355E-03     11.6181E-03
            6041            6103     12.8045E-03     12.9348E-03
            6041            6120     13.0090E-03     12.7187E-03
            6041            6121     13.8263E-03     13.8646E-03
            6042            6103     12.8045E-03     12.9348E-03
            6042            6104     14.0321E-03     14.4661E-03
            6042            6121     13.8263E-03     13.8646E-03
            6042            6122     14.9948E-03     15.2616E-03
            6043            6104     14.0321E-03     14.4661E-03
            6043            6105     15.5400E-03     16.1785E-03
            6043            6122     14.9948E-03     15.2616E-03
            6043            6123     16.4435E-03     16.8075E-03
            6044            6105     15.5400E-03     16.1785E-03
            6044            6106     17.2587E-03     18.0042E-03
            6044            6123     16.4435E-03     16.8075E-03
            6044            6124     18.1161E-03     18.4949E-03
            6045            6106     17.2587E-03     18.0042E-03
            6045            6107     19.1376E-03     19.9336E-03
            6045            6124     18.1161E-03     18.4949E-03
            6045            6125     19.9402E-03     20.3205E-03
            6046            6107     19.1376E-03     19.9336E-03
            6046            6108     21.1251E-03     21.9564E-03
            6046            6125     19.9402E-03     20.3205E-03
            6046            6126     21.8768E-03     22.2580E-03
            6047            6108     21.1251E-03     21.9564E-03
            6047            6109     23.1970E-03     24.0556E-03
            6047            6126     21.8768E-03     22.2580E-03
            6047            6127     23.9028E-03     24.2919E-03
            6048            6109     23.1970E-03     24.0556E-03
            6048            6110     25.3354E-03     26.2242E-03
            6048            6127     23.9028E-03     24.2919E-03
            6048            6128     25.9961E-03     26.4012E-03
            6049            6110     25.3354E-03     26.2242E-03
            6049            6111     27.5258E-03     28.4483E-03
            6049            6128     25.9961E-03     26.4012E-03
            6049            6129     28.1453E-03     28.5747E-03
            6050            6111     27.5258E-03     28.4483E-03
            6050            6112     29.7620E-03     30.7273E-03
            6050            6129     28.1453E-03     28.5747E-03
            6050            6130     30.3179E-03     30.7845E-03
            6051            6112     29.7620E-03     30.7273E-03
            6051            6113     32.0219E-03     33.0394E-03
            6051            6130     30.3179E-03     30.7845E-03
            6051            6131     32.4987E-03     33.0123E-03
            6052            6113     32.0219E-03     33.0394E-03
            6052            6114     34.3123E-03     35.3876E-03
            6052            6131     32.4987E-03     33.0123E-03
            6052            6132     34.6029E-03     35.1957E-03
            6053            6114     34.3123E-03     35.3876E-03
            6053            6115     36.5772E-03     37.7285E-03
            6053            6132     34.6029E-03     35.1957E-03
            6053            6133     36.6012E-03     37.2728E-03
            6054            6115     36.5772E-03     37.7285E-03
            6054            6116     38.8932E-03     40.0681E-03
            6054            6133     36.6012E-03     37.2728E-03
            6054            6134     38.3099E-03     39.1246E-03
            6055            6116     38.8932E-03     40.0681E-03
            6055            6117     41.2239E-03     42.4190E-03
            6055            6134     38.3099E-03     39.1246E-03
            6055            6135     39.6990E-03     40.6168E-03
            6056            6117     41.2239E-03     42.4190E-03
            6056            6118     43.7520E-03     44.8608E-03
            6056            6135     39.6990E-03     40.6168E-03
            6056            6136     40.9798E-03     41.8574E-03
            6057            1018     47.0306E-03     47.8115E-03
            6057            1019     42.6720E-03     43.4215E-03
            6057            6118     43.7520E-03     44.8608E-03
            6057            6136     40.9798E-03     41.8574E-03
            6058             867     12.4639E-03     11.4459E-03
            6058             868     13.5322E-03     12.9137E-03
            6058            6119     12.5828E-03     11.8363E-03
            6058            6137     13.6301E-03     13.1365E-03
            6059            6119     12.5828E-03     11.8363E-03
            6059            6120     13.0090E-03     12.7187E-03
            6059            6137     13.6301E-03     13.1365E-03
            6059            6138     14.0358E-03     13.8463E-03
            6060            6120     13.0090E-03     12.7187E-03
            6060            6121     13.8263E-03     13.8646E-03
            6060            6138     14.0358E-03     13.8463E-03
            6060            6139     14.7997E-03     14.9157E-03
            6061            6121     13.8263E-03     13.8646E-03
            6061            6122     14.9948E-03     15.2616E-03
            6061            6139     14.7997E-03     14.9157E-03
            6061            6140     15.8992E-03     16.1046E-03
            6062            6122     14.9948E-03     15.2616E-03
            6062            6123     16.4435E-03     16.8075E-03
            6062            6140     15.8992E-03     16.1046E-03
            6062            6141     17.3179E-03     17.4318E-03
            6063            6123     16.4435E-03     16.8075E-03
            6063            6124     18.1161E-03     18.4949E-03
            6063            6141     17.3179E-03     17.4318E-03
            6063            6142     18.9298E-03     18.9599E-03
            6064            6124     18.1161E-03     18.4949E-03
            6064            6125     19.9402E-03     20.3205E-03
            6064            6142     18.9298E-03     18.9599E-03
            6064            6143     20.6724E-03     20.6480E-03
            6065            6125     19.9402E-03     20.3205E-03
            6065            6126     21.8768E-03     22.2580E-03
            6065            6143     20.6724E-03     20.6480E-03
            6065            6144     22.5257E-03     22.4668E-03
            6066            6126     21.8768E-03     22.2580E-03
            6066            6127     23.9028E-03     24.2919E-03
            6066            6144     22.5257E-03     22.4668E-03
            6066            6145     24.4611E-03     24.3880E-03
            6067            6127     23.9028E-03     24.2919E-03
            6067            6128     25.9961E-03     26.4012E-03
            6067            6145     24.4611E-03     24.3880E-03
            6067            6146     26.4670E-03     26.3900E-03
            6068            6128     25.9961E-03     26.4012E-03
            6068            6129     28.1453E-03     28.5747E-03
            6068            6146     26.4670E-03     26.3900E-03
            6068            6147     28.5141E-03     28.4460E-03
            6069            6129     28.1453E-03     28.5747E-03
            6069            6130     30.3179E-03     30.7845E-03
            6069            6147     28.5141E-03     28.4460E-03
            6069            6148     30.5836E-03     30.5321E-03
            6070            6130     30.3179E-03     30.7845E-03
            6070            6131     32.4987E-03     33.0123E-03
            6070            6148     30.5836E-03     30.5321E-03
            6070            6149     32.6083E-03     32.5965E-03
            6071            6131     32.4987E-03     33.0123E-03
            6071            6132     34.6029E-03     35.1957E-03
            6071            6149     32.6083E-03     32.5965E-03
            6071            6150     34.5380E-03     34.5780E-03
            6072            6132     34.6029E-03     35.1957E-03
            6072            6133     36.6012E-03     37.2728E-03
            6072            6150     34.5380E-03     34.5780E-03
            6072            6151     36.2005E-03     36.3528E-03
            6073            6133     36.6012E-03     37.2728E-03
            6073            6134     38.3099E-03     39.1246E-03
            6073            6151     36.2005E-03     36.3528E-03
            6073            6152     37.4608E-03     37.7545E-03
            6074            6134     38.3099E-03     39.1246E-03
            6074            6135     39.6990E-03     40.6168E-03
            6074            6152     37.4608E-03     37.7545E-03
            6074            6153     38.0403E-03     38.5570E-03
            6075            6135     39.6990E-03     40.6168E-03
            6075            6136     40.9798E-03     41.8574E-03
            6075            6153     38.0403E-03     38.5570E-03
            6075            6154     37.9752E-03     38.6803E-03
            6076            1019     42.6720E-03     43.4215E-03
            6076            1020     38.2706E-03     38.7880E-03
            6076            6136     40.9798E-03     41.8574E-03
            6076            6154     37.9752E-03     38.6803E-03
            6077             868     13.5322E-03     12.9137E-03
            6077             869     14.5972E-03     13.9255E-03
            6077            6137     13.6301E-03     13.1365E-03
            6077            6155     14.7246E-03     14.3507E-03
            6078            6137     13.6301E-03     13.1365E-03
            6078            6138     14.0358E-03     13.8463E-03
            6078            6155     14.7246E-03     14.3507E-03
            6078            6156     15.0260E-03     15.2501E-03
            6079            6138     14.0358E-03     13.8463E-03
            6079            6139     14.7997E-03     14.9157E-03
            6079            6156     15.0260E-03     15.2501E-03
            6079            6157     15.6812E-03     16.0764E-03
            6080            6139     14.7997E-03     14.9157E-03
            6080            6140     15.8992E-03     16.1046E-03
            6080            6157     15.6812E-03     16.0764E-03
            6080            6158     16.8333E-03     16.9243E-03
            6081            6140     15.8992E-03     16.1046E-03
            6081            6141     17.3179E-03     17.4318E-03
            6081            6158     16.8333E-03     16.9243E-03
            6081            6159     18.2191E-03     18.0532E-03
            6082            6141     17.3179E-03     17.4318E-03
            6082            6142     18.9298E-03     18.9599E-03
            6082            6159     18.2191E-03     18.0532E-03
            6082            6160     19.7309E-03     19.4103E-03
            6083            6142     18.9298E-03     18.9599E-03
            6083            6143     20.6724E-03     20.6480E-03
            6083            6160     19.7309E-03     19.4103E-03
            6083            6161     21.3657E-03     20.9398E-03
            6084            6143     20.6724E-03     20.6480E-03
            6084            6144     22.5257E-03     22.4668E-03
            6084            6161     21.3657E-03     20.9398E-03
            6084            6162     23.0886E-03     22.6042E-03
            6085            6144     22.5257E-03     22.4668E-03
            6085            6145     24.4611E-03     24.3880E-03
            6085            6162     23.0886E-03     22.6042E-03
            6085            6163     24.8915E-03     24.3664E-03
            6086            6145     24.4611E-03     24.3880E-03
            6086            6146     26.4670E-03     26.3900E-03
            6086            6163     24.8915E-03     24.3664E-03
            6086            6164     26.7483E-03     26.1989E-03
            6087            6146     26.4670E-03     26.3900E-03
            6087            6147     28.5141E-03     28.4460E-03
            6087            6164     26.7483E-03     26.1989E-03
            6087            6165     28.6414E-03     28.0733E-03
            6088            6147     28.5141E-03     28.4460E-03
            6088            6148     30.5836E-03     30.5321E-03
            6088            6165     28.6414E-03     28.0733E-03
            6088            6166     30.5261E-03     29.9518E-03
            6089            6148     30.5836E-03     30.5321E-03
            6089            6149     32.6083E-03     32.5965E-03
            6089            6166     30.5261E-03     29.9518E-03
            6089            6167     32.3597E-03     31.7845E-03
            6090            6149     32.6083E-03     32.5965E-03
            6090            6150     34.5380E-03     34.5780E-03
            6090            6167     32.3597E-03     31.7845E-03
            6090            6168     34.0345E-03     33.4880E-03
            6091            6150     34.5380E-03     34.5780E-03
            6091            6151     36.2005E-03     36.3528E-03
            6091            6168     34.0345E-03     33.4880E-03
            6091            6169     35.4303E-03     34.9381E-03
            6092            6151     36.2005E-03     36.3528E-03
            6092            6152     37.4608E-03     37.7545E-03
            6092            6169     35.4303E-03     34.9381E-03
            6092            6170     36.2972E-03     35.9341E-03
            6093            6152     37.4608E-03     37.7545E-03
            6093            6153     38.0403E-03     38.5570E-03
            6093            6170     36.2972E-03     35.9341E-03
            6093            6171     36.3771E-03     36.2345E-03
            6094            6153     38.0403E-03     38.5570E-03
            6094            6154     37.9752E-03     38.6803E-03
            6094            6171     36.3771E-03     36.2345E-03
            6094            6172     35.2365E-03     35.4520E-03
            6095            1020     38.2706E-03     38.7880E-03
            6095            1021     33.6151E-03     34.0335E-03
            6095            6154     37.9752E-03     38.6803E-03
            6095            6172     35.2365E-03     35.4520E-03
            6096             869     14.5972E-03     13.9255E-03
            6096             870     15.9277E-03     15.9500E-03
            6096            6155     14.7246E-03     14.3507E-03
            6096            6173     15.6791E-03     16.3751E-03
            6097            6155     14.7246E-03     14.3507E-03
            6097            6156     15.0260E-03     15.2501E-03
            6097            6173     15.6791E-03     16.3751E-03
            6097            6174     15.7631E-03     16.8476E-03
            6098            6156     15.0260E-03     15.2501E-03
            6098            6157     15.6812E-03     16.0764E-03
            6098            6174     15.7631E-03     16.8476E-03
            6098            6175     16.7004E-03     17.0869E-03
            6099            6157     15.6812E-03     16.0764E-03
            6099            6158     16.8333E-03     16.9243E-03
            6099            6175     16.7004E-03     17.0869E-03
            6099            6176     17.9068E-03     17.7144E-03
            6100            6158     16.8333E-03     16.9243E-03
            6100            6159     18.2191E-03     18.0532E-03
            6100            6176     17.9068E-03     17.7144E-03
            6100            6177     19.1835E-03     18.6934E-03
            6101            6159     18.2191E-03     18.0532E-03
            6101            6160     19.7309E-03     19.4103E-03
            6101            6177     19.1835E-03     18.6934E-03
            6101            6178     20.5756E-03     19.8877E-03
            6102            6160     19.7309E-03     19.4103E-03
            6102            6161     21.3657E-03     20.9398E-03
            6102            6178     20.5756E-03     19.8877E-03
            6102            6179     22.0561E-03     21.2519E-03
            6103            6161     21.3657E-03     20.9398E-03
            6103            6162     23.0886E-03     22.6042E-03
            6103            6179     22.0561E-03     21.2519E-03
            6103            6180     23.6183E-03     22.7304E-03
            6104            6162     23.0886E-03     22.6042E-03
            6104            6163     24.8915E-03     24.3664E-03
            6104            6180     23.6183E-03     22.7304E-03
            6104            6181     25.2395E-03     24.2903E-03
            6105            6163     24.8915E-03     24.3664E-03
            6105            6164     26.7483E-03     26.1989E-03
            6105            6181     25.2395E-03     24.2903E-03
            6105            6182     26.8996E-03     25.8968E-03
            6106            6164     26.7483E-03     26.1989E-03
            6106            6165     28.6414E-03     28.0733E-03
            6106            6182     26.8996E-03     25.8968E-03
            6106            6183     28.5668E-03     27.5176E-03
            6107            6165     28.6414E-03     28.0733E-03
            6107            6166     30.5261E-03     29.9518E-03
            6107            6183     28.5668E-03     27.5176E-03
            6107            6184     30.2055E-03     29.1086E-03
            6108            6166     30.5261E-03     29.9518E-03
            6108            6167     32.3597E-03     31.7845E-03
            6108            6184     30.2055E-03     29.1086E-03
            6108            6185     31.7549E-03     30.6170E-03
            6109            6167     32.3597E-03     31.7845E-03
            6109            6168     34.0345E-03     33.4880E-03
            6109            6185     31.7549E-03     30.6170E-03
            6109            6186     33.1314E-03     31.9545E-03
            6110            6168     34.0345E-03     33.4880E-03
            6110            6169     35.4303E-03     34.9381E-03
            6110            6186     33.1314E-03     31.9545E-03
            6110            6187     34.2060E-03     33.0062E-03
            6111            6169     35.4303E-03     34.9381E-03
            6111            6170     36.2972E-03     35.9341E-03
            6111            6187     34.2060E-03     33.0062E-03
            6111            6188     34.7663E-03     33.5874E-03
            6112            6170     36.2972E-03     35.9341E-03
            6112            6171     36.3771E-03     36.2345E-03
            6112            6188     34.7663E-03     33.5874E-03
            6112            6189     34.5183E-03     33.4230E-03
            6113            6171     36.3771E-03     36.2345E-03
            6113            6172     35.2365E-03     35.4520E-03
            6113            6189     34.5183E-03     33.4230E-03
            6113            6190     33.0161E-03     32.1924E-03
            6114            1021     33.6151E-03     34.0335E-03
            6114            1022     29.5649E-03     29.2914E-03
            6114            6172     35.2365E-03     35.4520E-03
            6114            6190     33.0161E-03     32.1924E-03
            6115             870     15.9277E-03     15.9500E-03
            6115             871     15.8196E-03     18.7195E-03
            6115            6173     15.6791E-03     16.3751E-03
            6115            6191     16.1399E-03     18.3420E-03
            6116            6173     15.6791E-03     16.3751E-03
            6116            6174     15.7631E-03     16.8476E-03
            6116            6191     16.1399E-03     18.3420E-03
            6116            6192     16.9988E-03     17.8075E-03
            6117            6174     15.7631E-03     16.8476E-03
            6117            6175     16.7004E-03     17.0869E-03
            6117            6192     16.9988E-03     17.8075E-03
            6117            6193     18.0739E-03     17.8921E-03
            6118            6175     16.7004E-03     17.0869E-03
            6118            6176     17.9068E-03     17.7144E-03
            6118            6193     18.0739E-03     17.8921E-03
            6118            6194     19.1323E-03     18.5212E-03
            6119            6176     17.9068E-03     17.7144E-03
            6119            6177     19.1835E-03     18.6934E-03
            6119            6194     19.1323E-03     18.5212E-03
            6119            6195     20.2573E-03     19.4018E-03
            6120            6177     19.1835E-03     18.6934E-03
            6120            6178     20.5756E-03     19.8877E-03
            6120            6195     20.2573E-03     19.4018E-03
            6120            6196     21.4904E-03     20.4662E-03
            6121            6178     20.5756E-03     19.8877E-03
            6121            6179     22.0561E-03     21.2519E-03
            6121            6196     21.4904E-03     20.4662E-03
            6121            6197     22.8010E-03     21.6599E-03
            6122            6179     22.0561E-03     21.2519E-03
            6122            6180     23.6183E-03     22.7304E-03
            6122            6197     22.8010E-03     21.6599E-03
            6122            6198     24.1810E-03     22.9383E-03
            6123            6180     23.6183E-03     22.7304E-03
            6123            6181     25.2395E-03     24.2903E-03
            6123            6198     24.1810E-03     22.9383E-03
            6123            6199     25.5959E-03     24.2666E-03
            6124            6181     25.2395E-03     24.2903E-03
            6124            6182     26.8996E-03     25.8968E-03
            6124            6199     25.5959E-03     24.2666E-03
            6124            6200     27.0198E-03     25.6079E-03
            6125            6182     26.8996E-03     25.8968E-03
            6125            6183     28.5668E-03     27.5176E-03
            6125            6200     27.0198E-03     25.6079E-03
            6125            6201     28.4143E-03     26.9190E-03
            6126            6183     28.5668E-03     27.5176E-03
            6126            6184     30.2055E-03     29.1086E-03
            6126            6201     28.4143E-03     26.9190E-03
            6126            6202     29.7363E-03     28.1567E-03
            6127            6184     30.2055E-03     29.1086E-03
            6127            6185     31.7549E-03     30.6170E-03
            6127            6202     29.7363E-03     28.1567E-03
            6127            6203     30.9249E-03     29.2475E-03
            6128            6185     31.7549E-03     30.6170E-03
            6128            6186     33.1314E-03     31.9545E-03
            6128            6203     30.9249E-03     29.2475E-03
            6128            6204     31.9096E-03     30.1252E-03
            6129            6186     33.1314E-03     31.9545E-03
            6129            6187     34.2060E-03     33.0062E-03
            6129            6204     31.9096E-03     30.1252E-03
            6129            6205     32.5639E-03     30.6531E-03
            6130            6187     34.2060E-03     33.0062E-03
            6130            6188     34.7663E-03     33.5874E-03
            6130            6205     32.5639E-03     30.6531E-03
            6130            6206     32.7744E-03     30.7108E-03
            6131            6188     34.7663E-03     33.5874E-03
            6131            6189     34.5183E-03     33.4230E-03
            6131            6206     32.7744E-03     30.7108E-03
            6131            6207     32.2321E-03     30.0262E-03
            6132            6189     34.5183E-03     33.4230E-03
            6132            6190     33.0161E-03     32.1924E-03
            6132            6207     32.2321E-03     30.0262E-03
            6132            6208     30.7444E-03     28.3869E-03
            6133            1022     29.5649E-03     29.2914E-03
            6133            1023     27.2277E-03     25.0186E-03
            6133            6190     33.0161E-03     32.1924E-03
            6133            6208     30.7444E-03     28.3869E-03
            6134             871     15.8196E-03     18.7195E-03
            6134             872     11.4894E-03     14.4158E-03
            6134            6191     16.1399E-03     18.3420E-03
            6134            6209     12.2390E-03     13.9962E-03
            6135            6191     16.1399E-03     18.3420E-03
            6135            6192     16.9988E-03     17.8075E-03
            6135            6209     12.2390E-03     13.9962E-03
            6135            6210     13.2624E-03     13.5444E-03
            6136            6192     16.9988E-03     17.8075E-03
            6136            6193     18.0739E-03     17.8921E-03
            6136            6210     13.2624E-03     13.5444E-03
            6136            6211     13.6992E-03     13.7731E-03
            6137            6193     18.0739E-03     17.8921E-03
            6137            6194     19.1323E-03     18.5212E-03
            6137            6211     13.6992E-03     13.7731E-03
            6137            6212     14.1146E-03     14.2486E-03
            6138            6194     19.1323E-03     18.5212E-03
            6138            6195     20.2573E-03     19.4018E-03
            6138            6212     14.1146E-03     14.2486E-03
            6138            6213     14.6321E-03     14.7612E-03
            6139            6195     20.2573E-03     19.4018E-03
            6139            6196     21.4904E-03     20.4662E-03
            6139            6213     14.6321E-03     14.7612E-03
            6139            6214     15.2005E-03     15.3903E-03
            6140            6196     21.4904E-03     20.4662E-03
            6140            6197     22.8010E-03     21.6599E-03
            6140            6214     15.2005E-03     15.3903E-03
            6140            6215     15.8271E-03     16.0703E-03
            6141            6197     22.8010E-03     21.6599E-03
            6141            6198     24.1810E-03     22.9383E-03
            6141            6215     15.8271E-03     16.0703E-03
            6141            6216     16.4948E-03     16.7960E-03
            6142            6198     24.1810E-03     22.9383E-03
            6142            6199     25.5959E-03     24.2666E-03
            6142            6216     16.4948E-03     16.7960E-03
            6142            6217     17.1899E-03     17.5423E-03
            6143            6199     25.5959E-03     24.2666E-03
            6143            6200     27.0198E-03     25.6079E-03
            6143            6217     17.1899E-03     17.5423E-03
            6143            6218     17.8885E-03     18.2921E-03
            6144            6200     27.0198E-03     25.6079E-03
            6144            6201     28.4143E-03     26.9190E-03
            6144            6218     17.8885E-03     18.2921E-03
            6144            6219     18.5823E-03     19.0240E-03
            6145            6201     28.4143E-03     26.9190E-03
            6145            6202     29.7363E-03     28.1567E-03
            6145            6219     18.5823E-03     19.0240E-03
            6145            6220     19.2271E-03     19.7040E-03
            6146            6202     29.7363E-03     28.1567E-03
            6146            6203     30.9249E-03     29.2475E-03
            6146            6220     19.2271E-03     19.7040E-03
            6146            6221     19.8274E-03     20.3147E-03
            6147            6203     30.9249E-03     29.2475E-03
            6147            6204     31.9096E-03     30.1252E-03
            6147            6221     19.8274E-03     20.3147E-03
            6147            6222     20.2941E-03     20.7871E-03
            6148            6204     31.9096E-03     30.1252E-03
            6148            6205     32.5639E-03     30.6531E-03
            6148            6222     20.2941E-03     20.7871E-03
            6148            6223     20.6639E-03     21.1106E-03
            6149            6205     32.5639E-03     30.6531E-03
            6149            6206     32.7744E-03     30.7108E-03
            6149            6223     20.6639E-03     21.1106E-03
            6149            6224     20.7385E-03     21.1376E-03
            6150            6206     32.7744E-03     30.7108E-03
            6150            6207     32.2321E-03     30.0262E-03
            6150            6224     20.7385E-03     21.1376E-03
            6150            6225     20.6096E-03     20.8430E-03
            6151            6207     32.2321E-03     30.0262E-03
            6151            6208     30.7444E-03     28.3869E-03
            6151            6225     20.6096E-03     20.8430E-03
            6151            6226     19.7317E-03     19.9313E-03
            6152            1023     27.2277E-03     25.0186E-03
            6152            1024     18.3991E-03     18.7042E-03
            6152            6208     30.7444E-03     28.3869E-03
            6152            6226     19.7317E-03     19.9313E-03
            6153             872     11.4894E-03     14.4158E-03
            6153             873     8.92675E-03     8.73808E-03
            6153            6209     12.2390E-03     13.9962E-03
            6153            6227     8.84098E-03     8.87489E-03
            6154            6209     12.2390E-03     13.9962E-03
            6154            6210     13.2624E-03     13.5444E-03
            6154            6227     8.84098E-03     8.87489E-03
            6154            6228     8.71502E-03     9.07779E-03
            6155            6210     13.2624E-03     13.5444E-03
            6155            6211     13.6992E-03     13.7731E-03
            6155            6228     8.71502E-03     9.07779E-03
            6155            6229     8.65375E-03     9.20285E-03
            6156            6211     13.6992E-03     13.7731E-03
            6156            6212     14.1146E-03     14.2486E-03
            6156            6229     8.65375E-03     9.20285E-03
            6156            6230     8.63148E-03     9.35050E-03
            6157            6212     14.1146E-03     14.2486E-03
            6157            6213     14.6321E-03     14.7612E-03
            6157            6230     8.63148E-03     9.35050E-03
            6157            6231     8.64455E-03     9.53477E-03
            6158            6213     14.6321E-03     14.7612E-03
            6158            6214     15.2005E-03     15.3903E-03
            6158            6231     8.64455E-03     9.53477E-03
            6158            6232     8.68708E-03     9.73708E-03
            6159            6214     15.2005E-03     15.3903E-03
            6159            6215     15.8271E-03     16.0703E-03
            6159            6232     8.68708E-03     9.73708E-03
            6159            6233     8.75520E-03     9.96127E-03
            6160            6215     15.8271E-03     16.0703E-03
            6160            6216     16.4948E-03     16.7960E-03
            6160            6233     8.75520E-03     9.96127E-03
            6160            6234     8.84643E-03     10.2010E-03
            6161            6216     16.4948E-03     16.7960E-03
            6161            6217     17.1899E-03     17.5423E-03
            6161            6234     8.84643E-03     10.2010E-03
            6161            6235     8.96327E-03     10.4584E-03
            6162            6217     17.1899E-03     17.5423E-03
            6162            6218     17.8885E-03     18.2921E-03
            6162            6235     8.96327E-03     10.4584E-03
            6162            6236     9.10087E-03     10.7275E-03
            6163            6218     17.8885E-03     18.2921E-03
            6163            6219     18.5823E-03     19.0240E-03
            6163            6236     9.10087E-03     10.7275E-03
            6163            6237     9.26616E-03     11.0161E-03
            6164            6219     18.5823E-03     19.0240E-03
            6164            6220     19.2271E-03     19.7040E-03
            6164            6237     9.26616E-03     11.0161E-03
            6164            6238     9.44657E-03     11.3108E-03
            6165            6220     19.2271E-03     19.7040E-03
            6165            6221     19.8274E-03     20.3147E-03
            6165            6238     9.44657E-03     11.3108E-03
            6165            6239     9.66526E-03     11.6329E-03
            6166            6221     19.8274E-03     20.3147E-03
            6166            6222     20.2941E-03     20.7871E-03
            6166            6239     9.66526E-03     11.6329E-03
            6166            6240     9.88569E-03     11.9507E-03
            6167            6222     20.2941E-03     20.7871E-03
            6167            6223     20.6639E-03     21.1106E-03
            6167            6240     9.88569E-03     11.9507E-03
            6167            6241     10.1816E-03     12.3190E-03
            6168            6223     20.6639E-03     21.1106E-03
            6168            6224     20.7385E-03     21.1376E-03
            6168            6241     10.1816E-03     12.3190E-03
            6168            6242     10.4348E-03     12.6606E-03
            6169            6224     20.7385E-03     21.1376E-03
            6169            6225     20.6096E-03     20.8430E-03
            6169            6242     10.4348E-03     12.6606E-03
            6169            6243     10.8693E-03     13.0785E-03
            6170            6225     20.6096E-03     20.8430E-03
            6170            6226     19.7317E-03     19.9313E-03
            6170            6243     10.8693E-03     13.0785E-03
            6170            6244     11.0525E-03     13.3854E-03
            6171            1024     18.3991E-03     18.7042E-03
            6171            1025     11.3632E-03     14.1357E-03
            6171            6226     19.7317E-03     19.9313E-03
            6171            6244     11.0525E-03     13.3854E-03
            6172             873     8.92675E-03     8.73808E-03
            6172             874     10.1945E-03     8.31120E-03
            6172            6227     8.84098E-03     8.87489E-03
            6172            6245     9.69729E-03     8.72793E-03
            6173            6227     8.84098E-03     8.87489E-03
            6173            6228     8.71502E-03     9.07779E-03
            6173            6245     9.69729E-03     8.72793E-03
            6173            6246     9.06250E-03     9.16500E-03
            6174            6228     8.71502E-03     9.07779E-03
            6174            6229     8.65375E-03     9.20285E-03
            6174            6246     9.06250E-03     9.16500E-03
            6174            6247     9.01603E-03     9.11940E-03
            6175            6229     8.65375E-03     9.20285E-03
            6175            6230     8.63148E-03     9.35050E-03
            6175            6247     9.01603E-03     9.11940E-03
            6175            6248     9.12596E-03     9.12187E-03
            6176            6230     8.63148E-03     9.35050E-03
            6176            6231     8.64455E-03     9.53477E-03
            6176            6248     9.12596E-03     9.12187E-03
            6176            6249     9.20092E-03     9.25042E-03
            6177            6231     8.64455E-03     9.53477E-03
            6177            6232     8.68708E-03     9.73708E-03
            6177            6249     9.20092E-03     9.25042E-03
            6177            6250     9.32636E-03     9.37846E-03
            6178            6232     8.68708E-03     9.73708E-03
            6178            6233     8.75520E-03     9.96127E-03
            6178            6250     9.32636E-03     9.37846E-03
            6178            6251     9.47156E-03     9.52822E-03
            6179            6233     8.75520E-03     9.96127E-03
            6179            6234     8.84643E-03     10.2010E-03
            6179            6251     9.47156E-03     9.52822E-03
            6179            6252     9.63639E-03     9.70135E-03
            6180            6234     8.84643E-03     10.2010E-03
            6180            6235     8.96327E-03     10.4584E-03
            6180            6252     9.63639E-03     9.70135E-03
            6180            6253     9.81928E-03     9.89036E-03
            6181            6235     8.96327E-03     10.4584E-03
            6181            6236     9.10087E-03     10.7275E-03
            6181            6253     9.81928E-03     9.89036E-03
            6181            6254     10.0234E-03     10.0997E-03
            6182            6236     9.10087E-03     10.7275E-03
            6182            6237     9.26616E-03     11.0161E-03
            6182            6254     10.0234E-03     10.0997E-03
            6182            6255     10.2397E-03     10.3221E-03
            6183            6237     9.26616E-03     11.0161E-03
            6183            6238     9.44657E-03     11.3108E-03
            6183            6255     10.2397E-03     10.3221E-03
            6183            6256     10.4802E-03     10.5659E-03
            6184            6238     9.44657E-03     11.3108E-03
            6184            6239     9.66526E-03     11.6329E-03
            6184            6256     10.4802E-03     10.5659E-03
            6184            6257     10.7234E-03     10.8147E-03
            6185            6239     9.66526E-03     11.6329E-03
            6185            6240     9.88569E-03     11.9507E-03
            6185            6257     10.7234E-03     10.8147E-03
            6185            6258     11.0019E-03     11.0953E-03
            6186            6240     9.88569E-03     11.9507E-03
            6186            6241     10.1816E-03     12.3190E-03
            6186            6258     11.0019E-03     11.0953E-03
            6186            6259     11.2743E-03     11.3686E-03
            6187            6241     10.1816E-03     12.3190E-03
            6187            6242     10.4348E-03     12.6606E-03
            6187            6259     11.2743E-03     11.3686E-03
            6187            6260     11.6550E-03     11.7382E-03
            6188            6242     10.4348E-03     12.6606E-03
            6188            6243     10.8693E-03     13.0785E-03
            6188            6260     11.6550E-03     11.7382E-03
            6188            6261     12.0312E-03     12.1772E-03
            6189            6243     10.8693E-03     13.0785E-03
            6189            6244     11.0525E-03     13.3854E-03
            6189            6261     12.0312E-03     12.1772E-03
            6189            6262     12.8720E-03     12.7520E-03
            6190            1025     11.3632E-03     14.1357E-03
            6190            1026     12.6296E-03     12.8307E-03
            6190            6244     11.0525E-03     13.3854E-03
            6190            6262     12.8720E-03     12.7520E-03
            6191             874     10.1945E-03     8.31120E-03
            6191             875     9.46900E-03     9.45102E-03
            6191            6245     9.69729E-03     8.72793E-03
            6191            6263     9.49393E-03     9.39839E-03
            6192            6245     9.69729E-03     8.72793E-03
            6192            6246     9.06250E-03     9.16500E-03
            6192            6263     9.49393E-03     9.39839E-03
            6192            6264     9.57411E-03     9.30168E-03
            6193            6246     9.06250E-03     9.16500E-03
            6193            6247     9.01603E-03     9.11940E-03
            6193            6264     9.57411E-03     9.30168E-03
            6193            6265     9.69676E-03     9.24488E-03
            6194            6247     9.01603E-03     9.11940E-03
            6194            6248     9.12596E-03     9.12187E-03
            6194            6265     9.69676E-03     9.24488E-03
            6194            6266     9.84596E-03     9.23549E-03
            6195            6248     9.12596E-03     9.12187E-03
            6195            6249     9.20092E-03     9.25042E-03
            6195            6266     9.84596E-03     9.23549E-03
            6195            6267     10.0156E-03     9.25690E-03
            6196            6249     9.20092E-03     9.25042E-03
            6196            6250     9.32636E-03     9.37846E-03
            6196            6267     10.0156E-03     9.25690E-03
            6196            6268     10.2025E-03     9.30625E-03
            6197            6250     9.32636E-03     9.37846E-03
            6197            6251     9.47156E-03     9.52822E-03
            6197            6268     10.2025E-03     9.30625E-03
            6197            6269     10.4093E-03     9.37764E-03
            6198            6251     9.47156E-03     9.52822E-03
            6198            6252     9.63639E-03     9.70135E-03
            6198            6269     10.4093E-03     9.37764E-03
            6198            6270     10.6308E-03     9.46979E-03
            6199            6252     9.63639E-03     9.70135E-03
            6199            6253     9.81928E-03     9.89036E-03
            6199            6270     10.6308E-03     9.46979E-03
            6199            6271     10.8681E-03     9.58321E-03
            6200            6253     9.81928E-03     9.89036E-03
            6200            6254     10.0234E-03     10.0997E-03
            6200            6271     10.8681E-03     9.58321E-03
            6200            6272     11.1171E-03     9.71541E-03
            6201            6254     10.0234E-03     10.0997E-03
            6201            6255     10.2397E-03     10.3221E-03
            6201            6272     11.1171E-03     9.71541E-03
            6201            6273     11.3798E-03     9.86640E-03
            6202            6255     10.2397E-03     10.3221E-03
            6202            6256     10.4802E-03     10.5659E-03
            6202            6273     11.3798E-03     9.86640E-03
            6202            6274     11.6493E-03     10.0315E-03
            6203            6256     10.4802E-03     10.5659E-03
            6203            6257     10.7234E-03     10.8147E-03
            6203            6274     11.6493E-03     10.0315E-03
            6203            6275     11.9300E-03     10.2125E-03
            6204            6257     10.7234E-03     10.8147E-03
            6204            6258     11.0019E-03     11.0953E-03
            6204            6275     11.9300E-03     10.2125E-03
            6204            6276     12.2115E-03     10.4000E-03
            6205            6258     11.0019E-03     11.0953E-03
            6205            6259     11.2743E-03     11.3686E-03
            6205            6276     12.2115E-03     10.4000E-03
            6205            6277     12.5090E-03     10.6084E-03
            6206            6259     11.2743E-03     11.3686E-03
            6206            6260     11.6550E-03     11.7382E-03
            6206            6277     12.5090E-03     10.6084E-03
            6206            6278     12.8282E-03     10.8231E-03
            6207            6260     11.6550E-03     11.7382E-03
            6207            6261     12.0312E-03     12.1772E-03
            6207            6278     12.8282E-03     10.8231E-03
            6207            6279     13.1666E-03     11.0957E-03
            6208            6261     12.0312E-03     12.1772E-03
            6208            6262     12.8720E-03     12.7520E-03
            6208            6279     13.1666E-03     11.0957E-03
            6208            6280     13.4436E-03     11.1394E-03
            6209            1026     12.6296E-03     12.8307E-03
            6209            1027     12.0569E-03     9.73003E-03
            6209            6262     12.8720E-03     12.7520E-03
            6209            6280     13.4436E-03     11.1394E-03
            6210              37     4.30302E-03     5.13375E-03
            6210             875     9.46900E-03     9.45102E-03
            6210             894     4.56588E-03     4.93657E-03
            6210            6263     9.49393E-03     9.39839E-03
            6211             894     4.56588E-03     4.93657E-03
            6211             895     4.93471E-03     4.69650E-03
            6211            6263     9.49393E-03     9.39839E-03
            6211            6264     9.57411E-03     9.30168E-03
            6212             895     4.93471E-03     4.69650E-03
            6212             896     5.05568E-03     4.67929E-03
            6212            6264     9.57411E-03     9.30168E-03
            6212            6265     9.69676E-03     9.24488E-03
            6213             896     5.05568E-03     4.67929E-03
            6213             897     5.12920E-03     4.68775E-03
            6213            6265     9.69676E-03     9.24488E-03
            6213            6266     9.84596E-03     9.23549E-03
            6214             897     5.12920E-03     4.68775E-03
            6214             898     5.23912E-03     4.66829E-03
            6214            6266     9.84596E-03     9.23549E-03
            6214            6267     10.0156E-03     9.25690E-03
            6215             898     5.23912E-03     4.66829E-03
            6215             899     5.34642E-03     4.67187E-03
            6215            6267     10.0156E-03     9.25690E-03
            6215            6268     10.2025E-03     9.30625E-03
            6216             899     5.34642E-03     4.67187E-03
            6216             900     5.46316E-03     4.68817E-03
            6216            6268     10.2025E-03     9.30625E-03
            6216            6269     10.4093E-03     9.37764E-03
            6217             900     5.46316E-03     4.68817E-03
            6217             901     5.58598E-03     4.71217E-03
            6217            6269     10.4093E-03     9.37764E-03
            6217            6270     10.6308E-03     9.46979E-03
            6218             901     5.58598E-03     4.71217E-03
            6218             902     5.71696E-03     4.75017E-03
            6218            6270     10.6308E-03     9.46979E-03
            6218            6271     10.8681E-03     9.58321E-03
            6219             902     5.71696E-03     4.75017E-03
            6219             903     5.84997E-03     4.79375E-03
            6219            6271     10.8681E-03     9.58321E-03
            6219            6272     11.1171E-03     9.71541E-03
            6220             903     5.84997E-03     4.79375E-03
            6220             904     5.99331E-03     4.85330E-03
            6220            6272     11.1171E-03     9.71541E-03
            6220            6273     11.3798E-03     9.86640E-03
            6221             904     5.99331E-03     4.85330E-03
            6221             905     6.13015E-03     4.90955E-03
            6221            6273     11.3798E-03     9.86640E-03
            6221            6274     11.6493E-03     10.0315E-03
            6222             905     6.13015E-03     4.90955E-03
            6222             906     6.28558E-03     4.99039E-03
            6222            6274     11.6493E-03     10.0315E-03
            6222            6275     11.9300E-03     10.2125E-03
            6223             906     6.28558E-03     4.99039E-03
            6223             907     6.41412E-03     5.04477E-03
            6223            6275     11.9300E-03     10.2125E-03
            6223            6276     12.2115E-03     10.4000E-03
            6224             907     6.41412E-03     5.04477E-03
            6224             908     6.58938E-03     5.15323E-03
            6224            6276     12.2115E-03     10.4000E-03
            6224            6277     12.5090E-03     10.6084E-03
            6225             908     6.58938E-03     5.15323E-03
            6225             909     6.68003E-03     5.17568E-03
            6225            6277     12.5090E-03     10.6084E-03
            6225            6278     12.8282E-03     10.8231E-03
            6226             909     6.68003E-03     5.17568E-03
            6226             910     6.89880E-03     5.25370E-03
            6226            6278     12.8282E-03     10.8231E-03
            6226            6279     13.1666E-03     11.0957E-03
            6227             910     6.89880E-03     5.25370E-03
            6227             911     6.60577E-03     4.96770E-03
            6227            6279     13.1666E-03     11.0957E-03
            6227            6280     13.4436E-03     11.1394E-03
            6228              38     5.67083E-03     3.86388E-03
            6228             911     6.60577E-03     4.96770E-03
            6228            1027     12.0569E-03     9.73003E-03
            6228            6280     13.4436E-03     11.1394E-03
            6509              13     3.32713E-03     6.53520E-03
            6509             201     4.77730E-15     5.74295E-15
            6509             823     4.20753E-03     4.57595E-03
            6509            6519     6.81543E-15     7.78580E-15
            6510              36     5.67083E-03     3.86388E-03
            6510             823     4.20753E-03     4.57595E-03
            6510             993     5.76675E-15     5.96842E-15
            6510            6519     6.81543E-15     7.78580E-15
            6511             201     4.77730E-15     5.74295E-15
            6511             202     7.88470E-15     7.68917E-15
            6511            6519     6.81543E-15     7.78580E-15
            6511            6520     10.2412E-15     10.9379E-15
            6512             992     8.54089E-15     8.86219E-15
            6512             993     5.76675E-15     5.96842E-15
            6512            6519     6.81543E-15     7.78580E-15
            6512            6520     10.2412E-15     10.9379E-15
            6513             202     7.88470E-15     7.68917E-15
            6513             203     13.4015E-15     12.6257E-15
            6513            6520     10.2412E-15     10.9379E-15
            6513            6521     13.2012E-15     13.3600E-15
            6514             991     11.4300E-15     11.2903E-15
            6514             992     8.54089E-15     8.86219E-15
            6514            6520     10.2412E-15     10.9379E-15
            6514            6521     13.2012E-15     13.3600E-15
            6515             203     13.4015E-15     12.6257E-15
            6515             204     14.4258E-15     14.2773E-15
            6515            6521     13.2012E-15     13.3600E-15
            6515            6522     11.4558E-15     11.5076E-15
            6516             990     11.2779E-15     11.0129E-15
            6516             991     11.4300E-15     11.2903E-15
            6516            6521     13.2012E-15     13.3600E-15
            6516            6522     11.4558E-15     11.5076E-15
            6517             204     14.4258E-15     14.2773E-15
            6517             205     11.5746E-15     11.9867E-15
            6517            6522     11.4558E-15     11.5076E-15
            6517            6523     8.76500E-15     9.37890E-15
            6518             989     8.31670E-15     8.27889E-15
            6518             990     11.2779E-15     11.0129E-15
            6518            6522     11.4558E-15     11.5076E-15
            6518            6523     8.76500E-15     9.37890E-15
            6519             205     11.5746E-15     11.9867E-15
            6519             206     13.4416E-15     13.0696E-15
            6519            6523     8.76500E-15     9.37890E-15
            6519            6524     9.40363E-15     9.72927E-15
            6520             988     10.6331E-15     10.3124E-15
            6520             989     8.31670E-15     8.27889E-15
            6520            6523     8.76500E-15     9.37890E-15
            6520            6524     9.40363E-15     9.72927E-15
            6521              14     16.7238E-15     15.8061E-15
            6521             206     13.4416E-15     13.0696E-15
            6521            1028     10.3355E-15     10.2545E-15
            6521            6524     9.40363E-15     9.72927E-15
            6522              42     12.3991E-15     11.5616E-15
            6522             988     10.6331E-15     10.3124E-15
            6522            1028     10.3355E-15     10.2545E-15
            6522            6524     9.40363E-15     9.72927E-15
            6523              32     143.340E-03     146.610E-03
            6523             722     158.086E-03     163.429E-03
            6523             994     141.936E-03     145.727E-03
            6523            6525     163.147E-03     165.947E-03
            6524              10     171.135E-03     181.925E-03
            6524             284     186.358E-03     184.053E-03
            6524             722     158.086E-03     163.429E-03
            6524            6525     163.147E-03     165.947E-03
            6525             994     141.936E-03     145.727E-03
            6525             995     147.174E-03     149.761E-03
            6525            6525     163.147E-03     165.947E-03
            6525            6526     163.100E-03     164.015E-03
            6526             283     177.029E-03     172.324E-03
            6526             284     186.358E-03     184.053E-03
            6526            6525     163.147E-03     165.947E-03
            6526            6526     163.100E-03     164.015E-03
            6527             995     147.174E-03     149.761E-03
            6527             996     146.876E-03     149.603E-03
            6527            6526     163.100E-03     164.015E-03
            6527            6527     157.621E-03     160.566E-03
            6528             282     162.650E-03     167.119E-03
            6528             283     177.029E-03     172.324E-03
            6528            6526     163.100E-03     164.015E-03
            6528            6527     157.621E-03     160.566E-03
            6529             996     146.876E-03     149.603E-03
            6529             997     143.704E-03     146.848E-03
            6529            6527     157.621E-03     160.566E-03
            6529            6528     152.546E-03     154.524E-03
            6530             281     157.275E-03     155.864E-03
            6530             282     162.650E-03     167.119E-03
            6530            6527     157.621E-03     160.566E-03
            6530            6528     152.546E-03     154.524E-03
            6531             997     143.704E-03     146.848E-03
            6531             998     139.972E-03     142.669E-03
            6531            6528     152.546E-03     154.524E-03
            6531            6529     146.583E-03     148.817E-03
            6532             280     148.455E-03     149.776E-03
            6532             281     157.275E-03     155.864E-03
            6532            6528     152.546E-03     154.524E-03
            6532            6529     146.583E-03     148.817E-03
            6533             998     139.972E-03     142.669E-03
            6533             999     135.253E-03     138.025E-03
            6533            6529     146.583E-03     148.817E-03
            6533            6530     140.749E-03     142.459E-03
            6534             279     141.620E-03     140.764E-03
            6534             280     148.455E-03     149.776E-03
            6534            6529     146.583E-03     148.817E-03
            6534            6530     140.749E-03     142.459E-03
            6535             999     135.253E-03     138.025E-03
            6535            1000     130.053E-03     132.282E-03
            6535            6530     140.749E-03     142.459E-03
            6535            6531     134.019E-03     135.829E-03
            6536             278     132.673E-03     134.306E-03
            6536             279     141.620E-03     140.764E-03
            6536            6530     140.749E-03     142.459E-03
            6536            6531     134.019E-03     135.829E-03
            6537            1000     130.053E-03     132.282E-03
            6537            1001     124.205E-03     125.237E-03
            6537            6531     134.019E-03     135.829E-03
            6537            6532     126.618E-03     127.299E-03
            6538             277     127.342E-03     124.240E-03
            6538             278     132.673E-03     134.306E-03
            6538            6531     134.019E-03     135.829E-03
            6538            6532     126.618E-03     127.299E-03
            6539            1001     124.205E-03     125.237E-03
            6539            1002     118.066E-03     116.352E-03
            6539            6532     126.618E-03     127.299E-03
            6539            6533     118.576E-03     116.523E-03
            6540             276     119.973E-03     115.319E-03
            6540             277     127.342E-03     124.240E-03
            6540            6532     126.618E-03     127.299E-03
            6540            6533     118.576E-03     116.523E-03
            6541            1002     118.066E-03     116.352E-03
            6541            1003     105.478E-03     105.656E-03
            6541            6533     118.576E-03     116.523E-03
            6541            6534     114.233E-03     116.324E-03
            6542             275     122.538E-03     131.340E-03
            6542             276     119.973E-03     115.319E-03
            6542            6533     118.576E-03     116.523E-03
            6542            6534     114.233E-03     116.324E-03
            6543            1003     105.478E-03     105.656E-03
            6543            1004     98.6239E-03     102.085E-03
            6543            6534     114.233E-03     116.324E-03
            6543            6535     116.505E-03     119.209E-03
            6544             274     135.665E-03     134.524E-03
            6544             275     122.538E-03     131.340E-03
            6544            6534     114.233E-03     116.324E-03
            6544            6535     116.505E-03     119.209E-03
            6545            1004     98.6239E-03     102.085E-03
            6545            1005     101.993E-03     103.973E-03
            6545            6535     116.505E-03     119.209E-03
            6545            6536     115.225E-03     115.827E-03
            6546             273     126.695E-03     123.254E-03
            6546             274     135.665E-03     134.524E-03
            6546            6535     116.505E-03     119.209E-03
            6546            6536     115.225E-03     115.827E-03
            6547            1005     101.993E-03     103.973E-03
            6547            1006     100.784E-03     102.677E-03
            6547            6536     115.225E-03     115.827E-03
            6547            6537     109.481E-03     111.589E-03
            6548             272     113.854E-03     117.276E-03
            6548             273     126.695E-03     123.254E-03
            6548            6536     115.225E-03     115.827E-03
            6548            6537     109.481E-03     111.589E-03
            6549            1006     100.784E-03     102.677E-03
            6549            1007     97.2791E-03     99.4279E-03
            6549            6537     109.481E-03     111.589E-03
            6549            6538     104.175E-03     105.499E-03
            6550             271     107.922E-03     106.864E-03
            6550             272     113.854E-03     117.276E-03
            6550            6537     109.481E-03     111.589E-03
            6550            6538     104.175E-03     105.499E-03
            6551            1007     97.2791E-03     99.4279E-03
            6551            1008     93.3936E-03     95.1790E-03
            6551            6538     104.175E-03     105.499E-03
            6551            6539     98.2709E-03     99.7150E-03
            6552             270     99.4615E-03     100.316E-03
            6552             271     107.922E-03     106.864E-03
            6552            6538     104.175E-03     105.499E-03
            6552            6539     98.2709E-03     99.7150E-03
            6553            1008     93.3936E-03     95.1790E-03
            6553            1009     88.8359E-03     90.6110E-03
            6553            6539     98.2709E-03     99.7150E-03
            6553            6540     92.4481E-03     93.5002E-03
            6554             269     92.3345E-03     91.8262E-03
            6554             270     99.4615E-03     100.316E-03
            6554            6539     98.2709E-03     99.7150E-03
            6554            6540     92.4481E-03     93.5002E-03
            6555            1009     88.8359E-03     90.6110E-03
            6555            1010     83.9749E-03     85.3673E-03
            6555            6540     92.4481E-03     93.5002E-03
            6555            6541     86.0172E-03     86.9837E-03
            6556             268     84.0076E-03     84.5897E-03
            6556             269     92.3345E-03     91.8262E-03
            6556            6540     92.4481E-03     93.5002E-03
            6556            6541     86.0172E-03     86.9837E-03
            6557            1010     83.9749E-03     85.3673E-03
            6557            1011     79.0368E-03     79.4621E-03
            6557            6541     86.0172E-03     86.9837E-03
            6557            6542     78.9587E-03     79.3031E-03
            6558             267     77.2233E-03     75.3667E-03
            6558             268     84.0076E-03     84.5897E-03
            6558            6541     86.0172E-03     86.9837E-03
            6558            6542     78.9587E-03     79.3031E-03
            6559            1011     79.0368E-03     79.4621E-03
            6559            1012     74.7600E-03     72.7259E-03
            6559            6542     78.9587E-03     79.3031E-03
            6559            6543     72.1825E-03     70.0901E-03
            6560             266     69.5926E-03     66.1504E-03
            6560             267     77.2233E-03     75.3667E-03
            6560            6542     78.9587E-03     79.3031E-03
            6560            6543     72.1825E-03     70.0901E-03
            6561            1012     74.7600E-03     72.7259E-03
            6561            1013     63.2740E-03     63.4549E-03
            6561            6543     72.1825E-03     70.0901E-03
            6561            6544     69.2305E-03     70.7453E-03
            6562             265     74.6212E-03     80.0744E-03
            6562             266     69.5926E-03     66.1504E-03
            6562            6543     72.1825E-03     70.0901E-03
            6562            6544     69.2305E-03     70.7453E-03
            6563            1013     63.2740E-03     63.4549E-03
            6563            1014     55.2895E-03     58.4412E-03
            6563            6544     69.2305E-03     70.7453E-03
            6563            6545     70.5659E-03     73.2252E-03
            6564             264     86.1584E-03     86.2047E-03
            6564             265     74.6212E-03     80.0744E-03
            6564            6544     69.2305E-03     70.7453E-03
            6564            6545     70.5659E-03     73.2252E-03
            6565            1014     55.2895E-03     58.4412E-03
            6565            1015     56.8628E-03     58.1956E-03
            6565            6545     70.5659E-03     73.2252E-03
            6565            6546     68.2986E-03     68.5369E-03
            6566             263     77.7896E-03     75.5867E-03
            6566             264     86.1584E-03     86.2047E-03
            6566            6545     70.5659E-03     73.2252E-03
            6566            6546     68.2986E-03     68.5369E-03
            6567            1015     56.8628E-03     58.1956E-03
            6567            1016     54.7934E-03     55.7882E-03
            6567            6546     68.2986E-03     68.5369E-03
            6567            6547     62.4726E-03     63.7105E-03
            6568             262     66.6536E-03     69.0959E-03
            6568             263     77.7896E-03     75.5867E-03
            6568            6546     68.2986E-03     68.5369E-03
            6568            6547     62.4726E-03     63.7105E-03
            6569            1016     54.7934E-03     55.7882E-03
            6569            1017     50.9856E-03     52.0835E-03
            6569            6547     62.4726E-03     63.7105E-03
            6569            6548     57.1501E-03     57.7836E-03
            6570             261     60.4765E-03     59.7382E-03
            6570             262     66.6536E-03     69.0959E-03
            6570            6547     62.4726E-03     63.7105E-03
            6570            6548     57.1501E-03     57.7836E-03
            6571            1017     50.9856E-03     52.0835E-03
            6571            1018     47.0306E-03     47.8115E-03
            6571            6548     57.1501E-03     57.7836E-03
            6571            6549     51.5614E-03     52.1966E-03
            6572             260     52.5870E-03     53.1079E-03
            6572             261     60.4765E-03     59.7382E-03
            6572            6548     57.1501E-03     57.7836E-03
            6572            6549     51.5614E-03     52.1966E-03
            6573            1018     47.0306E-03     47.8115E-03
            6573            1019     42.6720E-03     43.4215E-03
            6573            6549     51.5614E-03     52.1966E-03
            6573            6550     46.1444E-03     46.4748E-03
            6574             259     45.7482E-03     45.4949E-03
            6574             260     52.5870E-03     53.1079E-03
            6574            6549     51.5614E-03     52.1966E-03
            6574            6550     46.1444E-03     46.4748E-03
            6575            1019     42.6720E-03     43.4215E-03
            6575            1020     38.2706E-03     38.7880E-03
            6575            6550     46.1444E-03     46.4748E-03
            6575            6551     40.4898E-03     40.6813E-03
            6576             258     38.3847E-03     38.2911E-03
            6576             259     45.7482E-03     45.4949E-03
            6576            6550     46.1444E-03     46.4748E-03
            6576            6551     40.4898E-03     40.6813E-03
            6577            1020     38.2706E-03     38.7880E-03
            6577            1021     33.6151E-03     34.0335E-03
            6577            6551     40.4898E-03     40.6813E-03
            6577            6552     34.7290E-03     34.6009E-03
            6578             257     31.3606E-03     30.5812E-03
            6578             258     38.3847E-03     38.2911E-03
            6578            6551     40.4898E-03     40.6813E-03
            6578            6552     34.7290E-03     34.6009E-03
            6579            1021     33.6151E-03     34.0335E-03
            6579            1022     29.5649E-03     29.2914E-03
            6579            6552     34.7290E-03     34.6009E-03
            6579            6553     28.6286E-03     28.3260E-03
            6580             256     23.8491E-03     23.1374E-03
            6580             257     31.3606E-03     30.5812E-03
            6580            6552     34.7290E-03     34.6009E-03
            6580            6553     28.6286E-03     28.3260E-03
            6581            1022     29.5649E-03     29.2914E-03
            6581            1023     27.2277E-03     25.0186E-03
            6581            6553     28.6286E-03     28.3260E-03
            6581            6554     23.7868E-03     22.5799E-03
            6582             255     17.9155E-03     17.1575E-03
            6582             256     23.8491E-03     23.1374E-03
            6582            6553     28.6286E-03     28.3260E-03
            6582            6554     23.7868E-03     22.5799E-03
            6583            1023     27.2277E-03     25.0186E-03
            6583            1024     18.3991E-03     18.7042E-03
            6583            6554     23.7868E-03     22.5799E-03
            6583            6555     19.6040E-03     21.2782E-03
            6584             254     20.2340E-03     23.4342E-03
            6584             255     17.9155E-03     17.1575E-03
            6584            6554     23.7868E-03     22.5799E-03
            6584            6555     19.6040E-03     21.2782E-03
            6585            1024     18.3991E-03     18.7042E-03
            6585            1025     11.3632E-03     14.1357E-03
            6585            6555     19.6040E-03     21.2782E-03
            6585            6556     16.2878E-03     18.6339E-03
            6586             253     22.3743E-03     23.2439E-03
            6586             254     20.2340E-03     23.4342E-03
            6586            6555     19.6040E-03     21.2782E-03
            6586            6556     16.2878E-03     18.6339E-03
            6587            1025     11.3632E-03     14.1357E-03
            6587            1026     12.6296E-03     12.8307E-03
            6587            6556     16.2878E-03     18.6339E-03
            6587            6557     12.5167E-03     12.1194E-03
            6588             252     13.0960E-03     11.3909E-03
            6588             253     22.3743E-03     23.2439E-03
            6588            6556     16.2878E-03     18.6339E-03
            6588            6557     12.5167E-03     12.1194E-03
            6589            1026     12.6296E-03     12.8307E-03
            6589            1027     12.0569E-03     9.73003E-03
            6589            6557     12.5167E-03     12.1194E-03
            6589            6558     8.95213E-03     9.34696E-03
            6590             251     6.21144E-03     10.8485E-03
            6590             252     13.0960E-03     11.3909E-03
            6590            6557     12.5167E-03     12.1194E-03
            6590            6558     8.95213E-03     9.34696E-03
            6591              38     5.67083E-03     3.86388E-03
            6591             948     4.20753E-03     4.57595E-03
            6591            1027     12.0569E-03     9.73003E-03
            6591            6558     8.95213E-03     9.34696E-03
            6592              15     3.32713E-03     6.53520E-03
            6592             251     6.21144E-03     10.8485E-03
            6592             948     4.20753E-03     4.57595E-03
            6592            6558     8.95213E-03     9.34696E-03
            6593              12     21.5121E-03     21.3608E-03
            6593             195     9.43047E-15     11.5924E-15
            6593             246     20.7215E-03     20.5485E-03
            6593            6559     9.09240E-15     11.1591E-15
            6594             194     10.4154E-15     9.29104E-15
            6594             195     9.43047E-15     11.5924E-15
            6594            6559     9.09240E-15     11.1591E-15
            6594            6560     11.2942E-15     11.3125E-15
            6595             193     9.62714E-15     7.83641E-15
            6595             194     10.4154E-15     9.29104E-15
            6595            6560     11.2942E-15     11.3125E-15
            6595            6561     10.4329E-15     8.99056E-15
            6596             192     12.6637E-15     13.5071E-15
            6596             193     9.62714E-15     7.83641E-15
            6596            6561     10.4329E-15     8.99056E-15
            6596            6562     12.3718E-15     12.3293E-15
            6597             191     12.4550E-15     13.6400E-15
            6597             192     12.6637E-15     13.5071E-15
            6597            6562     12.3718E-15     12.3293E-15
            6597            6563     13.7377E-15     15.0491E-15
            6598             190     20.9729E-15     22.6826E-15
            6598             191     12.4550E-15     13.6400E-15
            6598            6563     13.7377E-15     15.0491E-15
            6598            6564     23.2452E-15     24.8434E-15
            6599              11     32.0258E-15     35.7280E-15
            6599             190     20.9729E-15     22.6826E-15
            6599            1029     33.0894E-15     34.8431E-15
            6599            6564     23.2452E-15     24.8434E-15
            6600             246     20.7215E-03     20.5485E-03
            6600             247     18.6453E-03     18.4853E-03
            6600            6559     9.09240E-15     11.1591E-15
            6600            6565     5.91266E-15     6.35587E-15
            6601            6559     9.09240E-15     11.1591E-15
            6601            6560     11.2942E-15     11.3125E-15
            6601            6565     5.91266E-15     6.35587E-15
            6601            6566     7.57646E-15     7.24266E-15
            6602            6560     11.2942E-15     11.3125E-15
            6602            6561     10.4329E-15     8.99056E-15
            6602            6566     7.57646E-15     7.24266E-15
            6602            6567     8.25759E-15     8.41382E-15
            6603            6561     10.4329E-15     8.99056E-15
            6603            6562     12.3718E-15     12.3293E-15
            6603            6567     8.25759E-15     8.41382E-15
            6603            6568     8.55672E-15     9.58167E-15
            6604            6562     12.3718E-15     12.3293E-15
            6604            6563     13.7377E-15     15.0491E-15
            6604            6568     8.55672E-15     9.58167E-15
            6604            6569     11.8840E-15     11.6925E-15
            6605            6563     13.7377E-15     15.0491E-15
            6605            6564     23.2452E-15     24.8434E-15
            6605            6569     11.8840E-15     11.6925E-15
            6605            6570     20.1886E-15     17.4517E-15
            6606            1029     33.0894E-15     34.8431E-15
            6606            1030     25.9209E-15     22.1083E-15
            6606            6564     23.2452E-15     24.8434E-15
            6606            6570     20.1886E-15     17.4517E-15
            6607             247     18.6453E-03     18.4853E-03
            6607             248     15.1397E-03     14.9746E-03
            6607            6565     5.91266E-15     6.35587E-15
            6607            6571     12.7277E-15     13.8849E-15
            6608            6565     5.91266E-15     6.35587E-15
            6608            6566     7.57646E-15     7.24266E-15
            6608            6571     12.7277E-15     13.8849E-15
            6608            6572     8.41823E-15     9.64241E-15
            6609            6566     7.57646E-15     7.24266E-15
            6609            6567     8.25759E-15     8.41382E-15
            6609            6572     8.41823E-15     9.64241E-15
            6609            6573     6.84637E-15     9.14619E-15
            6610            6567     8.25759E-15     8.41382E-15
            6610            6568     8.55672E-15     9.58167E-15
            6610            6573     6.84637E-15     9.14619E-15
            6610            6574     8.06093E-15     10.7974E-15
            6611            6568     8.55672E-15     9.58167E-15
            6611            6569     11.8840E-15     11.6925E-15
            6611            6574     8.06093E-15     10.7974E-15
            6611            6575     11.9834E-15     11.4218E-15
            6612            6569     11.8840E-15     11.6925E-15
            6612            6570     20.1886E-15     17.4517E-15
            6612            6575     11.9834E-15     11.4218E-15
            6612            6576     14.0516E-15     9.34487E-15
            6613            1030     25.9209E-15     22.1083E-15
            6613            1031     13.6054E-15     7.82005E-15
            6613            6570     20.1886E-15     17.4517E-15
            6613            6576     14.0516E-15     9.34487E-15
            6614             248     15.1397E-03     14.9746E-03
            6614             249     10.7323E-03     10.4398E-03
            6614            6571     12.7277E-15     13.8849E-15
            6614            6577     12.8335E-15     13.7206E-15
            6615            6571     12.7277E-15     13.8849E-15
            6615            6572     8.41823E-15     9.64241E-15
            6615            6577     12.8335E-15     13.7206E-15
            6615            6578     8.94098E-15     9.77733E-15
            6616            6572     8.41823E-15     9.64241E-15
            6616            6573     6.84637E-15     9.14619E-15
            6616            6578     8.94098E-15     9.77733E-15
            6616            6579     7.80662E-15     10.0058E-15
            6617            6573     6.84637E-15     9.14619E-15
            6617            6574     8.06093E-15     10.7974E-15
            6617            6579     7.80662E-15     10.0058E-15
            6617            6580     9.79176E-15     12.3571E-15
            6618            6574     8.06093E-15     10.7974E-15
            6618            6575     11.9834E-15     11.4218E-15
            6618            6580     9.79176E-15     12.3571E-15
            6618            6581     11.7137E-15     13.2505E-15
            6619            6575     11.9834E-15     11.4218E-15
            6619            6576     14.0516E-15     9.34487E-15
            6619            6581     11.7137E-15     13.2505E-15
            6619            6582     10.6749E-15     10.2134E-15
            6620            1031     13.6054E-15     7.82005E-15
            6620            1032     8.47726E-15     6.69806E-15
            6620            6576     14.0516E-15     9.34487E-15
            6620            6582     10.6749E-15     10.2134E-15
            6621             249     10.7323E-03     10.4398E-03
            6621             250     6.04289E-03     7.65198E-03
            6621            6577     12.8335E-15     13.7206E-15
            6621            6583     6.70150E-15     7.01161E-15
            6622            6577     12.8335E-15     13.7206E-15
            6622            6578     8.94098E-15     9.77733E-15
            6622            6583     6.70150E-15     7.01161E-15
            6622            6584     8.54091E-15     7.78691E-15
            6623            6578     8.94098E-15     9.77733E-15
            6623            6579     7.80662E-15     10.0058E-15
            6623            6584     8.54091E-15     7.78691E-15
            6623            6585     9.94307E-15     9.54292E-15
            6624            6579     7.80662E-15     10.0058E-15
            6624            6580     9.79176E-15     12.3571E-15
            6624            6585     9.94307E-15     9.54292E-15
            6624            6586     8.37184E-15     9.66315E-15
            6625            6580     9.79176E-15     12.3571E-15
            6625            6581     11.7137E-15     13.2505E-15
            6625            6586     8.37184E-15     9.66315E-15
            6625            6587     7.43513E-15     10.0781E-15
            6626            6581     11.7137E-15     13.2505E-15
            6626            6582     10.6749E-15     10.2134E-15
            6626            6587     7.43513E-15     10.0781E-15
            6626            6588     9.46503E-15     11.1767E-15
            6627            1032     8.47726E-15     6.69806E-15
            6627            1033     10.6050E-15     11.6976E-15
            6627            6582     10.6749E-15     10.2134E-15
            6627            6588     9.46503E-15     11.1767E-15
            6628              15     3.32713E-03     6.53520E-03
            6628             250     6.04289E-03     7.65198E-03
            6628             949     6.82701E-15     7.19007E-15
            6628            6583     6.70150E-15     7.01161E-15
            6629             949     6.82701E-15     7.19007E-15
            6629             950     8.43066E-15     8.27034E-15
            6629            6583     6.70150E-15     7.01161E-15
            6629            6584     8.54091E-15     7.78691E-15
            6630             950     8.43066E-15     8.27034E-15
            6630             951     14.3068E-15     13.9660E-15
            6630            6584     8.54091E-15     7.78691E-15
            6630            6585     9.94307E-15     9.54292E-15
            6631             951     14.3068E-15     13.9660E-15
            6631             952     10.2157E-15     10.5896E-15
            6631            6585     9.94307E-15     9.54292E-15
            6631            6586     8.37184E-15     9.66315E-15
            6632             952     10.2157E-15     10.5896E-15
            6632             953     5.77447E-15     6.69546E-15
            6632            6586     8.37184E-15     9.66315E-15
            6632            6587     7.43513E-15     10.0781E-15
            6633             953     5.77447E-15     6.69546E-15
            6633             954     11.6447E-15     12.2692E-15
            6633            6587     7.43513E-15     10.0781E-15
            6633            6588     9.46503E-15     11.1767E-15
            6634              41     15.7297E-15     16.3838E-15
            6634             954     11.6447E-15     12.2692E-15
            6634            1033     10.6050E-15     11.6976E-15
            6634            6588     9.46503E-15     11.1767E-15


  Minimum                            4.36561E-15     2.72590E-15
      At Element                            5555             432
            Node                             978            1368

  Maximum                            213.839E-03     228.948E-03
      At Element                            5374            5374
            Node                             742             553

           Total                     1.23393E+03     1.26337E+03


Field Output reported at element nodes for region: B737-1.Region_2
   Computation algorithm: EXTRAPOLATE_COMPUTE_AVERAGE
   Averaged at nodes
   Averaging regions: ODB_REGIONS

   Element Label      Node Label         S.Mises         S.Mises
                                          @Loc 1          @Loc 2
-----------------------------------------------------------------
            1732              23     12.8081E-03     12.9713E-03
            1732             471     14.0181E-03     14.0501E-03
            1732             531     23.3382E-03     23.8796E-03
            1732            2480     27.1986E-03     27.2981E-03
            1733             471     14.0181E-03     14.0501E-03
            1733             472     15.6299E-03     15.5097E-03
            1733            2480     27.1986E-03     27.2981E-03
            1733            2481     32.0425E-03     31.6742E-03
            1734             472     15.6299E-03     15.5097E-03
            1734             473     16.4300E-03     16.2903E-03
            1734            2481     32.0425E-03     31.6742E-03
            1734            2482     33.7228E-03     33.3106E-03
            1735             473     16.4300E-03     16.2903E-03
            1735             474     16.8284E-03     16.6902E-03
            1735            2482     33.7228E-03     33.3106E-03
            1735            2483     34.4196E-03     33.9894E-03
            1736             474     16.8284E-03     16.6902E-03
            1736             475     16.4300E-03     16.2903E-03
            1736            2483     34.4196E-03     33.9894E-03
            1736            2484     33.7228E-03     33.3106E-03
            1737             475     16.4300E-03     16.2903E-03
            1737             476     15.6299E-03     15.5097E-03
            1737            2484     33.7228E-03     33.3106E-03
            1737            2485     32.0425E-03     31.6742E-03
            1738             476     15.6299E-03     15.5097E-03
            1738             477     14.0181E-03     14.0501E-03
            1738            2485     32.0425E-03     31.6742E-03
            1738            2486     27.1986E-03     27.2981E-03
            1739               3     12.8081E-03     12.9713E-03
            1739             155     23.3382E-03     23.8796E-03
            1739             477     14.0181E-03     14.0501E-03
            1739            2486     27.1986E-03     27.2981E-03
            1740             530     20.6854E-03     21.3198E-03
            1740             531     23.3382E-03     23.8796E-03
            1740            2480     27.1986E-03     27.2981E-03
            1740            2487     25.6576E-03     25.8959E-03
            1741            2480     27.1986E-03     27.2981E-03
            1741            2481     32.0425E-03     31.6742E-03
            1741            2487     25.6576E-03     25.8959E-03
            1741            2488     32.6924E-03     32.3756E-03
            1742            2481     32.0425E-03     31.6742E-03
            1742            2482     33.7228E-03     33.3106E-03
            1742            2488     32.6924E-03     32.3756E-03
            1742            2489     35.3616E-03     34.8543E-03
            1743            2482     33.7228E-03     33.3106E-03
            1743            2483     34.4196E-03     33.9894E-03
            1743            2489     35.3616E-03     34.8543E-03
            1743            2490     35.9681E-03     35.4294E-03
            1744            2483     34.4196E-03     33.9894E-03
            1744            2484     33.7228E-03     33.3106E-03
            1744            2490     35.9681E-03     35.4294E-03
            1744            2491     35.3616E-03     34.8543E-03
            1745            2484     33.7228E-03     33.3106E-03
            1745            2485     32.0425E-03     31.6742E-03
            1745            2491     35.3616E-03     34.8543E-03
            1745            2492     32.6924E-03     32.3756E-03
            1746            2485     32.0425E-03     31.6742E-03
            1746            2486     27.1986E-03     27.2981E-03
            1746            2492     32.6924E-03     32.3756E-03
            1746            2493     25.6576E-03     25.8959E-03
            1747             154     20.6854E-03     21.3198E-03
            1747             155     23.3382E-03     23.8796E-03
            1747            2486     27.1986E-03     27.2981E-03
            1747            2493     25.6576E-03     25.8959E-03
            1748             529     21.4814E-03     21.8102E-03
            1748             530     20.6854E-03     21.3198E-03
            1748            2487     25.6576E-03     25.8959E-03
            1748            2494     25.6918E-03     25.9293E-03
            1749            2487     25.6576E-03     25.8959E-03
            1749            2488     32.6924E-03     32.3756E-03
            1749            2494     25.6918E-03     25.9293E-03
            1749            2495     32.6461E-03     32.6095E-03
            1750            2488     32.6924E-03     32.3756E-03
            1750            2489     35.3616E-03     34.8543E-03
            1750            2495     32.6461E-03     32.6095E-03
            1750            2496     36.3480E-03     36.0499E-03
            1751            2489     35.3616E-03     34.8543E-03
            1751            2490     35.9681E-03     35.4294E-03
            1751            2496     36.3480E-03     36.0499E-03
            1751            2497     37.3060E-03     36.9293E-03
            1752            2490     35.9681E-03     35.4294E-03
            1752            2491     35.3616E-03     34.8543E-03
            1752            2497     37.3060E-03     36.9293E-03
            1752            2498     36.3480E-03     36.0499E-03
            1753            2491     35.3616E-03     34.8543E-03
            1753            2492     32.6924E-03     32.3756E-03
            1753            2498     36.3480E-03     36.0499E-03
            1753            2499     32.6461E-03     32.6095E-03
            1754            2492     32.6924E-03     32.3756E-03
            1754            2493     25.6576E-03     25.8959E-03
            1754            2499     32.6461E-03     32.6095E-03
            1754            2500     25.6918E-03     25.9293E-03
            1755             153     21.4814E-03     21.8102E-03
            1755             154     20.6854E-03     21.3198E-03
            1755            2493     25.6576E-03     25.8959E-03
            1755            2500     25.6918E-03     25.9293E-03
            1756             528     24.4367E-03     24.4129E-03
            1756             529     21.4814E-03     21.8102E-03
            1756            2494     25.6918E-03     25.9293E-03
            1756            2501     27.6389E-03     27.7038E-03
            1757            2494     25.6918E-03     25.9293E-03
            1757            2495     32.6461E-03     32.6095E-03
            1757            2501     27.6389E-03     27.7038E-03
            1757            2502     33.1252E-03     33.2107E-03
            1758            2495     32.6461E-03     32.6095E-03
            1758            2496     36.3480E-03     36.0499E-03
            1758            2502     33.1252E-03     33.2107E-03
            1758            2503     36.6678E-03     36.6647E-03
            1759            2496     36.3480E-03     36.0499E-03
            1759            2497     37.3060E-03     36.9293E-03
            1759            2503     36.6678E-03     36.6647E-03
            1759            2504     37.9262E-03     37.9027E-03
            1760            2497     37.3060E-03     36.9293E-03
            1760            2498     36.3480E-03     36.0499E-03
            1760            2504     37.9262E-03     37.9027E-03
            1760            2505     36.6678E-03     36.6647E-03
            1761            2498     36.3480E-03     36.0499E-03
            1761            2499     32.6461E-03     32.6095E-03
            1761            2505     36.6678E-03     36.6647E-03
            1761            2506     33.1252E-03     33.2107E-03
            1762            2499     32.6461E-03     32.6095E-03
            1762            2500     25.6918E-03     25.9293E-03
            1762            2506     33.1252E-03     33.2107E-03
            1762            2507     27.6389E-03     27.7038E-03
            1763             152     24.4367E-03     24.4129E-03
            1763             153     21.4814E-03     21.8102E-03
            1763            2500     25.6918E-03     25.9293E-03
            1763            2507     27.6389E-03     27.7038E-03
            1764             527     28.2445E-03     28.1114E-03
            1764             528     24.4367E-03     24.4129E-03
            1764            2501     27.6389E-03     27.7038E-03
            1764            2508     30.3818E-03     30.3179E-03
            1765            2501     27.6389E-03     27.7038E-03
            1765            2502     33.1252E-03     33.2107E-03
            1765            2508     30.3818E-03     30.3179E-03
            1765            2509     34.3309E-03     34.4612E-03
            1766            2502     33.1252E-03     33.2107E-03
            1766            2503     36.6678E-03     36.6647E-03
            1766            2509     34.3309E-03     34.4612E-03
            1766            2510     36.7474E-03     37.0624E-03
            1767            2503     36.6678E-03     36.6647E-03
            1767            2504     37.9262E-03     37.9027E-03
            1767            2510     36.7474E-03     37.0624E-03
            1767            2511     37.3521E-03     37.7268E-03
            1768            2504     37.9262E-03     37.9027E-03
            1768            2505     36.6678E-03     36.6647E-03
            1768            2511     37.3521E-03     37.7268E-03
            1768            2512     36.7474E-03     37.0624E-03
            1769            2505     36.6678E-03     36.6647E-03
            1769            2506     33.1252E-03     33.2107E-03
            1769            2512     36.7474E-03     37.0624E-03
            1769            2513     34.3309E-03     34.4612E-03
            1770            2506     33.1252E-03     33.2107E-03
            1770            2507     27.6389E-03     27.7038E-03
            1770            2513     34.3309E-03     34.4612E-03
            1770            2514     30.3818E-03     30.3179E-03
            1771             151     28.2445E-03     28.1114E-03
            1771             152     24.4367E-03     24.4129E-03
            1771            2507     27.6389E-03     27.7038E-03
            1771            2514     30.3818E-03     30.3179E-03
            1772             526     33.8737E-03     33.7383E-03
            1772             527     28.2445E-03     28.1114E-03
            1772            2508     30.3818E-03     30.3179E-03
            1772            2515     34.8238E-03     34.8018E-03
            1773            2508     30.3818E-03     30.3179E-03
            1773            2509     34.3309E-03     34.4612E-03
            1773            2515     34.8238E-03     34.8018E-03
            1773            2516     35.7733E-03     36.1004E-03
            1774            2509     34.3309E-03     34.4612E-03
            1774            2510     36.7474E-03     37.0624E-03
            1774            2516     35.7733E-03     36.1004E-03
            1774            2517     35.7210E-03     36.2837E-03
            1775            2510     36.7474E-03     37.0624E-03
            1775            2511     37.3521E-03     37.7268E-03
            1775            2517     35.7210E-03     36.2837E-03
            1775            2518     35.6692E-03     36.2319E-03
            1776            2511     37.3521E-03     37.7268E-03
            1776            2512     36.7474E-03     37.0624E-03
            1776            2518     35.6692E-03     36.2319E-03
            1776            2519     35.7210E-03     36.2837E-03
            1777            2512     36.7474E-03     37.0624E-03
            1777            2513     34.3309E-03     34.4612E-03
            1777            2519     35.7210E-03     36.2837E-03
            1777            2520     35.7733E-03     36.1004E-03
            1778            2513     34.3309E-03     34.4612E-03
            1778            2514     30.3818E-03     30.3179E-03
            1778            2520     35.7733E-03     36.1004E-03
            1778            2521     34.8238E-03     34.8018E-03
            1779             150     33.8737E-03     33.7383E-03
            1779             151     28.2445E-03     28.1114E-03
            1779            2514     30.3818E-03     30.3179E-03
            1779            2521     34.8238E-03     34.8018E-03
            1780             525     42.1722E-03     41.3783E-03
            1780             526     33.8737E-03     33.7383E-03
            1780            2515     34.8238E-03     34.8018E-03
            1780            2522     39.6410E-03     39.3041E-03
            1781            2515     34.8238E-03     34.8018E-03
            1781            2516     35.7733E-03     36.1004E-03
            1781            2522     39.6410E-03     39.3041E-03
            1781            2523     35.2784E-03     35.5065E-03
            1782            2516     35.7733E-03     36.1004E-03
            1782            2517     35.7210E-03     36.2837E-03
            1782            2523     35.2784E-03     35.5065E-03
            1782            2524     33.2356E-03     33.6229E-03
            1783            2517     35.7210E-03     36.2837E-03
            1783            2518     35.6692E-03     36.2319E-03
            1783            2524     33.2356E-03     33.6229E-03
            1783            2525     33.0243E-03     33.4628E-03
            1784            2518     35.6692E-03     36.2319E-03
            1784            2519     35.7210E-03     36.2837E-03
            1784            2525     33.0243E-03     33.4628E-03
            1784            2526     33.2356E-03     33.6229E-03
            1785            2519     35.7210E-03     36.2837E-03
            1785            2520     35.7733E-03     36.1004E-03
            1785            2526     33.2356E-03     33.6229E-03
            1785            2527     35.2784E-03     35.5065E-03
            1786            2520     35.7733E-03     36.1004E-03
            1786            2521     34.8238E-03     34.8018E-03
            1786            2527     35.2784E-03     35.5065E-03
            1786            2528     39.6410E-03     39.3041E-03
            1787             149     42.1722E-03     41.3783E-03
            1787             150     33.8737E-03     33.7383E-03
            1787            2521     34.8238E-03     34.8018E-03
            1787            2528     39.6410E-03     39.3041E-03
            1788             524     35.6881E-03     33.6781E-03
            1788             525     42.1722E-03     41.3783E-03
            1788            2522     39.6410E-03     39.3041E-03
            1788            2529     35.4418E-03     33.7246E-03
            1789            2522     39.6410E-03     39.3041E-03
            1789            2523     35.2784E-03     35.5065E-03
            1789            2529     35.4418E-03     33.7246E-03
            1789            2530     34.3905E-03     33.3184E-03
            1790            2523     35.2784E-03     35.5065E-03
            1790            2524     33.2356E-03     33.6229E-03
            1790            2530     34.3905E-03     33.3184E-03
            1790            2531     33.5989E-03     33.0453E-03
            1791            2524     33.2356E-03     33.6229E-03
            1791            2525     33.0243E-03     33.4628E-03
            1791            2531     33.5989E-03     33.0453E-03
            1791            2532     33.6124E-03     33.2248E-03
            1792            2525     33.0243E-03     33.4628E-03
            1792            2526     33.2356E-03     33.6229E-03
            1792            2532     33.6124E-03     33.2248E-03
            1792            2533     33.5989E-03     33.0453E-03
            1793            2526     33.2356E-03     33.6229E-03
            1793            2527     35.2784E-03     35.5065E-03
            1793            2533     33.5989E-03     33.0453E-03
            1793            2534     34.3905E-03     33.3184E-03
            1794            2527     35.2784E-03     35.5065E-03
            1794            2528     39.6410E-03     39.3041E-03
            1794            2534     34.3905E-03     33.3184E-03
            1794            2535     35.4418E-03     33.7246E-03
            1795             148     35.6881E-03     33.6781E-03
            1795             149     42.1722E-03     41.3783E-03
            1795            2528     39.6410E-03     39.3041E-03
            1795            2535     35.4418E-03     33.7246E-03
            1796             523     27.2861E-03     27.2881E-03
            1796             524     35.6881E-03     33.6781E-03
            1796            2529     35.4418E-03     33.7246E-03
            1796            2536     31.1892E-03     30.2854E-03
            1797            2529     35.4418E-03     33.7246E-03
            1797            2530     34.3905E-03     33.3184E-03
            1797            2536     31.1892E-03     30.2854E-03
            1797            2537     35.4044E-03     33.6369E-03
            1798            2530     34.3905E-03     33.3184E-03
            1798            2531     33.5989E-03     33.0453E-03
            1798            2537     35.4044E-03     33.6369E-03
            1798            2538     35.7703E-03     34.1248E-03
            1799            2531     33.5989E-03     33.0453E-03
            1799            2532     33.6124E-03     33.2248E-03
            1799            2538     35.7703E-03     34.1248E-03
            1799            2539     35.8241E-03     34.2586E-03
            1800            2532     33.6124E-03     33.2248E-03
            1800            2533     33.5989E-03     33.0453E-03
            1800            2539     35.8241E-03     34.2586E-03
            1800            2540     35.7703E-03     34.1248E-03
            1801            2533     33.5989E-03     33.0453E-03
            1801            2534     34.3905E-03     33.3184E-03
            1801            2540     35.7703E-03     34.1248E-03
            1801            2541     35.4044E-03     33.6369E-03
            1802            2534     34.3905E-03     33.3184E-03
            1802            2535     35.4418E-03     33.7246E-03
            1802            2541     35.4044E-03     33.6369E-03
            1802            2542     31.1892E-03     30.2854E-03
            1803             147     27.2861E-03     27.2881E-03
            1803             148     35.6881E-03     33.6781E-03
            1803            2535     35.4418E-03     33.7246E-03
            1803            2542     31.1892E-03     30.2854E-03
            1804             522     33.1391E-03     34.5631E-03
            1804             523     27.2861E-03     27.2881E-03
            1804            2536     31.1892E-03     30.2854E-03
            1804            2543     34.6808E-03     35.4508E-03
            1805            2536     31.1892E-03     30.2854E-03
            1805            2537     35.4044E-03     33.6369E-03
            1805            2543     34.6808E-03     35.4508E-03
            1805            2544     36.6313E-03     35.8979E-03
            1806            2537     35.4044E-03     33.6369E-03
            1806            2538     35.7703E-03     34.1248E-03
            1806            2544     36.6313E-03     35.8979E-03
            1806            2545     36.6861E-03     34.8887E-03
            1807            2538     35.7703E-03     34.1248E-03
            1807            2539     35.8241E-03     34.2586E-03
            1807            2545     36.6861E-03     34.8887E-03
            1807            2546     36.3321E-03     34.3202E-03
            1808            2539     35.8241E-03     34.2586E-03
            1808            2540     35.7703E-03     34.1248E-03
            1808            2546     36.3321E-03     34.3202E-03
            1808            2547     36.6861E-03     34.8887E-03
            1809            2540     35.7703E-03     34.1248E-03
            1809            2541     35.4044E-03     33.6369E-03
            1809            2547     36.6861E-03     34.8887E-03
            1809            2548     36.6313E-03     35.8979E-03
            1810            2541     35.4044E-03     33.6369E-03
            1810            2542     31.1892E-03     30.2854E-03
            1810            2548     36.6313E-03     35.8979E-03
            1810            2549     34.6808E-03     35.4508E-03
            1811             146     33.1391E-03     34.5631E-03
            1811             147     27.2861E-03     27.2881E-03
            1811            2542     31.1892E-03     30.2854E-03
            1811            2549     34.6808E-03     35.4508E-03
            1812             521     38.8556E-03     39.0401E-03
            1812             522     33.1391E-03     34.5631E-03
            1812            2543     34.6808E-03     35.4508E-03
            1812            2550     38.2869E-03     38.7131E-03
            1813            2543     34.6808E-03     35.4508E-03
            1813            2544     36.6313E-03     35.8979E-03
            1813            2550     38.2869E-03     38.7131E-03
            1813            2551     37.7855E-03     37.7919E-03
            1814            2544     36.6313E-03     35.8979E-03
            1814            2545     36.6861E-03     34.8887E-03
            1814            2551     37.7855E-03     37.7919E-03
            1814            2552     37.5985E-03     36.4700E-03
            1815            2545     36.6861E-03     34.8887E-03
            1815            2546     36.3321E-03     34.3202E-03
            1815            2552     37.5985E-03     36.4700E-03
            1815            2553     37.3442E-03     35.7423E-03
            1816            2546     36.3321E-03     34.3202E-03
            1816            2547     36.6861E-03     34.8887E-03
            1816            2553     37.3442E-03     35.7423E-03
            1816            2554     37.5985E-03     36.4700E-03
            1817            2547     36.6861E-03     34.8887E-03
            1817            2548     36.6313E-03     35.8979E-03
            1817            2554     37.5985E-03     36.4700E-03
            1817            2555     37.7855E-03     37.7919E-03
            1818            2548     36.6313E-03     35.8979E-03
            1818            2549     34.6808E-03     35.4508E-03
            1818            2555     37.7855E-03     37.7919E-03
            1818            2556     38.2869E-03     38.7131E-03
            1819             145     38.8556E-03     39.0401E-03
            1819             146     33.1391E-03     34.5631E-03
            1819            2549     34.6808E-03     35.4508E-03
            1819            2556     38.2869E-03     38.7131E-03
            1820             520     44.0824E-03     43.9577E-03
            1820             521     38.8556E-03     39.0401E-03
            1820            2550     38.2869E-03     38.7131E-03
            1820            2557     42.1851E-03     42.2393E-03
            1821            2550     38.2869E-03     38.7131E-03
            1821            2551     37.7855E-03     37.7919E-03
            1821            2557     42.1851E-03     42.2393E-03
            1821            2558     39.4647E-03     39.5306E-03
            1822            2551     37.7855E-03     37.7919E-03
            1822            2552     37.5985E-03     36.4700E-03
            1822            2558     39.4647E-03     39.5306E-03
            1822            2559     38.3339E-03     37.8920E-03
            1823            2552     37.5985E-03     36.4700E-03
            1823            2553     37.3442E-03     35.7423E-03
            1823            2559     38.3339E-03     37.8920E-03
            1823            2560     38.0261E-03     37.2436E-03
            1824            2553     37.3442E-03     35.7423E-03
            1824            2554     37.5985E-03     36.4700E-03
            1824            2560     38.0261E-03     37.2436E-03
            1824            2561     38.3339E-03     37.8920E-03
            1825            2554     37.5985E-03     36.4700E-03
            1825            2555     37.7855E-03     37.7919E-03
            1825            2561     38.3339E-03     37.8920E-03
            1825            2562     39.4647E-03     39.5306E-03
            1826            2555     37.7855E-03     37.7919E-03
            1826            2556     38.2869E-03     38.7131E-03
            1826            2562     39.4647E-03     39.5306E-03
            1826            2563     42.1851E-03     42.2393E-03
            1827             144     44.0824E-03     43.9577E-03
            1827             145     38.8556E-03     39.0401E-03
            1827            2556     38.2869E-03     38.7131E-03
            1827            2563     42.1851E-03     42.2393E-03
            1828             519     49.3392E-03     48.8019E-03
            1828             520     44.0824E-03     43.9577E-03
            1828            2557     42.1851E-03     42.2393E-03
            1828            2564     46.3027E-03     46.0897E-03
            1829            2557     42.1851E-03     42.2393E-03
            1829            2558     39.4647E-03     39.5306E-03
            1829            2564     46.3027E-03     46.0897E-03
            1829            2565     41.5907E-03     41.7370E-03
            1830            2558     39.4647E-03     39.5306E-03
            1830            2559     38.3339E-03     37.8920E-03
            1830            2565     41.5907E-03     41.7370E-03
            1830            2566     39.1197E-03     39.2097E-03
            1831            2559     38.3339E-03     37.8920E-03
            1831            2560     38.0261E-03     37.2436E-03
            1831            2566     39.1197E-03     39.2097E-03
            1831            2567     38.3242E-03     38.3228E-03
            1832            2560     38.0261E-03     37.2436E-03
            1832            2561     38.3339E-03     37.8920E-03
            1832            2567     38.3242E-03     38.3228E-03
            1832            2568     39.1197E-03     39.2097E-03
            1833            2561     38.3339E-03     37.8920E-03
            1833            2562     39.4647E-03     39.5306E-03
            1833            2568     39.1197E-03     39.2097E-03
            1833            2569     41.5907E-03     41.7370E-03
            1834            2562     39.4647E-03     39.5306E-03
            1834            2563     42.1851E-03     42.2393E-03
            1834            2569     41.5907E-03     41.7370E-03
            1834            2570     46.3027E-03     46.0897E-03
            1835             143     49.3392E-03     48.8019E-03
            1835             144     44.0824E-03     43.9577E-03
            1835            2563     42.1851E-03     42.2393E-03
            1835            2570     46.3027E-03     46.0897E-03
            1836             518     54.6823E-03     54.0392E-03
            1836             519     49.3392E-03     48.8019E-03
            1836            2564     46.3027E-03     46.0897E-03
            1836            2571     50.6317E-03     50.3228E-03
            1837            2564     46.3027E-03     46.0897E-03
            1837            2565     41.5907E-03     41.7370E-03
            1837            2571     50.6317E-03     50.3228E-03
            1837            2572     43.8136E-03     44.0713E-03
            1838            2565     41.5907E-03     41.7370E-03
            1838            2566     39.1197E-03     39.2097E-03
            1838            2572     43.8136E-03     44.0713E-03
            1838            2573     39.8365E-03     40.5011E-03
            1839            2566     39.1197E-03     39.2097E-03
            1839            2567     38.3242E-03     38.3228E-03
            1839            2573     39.8365E-03     40.5011E-03
            1839            2574     38.6268E-03     39.4659E-03
            1840            2567     38.3242E-03     38.3228E-03
            1840            2568     39.1197E-03     39.2097E-03
            1840            2574     38.6268E-03     39.4659E-03
            1840            2575     39.8365E-03     40.5011E-03
            1841            2568     39.1197E-03     39.2097E-03
            1841            2569     41.5907E-03     41.7370E-03
            1841            2575     39.8365E-03     40.5011E-03
            1841            2576     43.8136E-03     44.0713E-03
            1842            2569     41.5907E-03     41.7370E-03
            1842            2570     46.3027E-03     46.0897E-03
            1842            2576     43.8136E-03     44.0713E-03
            1842            2577     50.6317E-03     50.3228E-03
            1843             142     54.6823E-03     54.0392E-03
            1843             143     49.3392E-03     48.8019E-03
            1843            2570     46.3027E-03     46.0897E-03
            1843            2577     50.6317E-03     50.3228E-03
            1844             517     59.9223E-03     59.2419E-03
            1844             518     54.6823E-03     54.0392E-03
            1844            2571     50.6317E-03     50.3228E-03
            1844            2578     54.9177E-03     54.6535E-03
            1845            2571     50.6317E-03     50.3228E-03
            1845            2572     43.8136E-03     44.0713E-03
            1845            2578     54.9177E-03     54.6535E-03
            1845            2579     46.3216E-03     46.9854E-03
            1846            2572     43.8136E-03     44.0713E-03
            1846            2573     39.8365E-03     40.5011E-03
            1846            2579     46.3216E-03     46.9854E-03
            1846            2580     40.3642E-03     41.7930E-03
            1847            2573     39.8365E-03     40.5011E-03
            1847            2574     38.6268E-03     39.4659E-03
            1847            2580     40.3642E-03     41.7930E-03
            1847            2581     37.9984E-03     39.6803E-03
            1848            2574     38.6268E-03     39.4659E-03
            1848            2575     39.8365E-03     40.5011E-03
            1848            2581     37.9984E-03     39.6803E-03
            1848            2582     40.3642E-03     41.7930E-03
            1849            2575     39.8365E-03     40.5011E-03
            1849            2576     43.8136E-03     44.0713E-03
            1849            2582     40.3642E-03     41.7930E-03
            1849            2583     46.3216E-03     46.9854E-03
            1850            2576     43.8136E-03     44.0713E-03
            1850            2577     50.6317E-03     50.3228E-03
            1850            2583     46.3216E-03     46.9854E-03
            1850            2584     54.9177E-03     54.6535E-03
            1851             141     59.9223E-03     59.2419E-03
            1851             142     54.6823E-03     54.0392E-03
            1851            2577     50.6317E-03     50.3228E-03
            1851            2584     54.9177E-03     54.6535E-03
            1852             516     66.5310E-03     66.2626E-03
            1852             517     59.9223E-03     59.2419E-03
            1852            2578     54.9177E-03     54.6535E-03
            1852            2585     60.4526E-03     60.6889E-03
            1853            2578     54.9177E-03     54.6535E-03
            1853            2579     46.3216E-03     46.9854E-03
            1853            2585     60.4526E-03     60.6889E-03
            1853            2586     48.4269E-03     49.6336E-03
            1854            2579     46.3216E-03     46.9854E-03
            1854            2580     40.3642E-03     41.7930E-03
            1854            2586     48.4269E-03     49.6336E-03
            1854            2587     39.2008E-03     41.0380E-03
            1855            2580     40.3642E-03     41.7930E-03
            1855            2581     37.9984E-03     39.6803E-03
            1855            2587     39.2008E-03     41.0380E-03
            1855            2588     35.9219E-03     37.9241E-03
            1856            2581     37.9984E-03     39.6803E-03
            1856            2582     40.3642E-03     41.7930E-03
            1856            2588     35.9219E-03     37.9241E-03
            1856            2589     39.2008E-03     41.0380E-03
            1857            2582     40.3642E-03     41.7930E-03
            1857            2583     46.3216E-03     46.9854E-03
            1857            2589     39.2008E-03     41.0380E-03
            1857            2590     48.4269E-03     49.6336E-03
            1858            2583     46.3216E-03     46.9854E-03
            1858            2584     54.9177E-03     54.6535E-03
            1858            2590     48.4269E-03     49.6336E-03
            1858            2591     60.4526E-03     60.6889E-03
            1859             140     66.5310E-03     66.2626E-03
            1859             141     59.9223E-03     59.2419E-03
            1859            2584     54.9177E-03     54.6535E-03
            1859            2591     60.4526E-03     60.6889E-03
            1860             515     75.6887E-03     73.5568E-03
            1860             516     66.5310E-03     66.2626E-03
            1860            2585     60.4526E-03     60.6889E-03
            1860            2592     65.4216E-03     64.1385E-03
            1861            2585     60.4526E-03     60.6889E-03
            1861            2586     48.4269E-03     49.6336E-03
            1861            2592     65.4216E-03     64.1385E-03
            1861            2593     47.2169E-03     47.2033E-03
            1862            2586     48.4269E-03     49.6336E-03
            1862            2587     39.2008E-03     41.0380E-03
            1862            2593     47.2169E-03     47.2033E-03
            1862            2594     35.5852E-03     36.4890E-03
            1863            2587     39.2008E-03     41.0380E-03
            1863            2588     35.9219E-03     37.9241E-03
            1863            2594     35.5852E-03     36.4890E-03
            1863            2595     31.8911E-03     33.2916E-03
            1864            2588     35.9219E-03     37.9241E-03
            1864            2589     39.2008E-03     41.0380E-03
            1864            2595     31.8911E-03     33.2916E-03
            1864            2596     35.5852E-03     36.4890E-03
            1865            2589     39.2008E-03     41.0380E-03
            1865            2590     48.4269E-03     49.6336E-03
            1865            2596     35.5852E-03     36.4890E-03
            1865            2597     47.2169E-03     47.2033E-03
            1866            2590     48.4269E-03     49.6336E-03
            1866            2591     60.4526E-03     60.6889E-03
            1866            2597     47.2169E-03     47.2033E-03
            1866            2598     65.4216E-03     64.1385E-03
            1867             139     75.6887E-03     73.5568E-03
            1867             140     66.5310E-03     66.2626E-03
            1867            2591     60.4526E-03     60.6889E-03
            1867            2598     65.4216E-03     64.1385E-03
            1868             514     65.9763E-03     59.8181E-03
            1868             515     75.6887E-03     73.5568E-03
            1868            2592     65.4216E-03     64.1385E-03
            1868            2599     58.5002E-03     53.1780E-03
            1869            2592     65.4216E-03     64.1385E-03
            1869            2593     47.2169E-03     47.2033E-03
            1869            2599     58.5002E-03     53.1780E-03
            1869            2600     45.5665E-03     42.2744E-03
            1870            2593     47.2169E-03     47.2033E-03
            1870            2594     35.5852E-03     36.4890E-03
            1870            2600     45.5665E-03     42.2744E-03
            1870            2601     37.1353E-03     35.7683E-03
            1871            2594     35.5852E-03     36.4890E-03
            1871            2595     31.8911E-03     33.2916E-03
            1871            2601     37.1353E-03     35.7683E-03
            1871            2602     34.1615E-03     33.5258E-03
            1872            2595     31.8911E-03     33.2916E-03
            1872            2596     35.5852E-03     36.4890E-03
            1872            2602     34.1615E-03     33.5258E-03
            1872            2603     37.1353E-03     35.7683E-03
            1873            2596     35.5852E-03     36.4890E-03
            1873            2597     47.2169E-03     47.2033E-03
            1873            2603     37.1353E-03     35.7683E-03
            1873            2604     45.5665E-03     42.2744E-03
            1874            2597     47.2169E-03     47.2033E-03
            1874            2598     65.4216E-03     64.1385E-03
            1874            2604     45.5665E-03     42.2744E-03
            1874            2605     58.5002E-03     53.1780E-03
            1875             138     65.9763E-03     59.8181E-03
            1875             139     75.6887E-03     73.5568E-03
            1875            2598     65.4216E-03     64.1385E-03
            1875            2605     58.5002E-03     53.1780E-03
            1876             513     55.2517E-03     53.1301E-03
            1876             514     65.9763E-03     59.8181E-03
            1876            2599     58.5002E-03     53.1780E-03
            1876            2606     52.9235E-03     50.0175E-03
            1877            2599     58.5002E-03     53.1780E-03
            1877            2600     45.5665E-03     42.2744E-03
            1877            2606     52.9235E-03     50.0175E-03
            1877            2607     46.8723E-03     43.3125E-03
            1878            2600     45.5665E-03     42.2744E-03
            1878            2601     37.1353E-03     35.7683E-03
            1878            2607     46.8723E-03     43.3125E-03
            1878            2608     40.6889E-03     37.5358E-03
            1879            2601     37.1353E-03     35.7683E-03
            1879            2602     34.1615E-03     33.5258E-03
            1879            2608     40.6889E-03     37.5358E-03
            1879            2609     38.2284E-03     35.3515E-03
            1880            2602     34.1615E-03     33.5258E-03
            1880            2603     37.1353E-03     35.7683E-03
            1880            2609     38.2284E-03     35.3515E-03
            1880            2610     40.6889E-03     37.5358E-03
            1881            2603     37.1353E-03     35.7683E-03
            1881            2604     45.5665E-03     42.2744E-03
            1881            2610     40.6889E-03     37.5358E-03
            1881            2611     46.8723E-03     43.3125E-03
            1882            2604     45.5665E-03     42.2744E-03
            1882            2605     58.5002E-03     53.1780E-03
            1882            2611     46.8723E-03     43.3125E-03
            1882            2612     52.9235E-03     50.0175E-03
            1883             137     55.2517E-03     53.1301E-03
            1883             138     65.9763E-03     59.8181E-03
            1883            2605     58.5002E-03     53.1780E-03
            1883            2612     52.9235E-03     50.0175E-03
            1884             512     63.2580E-03     64.7647E-03
            1884             513     55.2517E-03     53.1301E-03
            1884            2606     52.9235E-03     50.0175E-03
            1884            2613     58.3235E-03     59.4837E-03
            1885            2606     52.9235E-03     50.0175E-03
            1885            2607     46.8723E-03     43.3125E-03
            1885            2613     58.3235E-03     59.4837E-03
            1885            2614     48.7909E-03     48.0539E-03
            1886            2607     46.8723E-03     43.3125E-03
            1886            2608     40.6889E-03     37.5358E-03
            1886            2614     48.7909E-03     48.0539E-03
            1886            2615     40.8379E-03     37.8790E-03
            1887            2608     40.6889E-03     37.5358E-03
            1887            2609     38.2284E-03     35.3515E-03
            1887            2615     40.8379E-03     37.8790E-03
            1887            2616     37.4831E-03     33.8529E-03
            1888            2609     38.2284E-03     35.3515E-03
            1888            2610     40.6889E-03     37.5358E-03
            1888            2616     37.4831E-03     33.8529E-03
            1888            2617     40.8379E-03     37.8790E-03
            1889            2610     40.6889E-03     37.5358E-03
            1889            2611     46.8723E-03     43.3125E-03
            1889            2617     40.8379E-03     37.8790E-03
            1889            2618     48.7909E-03     48.0539E-03
            1890            2611     46.8723E-03     43.3125E-03
            1890            2612     52.9235E-03     50.0175E-03
            1890            2618     48.7909E-03     48.0539E-03
            1890            2619     58.3235E-03     59.4837E-03
            1891             136     63.2580E-03     64.7647E-03
            1891             137     55.2517E-03     53.1301E-03
            1891            2612     52.9235E-03     50.0175E-03
            1891            2619     58.3235E-03     59.4837E-03
            1892             511     69.9587E-03     69.7037E-03
            1892             512     63.2580E-03     64.7647E-03
            1892            2613     58.3235E-03     59.4837E-03
            1892            2620     63.0274E-03     63.4906E-03
            1893            2613     58.3235E-03     59.4837E-03
            1893            2614     48.7909E-03     48.0539E-03
            1893            2620     63.0274E-03     63.4906E-03
            1893            2621     50.7616E-03     51.0418E-03
            1894            2614     48.7909E-03     48.0539E-03
            1894            2615     40.8379E-03     37.8790E-03
            1894            2621     50.7616E-03     51.0418E-03
            1894            2622     41.7217E-03     39.9527E-03
            1895            2615     40.8379E-03     37.8790E-03
            1895            2616     37.4831E-03     33.8529E-03
            1895            2622     41.7217E-03     39.9527E-03
            1895            2623     38.0163E-03     35.0993E-03
            1896            2616     37.4831E-03     33.8529E-03
            1896            2617     40.8379E-03     37.8790E-03
            1896            2623     38.0163E-03     35.0993E-03
            1896            2624     41.7217E-03     39.9527E-03
            1897            2617     40.8379E-03     37.8790E-03
            1897            2618     48.7909E-03     48.0539E-03
            1897            2624     41.7217E-03     39.9527E-03
            1897            2625     50.7616E-03     51.0418E-03
            1898            2618     48.7909E-03     48.0539E-03
            1898            2619     58.3235E-03     59.4837E-03
            1898            2625     50.7616E-03     51.0418E-03
            1898            2626     63.0274E-03     63.4906E-03
            1899             135     69.9587E-03     69.7037E-03
            1899             136     63.2580E-03     64.7647E-03
            1899            2619     58.3235E-03     59.4837E-03
            1899            2626     63.0274E-03     63.4906E-03
            1900             510     75.7932E-03     75.1635E-03
            1900             511     69.9587E-03     69.7037E-03
            1900            2620     63.0274E-03     63.4906E-03
            1900            2627     67.6870E-03     67.4686E-03
            1901            2620     63.0274E-03     63.4906E-03
            1901            2621     50.7616E-03     51.0418E-03
            1901            2627     67.6870E-03     67.4686E-03
            1901            2628     53.1117E-03     53.1498E-03
            1902            2621     50.7616E-03     51.0418E-03
            1902            2622     41.7217E-03     39.9527E-03
            1902            2628     53.1117E-03     53.1498E-03
            1902            2629     42.6738E-03     41.8155E-03
            1903            2622     41.7217E-03     39.9527E-03
            1903            2623     38.0163E-03     35.0993E-03
            1903            2629     42.6738E-03     41.8155E-03
            1903            2630     38.7050E-03     37.1052E-03
            1904            2623     38.0163E-03     35.0993E-03
            1904            2624     41.7217E-03     39.9527E-03
            1904            2630     38.7050E-03     37.1052E-03
            1904            2631     42.6738E-03     41.8155E-03
            1905            2624     41.7217E-03     39.9527E-03
            1905            2625     50.7616E-03     51.0418E-03
            1905            2631     42.6738E-03     41.8155E-03
            1905            2632     53.1117E-03     53.1498E-03
            1906            2625     50.7616E-03     51.0418E-03
            1906            2626     63.0274E-03     63.4906E-03
            1906            2632     53.1117E-03     53.1498E-03
            1906            2633     67.6870E-03     67.4686E-03
            1907             134     75.7932E-03     75.1635E-03
            1907             135     69.9587E-03     69.7037E-03
            1907            2626     63.0274E-03     63.4906E-03
            1907            2633     67.6870E-03     67.4686E-03
            1908             509     81.2927E-03     80.2062E-03
            1908             510     75.7932E-03     75.1635E-03
            1908            2627     67.6870E-03     67.4686E-03
            1908            2634     72.2293E-03     71.6392E-03
            1909            2627     67.6870E-03     67.4686E-03
            1909            2628     53.1117E-03     53.1498E-03
            1909            2634     72.2293E-03     71.6392E-03
            1909            2635     55.7637E-03     55.6945E-03
            1910            2628     53.1117E-03     53.1498E-03
            1910            2629     42.6738E-03     41.8155E-03
            1910            2635     55.7637E-03     55.6945E-03
            1910            2636     43.7897E-03     43.5478E-03
            1911            2629     42.6738E-03     41.8155E-03
            1911            2630     38.7050E-03     37.1052E-03
            1911            2636     43.7897E-03     43.5478E-03
            1911            2637     39.2178E-03     38.7788E-03
            1912            2630     38.7050E-03     37.1052E-03
            1912            2631     42.6738E-03     41.8155E-03
            1912            2637     39.2178E-03     38.7788E-03
            1912            2638     43.7897E-03     43.5478E-03
            1913            2631     42.6738E-03     41.8155E-03
            1913            2632     53.1117E-03     53.1498E-03
            1913            2638     43.7897E-03     43.5478E-03
            1913            2639     55.7637E-03     55.6945E-03
            1914            2632     53.1117E-03     53.1498E-03
            1914            2633     67.6870E-03     67.4686E-03
            1914            2639     55.7637E-03     55.6945E-03
            1914            2640     72.2293E-03     71.6392E-03
            1915             133     81.2927E-03     80.2062E-03
            1915             134     75.7932E-03     75.1635E-03
            1915            2633     67.6870E-03     67.4686E-03
            1915            2640     72.2293E-03     71.6392E-03
            1916             508     86.6895E-03     85.4940E-03
            1916             509     81.2927E-03     80.2062E-03
            1916            2634     72.2293E-03     71.6392E-03
            1916            2641     76.8063E-03     76.0766E-03
            1917            2634     72.2293E-03     71.6392E-03
            1917            2635     55.7637E-03     55.6945E-03
            1917            2641     76.8063E-03     76.0766E-03
            1917            2642     58.6436E-03     58.7072E-03
            1918            2635     55.7637E-03     55.6945E-03
            1918            2636     43.7897E-03     43.5478E-03
            1918            2642     58.6436E-03     58.7072E-03
            1918            2643     44.9926E-03     45.4325E-03
            1919            2636     43.7897E-03     43.5478E-03
            1919            2637     39.2178E-03     38.7788E-03
            1919            2643     44.9926E-03     45.4325E-03
            1919            2644     39.6211E-03     40.1100E-03
            1920            2637     39.2178E-03     38.7788E-03
            1920            2638     43.7897E-03     43.5478E-03
            1920            2644     39.6211E-03     40.1100E-03
            1920            2645     44.9926E-03     45.4325E-03
            1921            2638     43.7897E-03     43.5478E-03
            1921            2639     55.7637E-03     55.6945E-03
            1921            2645     44.9926E-03     45.4325E-03
            1921            2646     58.6436E-03     58.7072E-03
            1922            2639     55.7637E-03     55.6945E-03
            1922            2640     72.2293E-03     71.6392E-03
            1922            2646     58.6436E-03     58.7072E-03
            1922            2647     76.8063E-03     76.0766E-03
            1923             132     86.6895E-03     85.4940E-03
            1923             133     81.2927E-03     80.2062E-03
            1923            2640     72.2293E-03     71.6392E-03
            1923            2647     76.8063E-03     76.0766E-03
            1924             507     92.2148E-03     90.9934E-03
            1924             508     86.6895E-03     85.4940E-03
            1924            2641     76.8063E-03     76.0766E-03
            1924            2648     81.4893E-03     80.8423E-03
            1925            2641     76.8063E-03     76.0766E-03
            1925            2642     58.6436E-03     58.7072E-03
            1925            2648     81.4893E-03     80.8423E-03
            1925            2649     61.4016E-03     61.8129E-03
            1926            2642     58.6436E-03     58.7072E-03
            1926            2643     44.9926E-03     45.4325E-03
            1926            2649     61.4016E-03     61.8129E-03
            1926            2650     46.1391E-03     47.4766E-03
            1927            2643     44.9926E-03     45.4325E-03
            1927            2644     39.6211E-03     40.1100E-03
            1927            2650     46.1391E-03     47.4766E-03
            1927            2651     40.2386E-03     42.0186E-03
            1928            2644     39.6211E-03     40.1100E-03
            1928            2645     44.9926E-03     45.4325E-03
            1928            2651     40.2386E-03     42.0186E-03
            1928            2652     46.1391E-03     47.4766E-03
            1929            2645     44.9926E-03     45.4325E-03
            1929            2646     58.6436E-03     58.7072E-03
            1929            2652     46.1391E-03     47.4766E-03
            1929            2653     61.4016E-03     61.8129E-03
            1930            2646     58.6436E-03     58.7072E-03
            1930            2647     76.8063E-03     76.0766E-03
            1930            2653     61.4016E-03     61.8129E-03
            1930            2654     81.4893E-03     80.8423E-03
            1931             131     92.2148E-03     90.9934E-03
            1931             132     86.6895E-03     85.4940E-03
            1931            2647     76.8063E-03     76.0766E-03
            1931            2654     81.4893E-03     80.8423E-03
            1932             506     97.4535E-03     96.3141E-03
            1932             507     92.2148E-03     90.9934E-03
            1932            2648     81.4893E-03     80.8423E-03
            1932            2655     85.9427E-03     85.6218E-03
            1933            2648     81.4893E-03     80.8423E-03
            1933            2649     61.4016E-03     61.8129E-03
            1933            2655     85.9427E-03     85.6218E-03
            1933            2656     64.3948E-03     65.7059E-03
            1934            2649     61.4016E-03     61.8129E-03
            1934            2650     46.1391E-03     47.4766E-03
            1934            2656     64.3948E-03     65.7059E-03
            1934            2657     46.9928E-03     49.6107E-03
            1935            2650     46.1391E-03     47.4766E-03
            1935            2651     40.2386E-03     42.0186E-03
            1935            2657     46.9928E-03     49.6107E-03
            1935            2658     39.6280E-03     42.7392E-03
            1936            2651     40.2386E-03     42.0186E-03
            1936            2652     46.1391E-03     47.4766E-03
            1936            2658     39.6280E-03     42.7392E-03
            1936            2659     46.9928E-03     49.6107E-03
            1937            2652     46.1391E-03     47.4766E-03
            1937            2653     61.4016E-03     61.8129E-03
            1937            2659     46.9928E-03     49.6107E-03
            1937            2660     64.3948E-03     65.7059E-03
            1938            2653     61.4016E-03     61.8129E-03
            1938            2654     81.4893E-03     80.8423E-03
            1938            2660     64.3948E-03     65.7059E-03
            1938            2661     85.9427E-03     85.6218E-03
            1939             130     97.4535E-03     96.3141E-03
            1939             131     92.2148E-03     90.9934E-03
            1939            2654     81.4893E-03     80.8423E-03
            1939            2661     85.9427E-03     85.6218E-03
            1940             505     104.158E-03     103.953E-03
            1940             506     97.4535E-03     96.3141E-03
            1940            2655     85.9427E-03     85.6218E-03
            1940            2662     91.6938E-03     92.3487E-03
            1941            2655     85.9427E-03     85.6218E-03
            1941            2656     64.3948E-03     65.7059E-03
            1941            2662     91.6938E-03     92.3487E-03
            1941            2663     66.5815E-03     68.6182E-03
            1942            2656     64.3948E-03     65.7059E-03
            1942            2657     46.9928E-03     49.6107E-03
            1942            2663     66.5815E-03     68.6182E-03
            1942            2664     45.5602E-03     48.6045E-03
            1943            2657     46.9928E-03     49.6107E-03
            1943            2658     39.6280E-03     42.7392E-03
            1943            2664     45.5602E-03     48.6045E-03
            1943            2665     37.1869E-03     40.7173E-03
            1944            2658     39.6280E-03     42.7392E-03
            1944            2659     46.9928E-03     49.6107E-03
            1944            2665     37.1869E-03     40.7173E-03
            1944            2666     45.5602E-03     48.6045E-03
            1945            2659     46.9928E-03     49.6107E-03
            1945            2660     64.3948E-03     65.7059E-03
            1945            2666     45.5602E-03     48.6045E-03
            1945            2667     66.5815E-03     68.6182E-03
            1946            2660     64.3948E-03     65.7059E-03
            1946            2661     85.9427E-03     85.6218E-03
            1946            2667     66.5815E-03     68.6182E-03
            1946            2668     91.6938E-03     92.3487E-03
            1947             129     104.158E-03     103.953E-03
            1947             130     97.4535E-03     96.3141E-03
            1947            2661     85.9427E-03     85.6218E-03
            1947            2668     91.6938E-03     92.3487E-03
            1948             504     113.570E-03     109.953E-03
            1948             505     104.158E-03     103.953E-03
            1948            2662     91.6938E-03     92.3487E-03
            1948            2669     96.2720E-03     93.7026E-03
            1949            2662     91.6938E-03     92.3487E-03
            1949            2663     66.5815E-03     68.6182E-03
            1949            2669     96.2720E-03     93.7026E-03
            1949            2670     64.4429E-03     63.5909E-03
            1950            2663     66.5815E-03     68.6182E-03
            1950            2664     45.5602E-03     48.6045E-03
            1950            2670     64.4429E-03     63.5909E-03
            1950            2671     40.8731E-03     41.9227E-03
            1951            2664     45.5602E-03     48.6045E-03
            1951            2665     37.1869E-03     40.7173E-03
            1951            2671     40.8731E-03     41.9227E-03
            1951            2672     31.8348E-03     34.1161E-03
            1952            2665     37.1869E-03     40.7173E-03
            1952            2666     45.5602E-03     48.6045E-03
            1952            2672     31.8348E-03     34.1161E-03
            1952            2673     40.8731E-03     41.9227E-03
            1953            2666     45.5602E-03     48.6045E-03
            1953            2667     66.5815E-03     68.6182E-03
            1953            2673     40.8731E-03     41.9227E-03
            1953            2674     64.4429E-03     63.5909E-03
            1954            2667     66.5815E-03     68.6182E-03
            1954            2668     91.6938E-03     92.3487E-03
            1954            2674     64.4429E-03     63.5909E-03
            1954            2675     96.2720E-03     93.7026E-03
            1955             128     113.570E-03     109.953E-03
            1955             129     104.158E-03     103.953E-03
            1955            2668     91.6938E-03     92.3487E-03
            1955            2675     96.2720E-03     93.7026E-03
            1956             503     103.185E-03     93.0768E-03
            1956             504     113.570E-03     109.953E-03
            1956            2669     96.2720E-03     93.7026E-03
            1956            2676     88.1118E-03     79.1040E-03
            1957            2669     96.2720E-03     93.7026E-03
            1957            2670     64.4429E-03     63.5909E-03
            1957            2676     88.1118E-03     79.1040E-03
            1957            2677     62.0609E-03     56.0888E-03
            1958            2670     64.4429E-03     63.5909E-03
            1958            2671     40.8731E-03     41.9227E-03
            1958            2677     62.0609E-03     56.0888E-03
            1958            2678     43.3952E-03     40.8521E-03
            1959            2671     40.8731E-03     41.9227E-03
            1959            2672     31.8348E-03     34.1161E-03
            1959            2678     43.3952E-03     40.8521E-03
            1959            2679     35.7066E-03     34.6579E-03
            1960            2672     31.8348E-03     34.1161E-03
            1960            2673     40.8731E-03     41.9227E-03
            1960            2679     35.7066E-03     34.6579E-03
            1960            2680     43.3952E-03     40.8521E-03
            1961            2673     40.8731E-03     41.9227E-03
            1961            2674     64.4429E-03     63.5909E-03
            1961            2680     43.3952E-03     40.8521E-03
            1961            2681     62.0609E-03     56.0888E-03
            1962            2674     64.4429E-03     63.5909E-03
            1962            2675     96.2720E-03     93.7026E-03
            1962            2681     62.0609E-03     56.0888E-03
            1962            2682     88.1118E-03     79.1040E-03
            1963             127     103.185E-03     93.0768E-03
            1963             128     113.570E-03     109.953E-03
            1963            2675     96.2720E-03     93.7026E-03
            1963            2682     88.1118E-03     79.1040E-03
            1964             502     91.6021E-03     87.8443E-03
            1964             503     103.185E-03     93.0768E-03
            1964            2676     88.1118E-03     79.1040E-03
            1964            2683     82.4424E-03     77.9106E-03
            1965            2676     88.1118E-03     79.1040E-03
            1965            2677     62.0609E-03     56.0888E-03
            1965            2683     82.4424E-03     77.9106E-03
            1965            2684     63.9227E-03     58.7690E-03
            1966            2677     62.0609E-03     56.0888E-03
            1966            2678     43.3952E-03     40.8521E-03
            1966            2684     63.9227E-03     58.7690E-03
            1966            2685     48.0837E-03     43.4955E-03
            1967            2678     43.3952E-03     40.8521E-03
            1967            2679     35.7066E-03     34.6579E-03
            1967            2685     48.0837E-03     43.4955E-03
            1967            2686     41.6047E-03     37.4300E-03
            1968            2679     35.7066E-03     34.6579E-03
            1968            2680     43.3952E-03     40.8521E-03
            1968            2686     41.6047E-03     37.4300E-03
            1968            2687     48.0837E-03     43.4955E-03
            1969            2680     43.3952E-03     40.8521E-03
            1969            2681     62.0609E-03     56.0888E-03
            1969            2687     48.0837E-03     43.4955E-03
            1969            2688     63.9227E-03     58.7690E-03
            1970            2681     62.0609E-03     56.0888E-03
            1970            2682     88.1118E-03     79.1040E-03
            1970            2688     63.9227E-03     58.7690E-03
            1970            2689     82.4424E-03     77.9106E-03
            1971             126     91.6021E-03     87.8443E-03
            1971             127     103.185E-03     93.0768E-03
            1971            2682     88.1118E-03     79.1040E-03
            1971            2689     82.4424E-03     77.9106E-03
            1972             501     99.9050E-03     101.520E-03
            1972             502     91.6021E-03     87.8443E-03
            1972            2683     82.4424E-03     77.9106E-03
            1972            2690     88.6799E-03     90.3029E-03
            1973            2683     82.4424E-03     77.9106E-03
            1973            2684     63.9227E-03     58.7690E-03
            1973            2690     88.6799E-03     90.3029E-03
            1973            2691     66.6210E-03     66.2279E-03
            1974            2684     63.9227E-03     58.7690E-03
            1974            2685     48.0837E-03     43.4955E-03
            1974            2691     66.6210E-03     66.2279E-03
            1974            2692     47.6690E-03     43.9232E-03
            1975            2685     48.0837E-03     43.4955E-03
            1975            2686     41.6047E-03     37.4300E-03
            1975            2692     47.6690E-03     43.9232E-03
            1975            2693     39.5508E-03     34.4762E-03
            1976            2686     41.6047E-03     37.4300E-03
            1976            2687     48.0837E-03     43.4955E-03
            1976            2693     39.5508E-03     34.4762E-03
            1976            2694     47.6690E-03     43.9232E-03
            1977            2687     48.0837E-03     43.4955E-03
            1977            2688     63.9227E-03     58.7690E-03
            1977            2694     47.6690E-03     43.9232E-03
            1977            2695     66.6210E-03     66.2279E-03
            1978            2688     63.9227E-03     58.7690E-03
            1978            2689     82.4424E-03     77.9106E-03
            1978            2695     66.6210E-03     66.2279E-03
            1978            2696     88.6799E-03     90.3029E-03
            1979             125     99.9050E-03     101.520E-03
            1979             126     91.6021E-03     87.8443E-03
            1979            2689     82.4424E-03     77.9106E-03
            1979            2696     88.6799E-03     90.3029E-03
            1980             500     106.878E-03     106.180E-03
            1980             501     99.9050E-03     101.520E-03
            1980            2690     88.6799E-03     90.3029E-03
            1980            2697     93.7351E-03     94.2309E-03
            1981            2690     88.6799E-03     90.3029E-03
            1981            2691     66.6210E-03     66.2279E-03
            1981            2697     93.7351E-03     94.2309E-03
            1981            2698     69.0197E-03     69.8086E-03
            1982            2691     66.6210E-03     66.2279E-03
            1982            2692     47.6690E-03     43.9232E-03
            1982            2698     69.0197E-03     69.8086E-03
            1982            2699     48.5496E-03     46.5095E-03
            1983            2692     47.6690E-03     43.9232E-03
            1983            2693     39.5508E-03     34.4762E-03
            1983            2699     48.5496E-03     46.5095E-03
            1983            2700     39.6522E-03     35.6841E-03
            1984            2693     39.5508E-03     34.4762E-03
            1984            2694     47.6690E-03     43.9232E-03
            1984            2700     39.6522E-03     35.6841E-03
            1984            2701     48.5496E-03     46.5095E-03
            1985            2694     47.6690E-03     43.9232E-03
            1985            2695     66.6210E-03     66.2279E-03
            1985            2701     48.5496E-03     46.5095E-03
            1985            2702     69.0197E-03     69.8086E-03
            1986            2695     66.6210E-03     66.2279E-03
            1986            2696     88.6799E-03     90.3029E-03
            1986            2702     69.0197E-03     69.8086E-03
            1986            2703     93.7351E-03     94.2309E-03
            1987             124     106.878E-03     106.180E-03
            1987             125     99.9050E-03     101.520E-03
            1987            2696     88.6799E-03     90.3029E-03
            1987            2703     93.7351E-03     94.2309E-03
            1988             499     112.975E-03     111.861E-03
            1988             500     106.878E-03     106.180E-03
            1988            2697     93.7351E-03     94.2309E-03
            1988            2704     98.7100E-03     98.2583E-03
            1989            2697     93.7351E-03     94.2309E-03
            1989            2698     69.0197E-03     69.8086E-03
            1989            2704     98.7100E-03     98.2583E-03
            1989            2705     71.6606E-03     71.8297E-03
            1990            2698     69.0197E-03     69.8086E-03
            1990            2699     48.5496E-03     46.5095E-03
            1990            2705     71.6606E-03     71.8297E-03
            1990            2706     49.6410E-03     48.6426E-03
            1991            2699     48.5496E-03     46.5095E-03
            1991            2700     39.6522E-03     35.6841E-03
            1991            2706     49.6410E-03     48.6426E-03
            1991            2707     40.4057E-03     38.2810E-03
            1992            2700     39.6522E-03     35.6841E-03
            1992            2701     48.5496E-03     46.5095E-03
            1992            2707     40.4057E-03     38.2810E-03
            1992            2708     49.6410E-03     48.6426E-03
            1993            2701     48.5496E-03     46.5095E-03
            1993            2702     69.0197E-03     69.8086E-03
            1993            2708     49.6410E-03     48.6426E-03
            1993            2709     71.6606E-03     71.8297E-03
            1994            2702     69.0197E-03     69.8086E-03
            1994            2703     93.7351E-03     94.2309E-03
            1994            2709     71.6606E-03     71.8297E-03
            1994            2710     98.7100E-03     98.2583E-03
            1995             123     112.975E-03     111.861E-03
            1995             124     106.878E-03     106.180E-03
            1995            2703     93.7351E-03     94.2309E-03
            1995            2710     98.7100E-03     98.2583E-03
            1996             498     118.586E-03     116.925E-03
            1996             499     112.975E-03     111.861E-03
            1996            2704     98.7100E-03     98.2583E-03
            1996            2711     103.436E-03     102.499E-03
            1997            2704     98.7100E-03     98.2583E-03
            1997            2705     71.6606E-03     71.8297E-03
            1997            2711     103.436E-03     102.499E-03
            1997            2712     74.5995E-03     74.5059E-03
            1998            2705     71.6606E-03     71.8297E-03
            1998            2706     49.6410E-03     48.6426E-03
            1998            2712     74.5995E-03     74.5059E-03
            1998            2713     50.9957E-03     50.7171E-03
            1999            2706     49.6410E-03     48.6426E-03
            1999            2707     40.4057E-03     38.2810E-03
            1999            2713     50.9957E-03     50.7171E-03
            1999            2714     41.0778E-03     40.4946E-03
            2000            2707     40.4057E-03     38.2810E-03
            2000            2708     49.6410E-03     48.6426E-03
            2000            2714     41.0778E-03     40.4946E-03
            2000            2715     50.9957E-03     50.7171E-03
            2001            2708     49.6410E-03     48.6426E-03
            2001            2709     71.6606E-03     71.8297E-03
            2001            2715     50.9957E-03     50.7171E-03
            2001            2716     74.5995E-03     74.5059E-03
            2002            2709     71.6606E-03     71.8297E-03
            2002            2710     98.7100E-03     98.2583E-03
            2002            2716     74.5995E-03     74.5059E-03
            2002            2717     103.436E-03     102.499E-03
            2003             122     118.586E-03     116.925E-03
            2003             123     112.975E-03     111.861E-03
            2003            2710     98.7100E-03     98.2583E-03
            2003            2717     103.436E-03     102.499E-03
            2004             497     124.069E-03     122.301E-03
            2004             498     118.586E-03     116.925E-03
            2004            2711     103.436E-03     102.499E-03
            2004            2718     108.166E-03     107.086E-03
            2005            2711     103.436E-03     102.499E-03
            2005            2712     74.5995E-03     74.5059E-03
            2005            2718     108.166E-03     107.086E-03
            2005            2719     77.7572E-03     77.8258E-03
            2006            2712     74.5995E-03     74.5059E-03
            2006            2713     50.9957E-03     50.7171E-03
            2006            2719     77.7572E-03     77.8258E-03
            2006            2720     52.4465E-03     53.0684E-03
            2007            2713     50.9957E-03     50.7171E-03
            2007            2714     41.0778E-03     40.4946E-03
            2007            2720     52.4465E-03     53.0684E-03
            2007            2721     41.6417E-03     42.3554E-03
            2008            2714     41.0778E-03     40.4946E-03
            2008            2715     50.9957E-03     50.7171E-03
            2008            2721     41.6417E-03     42.3554E-03
            2008            2722     52.4465E-03     53.0684E-03
            2009            2715     50.9957E-03     50.7171E-03
            2009            2716     74.5995E-03     74.5059E-03
            2009            2722     52.4465E-03     53.0684E-03
            2009            2723     77.7572E-03     77.8258E-03
            2010            2716     74.5995E-03     74.5059E-03
            2010            2717     103.436E-03     102.499E-03
            2010            2723     77.7572E-03     77.8258E-03
            2010            2724     108.166E-03     107.086E-03
            2011             121     124.069E-03     122.301E-03
            2011             122     118.586E-03     116.925E-03
            2011            2717     103.436E-03     102.499E-03
            2011            2724     108.166E-03     107.086E-03
            2012             496     129.671E-03     127.964E-03
            2012             497     124.069E-03     122.301E-03
            2012            2718     108.166E-03     107.086E-03
            2012            2725     112.979E-03     112.091E-03
            2013            2718     108.166E-03     107.086E-03
            2013            2719     77.7572E-03     77.8258E-03
            2013            2725     112.979E-03     112.091E-03
            2013            2726     80.7326E-03     81.3385E-03
            2014            2719     77.7572E-03     77.8258E-03
            2014            2720     52.4465E-03     53.0684E-03
            2014            2726     80.7326E-03     81.3385E-03
            2014            2727     53.8635E-03     55.7871E-03
            2015            2720     52.4465E-03     53.0684E-03
            2015            2721     41.6417E-03     42.3554E-03
            2015            2727     53.8635E-03     55.7871E-03
            2015            2728     42.5474E-03     45.1139E-03
            2016            2721     41.6417E-03     42.3554E-03
            2016            2722     52.4465E-03     53.0684E-03
            2016            2728     42.5474E-03     45.1139E-03
            2016            2729     53.8635E-03     55.7871E-03
            2017            2722     52.4465E-03     53.0684E-03
            2017            2723     77.7572E-03     77.8258E-03
            2017            2729     53.8635E-03     55.7871E-03
            2017            2730     80.7326E-03     81.3385E-03
            2018            2723     77.7572E-03     77.8258E-03
            2018            2724     108.166E-03     107.086E-03
            2018            2730     80.7326E-03     81.3385E-03
            2018            2731     112.979E-03     112.091E-03
            2019             120     129.671E-03     127.964E-03
            2019             121     124.069E-03     122.301E-03
            2019            2724     108.166E-03     107.086E-03
            2019            2731     112.979E-03     112.091E-03
            2020             495     134.833E-03     133.268E-03
            2020             496     129.671E-03     127.964E-03
            2020            2725     112.979E-03     112.091E-03
            2020            2732     117.442E-03     117.123E-03
            2021            2725     112.979E-03     112.091E-03
            2021            2726     80.7326E-03     81.3385E-03
            2021            2732     117.442E-03     117.123E-03
            2021            2733     83.9681E-03     85.9236E-03
            2022            2726     80.7326E-03     81.3385E-03
            2022            2727     53.8635E-03     55.7871E-03
            2022            2733     83.9681E-03     85.9236E-03
            2022            2734     54.8949E-03     58.6010E-03
            2023            2727     53.8635E-03     55.7871E-03
            2023            2728     42.5474E-03     45.1139E-03
            2023            2734     54.8949E-03     58.6010E-03
            2023            2735     41.9036E-03     46.3322E-03
            2024            2728     42.5474E-03     45.1139E-03
            2024            2729     53.8635E-03     55.7871E-03
            2024            2735     41.9036E-03     46.3322E-03
            2024            2736     54.8949E-03     58.6010E-03
            2025            2729     53.8635E-03     55.7871E-03
            2025            2730     80.7326E-03     81.3385E-03
            2025            2736     54.8949E-03     58.6010E-03
            2025            2737     83.9681E-03     85.9236E-03
            2026            2730     80.7326E-03     81.3385E-03
            2026            2731     112.979E-03     112.091E-03
            2026            2737     83.9681E-03     85.9236E-03
            2026            2738     117.442E-03     117.123E-03
            2027             119     134.833E-03     133.268E-03
            2027             120     129.671E-03     127.964E-03
            2027            2731     112.979E-03     112.091E-03
            2027            2738     117.442E-03     117.123E-03
            2028             494     141.550E-03     141.473E-03
            2028             495     134.833E-03     133.268E-03
            2028            2732     117.442E-03     117.123E-03
            2028            2739     123.294E-03     124.395E-03
            2029            2732     117.442E-03     117.123E-03
            2029            2733     83.9681E-03     85.9236E-03
            2029            2739     123.294E-03     124.395E-03
            2029            2740     86.1167E-03     88.8557E-03
            2030            2733     83.9681E-03     85.9236E-03
            2030            2734     54.8949E-03     58.6010E-03
            2030            2740     86.1167E-03     88.8557E-03
            2030            2741     53.1710E-03     57.2231E-03
            2031            2734     54.8949E-03     58.6010E-03
            2031            2735     41.9036E-03     46.3322E-03
            2031            2741     53.1710E-03     57.2231E-03
            2031            2742     39.1469E-03     44.0512E-03
            2032            2735     41.9036E-03     46.3322E-03
            2032            2736     54.8949E-03     58.6010E-03
            2032            2742     39.1469E-03     44.0512E-03
            2032            2743     53.1710E-03     57.2231E-03
            2033            2736     54.8949E-03     58.6010E-03
            2033            2737     83.9681E-03     85.9236E-03
            2033            2743     53.1710E-03     57.2231E-03
            2033            2744     86.1167E-03     88.8557E-03
            2034            2737     83.9681E-03     85.9236E-03
            2034            2738     117.442E-03     117.123E-03
            2034            2744     86.1167E-03     88.8557E-03
            2034            2745     123.294E-03     124.395E-03
            2035             118     141.550E-03     141.473E-03
            2035             119     134.833E-03     133.268E-03
            2035            2738     117.442E-03     117.123E-03
            2035            2745     123.294E-03     124.395E-03
            2036             493     151.156E-03     146.055E-03
            2036             494     141.550E-03     141.473E-03
            2036            2739     123.294E-03     124.395E-03
            2036            2746     127.463E-03     123.529E-03
            2037            2739     123.294E-03     124.395E-03
            2037            2740     86.1167E-03     88.8557E-03
            2037            2746     127.463E-03     123.529E-03
            2037            2747     83.1185E-03     81.1954E-03
            2038            2740     86.1167E-03     88.8557E-03
            2038            2741     53.1710E-03     57.2231E-03
            2038            2747     83.1185E-03     81.1954E-03
            2038            2748     47.6234E-03     48.5247E-03
            2039            2741     53.1710E-03     57.2231E-03
            2039            2742     39.1469E-03     44.0512E-03
            2039            2748     47.6234E-03     48.5247E-03
            2039            2749     32.7807E-03     35.6614E-03
            2040            2742     39.1469E-03     44.0512E-03
            2040            2743     53.1710E-03     57.2231E-03
            2040            2749     32.7807E-03     35.6614E-03
            2040            2750     47.6234E-03     48.5247E-03
            2041            2743     53.1710E-03     57.2231E-03
            2041            2744     86.1167E-03     88.8557E-03
            2041            2750     47.6234E-03     48.5247E-03
            2041            2751     83.1185E-03     81.1954E-03
            2042            2744     86.1167E-03     88.8557E-03
            2042            2745     123.294E-03     124.395E-03
            2042            2751     83.1185E-03     81.1954E-03
            2042            2752     127.463E-03     123.529E-03
            2043             117     151.156E-03     146.055E-03
            2043             118     141.550E-03     141.473E-03
            2043            2745     123.294E-03     124.395E-03
            2043            2752     127.463E-03     123.529E-03
            2044             492     140.885E-03     127.679E-03
            2044             493     151.156E-03     146.055E-03
            2044            2746     127.463E-03     123.529E-03
            2044            2753     118.804E-03     106.858E-03
            2045            2746     127.463E-03     123.529E-03
            2045            2747     83.1185E-03     81.1954E-03
            2045            2753     118.804E-03     106.858E-03
            2045            2754     80.5217E-03     72.3091E-03
            2046            2747     83.1185E-03     81.1954E-03
            2046            2748     47.6234E-03     48.5247E-03
            2046            2754     80.5217E-03     72.3091E-03
            2046            2755     51.4060E-03     47.8061E-03
            2047            2748     47.6234E-03     48.5247E-03
            2047            2749     32.7807E-03     35.6614E-03
            2047            2755     51.4060E-03     47.8061E-03
            2047            2756     38.4924E-03     37.0309E-03
            2048            2749     32.7807E-03     35.6614E-03
            2048            2750     47.6234E-03     48.5247E-03
            2048            2756     38.4924E-03     37.0309E-03
            2048            2757     51.4060E-03     47.8061E-03
            2049            2750     47.6234E-03     48.5247E-03
            2049            2751     83.1185E-03     81.1954E-03
            2049            2757     51.4060E-03     47.8061E-03
            2049            2758     80.5217E-03     72.3091E-03
            2050            2751     83.1185E-03     81.1954E-03
            2050            2752     127.463E-03     123.529E-03
            2050            2758     80.5217E-03     72.3091E-03
            2050            2759     118.804E-03     106.858E-03
            2051             116     140.885E-03     127.679E-03
            2051             117     151.156E-03     146.055E-03
            2051            2752     127.463E-03     123.529E-03
            2051            2759     118.804E-03     106.858E-03
            2052             491     129.819E-03     125.182E-03
            2052             492     140.885E-03     127.679E-03
            2052            2753     118.804E-03     106.858E-03
            2052            2760     114.271E-03     109.006E-03
            2053            2753     118.804E-03     106.858E-03
            2053            2754     80.5217E-03     72.3091E-03
            2053            2760     114.271E-03     109.006E-03
            2053            2761     83.5687E-03     77.8164E-03
            2054            2754     80.5217E-03     72.3091E-03
            2054            2755     51.4060E-03     47.8061E-03
            2054            2761     83.5687E-03     77.8164E-03
            2054            2762     57.4425E-03     52.2576E-03
            2055            2755     51.4060E-03     47.8061E-03
            2055            2756     38.4924E-03     37.0309E-03
            2055            2762     57.4425E-03     52.2576E-03
            2055            2763     46.4702E-03     41.7136E-03
            2056            2756     38.4924E-03     37.0309E-03
            2056            2757     51.4060E-03     47.8061E-03
            2056            2763     46.4702E-03     41.7136E-03
            2056            2764     57.4425E-03     52.2576E-03
            2057            2757     51.4060E-03     47.8061E-03
            2057            2758     80.5217E-03     72.3091E-03
            2057            2764     57.4425E-03     52.2576E-03
            2057            2765     83.5687E-03     77.8164E-03
            2058            2758     80.5217E-03     72.3091E-03
            2058            2759     118.804E-03     106.858E-03
            2058            2765     83.5687E-03     77.8164E-03
            2058            2766     114.271E-03     109.006E-03
            2059             115     129.819E-03     125.182E-03
            2059             116     140.885E-03     127.679E-03
            2059            2759     118.804E-03     106.858E-03
            2059            2766     114.271E-03     109.006E-03
            2060             490     138.616E-03     140.711E-03
            2060             491     129.819E-03     125.182E-03
            2060            2760     114.271E-03     109.006E-03
            2060            2767     121.565E-03     124.089E-03
            2061            2760     114.271E-03     109.006E-03
            2061            2761     83.5687E-03     77.8164E-03
            2061            2767     121.565E-03     124.089E-03
            2061            2768     87.4400E-03     88.2022E-03
            2062            2761     83.5687E-03     77.8164E-03
            2062            2762     57.4425E-03     52.2576E-03
            2062            2768     87.4400E-03     88.2022E-03
            2062            2769     56.7468E-03     53.4844E-03
            2063            2762     57.4425E-03     52.2576E-03
            2063            2763     46.4702E-03     41.7136E-03
            2063            2769     56.7468E-03     53.4844E-03
            2063            2770     43.1278E-03     38.0305E-03
            2064            2763     46.4702E-03     41.7136E-03
            2064            2764     57.4425E-03     52.2576E-03
            2064            2770     43.1278E-03     38.0305E-03
            2064            2771     56.7468E-03     53.4844E-03
            2065            2764     57.4425E-03     52.2576E-03
            2065            2765     83.5687E-03     77.8164E-03
            2065            2771     56.7468E-03     53.4844E-03
            2065            2772     87.4400E-03     88.2022E-03
            2066            2765     83.5687E-03     77.8164E-03
            2066            2766     114.271E-03     109.006E-03
            2066            2772     87.4400E-03     88.2022E-03
            2066            2773     121.565E-03     124.089E-03
            2067             114     138.616E-03     140.711E-03
            2067             115     129.819E-03     125.182E-03
            2067            2766     114.271E-03     109.006E-03
            2067            2773     121.565E-03     124.089E-03
            2068             489     146.105E-03     145.428E-03
            2068             490     138.616E-03     140.711E-03
            2068            2767     121.565E-03     124.089E-03
            2068            2774     127.066E-03     128.315E-03
            2069            2767     121.565E-03     124.089E-03
            2069            2768     87.4400E-03     88.2022E-03
            2069            2774     127.066E-03     128.315E-03
            2069            2775     90.3744E-03     92.9256E-03
            2070            2768     87.4400E-03     88.2022E-03
            2070            2769     56.7468E-03     53.4844E-03
            2070            2775     90.3744E-03     92.9256E-03
            2070            2776     57.7862E-03     57.2808E-03
            2071            2769     56.7468E-03     53.4844E-03
            2071            2770     43.1278E-03     38.0305E-03
            2071            2776     57.7862E-03     57.2808E-03
            2071            2777     42.8518E-03     39.9137E-03
            2072            2770     43.1278E-03     38.0305E-03
            2072            2771     56.7468E-03     53.4844E-03
            2072            2777     42.8518E-03     39.9137E-03
            2072            2778     57.7862E-03     57.2808E-03
            2073            2771     56.7468E-03     53.4844E-03
            2073            2772     87.4400E-03     88.2022E-03
            2073            2778     57.7862E-03     57.2808E-03
            2073            2779     90.3744E-03     92.9256E-03
            2074            2772     87.4400E-03     88.2022E-03
            2074            2773     121.565E-03     124.089E-03
            2074            2779     90.3744E-03     92.9256E-03
            2074            2780     127.066E-03     128.315E-03
            2075             113     146.105E-03     145.428E-03
            2075             114     138.616E-03     140.711E-03
            2075            2773     121.565E-03     124.089E-03
            2075            2780     127.066E-03     128.315E-03
            2076             488     152.730E-03     151.974E-03
            2076             489     146.105E-03     145.428E-03
            2076            2774     127.066E-03     128.315E-03
            2076            2781     132.502E-03     133.045E-03
            2077            2774     127.066E-03     128.315E-03
            2077            2775     90.3744E-03     92.9256E-03
            2077            2781     132.502E-03     133.045E-03
            2077            2782     93.1074E-03     95.4048E-03
            2078            2775     90.3744E-03     92.9256E-03
            2078            2776     57.7862E-03     57.2808E-03
            2078            2782     93.1074E-03     95.4048E-03
            2078            2783     58.9825E-03     60.8049E-03
            2079            2776     57.7862E-03     57.2808E-03
            2079            2777     42.8518E-03     39.9137E-03
            2079            2783     58.9825E-03     60.8049E-03
            2079            2784     44.0239E-03     44.9159E-03
            2080            2777     42.8518E-03     39.9137E-03
            2080            2778     57.7862E-03     57.2808E-03
            2080            2784     44.0239E-03     44.9159E-03
            2080            2785     58.9825E-03     60.8049E-03
            2081            2778     57.7862E-03     57.2808E-03
            2081            2779     90.3744E-03     92.9256E-03
            2081            2785     58.9825E-03     60.8049E-03
            2081            2786     93.1074E-03     95.4048E-03
            2082            2779     90.3744E-03     92.9256E-03
            2082            2780     127.066E-03     128.315E-03
            2082            2786     93.1074E-03     95.4048E-03
            2082            2787     132.502E-03     133.045E-03
            2083             112     152.730E-03     151.974E-03
            2083             113     146.105E-03     145.428E-03
            2083            2780     127.066E-03     128.315E-03
            2083            2787     132.502E-03     133.045E-03
            2084             487     158.372E-03     157.020E-03
            2084             488     152.730E-03     151.974E-03
            2084            2781     132.502E-03     133.045E-03
            2084            2788     137.237E-03     137.823E-03
            2085            2781     132.502E-03     133.045E-03
            2085            2782     93.1074E-03     95.4048E-03
            2085            2788     137.237E-03     137.823E-03
            2085            2789     96.3932E-03     99.7363E-03
            2086            2782     93.1074E-03     95.4048E-03
            2086            2783     58.9825E-03     60.8049E-03
            2086            2789     96.3932E-03     99.7363E-03
            2086            2790     59.9853E-03     64.1421E-03
            2087            2783     58.9825E-03     60.8049E-03
            2087            2784     44.0239E-03     44.9159E-03
            2087            2790     59.9853E-03     64.1421E-03
            2087            2791     43.2862E-03     47.4375E-03
            2088            2784     44.0239E-03     44.9159E-03
            2088            2785     58.9825E-03     60.8049E-03
            2088            2791     43.2862E-03     47.4375E-03
            2088            2792     59.9853E-03     64.1421E-03
            2089            2785     58.9825E-03     60.8049E-03
            2089            2786     93.1074E-03     95.4048E-03
            2089            2792     59.9853E-03     64.1421E-03
            2089            2793     96.3932E-03     99.7363E-03
            2090            2786     93.1074E-03     95.4048E-03
            2090            2787     132.502E-03     133.045E-03
            2090            2793     96.3932E-03     99.7363E-03
            2090            2794     137.237E-03     137.823E-03
            2091             111     158.372E-03     157.020E-03
            2091             112     152.730E-03     151.974E-03
            2091            2787     132.502E-03     133.045E-03
            2091            2794     137.237E-03     137.823E-03
            2092             486     165.133E-03     165.580E-03
            2092             487     158.372E-03     157.020E-03
            2092            2788     137.237E-03     137.823E-03
            2092            2795     143.216E-03     145.124E-03
            2093            2788     137.237E-03     137.823E-03
            2093            2789     96.3932E-03     99.7363E-03
            2093            2795     143.216E-03     145.124E-03
            2093            2796     98.5304E-03     102.181E-03
            2094            2789     96.3932E-03     99.7363E-03
            2094            2790     59.9853E-03     64.1421E-03
            2094            2796     98.5304E-03     102.181E-03
            2094            2797     58.0545E-03     62.6524E-03
            2095            2790     59.9853E-03     64.1421E-03
            2095            2791     43.2862E-03     47.4375E-03
            2095            2797     58.0545E-03     62.6524E-03
            2095            2798     40.3464E-03     45.6110E-03
            2096            2791     43.2862E-03     47.4375E-03
            2096            2792     59.9853E-03     64.1421E-03
            2096            2798     40.3464E-03     45.6110E-03
            2096            2799     58.0545E-03     62.6524E-03
            2097            2792     59.9853E-03     64.1421E-03
            2097            2793     96.3932E-03     99.7363E-03
            2097            2799     58.0545E-03     62.6524E-03
            2097            2800     98.5304E-03     102.181E-03
            2098            2793     96.3932E-03     99.7363E-03
            2098            2794     137.237E-03     137.823E-03
            2098            2800     98.5304E-03     102.181E-03
            2098            2801     143.216E-03     145.124E-03
            2099             110     165.133E-03     165.580E-03
            2099             111     158.372E-03     157.020E-03
            2099            2794     137.237E-03     137.823E-03
            2099            2801     143.216E-03     145.124E-03
            2100             485     174.935E-03     169.030E-03
            2100             486     165.133E-03     165.580E-03
            2100            2795     143.216E-03     145.124E-03
            2100            2802     147.224E-03     142.592E-03
            2101            2795     143.216E-03     145.124E-03
            2101            2796     98.5304E-03     102.181E-03
            2101            2802     147.224E-03     142.592E-03
            2101            2803     95.0904E-03     92.6228E-03
            2102            2796     98.5304E-03     102.181E-03
            2102            2797     58.0545E-03     62.6524E-03
            2102            2803     95.0904E-03     92.6228E-03
            2102            2804     52.1054E-03     52.8018E-03
            2103            2797     58.0545E-03     62.6524E-03
            2103            2798     40.3464E-03     45.6110E-03
            2103            2804     52.1054E-03     52.8018E-03
            2103            2805     33.5430E-03     36.5127E-03
            2104            2798     40.3464E-03     45.6110E-03
            2104            2799     58.0545E-03     62.6524E-03
            2104            2805     33.5430E-03     36.5127E-03
            2104            2806     52.1054E-03     52.8018E-03
            2105            2799     58.0545E-03     62.6524E-03
            2105            2800     98.5304E-03     102.181E-03
            2105            2806     52.1054E-03     52.8018E-03
            2105            2807     95.0904E-03     92.6228E-03
            2106            2800     98.5304E-03     102.181E-03
            2106            2801     143.216E-03     145.124E-03
            2106            2807     95.0904E-03     92.6228E-03
            2106            2808     147.224E-03     142.592E-03
            2107             109     174.935E-03     169.030E-03
            2107             110     165.133E-03     165.580E-03
            2107            2801     143.216E-03     145.124E-03
            2107            2808     147.224E-03     142.592E-03
            2108              25     164.936E-03     157.638E-03
            2108             484     140.573E-03     134.303E-03
            2108             485     174.935E-03     169.030E-03
            2108            2802     147.224E-03     142.592E-03
            2109             483     94.8391E-03     90.8721E-03
            2109             484     140.573E-03     134.303E-03
            2109            2802     147.224E-03     142.592E-03
            2109            2803     95.0904E-03     92.6228E-03
            2110             482     56.3706E-03     55.1703E-03
            2110             483     94.8391E-03     90.8721E-03
            2110            2803     95.0904E-03     92.6228E-03
            2110            2804     52.1054E-03     52.8018E-03
            2111             481     39.2720E-03     39.5631E-03
            2111             482     56.3706E-03     55.1703E-03
            2111            2804     52.1054E-03     52.8018E-03
            2111            2805     33.5430E-03     36.5127E-03
            2112             480     56.3706E-03     55.1703E-03
            2112             481     39.2720E-03     39.5631E-03
            2112            2805     33.5430E-03     36.5127E-03
            2112            2806     52.1054E-03     52.8018E-03
            2113             479     94.8391E-03     90.8721E-03
            2113             480     56.3706E-03     55.1703E-03
            2113            2806     52.1054E-03     52.8018E-03
            2113            2807     95.0904E-03     92.6228E-03
            2114             478     140.573E-03     134.303E-03
            2114             479     94.8391E-03     90.8721E-03
            2114            2807     95.0904E-03     92.6228E-03
            2114            2808     147.224E-03     142.592E-03
            2115               6     164.936E-03     157.638E-03
            2115             109     174.935E-03     169.030E-03
            2115             478     140.573E-03     134.303E-03
            2115            2808     147.224E-03     142.592E-03
            2116               3     12.8081E-03     12.9713E-03
            2116              50     6.04346E-15     5.45158E-15
            2116             477     14.0181E-03     14.0501E-03
            2116            2809     5.82117E-15     5.78340E-15
            2117             476     15.6299E-03     15.5097E-03
            2117             477     14.0181E-03     14.0501E-03
            2117            2809     5.82117E-15     5.78340E-15
            2117            2810     5.68686E-15     5.58737E-15
            2118             475     16.4300E-03     16.2903E-03
            2118             476     15.6299E-03     15.5097E-03
            2118            2810     5.68686E-15     5.58737E-15
            2118            2811     5.57603E-15     5.18976E-15
            2119             474     16.8284E-03     16.6902E-03
            2119             475     16.4300E-03     16.2903E-03
            2119            2811     5.57603E-15     5.18976E-15
            2119            2812     5.33053E-15     5.46863E-15
            2120             473     16.4300E-03     16.2903E-03
            2120             474     16.8284E-03     16.6902E-03
            2120            2812     5.33053E-15     5.46863E-15
            2120            2813     5.88427E-15     6.15916E-15
            2121             472     15.6299E-03     15.5097E-03
            2121             473     16.4300E-03     16.2903E-03
            2121            2813     5.88427E-15     6.15916E-15
            2121            2814     5.67470E-15     5.69102E-15
            2122             471     14.0181E-03     14.0501E-03
            2122             472     15.6299E-03     15.5097E-03
            2122            2814     5.67470E-15     5.69102E-15
            2122            2815     5.12651E-15     5.00546E-15
            2123              23     12.8081E-03     12.9713E-03
            2123             456     5.38829E-15     5.32995E-15
            2123             471     14.0181E-03     14.0501E-03
            2123            2815     5.12651E-15     5.00546E-15
            2124              50     6.04346E-15     5.45158E-15
            2124              51     7.06412E-15     9.33020E-15
            2124            2809     5.82117E-15     5.78340E-15
            2124            2816     6.66243E-15     7.53577E-15
            2125            2809     5.82117E-15     5.78340E-15
            2125            2810     5.68686E-15     5.58737E-15
            2125            2816     6.66243E-15     7.53577E-15
            2125            2817     6.01383E-15     5.38171E-15
            2126            2810     5.68686E-15     5.58737E-15
            2126            2811     5.57603E-15     5.18976E-15
            2126            2817     6.01383E-15     5.38171E-15
            2126            2818     5.61498E-15     5.13117E-15
            2127            2811     5.57603E-15     5.18976E-15
            2127            2812     5.33053E-15     5.46863E-15
            2127            2818     5.61498E-15     5.13117E-15
            2127            2819     5.41346E-15     5.41455E-15
            2128            2812     5.33053E-15     5.46863E-15
            2128            2813     5.88427E-15     6.15916E-15
            2128            2819     5.41346E-15     5.41455E-15
            2128            2820     5.85932E-15     6.17951E-15
            2129            2813     5.88427E-15     6.15916E-15
            2129            2814     5.67470E-15     5.69102E-15
            2129            2820     5.85932E-15     6.17951E-15
            2129            2821     5.88021E-15     5.95972E-15
            2130            2814     5.67470E-15     5.69102E-15
            2130            2815     5.12651E-15     5.00546E-15
            2130            2821     5.88021E-15     5.95972E-15
            2130            2822     5.49668E-15     5.20774E-15
            2131             456     5.38829E-15     5.32995E-15
            2131             457     5.58772E-15     5.26623E-15
            2131            2815     5.12651E-15     5.00546E-15
            2131            2822     5.49668E-15     5.20774E-15
            2132               4     9.55220E-15     13.0522E-15
            2132              51     7.06412E-15     9.33020E-15
            2132             538     7.87183E-15     8.94761E-15
            2132            2816     6.66243E-15     7.53577E-15
            2133             537     5.78090E-15     5.04867E-15
            2133             538     7.87183E-15     8.94761E-15
            2133            2816     6.66243E-15     7.53577E-15
            2133            2817     6.01383E-15     5.38171E-15
            2134             536     5.43318E-15     5.19900E-15
            2134             537     5.78090E-15     5.04867E-15
            2134            2817     6.01383E-15     5.38171E-15
            2134            2818     5.61498E-15     5.13117E-15
            2135             535     5.38496E-15     5.26945E-15
            2135             536     5.43318E-15     5.19900E-15
            2135            2818     5.61498E-15     5.13117E-15
            2135            2819     5.41346E-15     5.41455E-15
            2136             534     5.45004E-15     5.30481E-15
            2136             535     5.38496E-15     5.26945E-15
            2136            2819     5.41346E-15     5.41455E-15
            2136            2820     5.85932E-15     6.17951E-15
            2137             533     5.50801E-15     5.63405E-15
            2137             534     5.45004E-15     5.30481E-15
            2137            2820     5.85932E-15     6.17951E-15
            2137            2821     5.88021E-15     5.95972E-15
            2138             532     5.63187E-15     5.87323E-15
            2138             533     5.50801E-15     5.63405E-15
            2138            2821     5.88021E-15     5.95972E-15
            2138            2822     5.49668E-15     5.20774E-15
            2139              24     5.87391E-15     5.69271E-15
            2139             457     5.58772E-15     5.26623E-15
            2139             532     5.63187E-15     5.87323E-15
            2139            2822     5.49668E-15     5.20774E-15
            3835              27     202.158E-03     188.051E-03
            3835             723     164.938E-03     153.346E-03
            3835             742     198.596E-03     192.774E-03
            3835            4247     167.157E-03     163.303E-03
            3836             723     164.938E-03     153.346E-03
            3836             724     102.117E-03     95.4613E-03
            3836            4247     167.157E-03     163.303E-03
            3836            4248     108.617E-03     107.407E-03
            3837             724     102.117E-03     95.4613E-03
            3837             725     54.3109E-03     52.4303E-03
            3837            4248     108.617E-03     107.407E-03
            3837            4249     62.0747E-03     63.1884E-03
            3838             725     54.3109E-03     52.4303E-03
            3838             726     32.1054E-03     32.5797E-03
            3838            4249     62.0747E-03     63.1884E-03
            3838            4250     42.6326E-03     45.3948E-03
            3839             726     32.1054E-03     32.5797E-03
            3839             727     54.3109E-03     52.4303E-03
            3839            4250     42.6326E-03     45.3948E-03
            3839            4251     62.0747E-03     63.1884E-03
            3840             727     54.3109E-03     52.4303E-03
            3840             728     102.117E-03     95.4613E-03
            3840            4251     62.0747E-03     63.1884E-03
            3840            4252     108.617E-03     107.407E-03
            3841             728     102.117E-03     95.4613E-03
            3841             729     164.938E-03     153.346E-03
            3841            4252     108.617E-03     107.407E-03
            3841            4253     167.157E-03     163.303E-03
            3842               8     202.158E-03     188.051E-03
            3842             189     198.596E-03     192.774E-03
            3842             729     164.938E-03     153.346E-03
            3842            4253     167.157E-03     163.303E-03
            3843             741     185.494E-03     187.053E-03
            3843             742     198.596E-03     192.774E-03
            3843            4247     167.157E-03     163.303E-03
            3843            4254     161.497E-03     165.066E-03
            3844            4247     167.157E-03     163.303E-03
            3844            4248     108.617E-03     107.407E-03
            3844            4254     161.497E-03     165.066E-03
            3844            4255     112.835E-03     118.407E-03
            3845            4248     108.617E-03     107.407E-03
            3845            4249     62.0747E-03     63.1884E-03
            3845            4255     112.835E-03     118.407E-03
            3845            4256     69.6305E-03     74.2835E-03
            3846            4249     62.0747E-03     63.1884E-03
            3846            4250     42.6326E-03     45.3948E-03
            3846            4256     69.6305E-03     74.2835E-03
            3846            4257     51.0911E-03     54.8325E-03
            3847            4250     42.6326E-03     45.3948E-03
            3847            4251     62.0747E-03     63.1884E-03
            3847            4257     51.0911E-03     54.8325E-03
            3847            4258     69.6305E-03     74.2835E-03
            3848            4251     62.0747E-03     63.1884E-03
            3848            4252     108.617E-03     107.407E-03
            3848            4258     69.6305E-03     74.2835E-03
            3848            4259     112.835E-03     118.407E-03
            3849            4252     108.617E-03     107.407E-03
            3849            4253     167.157E-03     163.303E-03
            3849            4259     112.835E-03     118.407E-03
            3849            4260     161.497E-03     165.066E-03
            3850             188     185.494E-03     187.053E-03
            3850             189     198.596E-03     192.774E-03
            3850            4253     167.157E-03     163.303E-03
            3850            4260     161.497E-03     165.066E-03
            3851             740     175.138E-03     175.254E-03
            3851             741     185.494E-03     187.053E-03
            3851            4254     161.497E-03     165.066E-03
            3851            4261     153.032E-03     156.071E-03
            3852            4254     161.497E-03     165.066E-03
            3852            4255     112.835E-03     118.407E-03
            3852            4261     153.032E-03     156.071E-03
            3852            4262     110.561E-03     116.332E-03
            3853            4255     112.835E-03     118.407E-03
            3853            4256     69.6305E-03     74.2835E-03
            3853            4262     110.561E-03     116.332E-03
            3853            4263     72.4054E-03     75.6594E-03
            3854            4256     69.6305E-03     74.2835E-03
            3854            4257     51.0911E-03     54.8325E-03
            3854            4263     72.4054E-03     75.6594E-03
            3854            4264     54.6160E-03     55.5429E-03
            3855            4257     51.0911E-03     54.8325E-03
            3855            4258     69.6305E-03     74.2835E-03
            3855            4264     54.6160E-03     55.5429E-03
            3855            4265     72.4054E-03     75.6594E-03
            3856            4258     69.6305E-03     74.2835E-03
            3856            4259     112.835E-03     118.407E-03
            3856            4265     72.4054E-03     75.6594E-03
            3856            4266     110.561E-03     116.332E-03
            3857            4259     112.835E-03     118.407E-03
            3857            4260     161.497E-03     165.066E-03
            3857            4266     110.561E-03     116.332E-03
            3857            4267     153.032E-03     156.071E-03
            3858             187     175.138E-03     175.254E-03
            3858             188     185.494E-03     187.053E-03
            3858            4260     161.497E-03     165.066E-03
            3858            4267     153.032E-03     156.071E-03
            3859             739     165.885E-03     168.891E-03
            3859             740     175.138E-03     175.254E-03
            3859            4261     153.032E-03     156.071E-03
            3859            4268     146.222E-03     150.108E-03
            3860            4261     153.032E-03     156.071E-03
            3860            4262     110.561E-03     116.332E-03
            3860            4268     146.222E-03     150.108E-03
            3860            4269     106.723E-03     109.247E-03
            3861            4262     110.561E-03     116.332E-03
            3861            4263     72.4054E-03     75.6594E-03
            3861            4269     106.723E-03     109.247E-03
            3861            4270     71.7250E-03     70.4955E-03
            3862            4263     72.4054E-03     75.6594E-03
            3862            4264     54.6160E-03     55.5429E-03
            3862            4270     71.7250E-03     70.4955E-03
            3862            4271     56.5611E-03     53.8222E-03
            3863            4264     54.6160E-03     55.5429E-03
            3863            4265     72.4054E-03     75.6594E-03
            3863            4271     56.5611E-03     53.8222E-03
            3863            4272     71.7250E-03     70.4955E-03
            3864            4265     72.4054E-03     75.6594E-03
            3864            4266     110.561E-03     116.332E-03
            3864            4272     71.7250E-03     70.4955E-03
            3864            4273     106.723E-03     109.247E-03
            3865            4266     110.561E-03     116.332E-03
            3865            4267     153.032E-03     156.071E-03
            3865            4273     106.723E-03     109.247E-03
            3865            4274     146.222E-03     150.108E-03
            3866             186     165.885E-03     168.891E-03
            3866             187     175.138E-03     175.254E-03
            3866            4267     153.032E-03     156.071E-03
            3866            4274     146.222E-03     150.108E-03
            3867             738     153.301E-03     149.002E-03
            3867             739     165.885E-03     168.891E-03
            3867            4268     146.222E-03     150.108E-03
            3867            4275     136.004E-03     131.251E-03
            3868            4268     146.222E-03     150.108E-03
            3868            4269     106.723E-03     109.247E-03
            3868            4275     136.004E-03     131.251E-03
            3868            4276     101.769E-03     96.7440E-03
            3869            4269     106.723E-03     109.247E-03
            3869            4270     71.7250E-03     70.4955E-03
            3869            4276     101.769E-03     96.7440E-03
            3869            4277     72.6384E-03     68.2461E-03
            3870            4270     71.7250E-03     70.4955E-03
            3870            4271     56.5611E-03     53.8222E-03
            3870            4277     72.6384E-03     68.2461E-03
            3870            4278     60.4455E-03     56.5051E-03
            3871            4271     56.5611E-03     53.8222E-03
            3871            4272     71.7250E-03     70.4955E-03
            3871            4278     60.4455E-03     56.5051E-03
            3871            4279     72.6384E-03     68.2461E-03
            3872            4272     71.7250E-03     70.4955E-03
            3872            4273     106.723E-03     109.247E-03
            3872            4279     72.6384E-03     68.2461E-03
            3872            4280     101.769E-03     96.7440E-03
            3873            4273     106.723E-03     109.247E-03
            3873            4274     146.222E-03     150.108E-03
            3873            4280     101.769E-03     96.7440E-03
            3873            4281     136.004E-03     131.251E-03
            3874             185     153.301E-03     149.002E-03
            3874             186     165.885E-03     168.891E-03
            3874            4274     146.222E-03     150.108E-03
            3874            4281     136.004E-03     131.251E-03
            3875             737     146.351E-03     139.101E-03
            3875             738     153.301E-03     149.002E-03
            3875            4275     136.004E-03     131.251E-03
            3875            4282     127.876E-03     120.933E-03
            3876            4275     136.004E-03     131.251E-03
            3876            4276     101.769E-03     96.7440E-03
            3876            4282     127.876E-03     120.933E-03
            3876            4283     92.3706E-03     87.3590E-03
            3877            4276     101.769E-03     96.7440E-03
            3877            4277     72.6384E-03     68.2461E-03
            3877            4283     92.3706E-03     87.3590E-03
            3877            4284     61.3321E-03     58.7569E-03
            3878            4277     72.6384E-03     68.2461E-03
            3878            4278     60.4455E-03     56.5051E-03
            3878            4284     61.3321E-03     58.7569E-03
            3878            4285     47.3239E-03     45.5616E-03
            3879            4278     60.4455E-03     56.5051E-03
            3879            4279     72.6384E-03     68.2461E-03
            3879            4285     47.3239E-03     45.5616E-03
            3879            4286     61.3321E-03     58.7569E-03
            3880            4279     72.6384E-03     68.2461E-03
            3880            4280     101.769E-03     96.7440E-03
            3880            4286     61.3321E-03     58.7569E-03
            3880            4287     92.3706E-03     87.3590E-03
            3881            4280     101.769E-03     96.7440E-03
            3881            4281     136.004E-03     131.251E-03
            3881            4287     92.3706E-03     87.3590E-03
            3881            4288     127.876E-03     120.933E-03
            3882             184     146.351E-03     139.101E-03
            3882             185     153.301E-03     149.002E-03
            3882            4281     136.004E-03     131.251E-03
            3882            4288     127.876E-03     120.933E-03
            3883              34     164.075E-03     157.286E-03
            3883             736     137.282E-03     131.640E-03
            3883             737     146.351E-03     139.101E-03
            3883            4282     127.876E-03     120.933E-03
            3884             735     89.5029E-03     86.1463E-03
            3884             736     137.282E-03     131.640E-03
            3884            4282     127.876E-03     120.933E-03
            3884            4283     92.3706E-03     87.3590E-03
            3885             734     51.1444E-03     50.3620E-03
            3885             735     89.5029E-03     86.1463E-03
            3885            4283     92.3706E-03     87.3590E-03
            3885            4284     61.3321E-03     58.7569E-03
            3886             733     33.7721E-03     34.4253E-03
            3886             734     51.1444E-03     50.3620E-03
            3886            4284     61.3321E-03     58.7569E-03
            3886            4285     47.3239E-03     45.5616E-03
            3887             732     51.1444E-03     50.3620E-03
            3887             733     33.7721E-03     34.4253E-03
            3887            4285     47.3239E-03     45.5616E-03
            3887            4286     61.3321E-03     58.7569E-03
            3888             731     89.5029E-03     86.1463E-03
            3888             732     51.1444E-03     50.3620E-03
            3888            4286     61.3321E-03     58.7569E-03
            3888            4287     92.3706E-03     87.3590E-03
            3889             730     137.282E-03     131.640E-03
            3889             731     89.5029E-03     86.1463E-03
            3889            4287     92.3706E-03     87.3590E-03
            3889            4288     127.876E-03     120.933E-03
            3890              10     164.075E-03     157.286E-03
            3890             184     146.351E-03     139.101E-03
            3890             730     137.282E-03     131.640E-03
            3890            4288     127.876E-03     120.933E-03
            3891              25     164.936E-03     157.638E-03
            3891             484     140.573E-03     134.303E-03
            3891             547     158.655E-03     158.442E-03
            3891            4289     136.966E-03     136.829E-03
            3892             483     94.8391E-03     90.8721E-03
            3892             484     140.573E-03     134.303E-03
            3892            4289     136.966E-03     136.829E-03
            3892            4290     94.6863E-03     94.6824E-03
            3893             482     56.3706E-03     55.1703E-03
            3893             483     94.8391E-03     90.8721E-03
            3893            4290     94.6863E-03     94.6824E-03
            3893            4291     56.8235E-03     56.8397E-03
            3894             481     39.2720E-03     39.5631E-03
            3894             482     56.3706E-03     55.1703E-03
            3894            4291     56.8235E-03     56.8397E-03
            3894            4292     39.5519E-03     39.5315E-03
            3895             480     56.3706E-03     55.1703E-03
            3895             481     39.2720E-03     39.5631E-03
            3895            4292     39.5519E-03     39.5315E-03
            3895            4293     56.8235E-03     56.8397E-03
            3896             479     94.8391E-03     90.8721E-03
            3896             480     56.3706E-03     55.1703E-03
            3896            4293     56.8235E-03     56.8397E-03
            3896            4294     94.6863E-03     94.6824E-03
            3897             478     140.573E-03     134.303E-03
            3897             479     94.8391E-03     90.8721E-03
            3897            4294     94.6863E-03     94.6824E-03
            3897            4295     136.966E-03     136.829E-03
            3898               6     164.936E-03     157.638E-03
            3898             172     158.655E-03     158.442E-03
            3898             478     140.573E-03     134.303E-03
            3898            4295     136.966E-03     136.829E-03
            3899             547     158.655E-03     158.442E-03
            3899             548     163.648E-03     156.773E-03
            3899            4289     136.966E-03     136.829E-03
            3899            4296     139.035E-03     132.753E-03
            3900            4289     136.966E-03     136.829E-03
            3900            4290     94.6863E-03     94.6824E-03
            3900            4296     139.035E-03     132.753E-03
            3900            4297     95.0865E-03     90.9413E-03
            3901            4290     94.6863E-03     94.6824E-03
            3901            4291     56.8235E-03     56.8397E-03
            3901            4297     95.0865E-03     90.9413E-03
            3901            4298     58.8955E-03     56.9732E-03
            3902            4291     56.8235E-03     56.8397E-03
            3902            4292     39.5519E-03     39.5315E-03
            3902            4298     58.8955E-03     56.9732E-03
            3902            4299     42.0399E-03     40.7974E-03
            3903            4292     39.5519E-03     39.5315E-03
            3903            4293     56.8235E-03     56.8397E-03
            3903            4299     42.0399E-03     40.7974E-03
            3903            4300     58.8955E-03     56.9732E-03
            3904            4293     56.8235E-03     56.8397E-03
            3904            4294     94.6863E-03     94.6824E-03
            3904            4300     58.8955E-03     56.9732E-03
            3904            4301     95.0865E-03     90.9413E-03
            3905            4294     94.6863E-03     94.6824E-03
            3905            4295     136.966E-03     136.829E-03
            3905            4301     95.0865E-03     90.9413E-03
            3905            4302     139.035E-03     132.753E-03
            3906             171     163.648E-03     156.773E-03
            3906             172     158.655E-03     158.442E-03
            3906            4295     136.966E-03     136.829E-03
            3906            4302     139.035E-03     132.753E-03
            3907             548     163.648E-03     156.773E-03
            3907             549     164.960E-03     161.462E-03
            3907            4296     139.035E-03     132.753E-03
            3907            4303     143.796E-03     140.294E-03
            3908            4296     139.035E-03     132.753E-03
            3908            4297     95.0865E-03     90.9413E-03
            3908            4303     143.796E-03     140.294E-03
            3908            4304     102.425E-03     99.1302E-03
            3909            4297     95.0865E-03     90.9413E-03
            3909            4298     58.8955E-03     56.9732E-03
            3909            4304     102.425E-03     99.1302E-03
            3909            4305     67.0496E-03     64.6185E-03
            3910            4298     58.8955E-03     56.9732E-03
            3910            4299     42.0399E-03     40.7974E-03
            3910            4305     67.0496E-03     64.6185E-03
            3910            4306     51.8827E-03     50.1031E-03
            3911            4299     42.0399E-03     40.7974E-03
            3911            4300     58.8955E-03     56.9732E-03
            3911            4306     51.8827E-03     50.1031E-03
            3911            4307     67.0496E-03     64.6185E-03
            3912            4300     58.8955E-03     56.9732E-03
            3912            4301     95.0865E-03     90.9413E-03
            3912            4307     67.0496E-03     64.6185E-03
            3912            4308     102.425E-03     99.1302E-03
            3913            4301     95.0865E-03     90.9413E-03
            3913            4302     139.035E-03     132.753E-03
            3913            4308     102.425E-03     99.1302E-03
            3913            4309     143.796E-03     140.294E-03
            3914             170     164.960E-03     161.462E-03
            3914             171     163.648E-03     156.773E-03
            3914            4302     139.035E-03     132.753E-03
            3914            4309     143.796E-03     140.294E-03
            3915             549     164.960E-03     161.462E-03
            3915             550     174.254E-03     177.357E-03
            3915            4303     143.796E-03     140.294E-03
            3915            4310     152.365E-03     157.238E-03
            3916            4303     143.796E-03     140.294E-03
            3916            4304     102.425E-03     99.1302E-03
            3916            4310     152.365E-03     157.238E-03
            3916            4311     107.997E-03     112.856E-03
            3917            4304     102.425E-03     99.1302E-03
            3917            4305     67.0496E-03     64.6185E-03
            3917            4311     107.997E-03     112.856E-03
            3917            4312     65.6066E-03     66.9672E-03
            3918            4305     67.0496E-03     64.6185E-03
            3918            4306     51.8827E-03     50.1031E-03
            3918            4312     65.6066E-03     66.9672E-03
            3918            4313     45.6946E-03     45.3426E-03
            3919            4306     51.8827E-03     50.1031E-03
            3919            4307     67.0496E-03     64.6185E-03
            3919            4313     45.6946E-03     45.3426E-03
            3919            4314     65.6066E-03     66.9672E-03
            3920            4307     67.0496E-03     64.6185E-03
            3920            4308     102.425E-03     99.1302E-03
            3920            4314     65.6066E-03     66.9672E-03
            3920            4315     107.997E-03     112.856E-03
            3921            4308     102.425E-03     99.1302E-03
            3921            4309     143.796E-03     140.294E-03
            3921            4315     107.997E-03     112.856E-03
            3921            4316     152.365E-03     157.238E-03
            3922             169     174.254E-03     177.357E-03
            3922             170     164.960E-03     161.462E-03
            3922            4309     143.796E-03     140.294E-03
            3922            4316     152.365E-03     157.238E-03
            3923             550     174.254E-03     177.357E-03
            3923             551     182.856E-03     185.143E-03
            3923            4310     152.365E-03     157.238E-03
            3923            4317     158.893E-03     163.885E-03
            3924            4310     152.365E-03     157.238E-03
            3924            4311     107.997E-03     112.856E-03
            3924            4317     158.893E-03     163.885E-03
            3924            4318     109.729E-03     116.345E-03
            3925            4311     107.997E-03     112.856E-03
            3925            4312     65.6066E-03     66.9672E-03
            3925            4318     109.729E-03     116.345E-03
            3925            4319     62.9426E-03     66.4732E-03
            3926            4312     65.6066E-03     66.9672E-03
            3926            4313     45.6946E-03     45.3426E-03
            3926            4319     62.9426E-03     66.4732E-03
            3926            4320     41.3576E-03     42.8846E-03
            3927            4313     45.6946E-03     45.3426E-03
            3927            4314     65.6066E-03     66.9672E-03
            3927            4320     41.3576E-03     42.8846E-03
            3927            4321     62.9426E-03     66.4732E-03
            3928            4314     65.6066E-03     66.9672E-03
            3928            4315     107.997E-03     112.856E-03
            3928            4321     62.9426E-03     66.4732E-03
            3928            4322     109.729E-03     116.345E-03
            3929            4315     107.997E-03     112.856E-03
            3929            4316     152.365E-03     157.238E-03
            3929            4322     109.729E-03     116.345E-03
            3929            4323     158.893E-03     163.885E-03
            3930             168     182.856E-03     185.143E-03
            3930             169     174.254E-03     177.357E-03
            3930            4316     152.365E-03     157.238E-03
            3930            4323     158.893E-03     163.885E-03
            3931             551     182.856E-03     185.143E-03
            3931             552     193.296E-03     188.984E-03
            3931            4317     158.893E-03     163.885E-03
            3931            4324     162.514E-03     159.876E-03
            3932            4317     158.893E-03     163.885E-03
            3932            4318     109.729E-03     116.345E-03
            3932            4324     162.514E-03     159.876E-03
            3932            4325     104.662E-03     104.197E-03
            3933            4318     109.729E-03     116.345E-03
            3933            4319     62.9426E-03     66.4732E-03
            3933            4325     104.662E-03     104.197E-03
            3933            4326     55.7622E-03     56.4660E-03
            3934            4319     62.9426E-03     66.4732E-03
            3934            4320     41.3576E-03     42.8846E-03
            3934            4326     55.7622E-03     56.4660E-03
            3934            4327     33.9335E-03     35.3057E-03
            3935            4320     41.3576E-03     42.8846E-03
            3935            4321     62.9426E-03     66.4732E-03
            3935            4327     33.9335E-03     35.3057E-03
            3935            4328     55.7622E-03     56.4660E-03
            3936            4321     62.9426E-03     66.4732E-03
            3936            4322     109.729E-03     116.345E-03
            3936            4328     55.7622E-03     56.4660E-03
            3936            4329     104.662E-03     104.197E-03
            3937            4322     109.729E-03     116.345E-03
            3937            4323     158.893E-03     163.885E-03
            3937            4329     104.662E-03     104.197E-03
            3937            4330     162.514E-03     159.876E-03
            3938             167     193.296E-03     188.984E-03
            3938             168     182.856E-03     185.143E-03
            3938            4323     158.893E-03     163.885E-03
            3938            4330     162.514E-03     159.876E-03
            3939              27     202.158E-03     188.051E-03
            3939             552     193.296E-03     188.984E-03
            3939             723     164.938E-03     153.346E-03
            3939            4324     162.514E-03     159.876E-03
            3940             723     164.938E-03     153.346E-03
            3940             724     102.117E-03     95.4613E-03
            3940            4324     162.514E-03     159.876E-03
            3940            4325     104.662E-03     104.197E-03
            3941             724     102.117E-03     95.4613E-03
            3941             725     54.3109E-03     52.4303E-03
            3941            4325     104.662E-03     104.197E-03
            3941            4326     55.7622E-03     56.4660E-03
            3942             725     54.3109E-03     52.4303E-03
            3942             726     32.1054E-03     32.5797E-03
            3942            4326     55.7622E-03     56.4660E-03
            3942            4327     33.9335E-03     35.3057E-03
            3943             726     32.1054E-03     32.5797E-03
            3943             727     54.3109E-03     52.4303E-03
            3943            4327     33.9335E-03     35.3057E-03
            3943            4328     55.7622E-03     56.4660E-03
            3944             727     54.3109E-03     52.4303E-03
            3944             728     102.117E-03     95.4613E-03
            3944            4328     55.7622E-03     56.4660E-03
            3944            4329     104.662E-03     104.197E-03
            3945             728     102.117E-03     95.4613E-03
            3945             729     164.938E-03     153.346E-03
            3945            4329     104.662E-03     104.197E-03
            3945            4330     162.514E-03     159.876E-03
            3946               8     202.158E-03     188.051E-03
            3946             167     193.296E-03     188.984E-03
            3946             729     164.938E-03     153.346E-03
            3946            4330     162.514E-03     159.876E-03
            5375              13     16.1058E-03     16.0184E-03
            5375             201     2.36638E-15     1.73601E-15
            5375             956     18.3955E-03     18.3461E-03
            5375            5519     3.18718E-15     3.24688E-15
            5376             956     18.3955E-03     18.3461E-03
            5376             957     21.1921E-03     21.1389E-03
            5376            5519     3.18718E-15     3.24688E-15
            5376            5520     3.55406E-15     3.65888E-15
            5377             957     21.1921E-03     21.1389E-03
            5377             958     22.2133E-03     22.1661E-03
            5377            5520     3.55406E-15     3.65888E-15
            5377            5521     2.36251E-15     2.19103E-15
            5378             958     22.2133E-03     22.1661E-03
            5378             959     22.7278E-03     22.7282E-03
            5378            5521     2.36251E-15     2.19103E-15
            5378            5522     2.30805E-15     2.31117E-15
            5379             959     22.7278E-03     22.7282E-03
            5379             960     22.2133E-03     22.1661E-03
            5379            5522     2.30805E-15     2.31117E-15
            5379            5523     3.01172E-15     3.17866E-15
            5380             960     22.2133E-03     22.1661E-03
            5380             961     21.1921E-03     21.1389E-03
            5380            5523     3.01172E-15     3.17866E-15
            5380            5524     3.25605E-15     3.95213E-15
            5381             961     21.1921E-03     21.1389E-03
            5381             962     18.3955E-03     18.3461E-03
            5381            5524     3.25605E-15     3.95213E-15
            5381            5525     3.29842E-15     3.85294E-15
            5382              15     16.1058E-03     16.0184E-03
            5382             949     3.11696E-15     3.35864E-15
            5382             962     18.3955E-03     18.3461E-03
            5382            5525     3.29842E-15     3.85294E-15
            5383             201     2.36638E-15     1.73601E-15
            5383             202     1.93737E-15     1.02349E-15
            5383            5519     3.18718E-15     3.24688E-15
            5383            5526     2.72033E-15     2.06802E-15
            5384            5519     3.18718E-15     3.24688E-15
            5384            5520     3.55406E-15     3.65888E-15
            5384            5526     2.72033E-15     2.06802E-15
            5384            5527     3.76260E-15     3.50776E-15
            5385            5520     3.55406E-15     3.65888E-15
            5385            5521     2.36251E-15     2.19103E-15
            5385            5527     3.76260E-15     3.50776E-15
            5385            5528     3.25313E-15     2.95694E-15
            5386            5521     2.36251E-15     2.19103E-15
            5386            5522     2.30805E-15     2.31117E-15
            5386            5528     3.25313E-15     2.95694E-15
            5386            5529     2.79762E-15     2.73602E-15
            5387            5522     2.30805E-15     2.31117E-15
            5387            5523     3.01172E-15     3.17866E-15
            5387            5529     2.79762E-15     2.73602E-15
            5387            5530     3.18051E-15     3.51031E-15
            5388            5523     3.01172E-15     3.17866E-15
            5388            5524     3.25605E-15     3.95213E-15
            5388            5530     3.18051E-15     3.51031E-15
            5388            5531     3.33505E-15     3.66737E-15
            5389            5524     3.25605E-15     3.95213E-15
            5389            5525     3.29842E-15     3.85294E-15
            5389            5531     3.33505E-15     3.66737E-15
            5389            5532     2.89421E-15     3.00904E-15
            5390             949     3.11696E-15     3.35864E-15
            5390             950     2.36847E-15     2.24281E-15
            5390            5525     3.29842E-15     3.85294E-15
            5390            5532     2.89421E-15     3.00904E-15
            5391             202     1.93737E-15     1.02349E-15
            5391             203     2.53007E-15     2.38180E-15
            5391            5526     2.72033E-15     2.06802E-15
            5391            5533     3.32560E-15     2.94082E-15
            5392            5526     2.72033E-15     2.06802E-15
            5392            5527     3.76260E-15     3.50776E-15
            5392            5533     3.32560E-15     2.94082E-15
            5392            5534     4.12924E-15     3.60877E-15
            5393            5527     3.76260E-15     3.50776E-15
            5393            5528     3.25313E-15     2.95694E-15
            5393            5534     4.12924E-15     3.60877E-15
            5393            5535     3.50954E-15     3.14046E-15
            5394            5528     3.25313E-15     2.95694E-15
            5394            5529     2.79762E-15     2.73602E-15
            5394            5535     3.50954E-15     3.14046E-15
            5394            5536     3.70185E-15     3.51779E-15
            5395            5529     2.79762E-15     2.73602E-15
            5395            5530     3.18051E-15     3.51031E-15
            5395            5536     3.70185E-15     3.51779E-15
            5395            5537     3.32079E-15     3.18924E-15
            5396            5530     3.18051E-15     3.51031E-15
            5396            5531     3.33505E-15     3.66737E-15
            5396            5537     3.32079E-15     3.18924E-15
            5396            5538     2.08921E-15     1.69160E-15
            5397            5531     3.33505E-15     3.66737E-15
            5397            5532     2.89421E-15     3.00904E-15
            5397            5538     2.08921E-15     1.69160E-15
            5397            5539     2.30055E-15     2.51734E-15
            5398             950     2.36847E-15     2.24281E-15
            5398             951     2.54229E-15     3.55762E-15
            5398            5532     2.89421E-15     3.00904E-15
            5398            5539     2.30055E-15     2.51734E-15
            5399             203     2.53007E-15     2.38180E-15
            5399             204     3.63134E-15     3.52113E-15
            5399            5533     3.32560E-15     2.94082E-15
            5399            5540     4.16062E-15     4.17008E-15
            5400            5533     3.32560E-15     2.94082E-15
            5400            5534     4.12924E-15     3.60877E-15
            5400            5540     4.16062E-15     4.17008E-15
            5400            5541     4.54980E-15     4.50732E-15
            5401            5534     4.12924E-15     3.60877E-15
            5401            5535     3.50954E-15     3.14046E-15
            5401            5541     4.54980E-15     4.50732E-15
            5401            5542     3.68186E-15     3.32791E-15
            5402            5535     3.50954E-15     3.14046E-15
            5402            5536     3.70185E-15     3.51779E-15
            5402            5542     3.68186E-15     3.32791E-15
            5402            5543     3.18354E-15     2.84805E-15
            5403            5536     3.70185E-15     3.51779E-15
            5403            5537     3.32079E-15     3.18924E-15
            5403            5543     3.18354E-15     2.84805E-15
            5403            5544     2.55069E-15     2.37184E-15
            5404            5537     3.32079E-15     3.18924E-15
            5404            5538     2.08921E-15     1.69160E-15
            5404            5544     2.55069E-15     2.37184E-15
            5404            5545     2.32211E-15     1.89353E-15
            5405            5538     2.08921E-15     1.69160E-15
            5405            5539     2.30055E-15     2.51734E-15
            5405            5545     2.32211E-15     1.89353E-15
            5405            5546     3.69123E-15     3.43613E-15
            5406             951     2.54229E-15     3.55762E-15
            5406             952     4.42656E-15     4.59301E-15
            5406            5539     2.30055E-15     2.51734E-15
            5406            5546     3.69123E-15     3.43613E-15
            5407             204     3.63134E-15     3.52113E-15
            5407             205     4.77377E-15     4.85929E-15
            5407            5540     4.16062E-15     4.17008E-15
            5407            5547     5.45515E-15     5.28447E-15
            5408            5540     4.16062E-15     4.17008E-15
            5408            5541     4.54980E-15     4.50732E-15
            5408            5547     5.45515E-15     5.28447E-15
            5408            5548     6.08886E-15     5.88964E-15
            5409            5541     4.54980E-15     4.50732E-15
            5409            5542     3.68186E-15     3.32791E-15
            5409            5548     6.08886E-15     5.88964E-15
            5409            5549     4.67274E-15     4.50254E-15
            5410            5542     3.68186E-15     3.32791E-15
            5410            5543     3.18354E-15     2.84805E-15
            5410            5549     4.67274E-15     4.50254E-15
            5410            5550     2.59740E-15     2.54296E-15
            5411            5543     3.18354E-15     2.84805E-15
            5411            5544     2.55069E-15     2.37184E-15
            5411            5550     2.59740E-15     2.54296E-15
            5411            5551     3.34917E-15     3.30319E-15
            5412            5544     2.55069E-15     2.37184E-15
            5412            5545     2.32211E-15     1.89353E-15
            5412            5551     3.34917E-15     3.30319E-15
            5412            5552     6.10586E-15     5.24804E-15
            5413            5545     2.32211E-15     1.89353E-15
            5413            5546     3.69123E-15     3.43613E-15
            5413            5552     6.10586E-15     5.24804E-15
            5413            5553     6.28173E-15     5.59084E-15
            5414             952     4.42656E-15     4.59301E-15
            5414             953     5.15954E-15     5.14151E-15
            5414            5546     3.69123E-15     3.43613E-15
            5414            5553     6.28173E-15     5.59084E-15
            5415             205     4.77377E-15     4.85929E-15
            5415             206     4.56650E-15     6.37054E-15
            5415            5547     5.45515E-15     5.28447E-15
            5415            5554     5.16353E-15     5.58328E-15
            5416            5547     5.45515E-15     5.28447E-15
            5416            5548     6.08886E-15     5.88964E-15
            5416            5554     5.16353E-15     5.58328E-15
            5416            5555     6.79131E-15     6.37695E-15
            5417            5548     6.08886E-15     5.88964E-15
            5417            5549     4.67274E-15     4.50254E-15
            5417            5555     6.79131E-15     6.37695E-15
            5417            5556     6.21268E-15     6.25446E-15
            5418            5549     4.67274E-15     4.50254E-15
            5418            5550     2.59740E-15     2.54296E-15
            5418            5556     6.21268E-15     6.25446E-15
            5418            5557     4.70978E-15     4.75255E-15
            5419            5550     2.59740E-15     2.54296E-15
            5419            5551     3.34917E-15     3.30319E-15
            5419            5557     4.70978E-15     4.75255E-15
            5419            5558     5.87165E-15     5.56328E-15
            5420            5551     3.34917E-15     3.30319E-15
            5420            5552     6.10586E-15     5.24804E-15
            5420            5558     5.87165E-15     5.56328E-15
            5420            5559     6.77472E-15     5.64759E-15
            5421            5552     6.10586E-15     5.24804E-15
            5421            5553     6.28173E-15     5.59084E-15
            5421            5559     6.77472E-15     5.64759E-15
            5421            5560     5.56912E-15     5.60946E-15
            5422             953     5.15954E-15     5.14151E-15
            5422             954     4.51583E-15     6.09626E-15
            5422            5553     6.28173E-15     5.59084E-15
            5422            5560     5.56912E-15     5.60946E-15
            5423              14     4.65065E-15     6.71826E-15
            5423             206     4.56650E-15     6.37054E-15
            5423             969     4.15047E-15     4.46033E-15
            5423            5554     5.16353E-15     5.58328E-15
            5424             968     5.80497E-15     5.19859E-15
            5424             969     4.15047E-15     4.46033E-15
            5424            5554     5.16353E-15     5.58328E-15
            5424            5555     6.79131E-15     6.37695E-15
            5425             967     6.98229E-15     6.92287E-15
            5425             968     5.80497E-15     5.19859E-15
            5425            5555     6.79131E-15     6.37695E-15
            5425            5556     6.21268E-15     6.25446E-15
            5426             966     6.75272E-15     6.51888E-15
            5426             967     6.98229E-15     6.92287E-15
            5426            5556     6.21268E-15     6.25446E-15
            5426            5557     4.70978E-15     4.75255E-15
            5427             965     6.79501E-15     6.33176E-15
            5427             966     6.75272E-15     6.51888E-15
            5427            5557     4.70978E-15     4.75255E-15
            5427            5558     5.87165E-15     5.56328E-15
            5428             964     4.90073E-15     3.78129E-15
            5428             965     6.79501E-15     6.33176E-15
            5428            5558     5.87165E-15     5.56328E-15
            5428            5559     6.77472E-15     5.64759E-15
            5429             963     3.67442E-15     4.11396E-15
            5429             964     4.90073E-15     3.78129E-15
            5429            5559     6.77472E-15     5.64759E-15
            5429            5560     5.56912E-15     5.60946E-15
            5430              41     3.63691E-15     5.94205E-15
            5430             954     4.51583E-15     6.09626E-15
            5430             963     3.67442E-15     4.11396E-15
            5430            5560     5.56912E-15     5.60946E-15
            6229              34     164.075E-03     157.286E-03
            6229             736     137.282E-03     131.640E-03
            6229             754     174.054E-03     168.208E-03
            6229            6281     146.972E-03     142.593E-03
            6230             735     89.5029E-03     86.1463E-03
            6230             736     137.282E-03     131.640E-03
            6230            6281     146.972E-03     142.593E-03
            6230            6282     96.7208E-03     94.8463E-03
            6231             734     51.1444E-03     50.3620E-03
            6231             735     89.5029E-03     86.1463E-03
            6231            6282     96.7208E-03     94.8463E-03
            6231            6283     58.0169E-03     59.3279E-03
            6232             733     33.7721E-03     34.4253E-03
            6232             734     51.1444E-03     50.3620E-03
            6232            6283     58.0169E-03     59.3279E-03
            6232            6284     42.4818E-03     45.9416E-03
            6233             732     51.1444E-03     50.3620E-03
            6233             733     33.7721E-03     34.4253E-03
            6233            6284     42.4818E-03     45.9416E-03
            6233            6285     58.0169E-03     59.3279E-03
            6234             731     89.5029E-03     86.1463E-03
            6234             732     51.1444E-03     50.3620E-03
            6234            6285     58.0169E-03     59.3279E-03
            6234            6286     96.7208E-03     94.8463E-03
            6235             730     137.282E-03     131.640E-03
            6235             731     89.5029E-03     86.1463E-03
            6235            6286     96.7208E-03     94.8463E-03
            6235            6287     146.972E-03     142.593E-03
            6236              10     164.075E-03     157.286E-03
            6236             284     174.054E-03     168.208E-03
            6236             730     137.282E-03     131.640E-03
            6236            6287     146.972E-03     142.593E-03
            6237             754     174.054E-03     168.208E-03
            6237             755     161.461E-03     161.318E-03
            6237            6281     146.972E-03     142.593E-03
            6237            6288     141.174E-03     142.399E-03
            6238            6281     146.972E-03     142.593E-03
            6238            6282     96.7208E-03     94.8463E-03
            6238            6288     141.174E-03     142.399E-03
            6238            6289     100.097E-03     103.342E-03
            6239            6282     96.7208E-03     94.8463E-03
            6239            6283     58.0169E-03     59.3279E-03
            6239            6289     100.097E-03     103.342E-03
            6239            6290     64.7588E-03     69.5119E-03
            6240            6283     58.0169E-03     59.3279E-03
            6240            6284     42.4818E-03     45.9416E-03
            6240            6290     64.7588E-03     69.5119E-03
            6240            6291     50.2104E-03     55.8203E-03
            6241            6284     42.4818E-03     45.9416E-03
            6241            6285     58.0169E-03     59.3279E-03
            6241            6291     50.2104E-03     55.8203E-03
            6241            6292     64.7588E-03     69.5119E-03
            6242            6285     58.0169E-03     59.3279E-03
            6242            6286     96.7208E-03     94.8463E-03
            6242            6292     64.7588E-03     69.5119E-03
            6242            6293     100.097E-03     103.342E-03
            6243            6286     96.7208E-03     94.8463E-03
            6243            6287     146.972E-03     142.593E-03
            6243            6293     100.097E-03     103.342E-03
            6243            6294     141.174E-03     142.399E-03
            6244             283     161.461E-03     161.318E-03
            6244             284     174.054E-03     168.208E-03
            6244            6287     146.972E-03     142.593E-03
            6244            6294     141.174E-03     142.399E-03
            6245             755     161.461E-03     161.318E-03
            6245             756     152.596E-03     150.866E-03
            6245            6288     141.174E-03     142.399E-03
            6245            6295     133.514E-03     133.253E-03
            6246            6288     141.174E-03     142.399E-03
            6246            6289     100.097E-03     103.342E-03
            6246            6295     133.514E-03     133.253E-03
            6246            6296     97.2908E-03     99.6841E-03
            6247            6289     100.097E-03     103.342E-03
            6247            6290     64.7588E-03     69.5119E-03
            6247            6296     97.2908E-03     99.6841E-03
            6247            6297     66.9532E-03     71.2184E-03
            6248            6290     64.7588E-03     69.5119E-03
            6248            6291     50.2104E-03     55.8203E-03
            6248            6297     66.9532E-03     71.2184E-03
            6248            6298     53.7573E-03     58.7093E-03
            6249            6291     50.2104E-03     55.8203E-03
            6249            6292     64.7588E-03     69.5119E-03
            6249            6298     53.7573E-03     58.7093E-03
            6249            6299     66.9532E-03     71.2184E-03
            6250            6292     64.7588E-03     69.5119E-03
            6250            6293     100.097E-03     103.342E-03
            6250            6299     66.9532E-03     71.2184E-03
            6250            6300     97.2908E-03     99.6841E-03
            6251            6293     100.097E-03     103.342E-03
            6251            6294     141.174E-03     142.399E-03
            6251            6300     97.2908E-03     99.6841E-03
            6251            6301     133.514E-03     133.253E-03
            6252             282     152.596E-03     150.866E-03
            6252             283     161.461E-03     161.318E-03
            6252            6294     141.174E-03     142.399E-03
            6252            6301     133.514E-03     133.253E-03
            6253             756     152.596E-03     150.866E-03
            6253             757     145.552E-03     143.906E-03
            6253            6295     133.514E-03     133.253E-03
            6253            6302     127.529E-03     126.838E-03
            6254            6295     133.514E-03     133.253E-03
            6254            6296     97.2908E-03     99.6841E-03
            6254            6302     127.529E-03     126.838E-03
            6254            6303     93.1921E-03     94.1818E-03
            6255            6296     97.2908E-03     99.6841E-03
            6255            6297     66.9532E-03     71.2184E-03
            6255            6303     93.1921E-03     94.1818E-03
            6255            6304     65.8067E-03     67.9797E-03
            6256            6297     66.9532E-03     71.2184E-03
            6256            6298     53.7573E-03     58.7093E-03
            6256            6304     65.8067E-03     67.9797E-03
            6256            6305     54.7363E-03     57.3648E-03
            6257            6298     53.7573E-03     58.7093E-03
            6257            6299     66.9532E-03     71.2184E-03
            6257            6305     54.7363E-03     57.3648E-03
            6257            6306     65.8067E-03     67.9797E-03
            6258            6299     66.9532E-03     71.2184E-03
            6258            6300     97.2908E-03     99.6841E-03
            6258            6306     65.8067E-03     67.9797E-03
            6258            6307     93.1921E-03     94.1818E-03
            6259            6300     97.2908E-03     99.6841E-03
            6259            6301     133.514E-03     133.253E-03
            6259            6307     93.1921E-03     94.1818E-03
            6259            6308     127.529E-03     126.838E-03
            6260             281     145.552E-03     143.906E-03
            6260             282     152.596E-03     150.866E-03
            6260            6301     133.514E-03     133.253E-03
            6260            6308     127.529E-03     126.838E-03
            6261             757     145.552E-03     143.906E-03
            6261             758     138.243E-03     136.461E-03
            6261            6302     127.529E-03     126.838E-03
            6261            6309     121.233E-03     120.533E-03
            6262            6302     127.529E-03     126.838E-03
            6262            6303     93.1921E-03     94.1818E-03
            6262            6309     121.233E-03     120.533E-03
            6262            6310     89.3959E-03     90.0002E-03
            6263            6303     93.1921E-03     94.1818E-03
            6263            6304     65.8067E-03     67.9797E-03
            6263            6310     89.3959E-03     90.0002E-03
            6263            6311     64.1741E-03     64.6534E-03
            6264            6304     65.8067E-03     67.9797E-03
            6264            6305     54.7363E-03     57.3648E-03
            6264            6311     64.1741E-03     64.6534E-03
            6264            6312     53.7793E-03     53.9120E-03
            6265            6305     54.7363E-03     57.3648E-03
            6265            6306     65.8067E-03     67.9797E-03
            6265            6312     53.7793E-03     53.9120E-03
            6265            6313     64.1741E-03     64.6534E-03
            6266            6306     65.8067E-03     67.9797E-03
            6266            6307     93.1921E-03     94.1818E-03
            6266            6313     64.1741E-03     64.6534E-03
            6266            6314     89.3959E-03     90.0002E-03
            6267            6307     93.1921E-03     94.1818E-03
            6267            6308     127.529E-03     126.838E-03
            6267            6314     89.3959E-03     90.0002E-03
            6267            6315     121.233E-03     120.533E-03
            6268             280     138.243E-03     136.461E-03
            6268             281     145.552E-03     143.906E-03
            6268            6308     127.529E-03     126.838E-03
            6268            6315     121.233E-03     120.533E-03
            6269             758     138.243E-03     136.461E-03
            6269             759     130.532E-03     129.628E-03
            6269            6309     121.233E-03     120.533E-03
            6269            6316     114.850E-03     114.709E-03
            6270            6309     121.233E-03     120.533E-03
            6270            6310     89.3959E-03     90.0002E-03
            6270            6316     114.850E-03     114.709E-03
            6270            6317     85.5083E-03     86.0562E-03
            6271            6310     89.3959E-03     90.0002E-03
            6271            6311     64.1741E-03     64.6534E-03
            6271            6317     85.5083E-03     86.0562E-03
            6271            6318     62.4635E-03     61.6767E-03
            6272            6311     64.1741E-03     64.6534E-03
            6272            6312     53.7793E-03     53.9120E-03
            6272            6318     62.4635E-03     61.6767E-03
            6272            6319     53.0788E-03     51.0310E-03
            6273            6312     53.7793E-03     53.9120E-03
            6273            6313     64.1741E-03     64.6534E-03
            6273            6319     53.0788E-03     51.0310E-03
            6273            6320     62.4635E-03     61.6767E-03
            6274            6313     64.1741E-03     64.6534E-03
            6274            6314     89.3959E-03     90.0002E-03
            6274            6320     62.4635E-03     61.6767E-03
            6274            6321     85.5083E-03     86.0562E-03
            6275            6314     89.3959E-03     90.0002E-03
            6275            6315     121.233E-03     120.533E-03
            6275            6321     85.5083E-03     86.0562E-03
            6275            6322     114.850E-03     114.709E-03
            6276             279     130.532E-03     129.628E-03
            6276             280     138.243E-03     136.461E-03
            6276            6315     121.233E-03     120.533E-03
            6276            6322     114.850E-03     114.709E-03
            6277             759     130.532E-03     129.628E-03
            6277             760     122.669E-03     122.069E-03
            6277            6316     114.850E-03     114.709E-03
            6277            6323     108.442E-03     109.252E-03
            6278            6316     114.850E-03     114.709E-03
            6278            6317     85.5083E-03     86.0562E-03
            6278            6323     108.442E-03     109.252E-03
            6278            6324     82.0729E-03     83.0755E-03
            6279            6317     85.5083E-03     86.0562E-03
            6279            6318     62.4635E-03     61.6767E-03
            6279            6324     82.0729E-03     83.0755E-03
            6279            6325     61.0026E-03     58.6755E-03
            6280            6318     62.4635E-03     61.6767E-03
            6280            6319     53.0788E-03     51.0310E-03
            6280            6325     61.0026E-03     58.6755E-03
            6280            6326     52.0742E-03     47.6346E-03
            6281            6319     53.0788E-03     51.0310E-03
            6281            6320     62.4635E-03     61.6767E-03
            6281            6326     52.0742E-03     47.6346E-03
            6281            6327     61.0026E-03     58.6755E-03
            6282            6320     62.4635E-03     61.6767E-03
            6282            6321     85.5083E-03     86.0562E-03
            6282            6327     61.0026E-03     58.6755E-03
            6282            6328     82.0729E-03     83.0755E-03
            6283            6321     85.5083E-03     86.0562E-03
            6283            6322     114.850E-03     114.709E-03
            6283            6328     82.0729E-03     83.0755E-03
            6283            6329     108.442E-03     109.252E-03
            6284             278     122.669E-03     122.069E-03
            6284             279     130.532E-03     129.628E-03
            6284            6322     114.850E-03     114.709E-03
            6284            6329     108.442E-03     109.252E-03
            6285             760     122.669E-03     122.069E-03
            6285             761     113.367E-03     115.549E-03
            6285            6323     108.442E-03     109.252E-03
            6285            6330     101.750E-03     103.734E-03
            6286            6323     108.442E-03     109.252E-03
            6286            6324     82.0729E-03     83.0755E-03
            6286            6330     101.750E-03     103.734E-03
            6286            6331     79.0705E-03     78.4285E-03
            6287            6324     82.0729E-03     83.0755E-03
            6287            6325     61.0026E-03     58.6755E-03
            6287            6331     79.0705E-03     78.4285E-03
            6287            6332     59.8238E-03     55.4149E-03
            6288            6325     61.0026E-03     58.6755E-03
            6288            6326     52.0742E-03     47.6346E-03
            6288            6332     59.8238E-03     55.4149E-03
            6288            6333     51.6388E-03     45.8919E-03
            6289            6326     52.0742E-03     47.6346E-03
            6289            6327     61.0026E-03     58.6755E-03
            6289            6333     51.6388E-03     45.8919E-03
            6289            6334     59.8238E-03     55.4149E-03
            6290            6327     61.0026E-03     58.6755E-03
            6290            6328     82.0729E-03     83.0755E-03
            6290            6334     59.8238E-03     55.4149E-03
            6290            6335     79.0705E-03     78.4285E-03
            6291            6328     82.0729E-03     83.0755E-03
            6291            6329     108.442E-03     109.252E-03
            6291            6335     79.0705E-03     78.4285E-03
            6291            6336     101.750E-03     103.734E-03
            6292             277     113.367E-03     115.549E-03
            6292             278     122.669E-03     122.069E-03
            6292            6329     108.442E-03     109.252E-03
            6292            6336     101.750E-03     103.734E-03
            6293             761     113.367E-03     115.549E-03
            6293             762     102.371E-03     98.3241E-03
            6293            6330     101.750E-03     103.734E-03
            6293            6337     93.8050E-03     88.7215E-03
            6294            6330     101.750E-03     103.734E-03
            6294            6331     79.0705E-03     78.4285E-03
            6294            6337     93.8050E-03     88.7215E-03
            6294            6338     75.7962E-03     69.9066E-03
            6295            6331     79.0705E-03     78.4285E-03
            6295            6332     59.8238E-03     55.4149E-03
            6295            6338     75.7962E-03     69.9066E-03
            6295            6339     60.0896E-03     54.9105E-03
            6296            6332     59.8238E-03     55.4149E-03
            6296            6333     51.6388E-03     45.8919E-03
            6296            6339     60.0896E-03     54.9105E-03
            6296            6340     53.8253E-03     49.1266E-03
            6297            6333     51.6388E-03     45.8919E-03
            6297            6334     59.8238E-03     55.4149E-03
            6297            6340     53.8253E-03     49.1266E-03
            6297            6341     60.0896E-03     54.9105E-03
            6298            6334     59.8238E-03     55.4149E-03
            6298            6335     79.0705E-03     78.4285E-03
            6298            6341     60.0896E-03     54.9105E-03
            6298            6342     75.7962E-03     69.9066E-03
            6299            6335     79.0705E-03     78.4285E-03
            6299            6336     101.750E-03     103.734E-03
            6299            6342     75.7962E-03     69.9066E-03
            6299            6343     93.8050E-03     88.7215E-03
            6300             276     102.371E-03     98.3241E-03
            6300             277     113.367E-03     115.549E-03
            6300            6336     101.750E-03     103.734E-03
            6300            6343     93.8050E-03     88.7215E-03
            6301             762     102.371E-03     98.3241E-03
            6301             763     116.754E-03     105.527E-03
            6301            6337     93.8050E-03     88.7215E-03
            6301            6344     100.714E-03     90.7934E-03
            6302            6337     93.8050E-03     88.7215E-03
            6302            6338     75.7962E-03     69.9066E-03
            6302            6344     100.714E-03     90.7934E-03
            6302            6345     73.1873E-03     66.7615E-03
            6303            6338     75.7962E-03     69.9066E-03
            6303            6339     60.0896E-03     54.9105E-03
            6303            6345     73.1873E-03     66.7615E-03
            6303            6346     54.1571E-03     51.4997E-03
            6304            6339     60.0896E-03     54.9105E-03
            6304            6340     53.8253E-03     49.1266E-03
            6304            6346     54.1571E-03     51.4997E-03
            6304            6347     46.6145E-03     45.5361E-03
            6305            6340     53.8253E-03     49.1266E-03
            6305            6341     60.0896E-03     54.9105E-03
            6305            6347     46.6145E-03     45.5361E-03
            6305            6348     54.1571E-03     51.4997E-03
            6306            6341     60.0896E-03     54.9105E-03
            6306            6342     75.7962E-03     69.9066E-03
            6306            6348     54.1571E-03     51.4997E-03
            6306            6349     73.1873E-03     66.7615E-03
            6307            6342     75.7962E-03     69.9066E-03
            6307            6343     93.8050E-03     88.7215E-03
            6307            6349     73.1873E-03     66.7615E-03
            6307            6350     100.714E-03     90.7934E-03
            6308             275     116.754E-03     105.527E-03
            6308             276     102.371E-03     98.3241E-03
            6308            6343     93.8050E-03     88.7215E-03
            6308            6350     100.714E-03     90.7934E-03
            6309             763     116.754E-03     105.527E-03
            6309             764     129.791E-03     125.710E-03
            6309            6344     100.714E-03     90.7934E-03
            6309            6351     110.496E-03     107.725E-03
            6310            6344     100.714E-03     90.7934E-03
            6310            6345     73.1873E-03     66.7615E-03
            6310            6351     110.496E-03     107.725E-03
            6310            6352     75.4672E-03     74.7994E-03
            6311            6345     73.1873E-03     66.7615E-03
            6311            6346     54.1571E-03     51.4997E-03
            6311            6352     75.4672E-03     74.7994E-03
            6311            6353     50.8659E-03     52.2320E-03
            6312            6346     54.1571E-03     51.4997E-03
            6312            6347     46.6145E-03     45.5361E-03
            6312            6353     50.8659E-03     52.2320E-03
            6312            6354     41.9981E-03     44.6058E-03
            6313            6347     46.6145E-03     45.5361E-03
            6313            6348     54.1571E-03     51.4997E-03
            6313            6354     41.9981E-03     44.6058E-03
            6313            6355     50.8659E-03     52.2320E-03
            6314            6348     54.1571E-03     51.4997E-03
            6314            6349     73.1873E-03     66.7615E-03
            6314            6355     50.8659E-03     52.2320E-03
            6314            6356     75.4672E-03     74.7994E-03
            6315            6349     73.1873E-03     66.7615E-03
            6315            6350     100.714E-03     90.7934E-03
            6315            6356     75.4672E-03     74.7994E-03
            6315            6357     110.496E-03     107.725E-03
            6316             274     129.791E-03     125.710E-03
            6316             275     116.754E-03     105.527E-03
            6316            6350     100.714E-03     90.7934E-03
            6316            6357     110.496E-03     107.725E-03
            6317             764     129.791E-03     125.710E-03
            6317             765     117.450E-03     117.140E-03
            6317            6351     110.496E-03     107.725E-03
            6317            6358     104.229E-03     104.901E-03
            6318            6351     110.496E-03     107.725E-03
            6318            6352     75.4672E-03     74.7994E-03
            6318            6358     104.229E-03     104.901E-03
            6318            6359     77.8149E-03     80.1524E-03
            6319            6352     75.4672E-03     74.7994E-03
            6319            6353     50.8659E-03     52.2320E-03
            6319            6359     77.8149E-03     80.1524E-03
            6319            6360     56.4988E-03     59.9656E-03
            6320            6353     50.8659E-03     52.2320E-03
            6320            6354     41.9981E-03     44.6058E-03
            6320            6360     56.4988E-03     59.9656E-03
            6320            6361     48.3758E-03     52.2873E-03
            6321            6354     41.9981E-03     44.6058E-03
            6321            6355     50.8659E-03     52.2320E-03
            6321            6361     48.3758E-03     52.2873E-03
            6321            6362     56.4988E-03     59.9656E-03
            6322            6355     50.8659E-03     52.2320E-03
            6322            6356     75.4672E-03     74.7994E-03
            6322            6362     56.4988E-03     59.9656E-03
            6322            6363     77.8149E-03     80.1524E-03
            6323            6356     75.4672E-03     74.7994E-03
            6323            6357     110.496E-03     107.725E-03
            6323            6363     77.8149E-03     80.1524E-03
            6323            6364     104.229E-03     104.901E-03
            6324             273     117.450E-03     117.140E-03
            6324             274     129.791E-03     125.710E-03
            6324            6357     110.496E-03     107.725E-03
            6324            6364     104.229E-03     104.901E-03
            6325             765     117.450E-03     117.140E-03
            6325             766     108.592E-03     107.346E-03
            6325            6358     104.229E-03     104.901E-03
            6325            6365     96.7085E-03     96.3908E-03
            6326            6358     104.229E-03     104.901E-03
            6326            6359     77.8149E-03     80.1524E-03
            6326            6365     96.7085E-03     96.3908E-03
            6326            6366     75.0026E-03     76.5308E-03
            6327            6359     77.8149E-03     80.1524E-03
            6327            6360     56.4988E-03     59.9656E-03
            6327            6366     75.0026E-03     76.5308E-03
            6327            6367     58.3398E-03     61.2502E-03
            6328            6360     56.4988E-03     59.9656E-03
            6328            6361     48.3758E-03     52.2873E-03
            6328            6367     58.3398E-03     61.2502E-03
            6328            6368     51.4992E-03     54.8742E-03
            6329            6361     48.3758E-03     52.2873E-03
            6329            6362     56.4988E-03     59.9656E-03
            6329            6368     51.4992E-03     54.8742E-03
            6329            6369     58.3398E-03     61.2502E-03
            6330            6362     56.4988E-03     59.9656E-03
            6330            6363     77.8149E-03     80.1524E-03
            6330            6369     58.3398E-03     61.2502E-03
            6330            6370     75.0026E-03     76.5308E-03
            6331            6363     77.8149E-03     80.1524E-03
            6331            6364     104.229E-03     104.901E-03
            6331            6370     75.0026E-03     76.5308E-03
            6331            6371     96.7085E-03     96.3908E-03
            6332             272     108.592E-03     107.346E-03
            6332             273     117.450E-03     117.140E-03
            6332            6364     104.229E-03     104.901E-03
            6332            6371     96.7085E-03     96.3908E-03
            6333             766     108.592E-03     107.346E-03
            6333             767     101.547E-03     100.370E-03
            6333            6365     96.7085E-03     96.3908E-03
            6333            6372     90.8140E-03     90.2934E-03
            6334            6365     96.7085E-03     96.3908E-03
            6334            6366     75.0026E-03     76.5308E-03
            6334            6372     90.8140E-03     90.2934E-03
            6334            6373     71.2738E-03     71.8976E-03
            6335            6366     75.0026E-03     76.5308E-03
            6335            6367     58.3398E-03     61.2502E-03
            6335            6373     71.2738E-03     71.8976E-03
            6335            6374     57.4483E-03     58.8788E-03
            6336            6367     58.3398E-03     61.2502E-03
            6336            6368     51.4992E-03     54.8742E-03
            6336            6374     57.4483E-03     58.8788E-03
            6336            6375     52.4298E-03     54.1795E-03
            6337            6368     51.4992E-03     54.8742E-03
            6337            6369     58.3398E-03     61.2502E-03
            6337            6375     52.4298E-03     54.1795E-03
            6337            6376     57.4483E-03     58.8788E-03
            6338            6369     58.3398E-03     61.2502E-03
            6338            6370     75.0026E-03     76.5308E-03
            6338            6376     57.4483E-03     58.8788E-03
            6338            6377     71.2738E-03     71.8976E-03
            6339            6370     75.0026E-03     76.5308E-03
            6339            6371     96.7085E-03     96.3908E-03
            6339            6377     71.2738E-03     71.8976E-03
            6339            6378     90.8140E-03     90.2934E-03
            6340             271     101.547E-03     100.370E-03
            6340             272     108.592E-03     107.346E-03
            6340            6371     96.7085E-03     96.3908E-03
            6340            6378     90.8140E-03     90.2934E-03
            6341             767     101.547E-03     100.370E-03
            6341             768     94.2970E-03     93.1547E-03
            6341            6372     90.8140E-03     90.2934E-03
            6341            6379     84.7283E-03     84.2891E-03
            6342            6372     90.8140E-03     90.2934E-03
            6342            6373     71.2738E-03     71.8976E-03
            6342            6379     84.7283E-03     84.2891E-03
            6342            6380     67.8506E-03     68.2197E-03
            6343            6373     71.2738E-03     71.8976E-03
            6343            6374     57.4483E-03     58.8788E-03
            6343            6380     67.8506E-03     68.2197E-03
            6343            6381     56.1844E-03     56.4430E-03
            6344            6374     57.4483E-03     58.8788E-03
            6344            6375     52.4298E-03     54.1795E-03
            6344            6381     56.1844E-03     56.4430E-03
            6344            6382     51.8273E-03     51.8703E-03
            6345            6375     52.4298E-03     54.1795E-03
            6345            6376     57.4483E-03     58.8788E-03
            6345            6382     51.8273E-03     51.8703E-03
            6345            6383     56.1844E-03     56.4430E-03
            6346            6376     57.4483E-03     58.8788E-03
            6346            6377     71.2738E-03     71.8976E-03
            6346            6383     56.1844E-03     56.4430E-03
            6346            6384     67.8506E-03     68.2197E-03
            6347            6377     71.2738E-03     71.8976E-03
            6347            6378     90.8140E-03     90.2934E-03
            6347            6384     67.8506E-03     68.2197E-03
            6347            6385     84.7283E-03     84.2891E-03
            6348             270     94.2970E-03     93.1547E-03
            6348             271     101.547E-03     100.370E-03
            6348            6378     90.8140E-03     90.2934E-03
            6348            6385     84.7283E-03     84.2891E-03
            6349             768     94.2970E-03     93.1547E-03
            6349             769     86.8806E-03     86.4337E-03
            6349            6379     84.7283E-03     84.2891E-03
            6349            6386     78.7078E-03     78.7176E-03
            6350            6379     84.7283E-03     84.2891E-03
            6350            6380     67.8506E-03     68.2197E-03
            6350            6386     78.7078E-03     78.7176E-03
            6350            6387     64.4378E-03     64.7015E-03
            6351            6380     67.8506E-03     68.2197E-03
            6351            6381     56.1844E-03     56.4430E-03
            6351            6387     64.4378E-03     64.7015E-03
            6351            6388     54.8103E-03     54.0848E-03
            6352            6381     56.1844E-03     56.4430E-03
            6352            6382     51.8273E-03     51.8703E-03
            6352            6388     54.8103E-03     54.0848E-03
            6352            6389     51.2799E-03     49.7680E-03
            6353            6382     51.8273E-03     51.8703E-03
            6353            6383     56.1844E-03     56.4430E-03
            6353            6389     51.2799E-03     49.7680E-03
            6353            6390     54.8103E-03     54.0848E-03
            6354            6383     56.1844E-03     56.4430E-03
            6354            6384     67.8506E-03     68.2197E-03
            6354            6390     54.8103E-03     54.0848E-03
            6354            6391     64.4378E-03     64.7015E-03
            6355            6384     67.8506E-03     68.2197E-03
            6355            6385     84.7283E-03     84.2891E-03
            6355            6391     64.4378E-03     64.7015E-03
            6355            6392     78.7078E-03     78.7176E-03
            6356             269     86.8806E-03     86.4337E-03
            6356             270     94.2970E-03     93.1547E-03
            6356            6385     84.7283E-03     84.2891E-03
            6356            6392     78.7078E-03     78.7176E-03
            6357             769     86.8806E-03     86.4337E-03
            6357             770     79.3737E-03     79.2741E-03
            6357            6386     78.7078E-03     78.7176E-03
            6357            6393     72.7945E-03     73.4887E-03
            6358            6386     78.7078E-03     78.7176E-03
            6358            6387     64.4378E-03     64.7015E-03
            6358            6393     72.7945E-03     73.4887E-03
            6358            6394     61.5073E-03     61.8659E-03
            6359            6387     64.4378E-03     64.7015E-03
            6359            6388     54.8103E-03     54.0848E-03
            6359            6394     61.5073E-03     61.8659E-03
            6359            6395     53.5656E-03     51.6068E-03
            6360            6388     54.8103E-03     54.0848E-03
            6360            6389     51.2799E-03     49.7680E-03
            6360            6395     53.5656E-03     51.6068E-03
            6360            6396     50.3319E-03     47.1849E-03
            6361            6389     51.2799E-03     49.7680E-03
            6361            6390     54.8103E-03     54.0848E-03
            6361            6396     50.3319E-03     47.1849E-03
            6361            6397     53.5656E-03     51.6068E-03
            6362            6390     54.8103E-03     54.0848E-03
            6362            6391     64.4378E-03     64.7015E-03
            6362            6397     53.5656E-03     51.6068E-03
            6362            6398     61.5073E-03     61.8659E-03
            6363            6391     64.4378E-03     64.7015E-03
            6363            6392     78.7078E-03     78.7176E-03
            6363            6398     61.5073E-03     61.8659E-03
            6363            6399     72.7945E-03     73.4887E-03
            6364             268     79.3737E-03     79.2741E-03
            6364             269     86.8806E-03     86.4337E-03
            6364            6392     78.7078E-03     78.7176E-03
            6364            6399     72.7945E-03     73.4887E-03
            6365             770     79.3737E-03     79.2741E-03
            6365             771     70.6191E-03     72.6413E-03
            6365            6393     72.7945E-03     73.4887E-03
            6365            6400     66.7719E-03     68.1793E-03
            6366            6393     72.7945E-03     73.4887E-03
            6366            6394     61.5073E-03     61.8659E-03
            6366            6400     66.7719E-03     68.1793E-03
            6366            6401     59.1485E-03     58.1826E-03
            6367            6394     61.5073E-03     61.8659E-03
            6367            6395     53.5656E-03     51.6068E-03
            6367            6401     59.1485E-03     58.1826E-03
            6367            6402     52.3741E-03     49.0243E-03
            6368            6395     53.5656E-03     51.6068E-03
            6368            6396     50.3319E-03     47.1849E-03
            6368            6402     52.3741E-03     49.0243E-03
            6368            6403     49.3758E-03     45.4006E-03
            6369            6396     50.3319E-03     47.1849E-03
            6369            6397     53.5656E-03     51.6068E-03
            6369            6403     49.3758E-03     45.4006E-03
            6369            6404     52.3741E-03     49.0243E-03
            6370            6397     53.5656E-03     51.6068E-03
            6370            6398     61.5073E-03     61.8659E-03
            6370            6404     52.3741E-03     49.0243E-03
            6370            6405     59.1485E-03     58.1826E-03
            6371            6398     61.5073E-03     61.8659E-03
            6371            6399     72.7945E-03     73.4887E-03
            6371            6405     59.1485E-03     58.1826E-03
            6371            6406     66.7719E-03     68.1793E-03
            6372             267     70.6191E-03     72.6413E-03
            6372             268     79.3737E-03     79.2741E-03
            6372            6399     72.7945E-03     73.4887E-03
            6372            6406     66.7719E-03     68.1793E-03
            6373             771     70.6191E-03     72.6413E-03
            6373             772     60.3517E-03     58.3560E-03
            6373            6400     66.7719E-03     68.1793E-03
            6373            6407     60.0877E-03     57.0516E-03
            6374            6400     66.7719E-03     68.1793E-03
            6374            6401     59.1485E-03     58.1826E-03
            6374            6407     60.0877E-03     57.0516E-03
            6374            6408     56.8285E-03     52.9320E-03
            6375            6401     59.1485E-03     58.1826E-03
            6375            6402     52.3741E-03     49.0243E-03
            6375            6408     56.8285E-03     52.9320E-03
            6375            6409     51.8790E-03     48.4478E-03
            6376            6402     52.3741E-03     49.0243E-03
            6376            6403     49.3758E-03     45.4006E-03
            6376            6409     51.8790E-03     48.4478E-03
            6376            6410     49.9246E-03     46.7788E-03
            6377            6403     49.3758E-03     45.4006E-03
            6377            6404     52.3741E-03     49.0243E-03
            6377            6410     49.9246E-03     46.7788E-03
            6377            6411     51.8790E-03     48.4478E-03
            6378            6404     52.3741E-03     49.0243E-03
            6378            6405     59.1485E-03     58.1826E-03
            6378            6411     51.8790E-03     48.4478E-03
            6378            6412     56.8285E-03     52.9320E-03
            6379            6405     59.1485E-03     58.1826E-03
            6379            6406     66.7719E-03     68.1793E-03
            6379            6412     56.8285E-03     52.9320E-03
            6379            6413     60.0877E-03     57.0516E-03
            6380             266     60.3517E-03     58.3560E-03
            6380             267     70.6191E-03     72.6413E-03
            6380            6406     66.7719E-03     68.1793E-03
            6380            6413     60.0877E-03     57.0516E-03
            6381             772     60.3517E-03     58.3560E-03
            6381             773     74.4531E-03     68.0903E-03
            6381            6407     60.0877E-03     57.0516E-03
            6381            6414     67.4655E-03     62.0371E-03
            6382            6407     60.0877E-03     57.0516E-03
            6382            6408     56.8285E-03     52.9320E-03
            6382            6414     67.4655E-03     62.0371E-03
            6382            6415     55.3034E-03     52.0223E-03
            6383            6408     56.8285E-03     52.9320E-03
            6383            6409     51.8790E-03     48.4478E-03
            6383            6415     55.3034E-03     52.0223E-03
            6383            6416     47.5881E-03     46.2018E-03
            6384            6409     51.8790E-03     48.4478E-03
            6384            6410     49.9246E-03     46.7788E-03
            6384            6416     47.5881E-03     46.2018E-03
            6384            6417     45.0475E-03     44.3428E-03
            6385            6410     49.9246E-03     46.7788E-03
            6385            6411     51.8790E-03     48.4478E-03
            6385            6417     45.0475E-03     44.3428E-03
            6385            6418     47.5881E-03     46.2018E-03
            6386            6411     51.8790E-03     48.4478E-03
            6386            6412     56.8285E-03     52.9320E-03
            6386            6418     47.5881E-03     46.2018E-03
            6386            6419     55.3034E-03     52.0223E-03
            6387            6412     56.8285E-03     52.9320E-03
            6387            6413     60.0877E-03     57.0516E-03
            6387            6419     55.3034E-03     52.0223E-03
            6387            6420     67.4655E-03     62.0371E-03
            6388             265     74.4531E-03     68.0903E-03
            6388             266     60.3517E-03     58.3560E-03
            6388            6413     60.0877E-03     57.0516E-03
            6388            6420     67.4655E-03     62.0371E-03
            6389             773     74.4531E-03     68.0903E-03
            6389             774     87.3370E-03     85.1076E-03
            6389            6414     67.4655E-03     62.0371E-03
            6389            6421     76.4103E-03     75.1746E-03
            6390            6414     67.4655E-03     62.0371E-03
            6390            6415     55.3034E-03     52.0223E-03
            6390            6421     76.4103E-03     75.1746E-03
            6390            6422     57.3264E-03     57.4812E-03
            6391            6415     55.3034E-03     52.0223E-03
            6391            6416     47.5881E-03     46.2018E-03
            6391            6422     57.3264E-03     57.4812E-03
            6391            6423     45.8551E-03     46.8215E-03
            6392            6416     47.5881E-03     46.2018E-03
            6392            6417     45.0475E-03     44.3428E-03
            6392            6423     45.8551E-03     46.8215E-03
            6392            6424     42.5411E-03     43.9223E-03
            6393            6417     45.0475E-03     44.3428E-03
            6393            6418     47.5881E-03     46.2018E-03
            6393            6424     42.5411E-03     43.9223E-03
            6393            6425     45.8551E-03     46.8215E-03
            6394            6418     47.5881E-03     46.2018E-03
            6394            6419     55.3034E-03     52.0223E-03
            6394            6425     45.8551E-03     46.8215E-03
            6394            6426     57.3264E-03     57.4812E-03
            6395            6419     55.3034E-03     52.0223E-03
            6395            6420     67.4655E-03     62.0371E-03
            6395            6426     57.3264E-03     57.4812E-03
            6395            6427     76.4103E-03     75.1746E-03
            6396             264     87.3370E-03     85.1076E-03
            6396             265     74.4531E-03     68.0903E-03
            6396            6420     67.4655E-03     62.0371E-03
            6396            6427     76.4103E-03     75.1746E-03
            6397             774     87.3370E-03     85.1076E-03
            6397             775     75.5476E-03     75.2208E-03
            6397            6421     76.4103E-03     75.1746E-03
            6397            6428     69.9544E-03     70.1144E-03
            6398            6421     76.4103E-03     75.1746E-03
            6398            6422     57.3264E-03     57.4812E-03
            6398            6428     69.9544E-03     70.1144E-03
            6398            6429     58.7624E-03     59.9360E-03
            6399            6422     57.3264E-03     57.4812E-03
            6399            6423     45.8551E-03     46.8215E-03
            6399            6429     58.7624E-03     59.9360E-03
            6399            6430     50.2560E-03     52.0899E-03
            6400            6423     45.8551E-03     46.8215E-03
            6400            6424     42.5411E-03     43.9223E-03
            6400            6430     50.2560E-03     52.0899E-03
            6400            6431     47.3484E-03     49.3157E-03
            6401            6424     42.5411E-03     43.9223E-03
            6401            6425     45.8551E-03     46.8215E-03
            6401            6431     47.3484E-03     49.3157E-03
            6401            6432     50.2560E-03     52.0899E-03
            6402            6425     45.8551E-03     46.8215E-03
            6402            6426     57.3264E-03     57.4812E-03
            6402            6432     50.2560E-03     52.0899E-03
            6402            6433     58.7624E-03     59.9360E-03
            6403            6426     57.3264E-03     57.4812E-03
            6403            6427     76.4103E-03     75.1746E-03
            6403            6433     58.7624E-03     59.9360E-03
            6403            6434     69.9544E-03     70.1144E-03
            6404             263     75.5476E-03     75.2208E-03
            6404             264     87.3370E-03     85.1076E-03
            6404            6427     76.4103E-03     75.1746E-03
            6404            6434     69.9544E-03     70.1144E-03
            6405             775     75.5476E-03     75.2208E-03
            6405             776     67.0968E-03     66.4215E-03
            6405            6428     69.9544E-03     70.1144E-03
            6405            6435     62.9621E-03     62.6358E-03
            6406            6428     69.9544E-03     70.1144E-03
            6406            6429     58.7624E-03     59.9360E-03
            6406            6435     62.9621E-03     62.6358E-03
            6406            6436     56.2113E-03     56.7909E-03
            6407            6429     58.7624E-03     59.9360E-03
            6407            6430     50.2560E-03     52.0899E-03
            6407            6436     56.2113E-03     56.7909E-03
            6407            6437     51.7723E-03     53.1907E-03
            6408            6430     50.2560E-03     52.0899E-03
            6408            6431     47.3484E-03     49.3157E-03
            6408            6437     51.7723E-03     53.1907E-03
            6408            6438     49.9493E-03     51.6499E-03
            6409            6431     47.3484E-03     49.3157E-03
            6409            6432     50.2560E-03     52.0899E-03
            6409            6438     49.9493E-03     51.6499E-03
            6409            6439     51.7723E-03     53.1907E-03
            6410            6432     50.2560E-03     52.0899E-03
            6410            6433     58.7624E-03     59.9360E-03
            6410            6439     51.7723E-03     53.1907E-03
            6410            6440     56.2113E-03     56.7909E-03
            6411            6433     58.7624E-03     59.9360E-03
            6411            6434     69.9544E-03     70.1144E-03
            6411            6440     56.2113E-03     56.7909E-03
            6411            6441     62.9621E-03     62.6358E-03
            6412             262     67.0968E-03     66.4215E-03
            6412             263     75.5476E-03     75.2208E-03
            6412            6434     69.9544E-03     70.1144E-03
            6412            6441     62.9621E-03     62.6358E-03
            6413             776     67.0968E-03     66.4215E-03
            6413             777     60.5174E-03     59.7984E-03
            6413            6435     62.9621E-03     62.6358E-03
            6413            6442     57.6860E-03     57.3039E-03
            6414            6435     62.9621E-03     62.6358E-03
            6414            6436     56.2113E-03     56.7909E-03
            6414            6442     57.6860E-03     57.3039E-03
            6414            6443     53.2730E-03     53.4828E-03
            6415            6436     56.2113E-03     56.7909E-03
            6415            6437     51.7723E-03     53.1907E-03
            6415            6443     53.2730E-03     53.4828E-03
            6415            6444     51.2515E-03     51.9637E-03
            6416            6437     51.7723E-03     53.1907E-03
            6416            6438     49.9493E-03     51.6499E-03
            6416            6444     51.2515E-03     51.9637E-03
            6416            6445     50.8117E-03     51.7711E-03
            6417            6438     49.9493E-03     51.6499E-03
            6417            6439     51.7723E-03     53.1907E-03
            6417            6445     50.8117E-03     51.7711E-03
            6417            6446     51.2515E-03     51.9637E-03
            6418            6439     51.7723E-03     53.1907E-03
            6418            6440     56.2113E-03     56.7909E-03
            6418            6446     51.2515E-03     51.9637E-03
            6418            6447     53.2730E-03     53.4828E-03
            6419            6440     56.2113E-03     56.7909E-03
            6419            6441     62.9621E-03     62.6358E-03
            6419            6447     53.2730E-03     53.4828E-03
            6419            6448     57.6860E-03     57.3039E-03
            6420             261     60.5174E-03     59.7984E-03
            6420             262     67.0968E-03     66.4215E-03
            6420            6441     62.9621E-03     62.6358E-03
            6420            6448     57.6860E-03     57.3039E-03
            6421             777     60.5174E-03     59.7984E-03
            6421             778     53.9891E-03     53.4239E-03
            6421            6442     57.6860E-03     57.3039E-03
            6421            6449     52.4940E-03     52.1769E-03
            6422            6442     57.6860E-03     57.3039E-03
            6422            6443     53.2730E-03     53.4828E-03
            6422            6449     52.4940E-03     52.1769E-03
            6422            6450     50.7373E-03     50.8297E-03
            6423            6443     53.2730E-03     53.4828E-03
            6423            6444     51.2515E-03     51.9637E-03
            6423            6450     50.7373E-03     50.8297E-03
            6423            6451     50.5060E-03     50.7624E-03
            6424            6444     51.2515E-03     51.9637E-03
            6424            6445     50.8117E-03     51.7711E-03
            6424            6451     50.5060E-03     50.7624E-03
            6424            6452     50.5364E-03     50.7954E-03
            6425            6445     50.8117E-03     51.7711E-03
            6425            6446     51.2515E-03     51.9637E-03
            6425            6452     50.5364E-03     50.7954E-03
            6425            6453     50.5060E-03     50.7624E-03
            6426            6446     51.2515E-03     51.9637E-03
            6426            6447     53.2730E-03     53.4828E-03
            6426            6453     50.5060E-03     50.7624E-03
            6426            6454     50.7373E-03     50.8297E-03
            6427            6447     53.2730E-03     53.4828E-03
            6427            6448     57.6860E-03     57.3039E-03
            6427            6454     50.7373E-03     50.8297E-03
            6427            6455     52.4940E-03     52.1769E-03
            6428             260     53.9891E-03     53.4239E-03
            6428             261     60.5174E-03     59.7984E-03
            6428            6448     57.6860E-03     57.3039E-03
            6428            6455     52.4940E-03     52.1769E-03
            6429             778     53.9891E-03     53.4239E-03
            6429             779     47.7964E-03     47.4100E-03
            6429            6449     52.4940E-03     52.1769E-03
            6429            6456     47.6908E-03     47.5424E-03
            6430            6449     52.4940E-03     52.1769E-03
            6430            6450     50.7373E-03     50.8297E-03
            6430            6456     47.6908E-03     47.5424E-03
            6430            6457     48.3493E-03     48.3640E-03
            6431            6450     50.7373E-03     50.8297E-03
            6431            6451     50.5060E-03     50.7624E-03
            6431            6457     48.3493E-03     48.3640E-03
            6431            6458     49.7151E-03     49.5488E-03
            6432            6451     50.5060E-03     50.7624E-03
            6432            6452     50.5364E-03     50.7954E-03
            6432            6458     49.7151E-03     49.5488E-03
            6432            6459     50.3169E-03     50.0443E-03
            6433            6452     50.5364E-03     50.7954E-03
            6433            6453     50.5060E-03     50.7624E-03
            6433            6459     50.3169E-03     50.0443E-03
            6433            6460     49.7151E-03     49.5488E-03
            6434            6453     50.5060E-03     50.7624E-03
            6434            6454     50.7373E-03     50.8297E-03
            6434            6460     49.7151E-03     49.5488E-03
            6434            6461     48.3493E-03     48.3640E-03
            6435            6454     50.7373E-03     50.8297E-03
            6435            6455     52.4940E-03     52.1769E-03
            6435            6461     48.3493E-03     48.3640E-03
            6435            6462     47.6908E-03     47.5424E-03
            6436             259     47.7964E-03     47.4100E-03
            6436             260     53.9891E-03     53.4239E-03
            6436            6455     52.4940E-03     52.1769E-03
            6436            6462     47.6908E-03     47.5424E-03
            6437             779     47.7964E-03     47.4100E-03
            6437             780     41.9079E-03     41.9459E-03
            6437            6456     47.6908E-03     47.5424E-03
            6437            6463     43.3294E-03     43.4540E-03
            6438            6456     47.6908E-03     47.5424E-03
            6438            6457     48.3493E-03     48.3640E-03
            6438            6463     43.3294E-03     43.4540E-03
            6438            6464     46.3861E-03     46.3420E-03
            6439            6457     48.3493E-03     48.3640E-03
            6439            6458     49.7151E-03     49.5488E-03
            6439            6464     46.3861E-03     46.3420E-03
            6439            6465     49.0062E-03     48.3780E-03
            6440            6458     49.7151E-03     49.5488E-03
            6440            6459     50.3169E-03     50.0443E-03
            6440            6465     49.0062E-03     48.3780E-03
            6440            6466     49.9910E-03     49.0342E-03
            6441            6459     50.3169E-03     50.0443E-03
            6441            6460     49.7151E-03     49.5488E-03
            6441            6466     49.9910E-03     49.0342E-03
            6441            6467     49.0062E-03     48.3780E-03
            6442            6460     49.7151E-03     49.5488E-03
            6442            6461     48.3493E-03     48.3640E-03
            6442            6467     49.0062E-03     48.3780E-03
            6442            6468     46.3861E-03     46.3420E-03
            6443            6461     48.3493E-03     48.3640E-03
            6443            6462     47.6908E-03     47.5424E-03
            6443            6468     46.3861E-03     46.3420E-03
            6443            6469     43.3294E-03     43.4540E-03
            6444             258     41.9079E-03     41.9459E-03
            6444             259     47.7964E-03     47.4100E-03
            6444            6462     47.6908E-03     47.5424E-03
            6444            6469     43.3294E-03     43.4540E-03
            6445             780     41.9079E-03     41.9459E-03
            6445             781     36.2437E-03     36.8421E-03
            6445            6463     43.3294E-03     43.4540E-03
            6445            6470     39.3961E-03     39.9338E-03
            6446            6463     43.3294E-03     43.4540E-03
            6446            6464     46.3861E-03     46.3420E-03
            6446            6470     39.3961E-03     39.9338E-03
            6446            6471     45.0550E-03     44.8344E-03
            6447            6464     46.3861E-03     46.3420E-03
            6447            6465     49.0062E-03     48.3780E-03
            6447            6471     45.0550E-03     44.8344E-03
            6447            6472     48.3436E-03     47.0586E-03
            6448            6465     49.0062E-03     48.3780E-03
            6448            6466     49.9910E-03     49.0342E-03
            6448            6472     48.3436E-03     47.0586E-03
            6448            6473     49.1258E-03     47.4738E-03
            6449            6466     49.9910E-03     49.0342E-03
            6449            6467     49.0062E-03     48.3780E-03
            6449            6473     49.1258E-03     47.4738E-03
            6449            6474     48.3436E-03     47.0586E-03
            6450            6467     49.0062E-03     48.3780E-03
            6450            6468     46.3861E-03     46.3420E-03
            6450            6474     48.3436E-03     47.0586E-03
            6450            6475     45.0550E-03     44.8344E-03
            6451            6468     46.3861E-03     46.3420E-03
            6451            6469     43.3294E-03     43.4540E-03
            6451            6475     45.0550E-03     44.8344E-03
            6451            6476     39.3961E-03     39.9338E-03
            6452             257     36.2437E-03     36.8421E-03
            6452             258     41.9079E-03     41.9459E-03
            6452            6469     43.3294E-03     43.4540E-03
            6452            6476     39.3961E-03     39.9338E-03
            6453             781     36.2437E-03     36.8421E-03
            6453             782     31.2641E-03     32.9641E-03
            6453            6470     39.3961E-03     39.9338E-03
            6453            6477     36.7451E-03     37.4725E-03
            6454            6470     39.3961E-03     39.9338E-03
            6454            6471     45.0550E-03     44.8344E-03
            6454            6477     36.7451E-03     37.4725E-03
            6454            6478     44.4499E-03     43.4900E-03
            6455            6471     45.0550E-03     44.8344E-03
            6455            6472     48.3436E-03     47.0586E-03
            6455            6478     44.4499E-03     43.4900E-03
            6455            6479     47.1433E-03     45.3224E-03
            6456            6472     48.3436E-03     47.0586E-03
            6456            6473     49.1258E-03     47.4738E-03
            6456            6479     47.1433E-03     45.3224E-03
            6456            6480     47.6129E-03     45.6457E-03
            6457            6473     49.1258E-03     47.4738E-03
            6457            6474     48.3436E-03     47.0586E-03
            6457            6480     47.6129E-03     45.6457E-03
            6457            6481     47.1433E-03     45.3224E-03
            6458            6474     48.3436E-03     47.0586E-03
            6458            6475     45.0550E-03     44.8344E-03
            6458            6481     47.1433E-03     45.3224E-03
            6458            6482     44.4499E-03     43.4900E-03
            6459            6475     45.0550E-03     44.8344E-03
            6459            6476     39.3961E-03     39.9338E-03
            6459            6482     44.4499E-03     43.4900E-03
            6459            6483     36.7451E-03     37.4725E-03
            6460             256     31.2641E-03     32.9641E-03
            6460             257     36.2437E-03     36.8421E-03
            6460            6476     39.3961E-03     39.9338E-03
            6460            6483     36.7451E-03     37.4725E-03
            6461             782     31.2641E-03     32.9641E-03
            6461             783     28.7243E-03     29.9205E-03
            6461            6477     36.7451E-03     37.4725E-03
            6461            6484     35.3180E-03     35.1869E-03
            6462            6477     36.7451E-03     37.4725E-03
            6462            6478     44.4499E-03     43.4900E-03
            6462            6484     35.3180E-03     35.1869E-03
            6462            6485     43.3139E-03     41.8275E-03
            6463            6478     44.4499E-03     43.4900E-03
            6463            6479     47.1433E-03     45.3224E-03
            6463            6485     43.3139E-03     41.8275E-03
            6463            6486     45.4485E-03     43.9523E-03
            6464            6479     47.1433E-03     45.3224E-03
            6464            6480     47.6129E-03     45.6457E-03
            6464            6486     45.4485E-03     43.9523E-03
            6464            6487     46.1808E-03     44.7029E-03
            6465            6480     47.6129E-03     45.6457E-03
            6465            6481     47.1433E-03     45.3224E-03
            6465            6487     46.1808E-03     44.7029E-03
            6465            6488     45.4485E-03     43.9523E-03
            6466            6481     47.1433E-03     45.3224E-03
            6466            6482     44.4499E-03     43.4900E-03
            6466            6488     45.4485E-03     43.9523E-03
            6466            6489     43.3139E-03     41.8275E-03
            6467            6482     44.4499E-03     43.4900E-03
            6467            6483     36.7451E-03     37.4725E-03
            6467            6489     43.3139E-03     41.8275E-03
            6467            6490     35.3180E-03     35.1869E-03
            6468             255     28.7243E-03     29.9205E-03
            6468             256     31.2641E-03     32.9641E-03
            6468            6483     36.7451E-03     37.4725E-03
            6468            6490     35.3180E-03     35.1869E-03
            6469             783     28.7243E-03     29.9205E-03
            6469             784     35.5069E-03     35.0459E-03
            6469            6484     35.3180E-03     35.1869E-03
            6469            6491     38.6394E-03     38.0843E-03
            6470            6484     35.3180E-03     35.1869E-03
            6470            6485     43.3139E-03     41.8275E-03
            6470            6491     38.6394E-03     38.0843E-03
            6470            6492     42.3398E-03     41.7467E-03
            6471            6485     43.3139E-03     41.8275E-03
            6471            6486     45.4485E-03     43.9523E-03
            6471            6492     42.3398E-03     41.7467E-03
            6471            6493     43.7597E-03     43.2519E-03
            6472            6486     45.4485E-03     43.9523E-03
            6472            6487     46.1808E-03     44.7029E-03
            6472            6493     43.7597E-03     43.2519E-03
            6472            6494     44.6118E-03     44.1330E-03
            6473            6487     46.1808E-03     44.7029E-03
            6473            6488     45.4485E-03     43.9523E-03
            6473            6494     44.6118E-03     44.1330E-03
            6473            6495     43.7597E-03     43.2519E-03
            6474            6488     45.4485E-03     43.9523E-03
            6474            6489     43.3139E-03     41.8275E-03
            6474            6495     43.7597E-03     43.2519E-03
            6474            6496     42.3398E-03     41.7467E-03
            6475            6489     43.3139E-03     41.8275E-03
            6475            6490     35.3180E-03     35.1869E-03
            6475            6496     42.3398E-03     41.7467E-03
            6475            6497     38.6394E-03     38.0843E-03
            6476             254     35.5069E-03     35.0459E-03
            6476             255     28.7243E-03     29.9205E-03
            6476            6490     35.3180E-03     35.1869E-03
            6476            6497     38.6394E-03     38.0843E-03
            6477             784     35.5069E-03     35.0459E-03
            6477             785     37.6263E-03     37.3794E-03
            6477            6491     38.6394E-03     38.0843E-03
            6477            6498     40.5264E-03     40.5461E-03
            6478            6491     38.6394E-03     38.0843E-03
            6478            6492     42.3398E-03     41.7467E-03
            6478            6498     40.5264E-03     40.5461E-03
            6478            6499     43.6640E-03     43.8530E-03
            6479            6492     42.3398E-03     41.7467E-03
            6479            6493     43.7597E-03     43.2519E-03
            6479            6499     43.6640E-03     43.8530E-03
            6479            6500     44.0160E-03     44.0674E-03
            6480            6493     43.7597E-03     43.2519E-03
            6480            6494     44.6118E-03     44.1330E-03
            6480            6500     44.0160E-03     44.0674E-03
            6480            6501     44.1306E-03     44.1416E-03
            6481            6494     44.6118E-03     44.1330E-03
            6481            6495     43.7597E-03     43.2519E-03
            6481            6501     44.1306E-03     44.1416E-03
            6481            6502     44.0160E-03     44.0674E-03
            6482            6495     43.7597E-03     43.2519E-03
            6482            6496     42.3398E-03     41.7467E-03
            6482            6502     44.0160E-03     44.0674E-03
            6482            6503     43.6640E-03     43.8530E-03
            6483            6496     42.3398E-03     41.7467E-03
            6483            6497     38.6394E-03     38.0843E-03
            6483            6503     43.6640E-03     43.8530E-03
            6483            6504     40.5264E-03     40.5461E-03
            6484             253     37.6263E-03     37.3794E-03
            6484             254     35.5069E-03     35.0459E-03
            6484            6497     38.6394E-03     38.0843E-03
            6484            6504     40.5264E-03     40.5461E-03
            6485             785     37.6263E-03     37.3794E-03
            6485             786     30.5049E-03     30.9038E-03
            6485            6498     40.5264E-03     40.5461E-03
            6485            6505     37.2293E-03     37.3372E-03
            6486            6498     40.5264E-03     40.5461E-03
            6486            6499     43.6640E-03     43.8530E-03
            6486            6505     37.2293E-03     37.3372E-03
            6486            6506     44.8609E-03     44.8082E-03
            6487            6499     43.6640E-03     43.8530E-03
            6487            6500     44.0160E-03     44.0674E-03
            6487            6506     44.8609E-03     44.8082E-03
            6487            6507     45.3290E-03     45.3656E-03
            6488            6500     44.0160E-03     44.0674E-03
            6488            6501     44.1306E-03     44.1416E-03
            6488            6507     45.3290E-03     45.3656E-03
            6488            6508     44.8899E-03     44.8853E-03
            6489            6501     44.1306E-03     44.1416E-03
            6489            6502     44.0160E-03     44.0674E-03
            6489            6508     44.8899E-03     44.8853E-03
            6489            6509     45.3290E-03     45.3656E-03
            6490            6502     44.0160E-03     44.0674E-03
            6490            6503     43.6640E-03     43.8530E-03
            6490            6509     45.3290E-03     45.3656E-03
            6490            6510     44.8609E-03     44.8082E-03
            6491            6503     43.6640E-03     43.8530E-03
            6491            6504     40.5264E-03     40.5461E-03
            6491            6510     44.8609E-03     44.8082E-03
            6491            6511     37.2293E-03     37.3372E-03
            6492             252     30.5049E-03     30.9038E-03
            6492             253     37.6263E-03     37.3794E-03
            6492            6504     40.5264E-03     40.5461E-03
            6492            6511     37.2293E-03     37.3372E-03
            6493             786     30.5049E-03     30.9038E-03
            6493             787     30.3331E-03     30.5541E-03
            6493            6505     37.2293E-03     37.3372E-03
            6493            6512     36.3645E-03     36.3355E-03
            6494            6505     37.2293E-03     37.3372E-03
            6494            6506     44.8609E-03     44.8082E-03
            6494            6512     36.3645E-03     36.3355E-03
            6494            6513     43.5594E-03     43.3734E-03
            6495            6506     44.8609E-03     44.8082E-03
            6495            6507     45.3290E-03     45.3656E-03
            6495            6513     43.5594E-03     43.3734E-03
            6495            6514     44.9979E-03     44.9478E-03
            6496            6507     45.3290E-03     45.3656E-03
            6496            6508     44.8899E-03     44.8853E-03
            6496            6514     44.9979E-03     44.9478E-03
            6496            6515     45.2729E-03     45.2657E-03
            6497            6508     44.8899E-03     44.8853E-03
            6497            6509     45.3290E-03     45.3656E-03
            6497            6515     45.2729E-03     45.2657E-03
            6497            6516     44.9979E-03     44.9478E-03
            6498            6509     45.3290E-03     45.3656E-03
            6498            6510     44.8609E-03     44.8082E-03
            6498            6516     44.9979E-03     44.9478E-03
            6498            6517     43.5594E-03     43.3734E-03
            6499            6510     44.8609E-03     44.8082E-03
            6499            6511     37.2293E-03     37.3372E-03
            6499            6517     43.5594E-03     43.3734E-03
            6499            6518     36.3645E-03     36.3355E-03
            6500             251     30.3331E-03     30.5541E-03
            6500             252     30.5049E-03     30.9038E-03
            6500            6511     37.2293E-03     37.3372E-03
            6500            6518     36.3645E-03     36.3355E-03
            6501              13     16.1058E-03     16.0184E-03
            6501             787     30.3331E-03     30.5541E-03
            6501             956     18.3955E-03     18.3461E-03
            6501            6512     36.3645E-03     36.3355E-03
            6502             956     18.3955E-03     18.3461E-03
            6502             957     21.1921E-03     21.1389E-03
            6502            6512     36.3645E-03     36.3355E-03
            6502            6513     43.5594E-03     43.3734E-03
            6503             957     21.1921E-03     21.1389E-03
            6503             958     22.2133E-03     22.1661E-03
            6503            6513     43.5594E-03     43.3734E-03
            6503            6514     44.9979E-03     44.9478E-03
            6504             958     22.2133E-03     22.1661E-03
            6504             959     22.7278E-03     22.7282E-03
            6504            6514     44.9979E-03     44.9478E-03
            6504            6515     45.2729E-03     45.2657E-03
            6505             959     22.7278E-03     22.7282E-03
            6505             960     22.2133E-03     22.1661E-03
            6505            6515     45.2729E-03     45.2657E-03
            6505            6516     44.9979E-03     44.9478E-03
            6506             960     22.2133E-03     22.1661E-03
            6506             961     21.1921E-03     21.1389E-03
            6506            6516     44.9979E-03     44.9478E-03
            6506            6517     43.5594E-03     43.3734E-03
            6507             961     21.1921E-03     21.1389E-03
            6507             962     18.3955E-03     18.3461E-03
            6507            6517     43.5594E-03     43.3734E-03
            6507            6518     36.3645E-03     36.3355E-03
            6508              15     16.1058E-03     16.0184E-03
            6508             251     30.3331E-03     30.5541E-03
            6508             962     18.3955E-03     18.3461E-03
            6508            6518     36.3645E-03     36.3355E-03


  Minimum                            1.93737E-15     1.02349E-15
      At Element                            5391            5391
            Node                             202             202

  Maximum                            202.158E-03     192.774E-03
      At Element                            3946            3850
            Node                               8             189

           Total                         216.313         214.397


