********************************************************************************
Field Output Report, written Tue Feb 19 12:23:45 2019

Source 1
---------

   ODB: C:/Scratch/B737-19.odb
   Step: Jam_2
   Frame: Increment      1: Step Time =    1.000

Loc 1 : Element nodal  values at shell < ALUMINIUM > < 5 section points > from source 1 : SNEG, (fraction = -1.0) ( Average criteria = 75%, Not averaged across region boundaries )
Loc 2 : Element nodal  values at shell < ALUMINIUM > < 5 section points > from source 1 : SPOS, (fraction = 1.0) ( Average criteria = 75%, Not averaged across region boundaries )

Output sorted by column "Element Label".

Field Output reported at element nodes for region: B737-1.Region_1
   Computation algorithm: EXTRAPOLATE_COMPUTE_AVERAGE
   Averaged at nodes
   Averaging regions: ODB_REGIONS

   Element Label      Node Label         S.Mises         S.Mises
                                          @Loc 1          @Loc 2
-----------------------------------------------------------------
               1               1     782.040E-06     780.005E-06
               1              43     795.250E-06     781.439E-06
               1              56     749.775E-06     746.941E-06
               1            1034     763.520E-06     748.737E-06
               2              43     795.250E-06     781.439E-06
               2              44     796.196E-06     777.344E-06
               2            1034     763.520E-06     748.737E-06
               2            1035     763.988E-06     746.979E-06
               3               2     15.1454E-03     15.0083E-03
               3              44     796.196E-06     777.344E-06
               3              45     13.5871E-03     13.5438E-03
               3            1035     763.988E-06     746.979E-06
               4              55     654.244E-06     649.770E-06
               4              56     749.775E-06     746.941E-06
               4            1034     763.520E-06     748.737E-06
               4            1036     668.066E-06     652.156E-06
               5            1034     763.520E-06     748.737E-06
               5            1035     763.988E-06     746.979E-06
               5            1036     668.066E-06     652.156E-06
               5            1037     669.374E-06     660.415E-06
               6              45     13.5871E-03     13.5438E-03
               6              46     11.0446E-03     11.1118E-03
               6            1035     763.988E-06     746.979E-06
               6            1037     669.374E-06     660.415E-06
               7              54     508.389E-06     501.688E-06
               7              55     654.244E-06     649.770E-06
               7            1036     668.066E-06     652.156E-06
               7            1038     521.452E-06     503.299E-06
               8            1036     668.066E-06     652.156E-06
               8            1037     669.374E-06     660.415E-06
               8            1038     521.452E-06     503.299E-06
               8            1039     526.340E-06     528.806E-06
               9              46     11.0446E-03     11.1118E-03
               9              47     7.46067E-03     7.91079E-03
               9            1037     669.374E-06     660.415E-06
               9            1039     526.340E-06     528.806E-06
              10              53     319.199E-06     315.247E-06
              10              54     508.389E-06     501.688E-06
              10            1038     521.452E-06     503.299E-06
              10            1040     353.751E-06     329.804E-06
              11            1038     521.452E-06     503.299E-06
              11            1039     526.340E-06     528.806E-06
              11            1040     353.751E-06     329.804E-06
              11            1041     354.745E-06     383.217E-06
              12              47     7.46067E-03     7.91079E-03
              12              48     3.73029E-03     4.75744E-03
              12            1039     526.340E-06     528.806E-06
              12            1041     354.745E-06     383.217E-06
              13              52     212.451E-06     261.486E-06
              13              53     319.199E-06     315.247E-06
              13            1040     353.751E-06     329.804E-06
              13            1042     289.304E-06     286.927E-06
              14            1040     353.751E-06     329.804E-06
              14            1041     354.745E-06     383.217E-06
              14            1042     289.304E-06     286.927E-06
              14            1043     352.741E-06     401.539E-06
              15              48     3.73029E-03     4.75744E-03
              15              49     3.53738E-03     5.14160E-03
              15            1041     354.745E-06     383.217E-06
              15            1043     352.741E-06     401.539E-06
              16               4     182.084E-06     273.810E-06
              16              51     236.839E-06     275.715E-06
              16              52     212.451E-06     261.486E-06
              16            1042     289.304E-06     286.927E-06
              17              50     365.304E-06     429.054E-06
              17              51     236.839E-06     275.715E-06
              17            1042     289.304E-06     286.927E-06
              17            1043     352.741E-06     401.539E-06
              18               3     3.86661E-03     5.80739E-03
              18              49     3.53738E-03     5.14160E-03
              18              50     365.304E-06     429.054E-06
              18            1043     352.741E-06     401.539E-06
              19               2     15.1454E-03     15.0083E-03
              19              45     13.5871E-03     13.5438E-03
              19              57     29.6986E-03     29.3322E-03
              19            1044     26.6683E-03     26.4066E-03
              20              57     29.6986E-03     29.3322E-03
              20              58     29.7498E-03     29.4982E-03
              20            1044     26.6683E-03     26.4066E-03
              20            1045     26.7841E-03     26.5667E-03
              21              58     29.7498E-03     29.4982E-03
              21              59     29.6937E-03     29.5594E-03
              21            1045     26.7841E-03     26.5667E-03
              21            1046     26.9184E-03     26.8094E-03
              22              59     29.6937E-03     29.5594E-03
              22              60     29.7959E-03     29.5431E-03
              22            1046     26.9184E-03     26.8094E-03
              22            1047     27.3583E-03     27.1545E-03
              23              60     29.7959E-03     29.5431E-03
              23              61     29.6186E-03     29.7983E-03
              23            1047     27.3583E-03     27.1545E-03
              23            1048     27.6561E-03     28.1274E-03
              24              61     29.6186E-03     29.7983E-03
              24              62     30.0847E-03     29.9901E-03
              24            1048     27.6561E-03     28.1274E-03
              24            1049     29.1429E-03     28.6585E-03
              25              62     30.0847E-03     29.9901E-03
              25              63     30.1574E-03     29.5884E-03
              25            1049     29.1429E-03     28.6585E-03
              25            1050     29.3664E-03     28.8883E-03
              26              63     30.1574E-03     29.5884E-03
              26              64     30.7630E-03     30.5108E-03
              26            1050     29.3664E-03     28.8883E-03
              26            1051     28.9410E-03     29.3862E-03
              27              64     30.7630E-03     30.5108E-03
              27              65     32.0903E-03     31.5911E-03
              27            1051     28.9410E-03     29.3862E-03
              27            1052     30.2023E-03     29.6796E-03
              28              65     32.0903E-03     31.5911E-03
              28              66     32.4404E-03     31.6120E-03
              28            1052     30.2023E-03     29.6796E-03
              28            1053     31.1776E-03     30.6686E-03
              29              66     32.4404E-03     31.6120E-03
              29              67     32.6690E-03     31.8982E-03
              29            1053     31.1776E-03     30.6686E-03
              29            1054     32.2848E-03     31.9280E-03
              30              67     32.6690E-03     31.8982E-03
              30              68     32.7331E-03     32.2192E-03
              30            1054     32.2848E-03     31.9280E-03
              30            1055     33.4139E-03     33.3421E-03
              31              68     32.7331E-03     32.2192E-03
              31              69     32.8828E-03     32.7606E-03
              31            1055     33.4139E-03     33.3421E-03
              31            1056     34.8541E-03     34.8629E-03
              32              69     32.8828E-03     32.7606E-03
              32              70     33.0395E-03     33.1470E-03
              32            1056     34.8541E-03     34.8629E-03
              32            1057     36.2921E-03     35.9385E-03
              33              70     33.0395E-03     33.1470E-03
              33              71     32.7127E-03     33.8494E-03
              33            1057     36.2921E-03     35.9385E-03
              33            1058     36.7323E-03     38.2643E-03
              34              71     32.7127E-03     33.8494E-03
              34              72     33.9312E-03     34.1837E-03
              34            1058     36.7323E-03     38.2643E-03
              34            1059     39.9586E-03     38.8120E-03
              35              72     33.9312E-03     34.1837E-03
              35              73     34.1249E-03     33.2248E-03
              35            1059     39.9586E-03     38.8120E-03
              35            1060     39.9002E-03     38.6936E-03
              36              73     34.1249E-03     33.2248E-03
              36              74     33.8468E-03     33.9890E-03
              36            1060     39.9002E-03     38.6936E-03
              36            1061     36.6660E-03     38.7687E-03
              37              74     33.8468E-03     33.9890E-03
              37              75     35.4107E-03     34.7211E-03
              37            1061     36.6660E-03     38.7687E-03
              37            1062     38.7392E-03     37.6099E-03
              38              75     35.4107E-03     34.7211E-03
              38              76     36.1924E-03     34.5175E-03
              38            1062     38.7392E-03     37.6099E-03
              38            1063     40.9379E-03     39.5738E-03
              39              76     36.1924E-03     34.5175E-03
              39              77     36.7174E-03     35.2699E-03
              39            1063     40.9379E-03     39.5738E-03
              39            1064     42.3058E-03     42.2017E-03
              40              77     36.7174E-03     35.2699E-03
              40              78     37.0006E-03     35.8050E-03
              40            1064     42.3058E-03     42.2017E-03
              40            1065     44.6177E-03     43.8647E-03
              41              78     37.0006E-03     35.8050E-03
              41              79     37.1874E-03     36.7065E-03
              41            1065     44.6177E-03     43.8647E-03
              41            1066     46.2855E-03     46.2079E-03
              42              79     37.1874E-03     36.7065E-03
              42              80     37.4402E-03     37.7838E-03
              42            1066     46.2855E-03     46.2079E-03
              42            1067     48.2978E-03     48.2572E-03
              43              80     37.4402E-03     37.7838E-03
              43              81     37.7340E-03     38.3294E-03
              43            1067     48.2978E-03     48.2572E-03
              43            1068     50.1761E-03     49.4741E-03
              44              81     37.7340E-03     38.3294E-03
              44              82     37.1471E-03     39.3629E-03
              44            1068     50.1761E-03     49.4741E-03
              44            1069     50.1601E-03     52.8304E-03
              45              82     37.1471E-03     39.3629E-03
              45              83     39.1080E-03     39.6427E-03
              45            1069     50.1601E-03     52.8304E-03
              45            1070     54.8728E-03     52.8682E-03
              46              83     39.1080E-03     39.6427E-03
              46              84     39.2868E-03     37.9747E-03
              46            1070     54.8728E-03     52.8682E-03
              46            1071     54.1116E-03     52.0655E-03
              47              84     39.2868E-03     37.9747E-03
              47              85     37.9764E-03     38.7849E-03
              47            1071     54.1116E-03     52.0655E-03
              47            1072     47.8436E-03     52.2492E-03
              48              85     37.9764E-03     38.7849E-03
              48              86     40.0952E-03     39.2362E-03
              48            1072     47.8436E-03     52.2492E-03
              48            1073     51.7074E-03     49.8053E-03
              49              86     40.0952E-03     39.2362E-03
              49              87     41.3930E-03     38.8531E-03
              49            1073     51.7074E-03     49.8053E-03
              49            1074     55.2386E-03     52.7866E-03
              50              87     41.3930E-03     38.8531E-03
              50              88     42.0503E-03     40.1252E-03
              50            1074     55.2386E-03     52.7866E-03
              50            1075     56.3351E-03     56.7665E-03
              51              88     42.0503E-03     40.1252E-03
              51              89     42.5007E-03     40.8414E-03
              51            1075     56.3351E-03     56.7665E-03
              51            1076     59.6439E-03     58.4278E-03
              52              89     42.5007E-03     40.8414E-03
              52              90     42.7418E-03     42.1247E-03
              52            1076     59.6439E-03     58.4278E-03
              52            1077     61.6048E-03     61.4588E-03
              53              90     42.7418E-03     42.1247E-03
              53              91     42.9997E-03     43.5624E-03
              53            1077     61.6048E-03     61.4588E-03
              53            1078     63.9066E-03     63.8656E-03
              54              91     42.9997E-03     43.5624E-03
              54              92     43.2624E-03     44.1613E-03
              54            1078     63.9066E-03     63.8656E-03
              54            1079     66.0207E-03     64.9987E-03
              55              92     43.2624E-03     44.1613E-03
              55              93     42.2667E-03     45.4413E-03
              55            1079     66.0207E-03     64.9987E-03
              55            1080     65.3480E-03     69.1299E-03
              56              93     42.2667E-03     45.4413E-03
              56              94     44.8233E-03     45.5947E-03
              56            1080     65.3480E-03     69.1299E-03
              56            1081     71.2876E-03     68.4089E-03
              57              94     44.8233E-03     45.5947E-03
              57              95     44.8747E-03     43.1825E-03
              57            1081     71.2876E-03     68.4089E-03
              57            1082     69.6250E-03     66.7460E-03
              58              95     44.8747E-03     43.1825E-03
              58              96     43.0603E-03     44.9028E-03
              58            1082     69.6250E-03     66.7460E-03
              58            1083     61.1659E-03     68.2190E-03
              59              96     43.0603E-03     44.9028E-03
              59              97     46.1907E-03     45.9481E-03
              59            1083     61.1659E-03     68.2190E-03
              59            1084     68.0669E-03     65.6815E-03
              60              97     46.1907E-03     45.9481E-03
              60              98     47.5451E-03     45.6744E-03
              60            1084     68.0669E-03     65.6815E-03
              60            1085     72.4293E-03     70.2391E-03
              61              98     47.5451E-03     45.6744E-03
              61              99     47.7617E-03     47.6024E-03
              61            1085     72.4293E-03     70.2391E-03
              61            1086     73.0793E-03     75.5832E-03
              62              99     47.7617E-03     47.6024E-03
              62             100     47.9658E-03     47.6094E-03
              62            1086     73.0793E-03     75.5832E-03
              62            1087     76.9315E-03     75.8928E-03
              63             100     47.9658E-03     47.6094E-03
              63             101     46.3696E-03     48.9047E-03
              63            1087     76.9315E-03     75.8928E-03
              63            1088     76.0033E-03     81.0858E-03
              64             101     46.3696E-03     48.9047E-03
              64             102     48.7973E-03     49.0651E-03
              64            1088     76.0033E-03     81.0858E-03
              64            1089     82.3462E-03     79.7489E-03
              65             102     48.7973E-03     49.0651E-03
              65             103     48.4063E-03     46.2994E-03
              65            1089     82.3462E-03     79.7489E-03
              65            1090     80.0981E-03     76.9632E-03
              66               5     44.8595E-03     49.4229E-03
              66             103     48.4063E-03     46.2994E-03
              66             104     66.7561E-03     78.8509E-03
              66            1090     80.0981E-03     76.9632E-03
              67              45     13.5871E-03     13.5438E-03
              67              46     11.0446E-03     11.1118E-03
              67            1044     26.6683E-03     26.4066E-03
              67            1091     21.5200E-03     21.5265E-03
              68            1044     26.6683E-03     26.4066E-03
              68            1045     26.7841E-03     26.5667E-03
              68            1091     21.5200E-03     21.5265E-03
              68            1092     21.7245E-03     21.7422E-03
              69            1045     26.7841E-03     26.5667E-03
              69            1046     26.9184E-03     26.8094E-03
              69            1092     21.7245E-03     21.7422E-03
              69            1093     22.4168E-03     22.5100E-03
              70            1046     26.9184E-03     26.8094E-03
              70            1047     27.3583E-03     27.1545E-03
              70            1093     22.4168E-03     22.5100E-03
              70            1094     23.5693E-03     23.5409E-03
              71            1047     27.3583E-03     27.1545E-03
              71            1048     27.6561E-03     28.1274E-03
              71            1094     23.5693E-03     23.5409E-03
              71            1095     24.6912E-03     25.5086E-03
              72            1048     27.6561E-03     28.1274E-03
              72            1049     29.1429E-03     28.6585E-03
              72            1095     24.6912E-03     25.5086E-03
              72            1096     28.0738E-03     26.5913E-03
              73            1049     29.1429E-03     28.6585E-03
              73            1050     29.3664E-03     28.8883E-03
              73            1096     28.0738E-03     26.5913E-03
              73            1097     28.7876E-03     28.1937E-03
              74            1050     29.3664E-03     28.8883E-03
              74            1051     28.9410E-03     29.3862E-03
              74            1097     28.7876E-03     28.1937E-03
              74            1098     26.6859E-03     28.3574E-03
              75            1051     28.9410E-03     29.3862E-03
              75            1052     30.2023E-03     29.6796E-03
              75            1098     26.6859E-03     28.3574E-03
              75            1099     27.8978E-03     27.6026E-03
              76            1052     30.2023E-03     29.6796E-03
              76            1053     31.1776E-03     30.6686E-03
              76            1099     27.8978E-03     27.6026E-03
              76            1100     29.9924E-03     30.2503E-03
              77            1053     31.1776E-03     30.6686E-03
              77            1054     32.2848E-03     31.9280E-03
              77            1100     29.9924E-03     30.2503E-03
              77            1101     32.3564E-03     32.8137E-03
              78            1054     32.2848E-03     31.9280E-03
              78            1055     33.4139E-03     33.3421E-03
              78            1101     32.3564E-03     32.8137E-03
              78            1102     34.9900E-03     35.2910E-03
              79            1055     33.4139E-03     33.3421E-03
              79            1056     34.8541E-03     34.8629E-03
              79            1102     34.9900E-03     35.2910E-03
              79            1103     38.0184E-03     37.8957E-03
              80            1056     34.8541E-03     34.8629E-03
              80            1057     36.2921E-03     35.9385E-03
              80            1103     38.0184E-03     37.8957E-03
              80            1104     41.0696E-03     39.9841E-03
              81            1057     36.2921E-03     35.9385E-03
              81            1058     36.7323E-03     38.2643E-03
              81            1104     41.0696E-03     39.9841E-03
              81            1105     42.7222E-03     44.5456E-03
              82            1058     36.7323E-03     38.2643E-03
              82            1059     39.9586E-03     38.8120E-03
              82            1105     42.7222E-03     44.5456E-03
              82            1106     49.2139E-03     45.9028E-03
              83            1059     39.9586E-03     38.8120E-03
              83            1060     39.9002E-03     38.6936E-03
              83            1106     49.2139E-03     45.9028E-03
              83            1107     49.2387E-03     47.5284E-03
              84            1060     39.9002E-03     38.6936E-03
              84            1061     36.6660E-03     38.7687E-03
              84            1107     49.2387E-03     47.5284E-03
              84            1108     42.1484E-03     47.5713E-03
              85            1061     36.6660E-03     38.7687E-03
              85            1062     38.7392E-03     37.6099E-03
              85            1108     42.1484E-03     47.5713E-03
              85            1109     45.5709E-03     44.3140E-03
              86            1062     38.7392E-03     37.6099E-03
              86            1063     40.9379E-03     39.5738E-03
              86            1109     45.5709E-03     44.3140E-03
              86            1110     49.4965E-03     48.6622E-03
              87            1063     40.9379E-03     39.5738E-03
              87            1064     42.3058E-03     42.2017E-03
              87            1110     49.4965E-03     48.6622E-03
              87            1111     51.2389E-03     52.8870E-03
              88            1064     42.3058E-03     42.2017E-03
              88            1065     44.6177E-03     43.8647E-03
              88            1111     51.2389E-03     52.8870E-03
              88            1112     55.3998E-03     54.8070E-03
              89            1065     44.6177E-03     43.8647E-03
              89            1066     46.2855E-03     46.2079E-03
              89            1112     55.3998E-03     54.8070E-03
              89            1113     58.3299E-03     58.3912E-03
              90            1066     46.2855E-03     46.2079E-03
              90            1067     48.2978E-03     48.2572E-03
              90            1113     58.3299E-03     58.3912E-03
              90            1114     62.0969E-03     61.5291E-03
              91            1067     48.2978E-03     48.2572E-03
              91            1068     50.1761E-03     49.4741E-03
              91            1114     62.0969E-03     61.5291E-03
              91            1115     66.0102E-03     63.7966E-03
              92            1068     50.1761E-03     49.4741E-03
              92            1069     50.1601E-03     52.8304E-03
              92            1115     66.0102E-03     63.7966E-03
              92            1116     67.2313E-03     70.3302E-03
              93            1069     50.1601E-03     52.8304E-03
              93            1070     54.8728E-03     52.8682E-03
              93            1116     67.2313E-03     70.3302E-03
              93            1117     76.3267E-03     71.1356E-03
              94            1070     54.8728E-03     52.8682E-03
              94            1071     54.1116E-03     52.0655E-03
              94            1117     76.3267E-03     71.1356E-03
              94            1118     75.1033E-03     72.2083E-03
              95            1071     54.1116E-03     52.0655E-03
              95            1072     47.8436E-03     52.2492E-03
              95            1118     75.1033E-03     72.2083E-03
              95            1119     63.0630E-03     72.9407E-03
              96            1072     47.8436E-03     52.2492E-03
              96            1073     51.7074E-03     49.8053E-03
              96            1119     63.0630E-03     72.9407E-03
              96            1120     69.9399E-03     67.5613E-03
              97            1073     51.7074E-03     49.8053E-03
              97            1074     55.2386E-03     52.7866E-03
              97            1120     69.9399E-03     67.5613E-03
              97            1121     75.7275E-03     73.3095E-03
              98            1074     55.2386E-03     52.7866E-03
              98            1075     56.3351E-03     56.7665E-03
              98            1121     75.7275E-03     73.3095E-03
              98            1122     76.0618E-03     78.9608E-03
              99            1075     56.3351E-03     56.7665E-03
              99            1076     59.6439E-03     58.4278E-03
              99            1122     76.0618E-03     78.9608E-03
              99            1123     81.4019E-03     80.0419E-03
             100            1076     59.6439E-03     58.4278E-03
             100            1077     61.6048E-03     61.4588E-03
             100            1123     81.4019E-03     80.0419E-03
             100            1124     84.4301E-03     84.2949E-03
             101            1077     61.6048E-03     61.4588E-03
             101            1078     63.9066E-03     63.8656E-03
             101            1124     84.4301E-03     84.2949E-03
             101            1125     88.5589E-03     87.7405E-03
             102            1078     63.9066E-03     63.8656E-03
             102            1079     66.0207E-03     64.9987E-03
             102            1125     88.5589E-03     87.7405E-03
             102            1126     93.0432E-03     89.9083E-03
             103            1079     66.0207E-03     64.9987E-03
             103            1080     65.3480E-03     69.1299E-03
             103            1126     93.0432E-03     89.9083E-03
             103            1127     93.6505E-03     98.0684E-03
             104            1080     65.3480E-03     69.1299E-03
             104            1081     71.2876E-03     68.4089E-03
             104            1127     93.6505E-03     98.0684E-03
             104            1128     105.103E-03     98.0684E-03
             105            1081     71.2876E-03     68.4089E-03
             105            1082     69.6250E-03     66.7460E-03
             105            1128     105.103E-03     98.0684E-03
             105            1129     102.457E-03     98.3547E-03
             106            1082     69.6250E-03     66.7460E-03
             106            1083     61.1659E-03     68.2190E-03
             106            1129     102.457E-03     98.3547E-03
             106            1130     86.1544E-03     100.330E-03
             107            1083     61.1659E-03     68.2190E-03
             107            1084     68.0669E-03     65.6815E-03
             107            1130     86.1544E-03     100.330E-03
             107            1131     97.6273E-03     93.6840E-03
             108            1084     68.0669E-03     65.6815E-03
             108            1085     72.4293E-03     70.2391E-03
             108            1131     97.6273E-03     93.6840E-03
             108            1132     105.194E-03     101.777E-03
             109            1085     72.4293E-03     70.2391E-03
             109            1086     73.0793E-03     75.5832E-03
             109            1132     105.194E-03     101.777E-03
             109            1133     105.044E-03     109.076E-03
             110            1086     73.0793E-03     75.5832E-03
             110            1087     76.9315E-03     75.8928E-03
             110            1133     105.044E-03     109.076E-03
             110            1134     112.026E-03     108.325E-03
             111            1087     76.9315E-03     75.8928E-03
             111            1088     76.0033E-03     81.0858E-03
             111            1134     112.026E-03     108.325E-03
             111            1135     111.820E-03     117.703E-03
             112            1088     76.0033E-03     81.0858E-03
             112            1089     82.3462E-03     79.7489E-03
             112            1135     111.820E-03     117.703E-03
             112            1136     123.774E-03     116.587E-03
             113            1089     82.3462E-03     79.7489E-03
             113            1090     80.0981E-03     76.9632E-03
             113            1136     123.774E-03     116.587E-03
             113            1137     120.089E-03     115.190E-03
             114             104     66.7561E-03     78.8509E-03
             114             105     102.524E-03     118.751E-03
             114            1090     80.0981E-03     76.9632E-03
             114            1137     120.089E-03     115.190E-03
             115              46     11.0446E-03     11.1118E-03
             115              47     7.46067E-03     7.91079E-03
             115            1091     21.5200E-03     21.5265E-03
             115            1138     14.5220E-03     15.2521E-03
             116            1091     21.5200E-03     21.5265E-03
             116            1092     21.7245E-03     21.7422E-03
             116            1138     14.5220E-03     15.2521E-03
             116            1139     15.1126E-03     15.6777E-03
             117            1092     21.7245E-03     21.7422E-03
             117            1093     22.4168E-03     22.5100E-03
             117            1139     15.1126E-03     15.6777E-03
             117            1140     16.9294E-03     16.9492E-03
             118            1093     22.4168E-03     22.5100E-03
             118            1094     23.5693E-03     23.5409E-03
             118            1140     16.9294E-03     16.9492E-03
             118            1141     19.1826E-03     18.9359E-03
             119            1094     23.5693E-03     23.5409E-03
             119            1095     24.6912E-03     25.5086E-03
             119            1141     19.1826E-03     18.9359E-03
             119            1142     21.1809E-03     22.7026E-03
             120            1095     24.6912E-03     25.5086E-03
             120            1096     28.0738E-03     26.5913E-03
             120            1142     21.1809E-03     22.7026E-03
             120            1143     26.9461E-03     24.3969E-03
             121            1096     28.0738E-03     26.5913E-03
             121            1097     28.7876E-03     28.1937E-03
             121            1143     26.9461E-03     24.3969E-03
             121            1144     28.4519E-03     27.9153E-03
             122            1097     28.7876E-03     28.1937E-03
             122            1098     26.6859E-03     28.3574E-03
             122            1144     28.4519E-03     27.9153E-03
             122            1145     24.9816E-03     29.1508E-03
             123            1098     26.6859E-03     28.3574E-03
             123            1099     27.8978E-03     27.6026E-03
             123            1145     24.9816E-03     29.1508E-03
             123            1146     27.1939E-03     27.2031E-03
             124            1099     27.8978E-03     27.6026E-03
             124            1100     29.9924E-03     30.2503E-03
             124            1146     27.1939E-03     27.2031E-03
             124            1147     30.2756E-03     30.7744E-03
             125            1100     29.9924E-03     30.2503E-03
             125            1101     32.3564E-03     32.8137E-03
             125            1147     30.2756E-03     30.7744E-03
             125            1148     32.9596E-03     33.8397E-03
             126            1101     32.3564E-03     32.8137E-03
             126            1102     34.9900E-03     35.2910E-03
             126            1148     32.9596E-03     33.8397E-03
             126            1149     36.6207E-03     36.9885E-03
             127            1102     34.9900E-03     35.2910E-03
             127            1103     38.0184E-03     37.8957E-03
             127            1149     36.6207E-03     36.9885E-03
             127            1150     40.8994E-03     40.9739E-03
             128            1103     38.0184E-03     37.8957E-03
             128            1104     41.0696E-03     39.9841E-03
             128            1150     40.8994E-03     40.9739E-03
             128            1151     45.3304E-03     44.2539E-03
             129            1104     41.0696E-03     39.9841E-03
             129            1105     42.7222E-03     44.5456E-03
             129            1151     45.3304E-03     44.2539E-03
             129            1152     47.9754E-03     51.3409E-03
             130            1105     42.7222E-03     44.5456E-03
             130            1106     49.2139E-03     45.9028E-03
             130            1152     47.9754E-03     51.3409E-03
             130            1153     58.1944E-03     53.2138E-03
             131            1106     49.2139E-03     45.9028E-03
             131            1107     49.2387E-03     47.5284E-03
             131            1153     58.1944E-03     53.2138E-03
             131            1154     59.1556E-03     57.5020E-03
             132            1107     49.2387E-03     47.5284E-03
             132            1108     42.1484E-03     47.5713E-03
             132            1154     59.1556E-03     57.5020E-03
             132            1155     49.4354E-03     60.3222E-03
             133            1108     42.1484E-03     47.5713E-03
             133            1109     45.5709E-03     44.3140E-03
             133            1155     49.4354E-03     60.3222E-03
             133            1156     55.4250E-03     54.4730E-03
             134            1109     45.5709E-03     44.3140E-03
             134            1110     49.4965E-03     48.6622E-03
             134            1156     55.4250E-03     54.4730E-03
             134            1157     59.9337E-03     58.5494E-03
             135            1110     49.4965E-03     48.6622E-03
             135            1111     51.2389E-03     52.8870E-03
             135            1157     59.9337E-03     58.5494E-03
             135            1158     59.9365E-03     62.9858E-03
             136            1111     51.2389E-03     52.8870E-03
             136            1112     55.3998E-03     54.8070E-03
             136            1158     59.9365E-03     62.9858E-03
             136            1159     65.0042E-03     64.3628E-03
             137            1112     55.3998E-03     54.8070E-03
             137            1113     58.3299E-03     58.3912E-03
             137            1159     65.0042E-03     64.3628E-03
             137            1160     68.2688E-03     69.3510E-03
             138            1113     58.3299E-03     58.3912E-03
             138            1114     62.0969E-03     61.5291E-03
             138            1160     68.2688E-03     69.3510E-03
             138            1161     73.3482E-03     73.8032E-03
             139            1114     62.0969E-03     61.5291E-03
             139            1115     66.0102E-03     63.7966E-03
             139            1161     73.3482E-03     73.8032E-03
             139            1162     79.0399E-03     77.2149E-03
             140            1115     66.0102E-03     63.7966E-03
             140            1116     67.2313E-03     70.3302E-03
             140            1162     79.0399E-03     77.2149E-03
             140            1163     81.2961E-03     87.0048E-03
             141            1116     67.2313E-03     70.3302E-03
             141            1117     76.3267E-03     71.1356E-03
             141            1163     81.2961E-03     87.0048E-03
             141            1164     95.8399E-03     88.2824E-03
             142            1117     76.3267E-03     71.1356E-03
             142            1118     75.1033E-03     72.2083E-03
             142            1164     95.8399E-03     88.2824E-03
             142            1165     95.7803E-03     93.0484E-03
             143            1118     75.1033E-03     72.2083E-03
             143            1119     63.0630E-03     72.9407E-03
             143            1165     95.7803E-03     93.0484E-03
             143            1166     79.7271E-03     98.3169E-03
             144            1119     63.0630E-03     72.9407E-03
             144            1120     69.9399E-03     67.5613E-03
             144            1166     79.7271E-03     98.3169E-03
             144            1167     90.6841E-03     88.6951E-03
             145            1120     69.9399E-03     67.5613E-03
             145            1121     75.7275E-03     73.3095E-03
             145            1167     90.6841E-03     88.6951E-03
             145            1168     96.6797E-03     92.9766E-03
             146            1121     75.7275E-03     73.3095E-03
             146            1122     76.0618E-03     78.9608E-03
             146            1168     96.6797E-03     92.9766E-03
             146            1169     93.3404E-03     98.5162E-03
             147            1122     76.0618E-03     78.9608E-03
             147            1123     81.4019E-03     80.0419E-03
             147            1169     93.3404E-03     98.5162E-03
             147            1170     99.3967E-03     98.1029E-03
             148            1123     81.4019E-03     80.0419E-03
             148            1124     84.4301E-03     84.2949E-03
             148            1170     99.3967E-03     98.1029E-03
             148            1171     102.337E-03     103.831E-03
             149            1124     84.4301E-03     84.2949E-03
             149            1125     88.5589E-03     87.7405E-03
             149            1171     102.337E-03     103.831E-03
             149            1172     107.767E-03     108.591E-03
             150            1125     88.5589E-03     87.7405E-03
             150            1126     93.0432E-03     89.9083E-03
             150            1172     107.767E-03     108.591E-03
             150            1173     114.404E-03     111.845E-03
             151            1126     93.0432E-03     89.9083E-03
             151            1127     93.6505E-03     98.0684E-03
             151            1173     114.404E-03     111.845E-03
             151            1174     116.190E-03     124.167E-03
             152            1127     93.6505E-03     98.0684E-03
             152            1128     105.103E-03     98.0684E-03
             152            1174     116.190E-03     124.167E-03
             152            1175     134.993E-03     124.791E-03
             153            1128     105.103E-03     98.0684E-03
             153            1129     102.457E-03     98.3547E-03
             153            1175     134.993E-03     124.791E-03
             153            1176     133.837E-03     129.985E-03
             154            1129     102.457E-03     98.3547E-03
             154            1130     86.1544E-03     100.330E-03
             154            1176     133.837E-03     129.985E-03
             154            1177     111.353E-03     137.207E-03
             155            1130     86.1544E-03     100.330E-03
             155            1131     97.6273E-03     93.6840E-03
             155            1177     111.353E-03     137.207E-03
             155            1178     127.602E-03     123.358E-03
             156            1131     97.6273E-03     93.6840E-03
             156            1132     105.194E-03     101.777E-03
             156            1178     127.602E-03     123.358E-03
             156            1179     135.285E-03     129.407E-03
             157            1132     105.194E-03     101.777E-03
             157            1133     105.044E-03     109.076E-03
             157            1179     135.285E-03     129.407E-03
             157            1180     130.931E-03     136.740E-03
             158            1133     105.044E-03     109.076E-03
             158            1134     112.026E-03     108.325E-03
             158            1180     130.931E-03     136.740E-03
             158            1181     139.589E-03     133.859E-03
             159            1134     112.026E-03     108.325E-03
             159            1135     111.820E-03     117.703E-03
             159            1181     139.589E-03     133.859E-03
             159            1182     139.554E-03     147.898E-03
             160            1135     111.820E-03     117.703E-03
             160            1136     123.774E-03     116.587E-03
             160            1182     139.554E-03     147.898E-03
             160            1183     159.352E-03     147.375E-03
             161            1136     123.774E-03     116.587E-03
             161            1137     120.089E-03     115.190E-03
             161            1183     159.352E-03     147.375E-03
             161            1184     157.375E-03     151.864E-03
             162             105     102.524E-03     118.751E-03
             162             106     136.010E-03     157.814E-03
             162            1137     120.089E-03     115.190E-03
             162            1184     157.375E-03     151.864E-03
             163              47     7.46067E-03     7.91079E-03
             163              48     3.73029E-03     4.75744E-03
             163            1138     14.5220E-03     15.2521E-03
             163            1185     7.34587E-03     8.59340E-03
             164            1138     14.5220E-03     15.2521E-03
             164            1139     15.1126E-03     15.6777E-03
             164            1185     7.34587E-03     8.59340E-03
             164            1186     8.30535E-03     8.45010E-03
             165            1139     15.1126E-03     15.6777E-03
             165            1140     16.9294E-03     16.9492E-03
             165            1186     8.30535E-03     8.45010E-03
             165            1187     11.3810E-03     11.0231E-03
             166            1140     16.9294E-03     16.9492E-03
             166            1141     19.1826E-03     18.9359E-03
             166            1187     11.3810E-03     11.0231E-03
             166            1188     15.4750E-03     15.1613E-03
             167            1141     19.1826E-03     18.9359E-03
             167            1142     21.1809E-03     22.7026E-03
             167            1188     15.4750E-03     15.1613E-03
             167            1189     18.8777E-03     21.5175E-03
             168            1142     21.1809E-03     22.7026E-03
             168            1143     26.9461E-03     24.3969E-03
             168            1189     18.8777E-03     21.5175E-03
             168            1190     27.3031E-03     24.8063E-03
             169            1143     26.9461E-03     24.3969E-03
             169            1144     28.4519E-03     27.9153E-03
             169            1190     27.3031E-03     24.8063E-03
             169            1191     29.6394E-03     29.6036E-03
             170            1144     28.4519E-03     27.9153E-03
             170            1145     24.9816E-03     29.1508E-03
             170            1191     29.6394E-03     29.6036E-03
             170            1192     24.9249E-03     31.4451E-03
             171            1145     24.9816E-03     29.1508E-03
             171            1146     27.1939E-03     27.2031E-03
             171            1192     24.9249E-03     31.4451E-03
             171            1193     27.7748E-03     27.7916E-03
             172            1146     27.1939E-03     27.2031E-03
             172            1147     30.2756E-03     30.7744E-03
             172            1193     27.7748E-03     27.7916E-03
             172            1194     30.5214E-03     31.0701E-03
             173            1147     30.2756E-03     30.7744E-03
             173            1148     32.9596E-03     33.8397E-03
             173            1194     30.5214E-03     31.0701E-03
             173            1195     33.3413E-03     34.8826E-03
             174            1148     32.9596E-03     33.8397E-03
             174            1149     36.6207E-03     36.9885E-03
             174            1195     33.3413E-03     34.8826E-03
             174            1196     38.1109E-03     39.2643E-03
             175            1149     36.6207E-03     36.9885E-03
             175            1150     40.8994E-03     40.9739E-03
             175            1196     38.1109E-03     39.2643E-03
             175            1197     43.4197E-03     45.0163E-03
             176            1150     40.8994E-03     40.9739E-03
             176            1151     45.3304E-03     44.2539E-03
             176            1197     43.4197E-03     45.0163E-03
             176            1198     49.5239E-03     49.3321E-03
             177            1151     45.3304E-03     44.2539E-03
             177            1152     47.9754E-03     51.3409E-03
             177            1198     49.5239E-03     49.3321E-03
             177            1199     52.6577E-03     58.6260E-03
             178            1152     47.9754E-03     51.3409E-03
             178            1153     58.1944E-03     53.2138E-03
             178            1199     52.6577E-03     58.6260E-03
             178            1200     65.8641E-03     61.5825E-03
             179            1153     58.1944E-03     53.2138E-03
             179            1154     59.1556E-03     57.5020E-03
             179            1200     65.8641E-03     61.5825E-03
             179            1201     68.0798E-03     67.4003E-03
             180            1154     59.1556E-03     57.5020E-03
             180            1155     49.4354E-03     60.3222E-03
             180            1201     68.0798E-03     67.4003E-03
             180            1202     56.6566E-03     72.1426E-03
             181            1155     49.4354E-03     60.3222E-03
             181            1156     55.4250E-03     54.4730E-03
             181            1202     56.6566E-03     72.1426E-03
             181            1203     63.9308E-03     63.5242E-03
             182            1156     55.4250E-03     54.4730E-03
             182            1157     59.9337E-03     58.5494E-03
             182            1203     63.9308E-03     63.5242E-03
             182            1204     67.1195E-03     65.9589E-03
             183            1157     59.9337E-03     58.5494E-03
             183            1158     59.9365E-03     62.9858E-03
             183            1204     67.1195E-03     65.9589E-03
             183            1205     65.6637E-03     70.8759E-03
             184            1158     59.9365E-03     62.9858E-03
             184            1159     65.0042E-03     64.3628E-03
             184            1205     65.6637E-03     70.8759E-03
             184            1206     72.2691E-03     73.0460E-03
             185            1159     65.0042E-03     64.3628E-03
             185            1160     68.2688E-03     69.3510E-03
             185            1206     72.2691E-03     73.0460E-03
             185            1207     76.0602E-03     79.6421E-03
             186            1160     68.2688E-03     69.3510E-03
             186            1161     73.3482E-03     73.8032E-03
             186            1207     76.0602E-03     79.6421E-03
             186            1208     82.2293E-03     85.5419E-03
             187            1161     73.3482E-03     73.8032E-03
             187            1162     79.0399E-03     77.2149E-03
             187            1208     82.2293E-03     85.5419E-03
             187            1209     89.6755E-03     89.6892E-03
             188            1162     79.0399E-03     77.2149E-03
             188            1163     81.2961E-03     87.0048E-03
             188            1209     89.6755E-03     89.6892E-03
             188            1210     91.8803E-03     101.841E-03
             189            1163     81.2961E-03     87.0048E-03
             189            1164     95.8399E-03     88.2824E-03
             189            1210     91.8803E-03     101.841E-03
             189            1211     110.548E-03     104.191E-03
             190            1164     95.8399E-03     88.2824E-03
             190            1165     95.7803E-03     93.0484E-03
             190            1211     110.548E-03     104.191E-03
             190            1212     112.503E-03     111.303E-03
             191            1165     95.7803E-03     93.0484E-03
             191            1166     79.7271E-03     98.3169E-03
             191            1212     112.503E-03     111.303E-03
             191            1213     94.0136E-03     119.939E-03
             192            1166     79.7271E-03     98.3169E-03
             192            1167     90.6841E-03     88.6951E-03
             192            1213     94.0136E-03     119.939E-03
             192            1214     107.040E-03     106.158E-03
             193            1167     90.6841E-03     88.6951E-03
             193            1168     96.6797E-03     92.9766E-03
             193            1214     107.040E-03     106.158E-03
             193            1215     110.702E-03     107.684E-03
             194            1168     96.6797E-03     92.9766E-03
             194            1169     93.3404E-03     98.5162E-03
             194            1215     110.702E-03     107.684E-03
             194            1216     104.580E-03     113.550E-03
             195            1169     93.3404E-03     98.5162E-03
             195            1170     99.3967E-03     98.1029E-03
             195            1216     104.580E-03     113.550E-03
             195            1217     112.600E-03     113.628E-03
             196            1170     99.3967E-03     98.1029E-03
             196            1171     102.337E-03     103.831E-03
             196            1217     112.600E-03     113.628E-03
             196            1218     115.803E-03     121.202E-03
             197            1171     102.337E-03     103.831E-03
             197            1172     107.767E-03     108.591E-03
             197            1218     115.803E-03     121.202E-03
             197            1219     122.341E-03     127.454E-03
             198            1172     107.767E-03     108.591E-03
             198            1173     114.404E-03     111.845E-03
             198            1219     122.341E-03     127.454E-03
             198            1220     131.045E-03     131.266E-03
             199            1173     114.404E-03     111.845E-03
             199            1174     116.190E-03     124.167E-03
             199            1220     131.045E-03     131.266E-03
             199            1221     132.369E-03     146.359E-03
             200            1174     116.190E-03     124.167E-03
             200            1175     134.993E-03     124.791E-03
             200            1221     132.369E-03     146.359E-03
             200            1222     156.694E-03     148.209E-03
             201            1175     134.993E-03     124.791E-03
             201            1176     133.837E-03     129.985E-03
             201            1222     156.694E-03     148.209E-03
             201            1223     158.487E-03     156.784E-03
             202            1176     133.837E-03     129.985E-03
             202            1177     111.353E-03     137.207E-03
             202            1223     158.487E-03     156.784E-03
             202            1224     132.148E-03     168.509E-03
             203            1177     111.353E-03     137.207E-03
             203            1178     127.602E-03     123.358E-03
             203            1224     132.148E-03     168.509E-03
             203            1225     151.060E-03     148.449E-03
             204            1178     127.602E-03     123.358E-03
             204            1179     135.285E-03     129.407E-03
             204            1225     151.060E-03     148.449E-03
             204            1226     155.069E-03     150.732E-03
             205            1179     135.285E-03     129.407E-03
             205            1180     130.931E-03     136.740E-03
             205            1226     155.069E-03     150.732E-03
             205            1227     146.889E-03     158.740E-03
             206            1180     130.931E-03     136.740E-03
             206            1181     139.589E-03     133.859E-03
             206            1227     146.889E-03     158.740E-03
             206            1228     158.876E-03     155.377E-03
             207            1181     139.589E-03     133.859E-03
             207            1182     139.554E-03     147.898E-03
             207            1228     158.876E-03     155.377E-03
             207            1229     157.773E-03     173.703E-03
             208            1182     139.554E-03     147.898E-03
             208            1183     159.352E-03     147.375E-03
             208            1229     157.773E-03     173.703E-03
             208            1230     184.632E-03     174.876E-03
             209            1183     159.352E-03     147.375E-03
             209            1184     157.375E-03     151.864E-03
             209            1230     184.632E-03     174.876E-03
             209            1231     187.022E-03     184.226E-03
             210             106     136.010E-03     157.814E-03
             210             107     162.688E-03     189.457E-03
             210            1184     157.375E-03     151.864E-03
             210            1231     187.022E-03     184.226E-03
             211              48     3.73029E-03     4.75744E-03
             211              49     3.53738E-03     5.14160E-03
             211            1185     7.34587E-03     8.59340E-03
             211            1232     6.67719E-03     8.20170E-03
             212            1185     7.34587E-03     8.59340E-03
             212            1186     8.30535E-03     8.45010E-03
             212            1232     6.67719E-03     8.20170E-03
             212            1233     7.43844E-03     7.03149E-03
             213            1186     8.30535E-03     8.45010E-03
             213            1187     11.3810E-03     11.0231E-03
             213            1233     7.43844E-03     7.03149E-03
             213            1234     10.6895E-03     10.6625E-03
             214            1187     11.3810E-03     11.0231E-03
             214            1188     15.4750E-03     15.1613E-03
             214            1234     10.6895E-03     10.6625E-03
             214            1235     16.2554E-03     15.8639E-03
             215            1188     15.4750E-03     15.1613E-03
             215            1189     18.8777E-03     21.5175E-03
             215            1235     16.2554E-03     15.8639E-03
             215            1236     20.7958E-03     23.1126E-03
             216            1189     18.8777E-03     21.5175E-03
             216            1190     27.3031E-03     24.8063E-03
             216            1236     20.7958E-03     23.1126E-03
             216            1237     30.1645E-03     28.3468E-03
             217            1190     27.3031E-03     24.8063E-03
             217            1191     29.6394E-03     29.6036E-03
             217            1237     30.1645E-03     28.3468E-03
             217            1238     35.2296E-03     34.9935E-03
             218            1191     29.6394E-03     29.6036E-03
             218            1192     24.9249E-03     31.4451E-03
             218            1238     35.2296E-03     34.9935E-03
             218            1239     27.2524E-03     32.3991E-03
             219            1192     24.9249E-03     31.4451E-03
             219            1193     27.7748E-03     27.7916E-03
             219            1239     27.2524E-03     32.3991E-03
             219            1240     25.4387E-03     24.7208E-03
             220            1193     27.7748E-03     27.7916E-03
             220            1194     30.5214E-03     31.0701E-03
             220            1240     25.4387E-03     24.7208E-03
             220            1241     30.0634E-03     30.0887E-03
             221            1194     30.5214E-03     31.0701E-03
             221            1195     33.3413E-03     34.8826E-03
             221            1241     30.0634E-03     30.0887E-03
             221            1242     35.0777E-03     36.2155E-03
             222            1195     33.3413E-03     34.8826E-03
             222            1196     38.1109E-03     39.2643E-03
             222            1242     35.0777E-03     36.2155E-03
             222            1243     41.3497E-03     42.0270E-03
             223            1196     38.1109E-03     39.2643E-03
             223            1197     43.4197E-03     45.0163E-03
             223            1243     41.3497E-03     42.0270E-03
             223            1244     47.3649E-03     48.8410E-03
             224            1197     43.4197E-03     45.0163E-03
             224            1198     49.5239E-03     49.3321E-03
             224            1244     47.3649E-03     48.8410E-03
             224            1245     54.5980E-03     53.9397E-03
             225            1198     49.5239E-03     49.3321E-03
             225            1199     52.6577E-03     58.6260E-03
             225            1245     54.5980E-03     53.9397E-03
             225            1246     58.5825E-03     63.4709E-03
             226            1199     52.6577E-03     58.6260E-03
             226            1200     65.8641E-03     61.5825E-03
             226            1246     58.5825E-03     63.4709E-03
             226            1247     71.8490E-03     68.4966E-03
             227            1200     65.8641E-03     61.5825E-03
             227            1201     68.0798E-03     67.4003E-03
             227            1247     71.8490E-03     68.4966E-03
             227            1248     77.7306E-03     76.4823E-03
             228            1201     68.0798E-03     67.4003E-03
             228            1202     56.6566E-03     72.1426E-03
             228            1248     77.7306E-03     76.4823E-03
             228            1249     64.3277E-03     76.4813E-03
             229            1202     56.6566E-03     72.1426E-03
             229            1203     63.9308E-03     63.5242E-03
             229            1249     64.3277E-03     76.4813E-03
             229            1250     65.3346E-03     63.5506E-03
             230            1203     63.9308E-03     63.5242E-03
             230            1204     67.1195E-03     65.9589E-03
             230            1250     65.3346E-03     63.5506E-03
             230            1251     69.3731E-03     67.8016E-03
             231            1204     67.1195E-03     65.9589E-03
             231            1205     65.6637E-03     70.8759E-03
             231            1251     69.3731E-03     67.8016E-03
             231            1252     71.0848E-03     74.8105E-03
             232            1205     65.6637E-03     70.8759E-03
             232            1206     72.2691E-03     73.0460E-03
             232            1252     71.0848E-03     74.8105E-03
             232            1253     78.8740E-03     79.2708E-03
             233            1206     72.2691E-03     73.0460E-03
             233            1207     76.0602E-03     79.6421E-03
             233            1253     78.8740E-03     79.2708E-03
             233            1254     84.2810E-03     86.5190E-03
             234            1207     76.0602E-03     79.6421E-03
             234            1208     82.2293E-03     85.5419E-03
             234            1254     84.2810E-03     86.5190E-03
             234            1255     90.7820E-03     93.3878E-03
             235            1208     82.2293E-03     85.5419E-03
             235            1209     89.6755E-03     89.6892E-03
             235            1255     90.7820E-03     93.3878E-03
             235            1256     99.0556E-03     98.2115E-03
             236            1209     89.6755E-03     89.6892E-03
             236            1210     91.8803E-03     101.841E-03
             236            1256     99.0556E-03     98.2115E-03
             236            1257     102.075E-03     109.974E-03
             237            1210     91.8803E-03     101.841E-03
             237            1211     110.548E-03     104.191E-03
             237            1257     102.075E-03     109.974E-03
             237            1258     119.799E-03     114.648E-03
             238            1211     110.548E-03     104.191E-03
             238            1212     112.503E-03     111.303E-03
             238            1258     119.799E-03     114.648E-03
             238            1259     126.577E-03     124.258E-03
             239            1212     112.503E-03     111.303E-03
             239            1213     94.0136E-03     119.939E-03
             239            1259     126.577E-03     124.258E-03
             239            1260     107.487E-03     127.826E-03
             240            1213     94.0136E-03     119.939E-03
             240            1214     107.040E-03     106.158E-03
             240            1260     107.487E-03     127.826E-03
             240            1261     112.502E-03     109.620E-03
             241            1214     107.040E-03     106.158E-03
             241            1215     110.702E-03     107.684E-03
             241            1261     112.502E-03     109.620E-03
             241            1262     116.076E-03     112.825E-03
             242            1215     110.702E-03     107.684E-03
             242            1216     104.580E-03     113.550E-03
             242            1262     116.076E-03     112.825E-03
             242            1263     114.195E-03     120.773E-03
             243            1216     104.580E-03     113.550E-03
             243            1217     112.600E-03     113.628E-03
             243            1263     114.195E-03     120.773E-03
             243            1264     123.509E-03     123.832E-03
             244            1217     112.600E-03     113.628E-03
             244            1218     115.803E-03     121.202E-03
             244            1264     123.509E-03     123.832E-03
             244            1265     128.596E-03     132.067E-03
             245            1218     115.803E-03     121.202E-03
             245            1219     122.341E-03     127.454E-03
             245            1265     128.596E-03     132.067E-03
             245            1266     135.487E-03     139.352E-03
             246            1219     122.341E-03     127.454E-03
             246            1220     131.045E-03     131.266E-03
             246            1266     135.487E-03     139.352E-03
             246            1267     144.906E-03     143.917E-03
             247            1220     131.045E-03     131.266E-03
             247            1221     132.369E-03     146.359E-03
             247            1267     144.906E-03     143.917E-03
             247            1268     147.047E-03     158.048E-03
             248            1221     132.369E-03     146.359E-03
             248            1222     156.694E-03     148.209E-03
             248            1268     147.047E-03     158.048E-03
             248            1269     169.488E-03     162.485E-03
             249            1222     156.694E-03     148.209E-03
             249            1223     158.487E-03     156.784E-03
             249            1269     169.488E-03     162.485E-03
             249            1270     177.334E-03     173.921E-03
             250            1223     158.487E-03     156.784E-03
             250            1224     132.148E-03     168.509E-03
             250            1270     177.334E-03     173.921E-03
             250            1271     151.786E-03     180.678E-03
             251            1224     132.148E-03     168.509E-03
             251            1225     151.060E-03     148.449E-03
             251            1271     151.786E-03     180.678E-03
             251            1272     160.885E-03     156.757E-03
             252            1225     151.060E-03     148.449E-03
             252            1226     155.069E-03     150.732E-03
             252            1272     160.885E-03     156.757E-03
             252            1273     164.540E-03     159.990E-03
             253            1226     155.069E-03     150.732E-03
             253            1227     146.889E-03     158.740E-03
             253            1273     164.540E-03     159.990E-03
             253            1274     160.329E-03     170.629E-03
             254            1227     146.889E-03     158.740E-03
             254            1228     158.876E-03     155.377E-03
             254            1274     160.329E-03     170.629E-03
             254            1275     174.381E-03     170.451E-03
             255            1228     158.876E-03     155.377E-03
             255            1229     157.773E-03     173.703E-03
             255            1275     174.381E-03     170.451E-03
             255            1276     174.820E-03     188.416E-03
             256            1229     157.773E-03     173.703E-03
             256            1230     184.632E-03     174.876E-03
             256            1276     174.820E-03     188.416E-03
             256            1277     200.685E-03     192.620E-03
             257            1230     184.632E-03     174.876E-03
             257            1231     187.022E-03     184.226E-03
             257            1277     200.685E-03     192.620E-03
             257            1278     210.126E-03     205.890E-03
             258             107     162.688E-03     189.457E-03
             258             108     184.649E-03     205.300E-03
             258            1231     187.022E-03     184.226E-03
             258            1278     210.126E-03     205.890E-03
             259               3     3.86661E-03     5.80739E-03
             259              49     3.53738E-03     5.14160E-03
             259             155     6.43941E-03     8.40239E-03
             259            1232     6.67719E-03     8.20170E-03
             260             154     7.32513E-03     7.06628E-03
             260             155     6.43941E-03     8.40239E-03
             260            1232     6.67719E-03     8.20170E-03
             260            1233     7.43844E-03     7.03149E-03
             261             153     11.1823E-03     11.3584E-03
             261             154     7.32513E-03     7.06628E-03
             261            1233     7.43844E-03     7.03149E-03
             261            1234     10.6895E-03     10.6625E-03
             262             152     16.7433E-03     16.3769E-03
             262             153     11.1823E-03     11.3584E-03
             262            1234     10.6895E-03     10.6625E-03
             262            1235     16.2554E-03     15.8639E-03
             263             151     21.6727E-03     22.6583E-03
             263             152     16.7433E-03     16.3769E-03
             263            1235     16.2554E-03     15.8639E-03
             263            1236     20.7958E-03     23.1126E-03
             264             150     29.0933E-03     28.2428E-03
             264             151     21.6727E-03     22.6583E-03
             264            1236     20.7958E-03     23.1126E-03
             264            1237     30.1645E-03     28.3468E-03
             265             149     35.6390E-03     35.8314E-03
             265             150     29.0933E-03     28.2428E-03
             265            1237     30.1645E-03     28.3468E-03
             265            1238     35.2296E-03     34.9935E-03
             266             148     28.3726E-03     30.3382E-03
             266             149     35.6390E-03     35.8314E-03
             266            1238     35.2296E-03     34.9935E-03
             266            1239     27.2524E-03     32.3991E-03
             267             147     23.9346E-03     22.6030E-03
             267             148     28.3726E-03     30.3382E-03
             267            1239     27.2524E-03     32.3991E-03
             267            1240     25.4387E-03     24.7208E-03
             268             146     30.9453E-03     30.5961E-03
             268             147     23.9346E-03     22.6030E-03
             268            1240     25.4387E-03     24.7208E-03
             268            1241     30.0634E-03     30.0887E-03
             269             145     37.5228E-03     37.6325E-03
             269             146     30.9453E-03     30.5961E-03
             269            1241     30.0634E-03     30.0887E-03
             269            1242     35.0777E-03     36.2155E-03
             270             144     43.7905E-03     43.6447E-03
             270             145     37.5228E-03     37.6325E-03
             270            1242     35.0777E-03     36.2155E-03
             270            1243     41.3497E-03     42.0270E-03
             271             143     49.4869E-03     49.9319E-03
             271             144     43.7905E-03     43.6447E-03
             271            1243     41.3497E-03     42.0270E-03
             271            1244     47.3649E-03     48.8410E-03
             272             142     55.8680E-03     55.1560E-03
             272             143     49.4869E-03     49.9319E-03
             272            1244     47.3649E-03     48.8410E-03
             272            1245     54.5980E-03     53.9397E-03
             273             141     60.7357E-03     62.6613E-03
             273             142     55.8680E-03     55.1560E-03
             273            1245     54.5980E-03     53.9397E-03
             273            1246     58.5825E-03     63.4709E-03
             274             140     69.8600E-03     67.9711E-03
             274             141     60.7357E-03     62.6613E-03
             274            1246     58.5825E-03     63.4709E-03
             274            1247     71.8490E-03     68.4966E-03
             275             139     77.0209E-03     76.3427E-03
             275             140     69.8600E-03     67.9711E-03
             275            1247     71.8490E-03     68.4966E-03
             275            1248     77.7306E-03     76.4823E-03
             276             138     66.9597E-03     71.7081E-03
             276             139     77.0209E-03     76.3427E-03
             276            1248     77.7306E-03     76.4823E-03
             276            1249     64.3277E-03     76.4813E-03
             277             137     63.0342E-03     60.4881E-03
             277             138     66.9597E-03     71.7081E-03
             277            1249     64.3277E-03     76.4813E-03
             277            1250     65.3346E-03     63.5506E-03
             278             136     69.8189E-03     68.4135E-03
             278             137     63.0342E-03     60.4881E-03
             278            1250     65.3346E-03     63.5506E-03
             278            1251     69.3731E-03     67.8016E-03
             279             135     75.6958E-03     76.3525E-03
             279             136     69.8189E-03     68.4135E-03
             279            1251     69.3731E-03     67.8016E-03
             279            1252     71.0848E-03     74.8105E-03
             280             134     82.5276E-03     82.2288E-03
             280             135     75.6958E-03     76.3525E-03
             280            1252     71.0848E-03     74.8105E-03
             280            1253     78.8740E-03     79.2708E-03
             281             133     88.6692E-03     88.7665E-03
             281             134     82.5276E-03     82.2288E-03
             281            1253     78.8740E-03     79.2708E-03
             281            1254     84.2810E-03     86.5190E-03
             282             132     94.4862E-03     95.1868E-03
             282             133     88.6692E-03     88.7665E-03
             282            1254     84.2810E-03     86.5190E-03
             282            1255     90.7820E-03     93.3878E-03
             283             131     101.369E-03     100.321E-03
             283             132     94.4862E-03     95.1868E-03
             283            1255     90.7820E-03     93.3878E-03
             283            1256     99.0556E-03     98.2115E-03
             284             130     105.992E-03     108.899E-03
             284             131     101.369E-03     100.321E-03
             284            1256     99.0556E-03     98.2115E-03
             284            1257     102.075E-03     109.974E-03
             285             129     116.854E-03     113.808E-03
             285             130     105.992E-03     108.899E-03
             285            1257     102.075E-03     109.974E-03
             285            1258     119.799E-03     114.648E-03
             286             128     124.698E-03     123.001E-03
             286             129     116.854E-03     113.808E-03
             286            1258     119.799E-03     114.648E-03
             286            1259     126.577E-03     124.258E-03
             287             127     111.892E-03     119.893E-03
             287             128     124.698E-03     123.001E-03
             287            1259     126.577E-03     124.258E-03
             287            1260     107.487E-03     127.826E-03
             288             126     109.189E-03     105.454E-03
             288             127     111.892E-03     119.893E-03
             288            1260     107.487E-03     127.826E-03
             288            1261     112.502E-03     109.620E-03
             289             125     116.020E-03     113.454E-03
             289             126     109.189E-03     105.454E-03
             289            1261     112.502E-03     109.620E-03
             289            1262     116.076E-03     112.825E-03
             290             124     121.029E-03     122.515E-03
             290             125     116.020E-03     113.454E-03
             290            1262     116.076E-03     112.825E-03
             290            1263     114.195E-03     120.773E-03
             291             123     128.726E-03     128.108E-03
             291             124     121.029E-03     122.515E-03
             291            1263     114.195E-03     120.773E-03
             291            1264     123.509E-03     123.832E-03
             292             122     135.072E-03     135.358E-03
             292             123     128.726E-03     128.108E-03
             292            1264     123.509E-03     123.832E-03
             292            1265     128.596E-03     132.067E-03
             293             121     141.247E-03     142.177E-03
             293             122     135.072E-03     135.358E-03
             293            1265     128.596E-03     132.067E-03
             293            1266     135.487E-03     139.352E-03
             294             120     148.729E-03     147.321E-03
             294             121     141.247E-03     142.177E-03
             294            1266     135.487E-03     139.352E-03
             294            1267     144.906E-03     143.917E-03
             295             119     153.178E-03     157.064E-03
             295             120     148.729E-03     147.321E-03
             295            1267     144.906E-03     143.917E-03
             295            1268     147.047E-03     158.048E-03
             296             118     165.891E-03     161.626E-03
             296             119     153.178E-03     157.064E-03
             296            1268     147.047E-03     158.048E-03
             296            1269     169.488E-03     162.485E-03
             297             117     174.523E-03     171.736E-03
             297             118     165.891E-03     161.626E-03
             297            1269     169.488E-03     162.485E-03
             297            1270     177.334E-03     173.921E-03
             298             116     158.749E-03     170.268E-03
             298             117     174.523E-03     171.736E-03
             298            1270     177.334E-03     173.921E-03
             298            1271     151.786E-03     180.678E-03
             299             115     157.297E-03     152.827E-03
             299             116     158.749E-03     170.268E-03
             299            1271     151.786E-03     180.678E-03
             299            1272     160.885E-03     156.757E-03
             300             114     165.249E-03     161.428E-03
             300             115     157.297E-03     152.827E-03
             300            1272     160.885E-03     156.757E-03
             300            1273     164.540E-03     159.990E-03
             301             113     169.412E-03     172.980E-03
             301             114     165.249E-03     161.428E-03
             301            1273     164.540E-03     159.990E-03
             301            1274     160.329E-03     170.629E-03
             302             112     179.970E-03     176.994E-03
             302             113     169.412E-03     172.980E-03
             302            1274     160.329E-03     170.629E-03
             302            1275     174.381E-03     170.451E-03
             303             111     184.324E-03     189.391E-03
             303             112     179.970E-03     176.994E-03
             303            1275     174.381E-03     170.451E-03
             303            1276     174.820E-03     188.416E-03
             304             110     199.140E-03     193.813E-03
             304             111     184.324E-03     189.391E-03
             304            1276     174.820E-03     188.416E-03
             304            1277     200.685E-03     192.620E-03
             305             109     208.668E-03     205.209E-03
             305             110     199.140E-03     193.813E-03
             305            1277     200.685E-03     192.620E-03
             305            1278     210.126E-03     205.890E-03
             306               6     192.040E-03     199.390E-03
             306             108     184.649E-03     205.300E-03
             306             109     208.668E-03     205.209E-03
             306            1278     210.126E-03     205.890E-03
             307               5     44.8595E-03     49.4229E-03
             307             104     66.7561E-03     78.8509E-03
             307             156     56.7316E-03     60.6145E-03
             307            1279     70.7273E-03     73.5949E-03
             308             156     56.7316E-03     60.6145E-03
             308             157     59.2858E-03     61.6308E-03
             308            1279     70.7273E-03     73.5949E-03
             308            1280     69.4292E-03     74.9455E-03
             309             157     59.2858E-03     61.6308E-03
             309             158     54.8837E-03     55.3004E-03
             309            1280     69.4292E-03     74.9455E-03
             309            1281     70.5091E-03     70.9875E-03
             310             158     54.8837E-03     55.3004E-03
             310             159     54.5257E-03     54.7518E-03
             310            1281     70.5091E-03     70.9875E-03
             310            1282     67.2557E-03     64.5631E-03
             311             159     54.5257E-03     54.7518E-03
             311             160     52.0008E-03     53.5013E-03
             311            1282     67.2557E-03     64.5631E-03
             311            1283     53.3542E-03     59.2240E-03
             312             160     52.0008E-03     53.5013E-03
             312             161     53.4240E-03     59.4087E-03
             312            1283     53.3542E-03     59.2240E-03
             312            1284     49.5002E-03     50.9108E-03
             313               7     51.2184E-03     57.7149E-03
             313             161     53.4240E-03     59.4087E-03
             313             162     51.4614E-03     53.8373E-03
             313            1284     49.5002E-03     50.9108E-03
             314             104     66.7561E-03     78.8509E-03
             314             105     102.524E-03     118.751E-03
             314            1279     70.7273E-03     73.5949E-03
             314            1285     105.195E-03     107.159E-03
             315            1279     70.7273E-03     73.5949E-03
             315            1280     69.4292E-03     74.9455E-03
             315            1285     105.195E-03     107.159E-03
             315            1286     100.555E-03     109.222E-03
             316            1280     69.4292E-03     74.9455E-03
             316            1281     70.5091E-03     70.9875E-03
             316            1286     100.555E-03     109.222E-03
             316            1287     109.715E-03     106.952E-03
             317            1281     70.5091E-03     70.9875E-03
             317            1282     67.2557E-03     64.5631E-03
             317            1287     109.715E-03     106.952E-03
             317            1288     109.164E-03     105.903E-03
             318            1282     67.2557E-03     64.5631E-03
             318            1283     53.3542E-03     59.2240E-03
             318            1288     109.164E-03     105.903E-03
             318            1289     97.1322E-03     101.099E-03
             319            1283     53.3542E-03     59.2240E-03
             319            1284     49.5002E-03     50.9108E-03
             319            1289     97.1322E-03     101.099E-03
             319            1290     89.5540E-03     83.9143E-03
             320             162     51.4614E-03     53.8373E-03
             320             163     81.7013E-03     90.5198E-03
             320            1284     49.5002E-03     50.9108E-03
             320            1290     89.5540E-03     83.9143E-03
             321             105     102.524E-03     118.751E-03
             321             106     136.010E-03     157.814E-03
             321            1285     105.195E-03     107.159E-03
             321            1291     139.388E-03     141.289E-03
             322            1285     105.195E-03     107.159E-03
             322            1286     100.555E-03     109.222E-03
             322            1291     139.388E-03     141.289E-03
             322            1292     132.638E-03     146.732E-03
             323            1286     100.555E-03     109.222E-03
             323            1287     109.715E-03     106.952E-03
             323            1292     132.638E-03     146.732E-03
             323            1293     147.993E-03     141.929E-03
             324            1287     109.715E-03     106.952E-03
             324            1288     109.164E-03     105.903E-03
             324            1293     147.993E-03     141.929E-03
             324            1294     149.863E-03     144.351E-03
             325            1288     109.164E-03     105.903E-03
             325            1289     97.1322E-03     101.099E-03
             325            1294     149.863E-03     144.351E-03
             325            1295     142.961E-03     141.096E-03
             326            1289     97.1322E-03     101.099E-03
             326            1290     89.5540E-03     83.9143E-03
             326            1295     142.961E-03     141.096E-03
             326            1296     136.325E-03     127.486E-03
             327             163     81.7013E-03     90.5198E-03
             327             164     117.962E-03     142.168E-03
             327            1290     89.5540E-03     83.9143E-03
             327            1296     136.325E-03     127.486E-03
             328             106     136.010E-03     157.814E-03
             328             107     162.688E-03     189.457E-03
             328            1291     139.388E-03     141.289E-03
             328            1297     165.806E-03     167.991E-03
             329            1291     139.388E-03     141.289E-03
             329            1292     132.638E-03     146.732E-03
             329            1297     165.806E-03     167.991E-03
             329            1298     157.658E-03     178.431E-03
             330            1292     132.638E-03     146.732E-03
             330            1293     147.993E-03     141.929E-03
             330            1298     157.658E-03     178.431E-03
             330            1299     176.678E-03     170.311E-03
             331            1293     147.993E-03     141.929E-03
             331            1294     149.863E-03     144.351E-03
             331            1299     176.678E-03     170.311E-03
             331            1300     174.802E-03     174.206E-03
             332            1294     149.863E-03     144.351E-03
             332            1295     142.961E-03     141.096E-03
             332            1300     174.802E-03     174.206E-03
             332            1301     174.554E-03     173.939E-03
             333            1295     142.961E-03     141.096E-03
             333            1296     136.325E-03     127.486E-03
             333            1301     174.554E-03     173.939E-03
             333            1302     175.494E-03     168.000E-03
             334             164     117.962E-03     142.168E-03
             334             165     148.526E-03     191.653E-03
             334            1296     136.325E-03     127.486E-03
             334            1302     175.494E-03     168.000E-03
             335             107     162.688E-03     189.457E-03
             335             108     184.649E-03     205.300E-03
             335            1297     165.806E-03     167.991E-03
             335            1303     181.051E-03     183.793E-03
             336            1297     165.806E-03     167.991E-03
             336            1298     157.658E-03     178.431E-03
             336            1303     181.051E-03     183.793E-03
             336            1304     175.688E-03     193.801E-03
             337            1298     157.658E-03     178.431E-03
             337            1299     176.678E-03     170.311E-03
             337            1304     175.688E-03     193.801E-03
             337            1305     190.833E-03     182.203E-03
             338            1299     176.678E-03     170.311E-03
             338            1300     174.802E-03     174.206E-03
             338            1305     190.833E-03     182.203E-03
             338            1306     188.251E-03     189.695E-03
             339            1300     174.802E-03     174.206E-03
             339            1301     174.554E-03     173.939E-03
             339            1306     188.251E-03     189.695E-03
             339            1307     195.762E-03     195.179E-03
             340            1301     174.554E-03     173.939E-03
             340            1302     175.494E-03     168.000E-03
             340            1307     195.762E-03     195.179E-03
             340            1308     206.475E-03     199.576E-03
             341             165     148.526E-03     191.653E-03
             341             166     184.919E-03     225.760E-03
             341            1302     175.494E-03     168.000E-03
             341            1308     206.475E-03     199.576E-03
             342               6     192.040E-03     199.390E-03
             342             108     184.649E-03     205.300E-03
             342             172     184.566E-03     186.615E-03
             342            1303     181.051E-03     183.793E-03
             343             171     182.748E-03     191.432E-03
             343             172     184.566E-03     186.615E-03
             343            1303     181.051E-03     183.793E-03
             343            1304     175.688E-03     193.801E-03
             344             170     189.404E-03     181.920E-03
             344             171     182.748E-03     191.432E-03
             344            1304     175.688E-03     193.801E-03
             344            1305     190.833E-03     182.203E-03
             345             169     193.976E-03     193.889E-03
             345             170     189.404E-03     181.920E-03
             345            1305     190.833E-03     182.203E-03
             345            1306     188.251E-03     189.695E-03
             346             168     203.646E-03     201.828E-03
             346             169     193.976E-03     193.889E-03
             346            1306     188.251E-03     189.695E-03
             346            1307     195.762E-03     195.179E-03
             347             167     213.594E-03     210.653E-03
             347             168     203.646E-03     201.828E-03
             347            1307     195.762E-03     195.179E-03
             347            1308     206.475E-03     199.576E-03
             348               8     206.030E-03     227.592E-03
             348             166     184.919E-03     225.760E-03
             348             167     213.594E-03     210.653E-03
             348            1308     206.475E-03     199.576E-03
             349               7     51.2184E-03     57.7149E-03
             349             162     51.4614E-03     53.8373E-03
             349             173     53.9203E-03     50.5666E-03
             349            1309     61.3941E-03     58.2353E-03
             350             173     53.9203E-03     50.5666E-03
             350             174     54.0002E-03     53.3975E-03
             350            1309     61.3941E-03     58.2353E-03
             350            1310     62.5460E-03     62.2913E-03
             351             174     54.0002E-03     53.3975E-03
             351             175     51.4266E-03     53.3440E-03
             351            1310     62.5460E-03     62.2913E-03
             351            1311     59.5774E-03     63.0263E-03
             352             175     51.4266E-03     53.3440E-03
             352             176     52.8097E-03     51.6511E-03
             352            1311     59.5774E-03     63.0263E-03
             352            1312     61.5852E-03     59.3708E-03
             353             176     52.8097E-03     51.6511E-03
             353             177     51.5560E-03     53.1349E-03
             353            1312     61.5852E-03     59.3708E-03
             353            1313     59.5349E-03     59.9117E-03
             354             177     51.5560E-03     53.1349E-03
             354             178     43.3226E-03     45.7378E-03
             354            1313     59.5349E-03     59.9117E-03
             354            1314     50.5159E-03     53.6076E-03
             355               9     42.7633E-03     42.3817E-03
             355             178     43.3226E-03     45.7378E-03
             355             179     49.7334E-03     50.1826E-03
             355            1314     50.5159E-03     53.6076E-03
             356             162     51.4614E-03     53.8373E-03
             356             163     81.7013E-03     90.5198E-03
             356            1309     61.3941E-03     58.2353E-03
             356            1315     99.6109E-03     95.4245E-03
             357            1309     61.3941E-03     58.2353E-03
             357            1310     62.5460E-03     62.2913E-03
             357            1315     99.6109E-03     95.4245E-03
             357            1316     102.818E-03     97.6843E-03
             358            1310     62.5460E-03     62.2913E-03
             358            1311     59.5774E-03     63.0263E-03
             358            1316     102.818E-03     97.6843E-03
             358            1317     92.5462E-03     100.294E-03
             359            1311     59.5774E-03     63.0263E-03
             359            1312     61.5852E-03     59.3708E-03
             359            1317     92.5462E-03     100.294E-03
             359            1318     96.0385E-03     91.4136E-03
             360            1312     61.5852E-03     59.3708E-03
             360            1313     59.5349E-03     59.9117E-03
             360            1318     96.0385E-03     91.4136E-03
             360            1319     89.6655E-03     87.4066E-03
             361            1313     59.5349E-03     59.9117E-03
             361            1314     50.5159E-03     53.6076E-03
             361            1319     89.6655E-03     87.4066E-03
             361            1320     77.9648E-03     83.5266E-03
             362             179     49.7334E-03     50.1826E-03
             362             180     77.7756E-03     83.8034E-03
             362            1314     50.5159E-03     53.6076E-03
             362            1320     77.9648E-03     83.5266E-03
             363             163     81.7013E-03     90.5198E-03
             363             164     117.962E-03     142.168E-03
             363            1315     99.6109E-03     95.4245E-03
             363            1321     141.724E-03     135.248E-03
             364            1315     99.6109E-03     95.4245E-03
             364            1316     102.818E-03     97.6843E-03
             364            1321     141.724E-03     135.248E-03
             364            1322     144.482E-03     130.968E-03
             365            1316     102.818E-03     97.6843E-03
             365            1317     92.5462E-03     100.294E-03
             365            1322     144.482E-03     130.968E-03
             365            1323     124.586E-03     136.606E-03
             366            1317     92.5462E-03     100.294E-03
             366            1318     96.0385E-03     91.4136E-03
             366            1323     124.586E-03     136.606E-03
             366            1324     132.433E-03     123.848E-03
             367            1318     96.0385E-03     91.4136E-03
             367            1319     89.6655E-03     87.4066E-03
             367            1324     132.433E-03     123.848E-03
             367            1325     123.709E-03     120.695E-03
             368            1319     89.6655E-03     87.4066E-03
             368            1320     77.9648E-03     83.5266E-03
             368            1325     123.709E-03     120.695E-03
             368            1326     107.251E-03     118.616E-03
             369             180     77.7756E-03     83.8034E-03
             369             181     108.301E-03     122.926E-03
             369            1320     77.9648E-03     83.5266E-03
             369            1326     107.251E-03     118.616E-03
             370             164     117.962E-03     142.168E-03
             370             165     148.526E-03     191.653E-03
             370            1321     141.724E-03     135.248E-03
             370            1327     175.909E-03     173.316E-03
             371            1321     141.724E-03     135.248E-03
             371            1322     144.482E-03     130.968E-03
             371            1327     175.909E-03     173.316E-03
             371            1328     175.055E-03     161.747E-03
             372            1322     144.482E-03     130.968E-03
             372            1323     124.586E-03     136.606E-03
             372            1328     175.055E-03     161.747E-03
             372            1329     145.404E-03     166.156E-03
             373            1323     124.586E-03     136.606E-03
             373            1324     132.433E-03     123.848E-03
             373            1329     145.404E-03     166.156E-03
             373            1330     158.961E-03     150.289E-03
             374            1324     132.433E-03     123.848E-03
             374            1325     123.709E-03     120.695E-03
             374            1330     158.961E-03     150.289E-03
             374            1331     152.777E-03     151.544E-03
             375            1325     123.709E-03     120.695E-03
             375            1326     107.251E-03     118.616E-03
             375            1331     152.777E-03     151.544E-03
             375            1332     133.040E-03     149.666E-03
             376             181     108.301E-03     122.926E-03
             376             182     133.334E-03     156.056E-03
             376            1326     107.251E-03     118.616E-03
             376            1332     133.040E-03     149.666E-03
             377             165     148.526E-03     191.653E-03
             377             166     184.919E-03     225.760E-03
             377            1327     175.909E-03     173.316E-03
             377            1333     204.703E-03     202.448E-03
             378            1327     175.909E-03     173.316E-03
             378            1328     175.055E-03     161.747E-03
             378            1333     204.703E-03     202.448E-03
             378            1334     196.161E-03     185.147E-03
             379            1328     175.055E-03     161.747E-03
             379            1329     145.404E-03     166.156E-03
             379            1334     196.161E-03     185.147E-03
             379            1335     165.521E-03     183.864E-03
             380            1329     145.404E-03     166.156E-03
             380            1330     158.961E-03     150.289E-03
             380            1335     165.521E-03     183.864E-03
             380            1336     173.901E-03     165.185E-03
             381            1330     158.961E-03     150.289E-03
             381            1331     152.777E-03     151.544E-03
             381            1336     173.901E-03     165.185E-03
             381            1337     167.654E-03     164.189E-03
             382            1331     152.777E-03     151.544E-03
             382            1332     133.040E-03     149.666E-03
             382            1337     167.654E-03     164.189E-03
             382            1338     151.280E-03     163.520E-03
             383             182     133.334E-03     156.056E-03
             383             183     156.783E-03     177.080E-03
             383            1332     133.040E-03     149.666E-03
             383            1338     151.280E-03     163.520E-03
             384               8     206.030E-03     227.592E-03
             384             166     184.919E-03     225.760E-03
             384             189     210.722E-03     208.975E-03
             384            1333     204.703E-03     202.448E-03
             385             188     200.638E-03     194.300E-03
             385             189     210.722E-03     208.975E-03
             385            1333     204.703E-03     202.448E-03
             385            1334     196.161E-03     185.147E-03
             386             187     182.509E-03     190.011E-03
             386             188     200.638E-03     194.300E-03
             386            1334     196.161E-03     185.147E-03
             386            1335     165.521E-03     183.864E-03
             387             186     178.804E-03     173.291E-03
             387             187     182.509E-03     190.011E-03
             387            1335     165.521E-03     183.864E-03
             387            1336     173.901E-03     165.185E-03
             388             185     168.373E-03     163.800E-03
             388             186     178.804E-03     173.291E-03
             388            1336     173.901E-03     165.185E-03
             388            1337     167.654E-03     164.189E-03
             389             184     158.078E-03     161.591E-03
             389             185     168.373E-03     163.800E-03
             389            1337     167.654E-03     164.189E-03
             389            1338     151.280E-03     163.520E-03
             390              10     167.059E-03     178.004E-03
             390             183     156.783E-03     177.080E-03
             390             184     158.078E-03     161.591E-03
             390            1338     151.280E-03     163.520E-03
             391              11     831.819E-06     819.058E-06
             391             190     838.388E-06     823.644E-06
             391             211     793.880E-06     781.615E-06
             391            1339     800.059E-06     786.568E-06
             392             190     838.388E-06     823.644E-06
             392             191     841.482E-06     830.809E-06
             392            1339     800.059E-06     786.568E-06
             392            1340     805.674E-06     795.167E-06
             393             191     841.482E-06     830.809E-06
             393             192     839.279E-06     830.583E-06
             393            1340     805.674E-06     795.167E-06
             393            1341     806.346E-06     795.149E-06
             394             192     839.279E-06     830.583E-06
             394             193     834.564E-06     831.583E-06
             394            1341     806.346E-06     795.149E-06
             394            1342     807.413E-06     807.808E-06
             395             193     834.564E-06     831.583E-06
             395             194     842.840E-06     834.089E-06
             395            1342     807.413E-06     807.808E-06
             395            1343     829.155E-06     818.863E-06
             396             194     842.840E-06     834.089E-06
             396             195     841.251E-06     816.821E-06
             396            1343     829.155E-06     818.863E-06
             396            1344     829.475E-06     808.326E-06
             397              12     20.2979E-03     20.1553E-03
             397             195     841.251E-06     816.821E-06
             397             196     18.8876E-03     18.7359E-03
             397            1344     829.475E-06     808.326E-06
             398             210     682.974E-06     673.483E-06
             398             211     793.880E-06     781.615E-06
             398            1339     800.059E-06     786.568E-06
             398            1345     688.609E-06     678.997E-06
             399            1339     800.059E-06     786.568E-06
             399            1340     805.674E-06     795.167E-06
             399            1345     688.609E-06     678.997E-06
             399            1346     696.203E-06     689.966E-06
             400            1340     805.674E-06     795.167E-06
             400            1341     806.346E-06     795.149E-06
             400            1346     696.203E-06     689.966E-06
             400            1347     709.008E-06     704.392E-06
             401            1341     806.346E-06     795.149E-06
             401            1342     807.413E-06     807.808E-06
             401            1347     709.008E-06     704.392E-06
             401            1348     726.979E-06     740.185E-06
             402            1342     807.413E-06     807.808E-06
             402            1343     829.155E-06     818.863E-06
             402            1348     726.979E-06     740.185E-06
             402            1349     792.963E-06     760.788E-06
             403            1343     829.155E-06     818.863E-06
             403            1344     829.475E-06     808.326E-06
             403            1349     792.963E-06     760.788E-06
             403            1350     807.163E-06     783.952E-06
             404             196     18.8876E-03     18.7359E-03
             404             197     16.3199E-03     16.1985E-03
             404            1344     829.475E-06     808.326E-06
             404            1350     807.163E-06     783.952E-06
             405             209     496.798E-06     503.399E-06
             405             210     682.974E-06     673.483E-06
             405            1345     688.609E-06     678.997E-06
             405            1351     499.768E-06     511.896E-06
             406            1345     688.609E-06     678.997E-06
             406            1346     696.203E-06     689.966E-06
             406            1351     499.768E-06     511.896E-06
             406            1352     524.131E-06     531.056E-06
             407            1346     696.203E-06     689.966E-06
             407            1347     709.008E-06     704.392E-06
             407            1352     524.131E-06     531.056E-06
             407            1353     565.400E-06     559.976E-06
             408            1347     709.008E-06     704.392E-06
             408            1348     726.979E-06     740.185E-06
             408            1353     565.400E-06     559.976E-06
             408            1354     606.271E-06     637.346E-06
             409            1348     726.979E-06     740.185E-06
             409            1349     792.963E-06     760.788E-06
             409            1354     606.271E-06     637.346E-06
             409            1355     736.157E-06     671.194E-06
             410            1349     792.963E-06     760.788E-06
             410            1350     807.163E-06     783.952E-06
             410            1355     736.157E-06     671.194E-06
             410            1356     772.329E-06     750.833E-06
             411             197     16.3199E-03     16.1985E-03
             411             198     12.5301E-03     12.4255E-03
             411            1350     807.163E-06     783.952E-06
             411            1356     772.329E-06     750.833E-06
             412             208     276.826E-06     322.251E-06
             412             209     496.798E-06     503.399E-06
             412            1351     499.768E-06     511.896E-06
             412            1357     285.525E-06     312.165E-06
             413            1351     499.768E-06     511.896E-06
             413            1352     524.131E-06     531.056E-06
             413            1357     285.525E-06     312.165E-06
             413            1358     320.797E-06     308.632E-06
             414            1352     524.131E-06     531.056E-06
             414            1353     565.400E-06     559.976E-06
             414            1358     320.797E-06     308.632E-06
             414            1359     395.930E-06     367.484E-06
             415            1353     565.400E-06     559.976E-06
             415            1354     606.271E-06     637.346E-06
             415            1359     395.930E-06     367.484E-06
             415            1360     483.035E-06     546.038E-06
             416            1354     606.271E-06     637.346E-06
             416            1355     736.157E-06     671.194E-06
             416            1360     483.035E-06     546.038E-06
             416            1361     711.022E-06     642.036E-06
             417            1355     736.157E-06     671.194E-06
             417            1356     772.329E-06     750.833E-06
             417            1361     711.022E-06     642.036E-06
             417            1362     781.251E-06     778.654E-06
             418             198     12.5301E-03     12.4255E-03
             418             199     8.11803E-03     7.86139E-03
             418            1356     772.329E-06     750.833E-06
             418            1362     781.251E-06     778.654E-06
             419             207     244.977E-06     349.141E-06
             419             208     276.826E-06     322.251E-06
             419            1357     285.525E-06     312.165E-06
             419            1363     244.425E-06     287.363E-06
             420            1357     285.525E-06     312.165E-06
             420            1358     320.797E-06     308.632E-06
             420            1363     244.425E-06     287.363E-06
             420            1364     258.041E-06     238.465E-06
             421            1358     320.797E-06     308.632E-06
             421            1359     395.930E-06     367.484E-06
             421            1364     258.041E-06     238.465E-06
             421            1365     362.334E-06     332.845E-06
             422            1359     395.930E-06     367.484E-06
             422            1360     483.035E-06     546.038E-06
             422            1365     362.334E-06     332.845E-06
             422            1366     499.969E-06     569.982E-06
             423            1360     483.035E-06     546.038E-06
             423            1361     711.022E-06     642.036E-06
             423            1366     499.969E-06     569.982E-06
             423            1367     792.788E-06     739.246E-06
             424            1361     711.022E-06     642.036E-06
             424            1362     781.251E-06     778.654E-06
             424            1367     792.788E-06     739.246E-06
             424            1368     959.087E-06     959.461E-06
             425             199     8.11803E-03     7.86139E-03
             425             200     5.31735E-03     6.47180E-03
             425            1362     781.251E-06     778.654E-06
             425            1368     959.087E-06     959.461E-06
             426              14     258.199E-06     396.660E-06
             426             206     229.769E-06     292.672E-06
             426             207     244.977E-06     349.141E-06
             426            1363     244.425E-06     287.363E-06
             427             205     241.547E-06     232.424E-06
             427             206     229.769E-06     292.672E-06
             427            1363     244.425E-06     287.363E-06
             427            1364     258.041E-06     238.465E-06
             428             204     376.601E-06     359.031E-06
             428             205     241.547E-06     232.424E-06
             428            1364     258.041E-06     238.465E-06
             428            1365     362.334E-06     332.845E-06
             429             203     535.894E-06     571.897E-06
             429             204     376.601E-06     359.031E-06
             429            1365     362.334E-06     332.845E-06
             429            1366     499.969E-06     569.982E-06
             430             202     785.347E-06     756.786E-06
             430             203     535.894E-06     571.897E-06
             430            1366     499.969E-06     569.982E-06
             430            1367     792.788E-06     739.246E-06
             431             201     998.947E-06     1.01684E-03
             431             202     785.347E-06     756.786E-06
             431            1367     792.788E-06     739.246E-06
             431            1368     959.087E-06     959.461E-06
             432              13     3.42577E-03     6.13065E-03
             432             200     5.31735E-03     6.47180E-03
             432             201     998.947E-06     1.01684E-03
             432            1368     959.087E-06     959.461E-06
             433               9     42.7633E-03     42.3817E-03
             433             179     49.7334E-03     50.1826E-03
             433             212     52.9848E-03     50.9777E-03
             433            1369     59.7682E-03     56.8694E-03
             434             212     52.9848E-03     50.9777E-03
             434             213     52.8942E-03     54.1339E-03
             434            1369     59.7682E-03     56.8694E-03
             434            1370     60.7440E-03     60.3726E-03
             435             213     52.8942E-03     54.1339E-03
             435             214     50.7438E-03     53.9313E-03
             435            1370     60.7440E-03     60.3726E-03
             435            1371     57.8651E-03     60.4796E-03
             436             214     50.7438E-03     53.9313E-03
             436             215     52.2215E-03     53.0184E-03
             436            1371     57.8651E-03     60.4796E-03
             436            1372     58.7700E-03     58.4991E-03
             437             215     52.2215E-03     53.0184E-03
             437             216     52.4069E-03     52.3787E-03
             437            1372     58.7700E-03     58.4991E-03
             437            1373     57.9972E-03     57.8799E-03
             438             216     52.4069E-03     52.3787E-03
             438             217     52.4114E-03     51.2056E-03
             438            1373     57.9972E-03     57.8799E-03
             438            1374     56.7790E-03     56.3609E-03
             439             217     52.4114E-03     51.2056E-03
             439             218     52.5388E-03     50.3468E-03
             439            1374     56.7790E-03     56.3609E-03
             439            1375     55.8954E-03     55.0311E-03
             440             218     52.5388E-03     50.3468E-03
             440             219     51.8822E-03     49.2323E-03
             440            1375     55.8954E-03     55.0311E-03
             440            1376     54.8421E-03     52.6997E-03
             441             219     51.8822E-03     49.2323E-03
             441             220     50.6885E-03     50.0592E-03
             441            1376     54.8421E-03     52.6997E-03
             441            1377     53.0021E-03     52.3831E-03
             442             220     50.6885E-03     50.0592E-03
             442             221     48.2575E-03     48.3479E-03
             442            1377     53.0021E-03     52.3831E-03
             442            1378     50.4036E-03     51.3850E-03
             443             221     48.2575E-03     48.3479E-03
             443             222     48.4654E-03     46.8909E-03
             443            1378     50.4036E-03     51.3850E-03
             443            1379     52.2449E-03     50.0469E-03
             444             222     48.4654E-03     46.8909E-03
             444             223     48.2742E-03     49.1458E-03
             444            1379     52.2449E-03     50.0469E-03
             444            1380     52.7110E-03     52.4706E-03
             445             223     48.2742E-03     49.1458E-03
             445             224     46.6898E-03     48.8288E-03
             445            1380     52.7110E-03     52.4706E-03
             445            1381     50.5279E-03     52.2044E-03
             446             224     46.6898E-03     48.8288E-03
             446             225     47.6342E-03     48.0769E-03
             446            1381     50.5279E-03     52.2044E-03
             446            1382     50.9620E-03     50.7023E-03
             447             225     47.6342E-03     48.0769E-03
             447             226     47.7243E-03     47.5892E-03
             447            1382     50.9620E-03     50.7023E-03
             447            1383     50.2458E-03     50.2187E-03
             448             226     47.7243E-03     47.5892E-03
             448             227     47.7281E-03     46.7945E-03
             448            1383     50.2458E-03     50.2187E-03
             448            1384     49.3717E-03     49.1291E-03
             449             227     47.7281E-03     46.7945E-03
             449             228     47.8579E-03     46.2842E-03
             449            1384     49.3717E-03     49.1291E-03
             449            1385     48.8622E-03     48.1276E-03
             450             228     47.8579E-03     46.2842E-03
             450             229     47.4454E-03     45.7009E-03
             450            1385     48.8622E-03     48.1276E-03
             450            1386     48.1191E-03     46.8105E-03
             451             229     47.4454E-03     45.7009E-03
             451             230     46.7519E-03     46.1491E-03
             451            1386     48.1191E-03     46.8105E-03
             451            1387     47.1144E-03     46.6389E-03
             452             230     46.7519E-03     46.1491E-03
             452             231     45.1410E-03     44.7545E-03
             452            1387     47.1144E-03     46.6389E-03
             452            1388     45.5271E-03     45.5993E-03
             453             231     45.1410E-03     44.7545E-03
             453             232     45.0146E-03     43.7686E-03
             453            1388     45.5271E-03     45.5993E-03
             453            1389     46.3081E-03     44.7217E-03
             454             232     45.0146E-03     43.7686E-03
             454             233     44.7991E-03     45.2033E-03
             454            1389     46.3081E-03     44.7217E-03
             454            1390     46.4169E-03     46.1517E-03
             455             233     44.7991E-03     45.2033E-03
             455             234     43.6942E-03     44.9091E-03
             455            1390     46.4169E-03     46.1517E-03
             455            1391     44.9375E-03     45.7090E-03
             456             234     43.6942E-03     44.9091E-03
             456             235     44.1130E-03     44.3804E-03
             456            1391     44.9375E-03     45.7090E-03
             456            1392     45.0234E-03     44.7937E-03
             457             235     44.1130E-03     44.3804E-03
             457             236     44.0148E-03     44.0950E-03
             457            1392     45.0234E-03     44.7937E-03
             457            1393     44.4978E-03     44.5853E-03
             458             236     44.0148E-03     44.0950E-03
             458             237     43.9954E-03     43.5859E-03
             458            1393     44.4978E-03     44.5853E-03
             458            1394     44.0220E-03     44.0290E-03
             459             237     43.9954E-03     43.5859E-03
             459             238     44.0611E-03     43.2508E-03
             459            1394     44.0220E-03     44.0290E-03
             459            1395     43.7723E-03     43.4810E-03
             460             238     44.0611E-03     43.2508E-03
             460             239     44.0169E-03     43.1680E-03
             460            1395     43.7723E-03     43.4810E-03
             460            1396     43.4964E-03     43.0563E-03
             461             239     44.0169E-03     43.1680E-03
             461             240     44.0044E-03     43.0392E-03
             461            1396     43.4964E-03     43.0563E-03
             461            1397     43.3961E-03     42.7120E-03
             462             240     44.0044E-03     43.0392E-03
             462             241     43.7681E-03     42.9768E-03
             462            1397     43.3961E-03     42.7120E-03
             462            1398     43.0603E-03     42.4651E-03
             463             241     43.7681E-03     42.9768E-03
             463             242     41.5826E-03     41.0497E-03
             463            1398     43.0603E-03     42.4651E-03
             463            1399     41.1523E-03     40.7160E-03
             464             242     41.5826E-03     41.0497E-03
             464             243     40.1018E-03     39.5063E-03
             464            1399     41.1523E-03     40.7160E-03
             464            1400     40.0432E-03     39.5229E-03
             465             243     40.1018E-03     39.5063E-03
             465             244     40.2164E-03     39.9146E-03
             465            1400     40.0432E-03     39.5229E-03
             465            1401     40.2968E-03     40.0377E-03
             466             244     40.2164E-03     39.9146E-03
             466             245     39.8453E-03     39.7017E-03
             466            1401     40.2968E-03     40.0377E-03
             466            1402     39.8521E-03     39.6868E-03
             467              12     20.2979E-03     20.1553E-03
             467             245     39.8453E-03     39.7017E-03
             467             246     20.2301E-03     20.0635E-03
             467            1402     39.8521E-03     39.6868E-03
             468             179     49.7334E-03     50.1826E-03
             468             180     77.7756E-03     83.8034E-03
             468            1369     59.7682E-03     56.8694E-03
             468            1403     90.5303E-03     85.8992E-03
             469            1369     59.7682E-03     56.8694E-03
             469            1370     60.7440E-03     60.3726E-03
             469            1403     90.5303E-03     85.8992E-03
             469            1404     92.7320E-03     86.6155E-03
             470            1370     60.7440E-03     60.3726E-03
             470            1371     57.8651E-03     60.4796E-03
             470            1404     92.7320E-03     86.6155E-03
             470            1405     83.6738E-03     86.1325E-03
             471            1371     57.8651E-03     60.4796E-03
             471            1372     58.7700E-03     58.4991E-03
             471            1405     83.6738E-03     86.1325E-03
             471            1406     82.7786E-03     80.2826E-03
             472            1372     58.7700E-03     58.4991E-03
             472            1373     57.9972E-03     57.8799E-03
             472            1406     82.7786E-03     80.2826E-03
             472            1407     79.4643E-03     78.5378E-03
             473            1373     57.9972E-03     57.8799E-03
             473            1374     56.7790E-03     56.3609E-03
             473            1407     79.4643E-03     78.5378E-03
             473            1408     75.7560E-03     75.7980E-03
             474            1374     56.7790E-03     56.3609E-03
             474            1375     55.8954E-03     55.0311E-03
             474            1408     75.7560E-03     75.7980E-03
             474            1409     72.0899E-03     74.2115E-03
             475            1375     55.8954E-03     55.0311E-03
             475            1376     54.8421E-03     52.6997E-03
             475            1409     72.0899E-03     74.2115E-03
             475            1410     71.0359E-03     69.6704E-03
             476            1376     54.8421E-03     52.6997E-03
             476            1377     53.0021E-03     52.3831E-03
             476            1410     71.0359E-03     69.6704E-03
             476            1411     66.5300E-03     65.9498E-03
             477            1377     53.0021E-03     52.3831E-03
             477            1378     50.4036E-03     51.3850E-03
             477            1411     66.5300E-03     65.9498E-03
             477            1412     61.6302E-03     68.0564E-03
             478            1378     50.4036E-03     51.3850E-03
             478            1379     52.2449E-03     50.0469E-03
             478            1412     61.6302E-03     68.0564E-03
             478            1413     70.0351E-03     66.5476E-03
             479            1379     52.2449E-03     50.0469E-03
             479            1380     52.7110E-03     52.4706E-03
             479            1413     70.0351E-03     66.5476E-03
             479            1414     70.9541E-03     66.5744E-03
             480            1380     52.7110E-03     52.4706E-03
             480            1381     50.5279E-03     52.2044E-03
             480            1414     70.9541E-03     66.5744E-03
             480            1415     64.0709E-03     65.5871E-03
             481            1381     50.5279E-03     52.2044E-03
             481            1382     50.9620E-03     50.7023E-03
             481            1415     64.0709E-03     65.5871E-03
             481            1416     62.9470E-03     61.2111E-03
             482            1382     50.9620E-03     50.7023E-03
             482            1383     50.2458E-03     50.2187E-03
             482            1416     62.9470E-03     61.2111E-03
             482            1417     60.1210E-03     59.6914E-03
             483            1383     50.2458E-03     50.2187E-03
             483            1384     49.3717E-03     49.1291E-03
             483            1417     60.1210E-03     59.6914E-03
             483            1418     57.1293E-03     57.5349E-03
             484            1384     49.3717E-03     49.1291E-03
             484            1385     48.8622E-03     48.1276E-03
             484            1418     57.1293E-03     57.5349E-03
             484            1419     54.4823E-03     55.7376E-03
             485            1385     48.8622E-03     48.1276E-03
             485            1386     48.1191E-03     46.8105E-03
             485            1419     54.4823E-03     55.7376E-03
             485            1420     52.7814E-03     52.6750E-03
             486            1386     48.1191E-03     46.8105E-03
             486            1387     47.1144E-03     46.6389E-03
             486            1420     52.7814E-03     52.6750E-03
             486            1421     50.1211E-03     50.1506E-03
             487            1387     47.1144E-03     46.6389E-03
             487            1388     45.5271E-03     45.5993E-03
             487            1421     50.1211E-03     50.1506E-03
             487            1422     48.1310E-03     51.1414E-03
             488            1388     45.5271E-03     45.5993E-03
             488            1389     46.3081E-03     44.7217E-03
             488            1422     48.1310E-03     51.1414E-03
             488            1423     52.7722E-03     50.5072E-03
             489            1389     46.3081E-03     44.7217E-03
             489            1390     46.4169E-03     46.1517E-03
             489            1423     52.7722E-03     50.5072E-03
             489            1424     52.6896E-03     49.9736E-03
             490            1390     46.4169E-03     46.1517E-03
             490            1391     44.9375E-03     45.7090E-03
             490            1424     52.6896E-03     49.9736E-03
             490            1425     48.1584E-03     48.8105E-03
             491            1391     44.9375E-03     45.7090E-03
             491            1392     45.0234E-03     44.7937E-03
             491            1425     48.1584E-03     48.8105E-03
             491            1426     47.1679E-03     46.0712E-03
             492            1392     45.0234E-03     44.7937E-03
             492            1393     44.4978E-03     44.5853E-03
             492            1426     47.1679E-03     46.0712E-03
             492            1427     45.2828E-03     45.0591E-03
             493            1393     44.4978E-03     44.5853E-03
             493            1394     44.0220E-03     44.0290E-03
             493            1427     45.2828E-03     45.0591E-03
             493            1428     43.4651E-03     43.7805E-03
             494            1394     44.0220E-03     44.0290E-03
             494            1395     43.7723E-03     43.4810E-03
             494            1428     43.4651E-03     43.7805E-03
             494            1429     42.0512E-03     42.5267E-03
             495            1395     43.7723E-03     43.4810E-03
             495            1396     43.4964E-03     43.0563E-03
             495            1429     42.0512E-03     42.5267E-03
             495            1430     40.7130E-03     41.3754E-03
             496            1396     43.4964E-03     43.0563E-03
             496            1397     43.3961E-03     42.7120E-03
             496            1430     40.7130E-03     41.3754E-03
             496            1431     39.6449E-03     40.1341E-03
             497            1397     43.3961E-03     42.7120E-03
             497            1398     43.0603E-03     42.4651E-03
             497            1431     39.6449E-03     40.1341E-03
             497            1432     39.0426E-03     39.1884E-03
             498            1398     43.0603E-03     42.4651E-03
             498            1399     41.1523E-03     40.7160E-03
             498            1432     39.0426E-03     39.1884E-03
             498            1433     38.0614E-03     38.1330E-03
             499            1399     41.1523E-03     40.7160E-03
             499            1400     40.0432E-03     39.5229E-03
             499            1433     38.0614E-03     38.1330E-03
             499            1434     37.8416E-03     37.4229E-03
             500            1400     40.0432E-03     39.5229E-03
             500            1401     40.2968E-03     40.0377E-03
             500            1434     37.8416E-03     37.4229E-03
             500            1435     37.8802E-03     37.4277E-03
             501            1401     40.2968E-03     40.0377E-03
             501            1402     39.8521E-03     39.6868E-03
             501            1435     37.8802E-03     37.4277E-03
             501            1436     37.2012E-03     37.0667E-03
             502             246     20.2301E-03     20.0635E-03
             502             247     18.9125E-03     18.7642E-03
             502            1402     39.8521E-03     39.6868E-03
             502            1436     37.2012E-03     37.0667E-03
             503             180     77.7756E-03     83.8034E-03
             503             181     108.301E-03     122.926E-03
             503            1403     90.5303E-03     85.8992E-03
             503            1437     125.856E-03     121.323E-03
             504            1403     90.5303E-03     85.8992E-03
             504            1404     92.7320E-03     86.6155E-03
             504            1437     125.856E-03     121.323E-03
             504            1438     126.546E-03     115.759E-03
             505            1404     92.7320E-03     86.6155E-03
             505            1405     83.6738E-03     86.1325E-03
             505            1438     126.546E-03     115.759E-03
             505            1439     108.401E-03     114.542E-03
             506            1405     83.6738E-03     86.1325E-03
             506            1406     82.7786E-03     80.2826E-03
             506            1439     108.401E-03     114.542E-03
             506            1440     105.784E-03     103.510E-03
             507            1406     82.7786E-03     80.2826E-03
             507            1407     79.4643E-03     78.5378E-03
             507            1440     105.784E-03     103.510E-03
             507            1441     100.520E-03     100.266E-03
             508            1407     79.4643E-03     78.5378E-03
             508            1408     75.7560E-03     75.7980E-03
             508            1441     100.520E-03     100.266E-03
             508            1442     95.4118E-03     95.5879E-03
             509            1408     75.7560E-03     75.7980E-03
             509            1409     72.0899E-03     74.2115E-03
             509            1442     95.4118E-03     95.5879E-03
             509            1443     90.6830E-03     95.0156E-03
             510            1409     72.0899E-03     74.2115E-03
             510            1410     71.0359E-03     69.6704E-03
             510            1443     90.6830E-03     95.0156E-03
             510            1444     92.9319E-03     90.5444E-03
             511            1410     71.0359E-03     69.6704E-03
             511            1411     66.5300E-03     65.9498E-03
             511            1444     92.9319E-03     90.5444E-03
             511            1445     87.1866E-03     87.4289E-03
             512            1411     66.5300E-03     65.9498E-03
             512            1412     61.6302E-03     68.0564E-03
             512            1445     87.1866E-03     87.4289E-03
             512            1446     77.7166E-03     94.7555E-03
             513            1412     61.6302E-03     68.0564E-03
             513            1413     70.0351E-03     66.5476E-03
             513            1446     77.7166E-03     94.7555E-03
             513            1447     91.6379E-03     88.1696E-03
             514            1413     70.0351E-03     66.5476E-03
             514            1414     70.9541E-03     66.5744E-03
             514            1447     91.6379E-03     88.1696E-03
             514            1448     91.3071E-03     83.4375E-03
             515            1414     70.9541E-03     66.5744E-03
             515            1415     64.0709E-03     65.5871E-03
             515            1448     91.3071E-03     83.4375E-03
             515            1449     77.6194E-03     81.8630E-03
             516            1415     64.0709E-03     65.5871E-03
             516            1416     62.9470E-03     61.2111E-03
             516            1449     77.6194E-03     81.8630E-03
             516            1450     75.0258E-03     73.2812E-03
             517            1416     62.9470E-03     61.2111E-03
             517            1417     60.1210E-03     59.6914E-03
             517            1450     75.0258E-03     73.2812E-03
             517            1451     70.3534E-03     70.1827E-03
             518            1417     60.1210E-03     59.6914E-03
             518            1418     57.1293E-03     57.5349E-03
             518            1451     70.3534E-03     70.1827E-03
             518            1452     65.7777E-03     66.2262E-03
             519            1418     57.1293E-03     57.5349E-03
             519            1419     54.4823E-03     55.7376E-03
             519            1452     65.7777E-03     66.2262E-03
             519            1453     61.8675E-03     64.3876E-03
             520            1419     54.4823E-03     55.7376E-03
             520            1420     52.7814E-03     52.6750E-03
             520            1453     61.8675E-03     64.3876E-03
             520            1454     61.0662E-03     61.0332E-03
             521            1420     52.7814E-03     52.6750E-03
             521            1421     50.1211E-03     50.1506E-03
             521            1454     61.0662E-03     61.0332E-03
             521            1455     57.0527E-03     58.0231E-03
             522            1421     50.1211E-03     50.1506E-03
             522            1422     48.1310E-03     51.1414E-03
             522            1455     57.0527E-03     58.0231E-03
             522            1456     52.8458E-03     62.2486E-03
             523            1422     48.1310E-03     51.1414E-03
             523            1423     52.7722E-03     50.5072E-03
             523            1456     52.8458E-03     62.2486E-03
             523            1457     61.2159E-03     59.0824E-03
             524            1423     52.7722E-03     50.5072E-03
             524            1424     52.6896E-03     49.9736E-03
             524            1457     61.2159E-03     59.0824E-03
             524            1458     60.1553E-03     55.3901E-03
             525            1424     52.6896E-03     49.9736E-03
             525            1425     48.1584E-03     48.8105E-03
             525            1458     60.1553E-03     55.3901E-03
             525            1459     51.0639E-03     53.7234E-03
             526            1425     48.1584E-03     48.8105E-03
             526            1426     47.1679E-03     46.0712E-03
             526            1459     51.0639E-03     53.7234E-03
             526            1460     48.8602E-03     47.7293E-03
             527            1426     47.1679E-03     46.0712E-03
             527            1427     45.2828E-03     45.0591E-03
             527            1460     48.8602E-03     47.7293E-03
             527            1461     45.2017E-03     44.9526E-03
             528            1427     45.2828E-03     45.0591E-03
             528            1428     43.4651E-03     43.7805E-03
             528            1461     45.2017E-03     44.9526E-03
             528            1462     41.6713E-03     42.0292E-03
             529            1428     43.4651E-03     43.7805E-03
             529            1429     42.0512E-03     42.5267E-03
             529            1462     41.6713E-03     42.0292E-03
             529            1463     39.2306E-03     39.4506E-03
             530            1429     42.0512E-03     42.5267E-03
             530            1430     40.7130E-03     41.3754E-03
             530            1463     39.2306E-03     39.4506E-03
             530            1464     36.7214E-03     37.8714E-03
             531            1430     40.7130E-03     41.3754E-03
             531            1431     39.6449E-03     40.1341E-03
             531            1464     36.7214E-03     37.8714E-03
             531            1465     34.6886E-03     36.3660E-03
             532            1431     39.6449E-03     40.1341E-03
             532            1432     39.0426E-03     39.1884E-03
             532            1465     34.6886E-03     36.3660E-03
             532            1466     33.2905E-03     34.7070E-03
             533            1432     39.0426E-03     39.1884E-03
             533            1433     38.0614E-03     38.1330E-03
             533            1466     33.2905E-03     34.7070E-03
             533            1467     32.6976E-03     33.8357E-03
             534            1433     38.0614E-03     38.1330E-03
             534            1434     37.8416E-03     37.4229E-03
             534            1467     32.6976E-03     33.8357E-03
             534            1468     33.4799E-03     33.1391E-03
             535            1434     37.8416E-03     37.4229E-03
             535            1435     37.8802E-03     37.4277E-03
             535            1468     33.4799E-03     33.1391E-03
             535            1469     33.1163E-03     32.7618E-03
             536            1435     37.8802E-03     37.4277E-03
             536            1436     37.2012E-03     37.0667E-03
             536            1469     33.1163E-03     32.7618E-03
             536            1470     31.7776E-03     32.1371E-03
             537             247     18.9125E-03     18.7642E-03
             537             248     16.1549E-03     16.0443E-03
             537            1436     37.2012E-03     37.0667E-03
             537            1470     31.7776E-03     32.1371E-03
             538             181     108.301E-03     122.926E-03
             538             182     133.334E-03     156.056E-03
             538            1437     125.856E-03     121.323E-03
             538            1471     155.497E-03     154.206E-03
             539            1437     125.856E-03     121.323E-03
             539            1438     126.546E-03     115.759E-03
             539            1471     155.497E-03     154.206E-03
             539            1472     153.182E-03     144.343E-03
             540            1438     126.546E-03     115.759E-03
             540            1439     108.401E-03     114.542E-03
             540            1472     153.182E-03     144.343E-03
             540            1473     127.856E-03     141.543E-03
             541            1439     108.401E-03     114.542E-03
             541            1440     105.784E-03     103.510E-03
             541            1473     127.856E-03     141.543E-03
             541            1474     125.067E-03     126.138E-03
             542            1440     105.784E-03     103.510E-03
             542            1441     100.520E-03     100.266E-03
             542            1474     125.067E-03     126.138E-03
             542            1475     117.042E-03     121.774E-03
             543            1441     100.520E-03     100.266E-03
             543            1442     95.4118E-03     95.5879E-03
             543            1475     117.042E-03     121.774E-03
             543            1476     111.096E-03     113.828E-03
             544            1442     95.4118E-03     95.5879E-03
             544            1443     90.6830E-03     95.0156E-03
             544            1476     111.096E-03     113.828E-03
             544            1477     104.573E-03     112.382E-03
             545            1443     90.6830E-03     95.0156E-03
             545            1444     92.9319E-03     90.5444E-03
             545            1477     104.573E-03     112.382E-03
             545            1478     109.829E-03     107.802E-03
             546            1444     92.9319E-03     90.5444E-03
             546            1445     87.1866E-03     87.4289E-03
             546            1478     109.829E-03     107.802E-03
             546            1479     107.078E-03     107.574E-03
             547            1445     87.1866E-03     87.4289E-03
             547            1446     77.7166E-03     94.7555E-03
             547            1479     107.078E-03     107.574E-03
             547            1480     93.8087E-03     120.271E-03
             548            1446     77.7166E-03     94.7555E-03
             548            1447     91.6379E-03     88.1696E-03
             548            1480     93.8087E-03     120.271E-03
             548            1481     110.554E-03     109.573E-03
             549            1447     91.6379E-03     88.1696E-03
             549            1448     91.3071E-03     83.4375E-03
             549            1481     110.554E-03     109.573E-03
             549            1482     108.267E-03     101.659E-03
             550            1448     91.3071E-03     83.4375E-03
             550            1449     77.6194E-03     81.8630E-03
             550            1482     108.267E-03     101.659E-03
             550            1483     88.9042E-03     98.5859E-03
             551            1449     77.6194E-03     81.8630E-03
             551            1450     75.0258E-03     73.2812E-03
             551            1483     88.9042E-03     98.5859E-03
             551            1484     85.7117E-03     86.0686E-03
             552            1450     75.0258E-03     73.2812E-03
             552            1451     70.3534E-03     70.1827E-03
             552            1484     85.7117E-03     86.0686E-03
             552            1485     78.4948E-03     81.4444E-03
             553            1451     70.3534E-03     70.1827E-03
             553            1452     65.7777E-03     66.2262E-03
             553            1485     78.4948E-03     81.4444E-03
             553            1486     72.7337E-03     74.6188E-03
             554            1452     65.7777E-03     66.2262E-03
             554            1453     61.8675E-03     64.3876E-03
             554            1486     72.7337E-03     74.6188E-03
             554            1487     67.3364E-03     71.4300E-03
             555            1453     61.8675E-03     64.3876E-03
             555            1454     61.0662E-03     61.0332E-03
             555            1487     67.3364E-03     71.4300E-03
             555            1488     67.9103E-03     67.7726E-03
             556            1454     61.0662E-03     61.0332E-03
             556            1455     57.0527E-03     58.0231E-03
             556            1488     67.9103E-03     67.7726E-03
             556            1489     65.6328E-03     66.3613E-03
             557            1455     57.0527E-03     58.0231E-03
             557            1456     52.8458E-03     62.2486E-03
             557            1489     65.6328E-03     66.3613E-03
             557            1490     59.0509E-03     74.2140E-03
             558            1456     52.8458E-03     62.2486E-03
             558            1457     61.2159E-03     59.0824E-03
             558            1490     59.0509E-03     74.2140E-03
             558            1491     69.5829E-03     69.0052E-03
             559            1457     61.2159E-03     59.0824E-03
             559            1458     60.1553E-03     55.3901E-03
             559            1491     69.5829E-03     69.0052E-03
             559            1492     67.5384E-03     63.2163E-03
             560            1458     60.1553E-03     55.3901E-03
             560            1459     51.0639E-03     53.7234E-03
             560            1492     67.5384E-03     63.2163E-03
             560            1493     54.1028E-03     60.0041E-03
             561            1459     51.0639E-03     53.7234E-03
             561            1460     48.8602E-03     47.7293E-03
             561            1493     54.1028E-03     60.0041E-03
             561            1494     50.6852E-03     50.4801E-03
             562            1460     48.8602E-03     47.7293E-03
             562            1461     45.2017E-03     44.9526E-03
             562            1494     50.6852E-03     50.4801E-03
             562            1495     44.5436E-03     45.6572E-03
             563            1461     45.2017E-03     44.9526E-03
             563            1462     41.6713E-03     42.0292E-03
             563            1495     44.5436E-03     45.6572E-03
             563            1496     38.9762E-03     40.2801E-03
             564            1462     41.6713E-03     42.0292E-03
             564            1463     39.2306E-03     39.4506E-03
             564            1496     38.9762E-03     40.2801E-03
             564            1497     35.1969E-03     35.4592E-03
             565            1463     39.2306E-03     39.4506E-03
             565            1464     36.7214E-03     37.8714E-03
             565            1497     35.1969E-03     35.4592E-03
             565            1498     31.6010E-03     32.2313E-03
             566            1464     36.7214E-03     37.8714E-03
             566            1465     34.6886E-03     36.3660E-03
             566            1498     31.6010E-03     32.2313E-03
             566            1499     29.5229E-03     30.6854E-03
             567            1465     34.6886E-03     36.3660E-03
             567            1466     33.2905E-03     34.7070E-03
             567            1499     29.5229E-03     30.6854E-03
             567            1500     28.7137E-03     29.7391E-03
             568            1466     33.2905E-03     34.7070E-03
             568            1467     32.6976E-03     33.8357E-03
             568            1500     28.7137E-03     29.7391E-03
             568            1501     26.8910E-03     29.1630E-03
             569            1467     32.6976E-03     33.8357E-03
             569            1468     33.4799E-03     33.1391E-03
             569            1501     26.8910E-03     29.1630E-03
             569            1502     27.1742E-03     27.0829E-03
             570            1468     33.4799E-03     33.1391E-03
             570            1469     33.1163E-03     32.7618E-03
             570            1502     27.1742E-03     27.0829E-03
             570            1503     26.4942E-03     25.6267E-03
             571            1469     33.1163E-03     32.7618E-03
             571            1470     31.7776E-03     32.1371E-03
             571            1503     26.4942E-03     25.6267E-03
             571            1504     24.1679E-03     24.9193E-03
             572             248     16.1549E-03     16.0443E-03
             572             249     12.4784E-03     12.2564E-03
             572            1470     31.7776E-03     32.1371E-03
             572            1504     24.1679E-03     24.9193E-03
             573             182     133.334E-03     156.056E-03
             573             183     156.783E-03     177.080E-03
             573            1471     155.497E-03     154.206E-03
             573            1505     180.118E-03     177.773E-03
             574            1471     155.497E-03     154.206E-03
             574            1472     153.182E-03     144.343E-03
             574            1505     180.118E-03     177.773E-03
             574            1506     171.605E-03     164.281E-03
             575            1472     153.182E-03     144.343E-03
             575            1473     127.856E-03     141.543E-03
             575            1506     171.605E-03     164.281E-03
             575            1507     147.037E-03     158.664E-03
             576            1473     127.856E-03     141.543E-03
             576            1474     125.067E-03     126.138E-03
             576            1507     147.037E-03     158.664E-03
             576            1508     143.150E-03     142.851E-03
             577            1474     125.067E-03     126.138E-03
             577            1475     117.042E-03     121.774E-03
             577            1508     143.150E-03     142.851E-03
             577            1509     132.790E-03     137.121E-03
             578            1475     117.042E-03     121.774E-03
             578            1476     111.096E-03     113.828E-03
             578            1509     132.790E-03     137.121E-03
             578            1510     125.836E-03     126.932E-03
             579            1476     111.096E-03     113.828E-03
             579            1477     104.573E-03     112.382E-03
             579            1510     125.836E-03     126.932E-03
             579            1511     116.433E-03     122.328E-03
             580            1477     104.573E-03     112.382E-03
             580            1478     109.829E-03     107.802E-03
             580            1511     116.433E-03     122.328E-03
             580            1512     117.729E-03     114.485E-03
             581            1478     109.829E-03     107.802E-03
             581            1479     107.078E-03     107.574E-03
             581            1512     117.729E-03     114.485E-03
             581            1513     115.387E-03     111.948E-03
             582            1479     107.078E-03     107.574E-03
             582            1480     93.8087E-03     120.271E-03
             582            1513     115.387E-03     111.948E-03
             582            1514     110.061E-03     131.091E-03
             583            1480     93.8087E-03     120.271E-03
             583            1481     110.554E-03     109.573E-03
             583            1514     110.061E-03     131.091E-03
             583            1515     128.091E-03     126.726E-03
             584            1481     110.554E-03     109.573E-03
             584            1482     108.267E-03     101.659E-03
             584            1515     128.091E-03     126.726E-03
             584            1516     120.769E-03     115.348E-03
             585            1482     108.267E-03     101.659E-03
             585            1483     88.9042E-03     98.5859E-03
             585            1516     120.769E-03     115.348E-03
             585            1517     101.169E-03     109.543E-03
             586            1483     88.9042E-03     98.5859E-03
             586            1484     85.7117E-03     86.0686E-03
             586            1517     101.169E-03     109.543E-03
             586            1518     96.5737E-03     96.1348E-03
             587            1484     85.7117E-03     86.0686E-03
             587            1485     78.4948E-03     81.4444E-03
             587            1518     96.5737E-03     96.1348E-03
             587            1519     87.2218E-03     89.9925E-03
             588            1485     78.4948E-03     81.4444E-03
             588            1486     72.7337E-03     74.6188E-03
             588            1519     87.2218E-03     89.9925E-03
             588            1520     80.1636E-03     81.0289E-03
             589            1486     72.7337E-03     74.6188E-03
             589            1487     67.3364E-03     71.4300E-03
             589            1520     80.1636E-03     81.0289E-03
             589            1521     72.2058E-03     75.0639E-03
             590            1487     67.3364E-03     71.4300E-03
             590            1488     67.9103E-03     67.7726E-03
             590            1521     72.2058E-03     75.0639E-03
             590            1522     69.8254E-03     68.2455E-03
             591            1488     67.9103E-03     67.7726E-03
             591            1489     65.6328E-03     66.3613E-03
             591            1522     69.8254E-03     68.2455E-03
             591            1523     67.0952E-03     64.6483E-03
             592            1489     65.6328E-03     66.3613E-03
             592            1490     59.0509E-03     74.2140E-03
             592            1523     67.0952E-03     64.6483E-03
             592            1524     66.8335E-03     78.9353E-03
             593            1490     59.0509E-03     74.2140E-03
             593            1491     69.5829E-03     69.0052E-03
             593            1524     66.8335E-03     78.9353E-03
             593            1525     79.8829E-03     79.3789E-03
             594            1491     69.5829E-03     69.0052E-03
             594            1492     67.5384E-03     63.2163E-03
             594            1525     79.8829E-03     79.3789E-03
             594            1526     73.8039E-03     70.1804E-03
             595            1492     67.5384E-03     63.2163E-03
             595            1493     54.1028E-03     60.0041E-03
             595            1526     73.8039E-03     70.1804E-03
             595            1527     59.0876E-03     64.3371E-03
             596            1493     54.1028E-03     60.0041E-03
             596            1494     50.6852E-03     50.4801E-03
             596            1527     59.0876E-03     64.3371E-03
             596            1528     53.9420E-03     53.3696E-03
             597            1494     50.6852E-03     50.4801E-03
             597            1495     44.5436E-03     45.6572E-03
             597            1528     53.9420E-03     53.3696E-03
             597            1529     45.7290E-03     47.0070E-03
             598            1495     44.5436E-03     45.6572E-03
             598            1496     38.9762E-03     40.2801E-03
             598            1529     45.7290E-03     47.0070E-03
             598            1530     38.6644E-03     39.4452E-03
             599            1496     38.9762E-03     40.2801E-03
             599            1497     35.1969E-03     35.4592E-03
             599            1530     38.6644E-03     39.4452E-03
             599            1531     32.2964E-03     32.5538E-03
             600            1497     35.1969E-03     35.4592E-03
             600            1498     31.6010E-03     32.2313E-03
             600            1531     32.2964E-03     32.5538E-03
             600            1532     26.5167E-03     26.0952E-03
             601            1498     31.6010E-03     32.2313E-03
             601            1499     29.5229E-03     30.6854E-03
             601            1532     26.5167E-03     26.0952E-03
             601            1533     22.2629E-03     21.7280E-03
             602            1499     29.5229E-03     30.6854E-03
             602            1500     28.7137E-03     29.7391E-03
             602            1533     22.2629E-03     21.7280E-03
             602            1534     21.3598E-03     20.6697E-03
             603            1500     28.7137E-03     29.7391E-03
             603            1501     26.8910E-03     29.1630E-03
             603            1534     21.3598E-03     20.6697E-03
             603            1535     22.1757E-03     25.2188E-03
             604            1501     26.8910E-03     29.1630E-03
             604            1502     27.1742E-03     27.0829E-03
             604            1535     22.1757E-03     25.2188E-03
             604            1536     22.7664E-03     22.7892E-03
             605            1502     27.1742E-03     27.0829E-03
             605            1503     26.4942E-03     25.6267E-03
             605            1536     22.7664E-03     22.7892E-03
             605            1537     17.1661E-03     15.1550E-03
             606            1503     26.4942E-03     25.6267E-03
             606            1504     24.1679E-03     24.9193E-03
             606            1537     17.1661E-03     15.1550E-03
             606            1538     12.5382E-03     15.5103E-03
             607             249     12.4784E-03     12.2564E-03
             607             250     7.43289E-03     8.88426E-03
             607            1504     24.1679E-03     24.9193E-03
             607            1538     12.5382E-03     15.5103E-03
             608              10     167.059E-03     178.004E-03
             608             183     156.783E-03     177.080E-03
             608             284     182.045E-03     180.154E-03
             608            1505     180.118E-03     177.773E-03
             609             283     172.582E-03     168.098E-03
             609             284     182.045E-03     180.154E-03
             609            1505     180.118E-03     177.773E-03
             609            1506     171.605E-03     164.281E-03
             610             282     158.083E-03     162.586E-03
             610             283     172.582E-03     168.098E-03
             610            1506     171.605E-03     164.281E-03
             610            1507     147.037E-03     158.664E-03
             611             281     152.380E-03     151.089E-03
             611             282     158.083E-03     162.586E-03
             611            1507     147.037E-03     158.664E-03
             611            1508     143.150E-03     142.851E-03
             612             280     143.361E-03     144.647E-03
             612             281     152.380E-03     151.089E-03
             612            1508     143.150E-03     142.851E-03
             612            1509     132.790E-03     137.121E-03
             613             279     136.284E-03     135.475E-03
             613             280     143.361E-03     144.647E-03
             613            1509     132.790E-03     137.121E-03
             613            1510     125.836E-03     126.932E-03
             614             278     127.307E-03     128.664E-03
             614             279     136.284E-03     135.475E-03
             614            1510     125.836E-03     126.932E-03
             614            1511     116.433E-03     122.328E-03
             615             277     121.740E-03     118.705E-03
             615             278     127.307E-03     128.664E-03
             615            1511     116.433E-03     122.328E-03
             615            1512     117.729E-03     114.485E-03
             616             276     114.468E-03     109.606E-03
             616             277     121.740E-03     118.705E-03
             616            1512     117.729E-03     114.485E-03
             616            1513     115.387E-03     111.948E-03
             617             275     117.127E-03     125.247E-03
             617             276     114.468E-03     109.606E-03
             617            1513     115.387E-03     111.948E-03
             617            1514     110.061E-03     131.091E-03
             618             274     129.757E-03     128.990E-03
             618             275     117.127E-03     125.247E-03
             618            1514     110.061E-03     131.091E-03
             618            1515     128.091E-03     126.726E-03
             619             273     121.118E-03     117.900E-03
             619             274     129.757E-03     128.990E-03
             619            1515     128.091E-03     126.726E-03
             619            1516     120.769E-03     115.348E-03
             620             272     108.659E-03     112.031E-03
             620             273     121.118E-03     117.900E-03
             620            1516     120.769E-03     115.348E-03
             620            1517     101.169E-03     109.543E-03
             621             271     102.772E-03     101.823E-03
             621             272     108.659E-03     112.031E-03
             621            1517     101.169E-03     109.543E-03
             621            1518     96.5737E-03     96.1348E-03
             622             270     94.5114E-03     95.3100E-03
             622             271     102.772E-03     101.823E-03
             622            1518     96.5737E-03     96.1348E-03
             622            1519     87.2218E-03     89.9925E-03
             623             269     87.5432E-03     87.0418E-03
             623             270     94.5114E-03     95.3100E-03
             623            1519     87.2218E-03     89.9925E-03
             623            1520     80.1636E-03     81.0289E-03
             624             268     79.5601E-03     79.9057E-03
             624             269     87.5432E-03     87.0418E-03
             624            1520     80.1636E-03     81.0289E-03
             624            1521     72.2058E-03     75.0639E-03
             625             267     73.1017E-03     71.2107E-03
             625             268     79.5601E-03     79.9057E-03
             625            1521     72.2058E-03     75.0639E-03
             625            1522     69.8254E-03     68.2455E-03
             626             266     66.0719E-03     62.4958E-03
             626             267     73.1017E-03     71.2107E-03
             626            1522     69.8254E-03     68.2455E-03
             626            1523     67.0952E-03     64.6483E-03
             627             265     70.5460E-03     75.4952E-03
             627             266     66.0719E-03     62.4958E-03
             627            1523     67.0952E-03     64.6483E-03
             627            1524     66.8335E-03     78.9353E-03
             628             264     81.0548E-03     81.3667E-03
             628             265     70.5460E-03     75.4952E-03
             628            1524     66.8335E-03     78.9353E-03
             628            1525     79.8829E-03     79.3789E-03
             629             263     73.4784E-03     71.4222E-03
             629             264     81.0548E-03     81.3667E-03
             629            1525     79.8829E-03     79.3789E-03
             629            1526     73.8039E-03     70.1804E-03
             630             262     63.1629E-03     65.5014E-03
             630             263     73.4784E-03     71.4222E-03
             630            1526     73.8039E-03     70.1804E-03
             630            1527     59.0876E-03     64.3371E-03
             631             261     57.4342E-03     56.7762E-03
             631             262     63.1629E-03     65.5014E-03
             631            1527     59.0876E-03     64.3371E-03
             631            1528     53.9420E-03     53.3696E-03
             632             260     50.1376E-03     50.6169E-03
             632             261     57.4342E-03     56.7762E-03
             632            1528     53.9420E-03     53.3696E-03
             632            1529     45.7290E-03     47.0070E-03
             633             259     43.8653E-03     43.5740E-03
             633             260     50.1376E-03     50.6169E-03
             633            1529     45.7290E-03     47.0070E-03
             633            1530     38.6644E-03     39.4452E-03
             634             258     37.1818E-03     37.0129E-03
             634             259     43.8653E-03     43.5740E-03
             634            1530     38.6644E-03     39.4452E-03
             634            1531     32.2964E-03     32.5538E-03
             635             257     31.0393E-03     30.0912E-03
             635             258     37.1818E-03     37.0129E-03
             635            1531     32.2964E-03     32.5538E-03
             635            1532     26.5167E-03     26.0952E-03
             636             256     25.1123E-03     23.9609E-03
             636             257     31.0393E-03     30.0912E-03
             636            1532     26.5167E-03     26.0952E-03
             636            1533     22.2629E-03     21.7280E-03
             637             255     20.9059E-03     20.1505E-03
             637             256     25.1123E-03     23.9609E-03
             637            1533     22.2629E-03     21.7280E-03
             637            1534     21.3598E-03     20.6697E-03
             638             254     21.3687E-03     24.7256E-03
             638             255     20.9059E-03     20.1505E-03
             638            1534     21.3598E-03     20.6697E-03
             638            1535     22.1757E-03     25.2188E-03
             639             253     21.5429E-03     22.3470E-03
             639             254     21.3687E-03     24.7256E-03
             639            1535     22.1757E-03     25.2188E-03
             639            1536     22.7664E-03     22.7892E-03
             640             252     14.0320E-03     11.9172E-03
             640             253     21.5429E-03     22.3470E-03
             640            1536     22.7664E-03     22.7892E-03
             640            1537     17.1661E-03     15.1550E-03
             641             251     8.23250E-03     11.7404E-03
             641             252     14.0320E-03     11.9172E-03
             641            1537     17.1661E-03     15.1550E-03
             641            1538     12.5382E-03     15.5103E-03
             642              15     4.78685E-03     7.45011E-03
             642             250     7.43289E-03     8.88426E-03
             642             251     8.23250E-03     11.7404E-03
             642            1538     12.5382E-03     15.5103E-03
             643              16     4.40001E-03     5.61850E-03
             643             285     2.12447E-03     3.46190E-03
             643             324     417.110E-06     417.183E-06
             643            1539     410.414E-06     418.847E-06
             644             285     2.12447E-03     3.46190E-03
             644             286     2.09838E-03     1.91037E-03
             644            1539     410.414E-06     418.847E-06
             644            1540     399.429E-06     413.749E-06
             645             286     2.09838E-03     1.91037E-03
             645             287     2.51732E-03     1.75955E-03
             645            1540     399.429E-06     413.749E-06
             645            1541     394.542E-06     408.127E-06
             646             287     2.51732E-03     1.75955E-03
             646             288     2.86885E-03     1.95763E-03
             646            1541     394.542E-06     408.127E-06
             646            1542     393.332E-06     409.915E-06
             647             288     2.86885E-03     1.95763E-03
             647             289     3.20279E-03     2.25034E-03
             647            1542     393.332E-06     409.915E-06
             647            1543     392.503E-06     411.048E-06
             648             289     3.20279E-03     2.25034E-03
             648             290     3.48585E-03     2.51796E-03
             648            1543     392.503E-06     411.048E-06
             648            1544     391.685E-06     412.278E-06
             649             290     3.48585E-03     2.51796E-03
             649             291     3.74557E-03     2.77519E-03
             649            1544     391.685E-06     412.278E-06
             649            1545     391.033E-06     413.608E-06
             650             291     3.74557E-03     2.77519E-03
             650             292     3.98650E-03     3.01406E-03
             650            1545     391.033E-06     413.608E-06
             650            1546     390.760E-06     414.936E-06
             651             292     3.98650E-03     3.01406E-03
             651             293     4.21688E-03     3.24649E-03
             651            1546     390.760E-06     414.936E-06
             651            1547     390.535E-06     416.514E-06
             652             293     4.21688E-03     3.24649E-03
             652             294     4.44206E-03     3.47334E-03
             652            1547     390.535E-06     416.514E-06
             652            1548     390.751E-06     417.955E-06
             653             294     4.44206E-03     3.47334E-03
             653             295     4.66271E-03     3.69643E-03
             653            1548     390.751E-06     417.955E-06
             653            1549     390.957E-06     419.786E-06
             654             295     4.66271E-03     3.69643E-03
             654             296     4.87841E-03     3.91551E-03
             654            1549     390.957E-06     419.786E-06
             654            1550     391.700E-06     421.311E-06
             655             296     4.87841E-03     3.91551E-03
             655             297     5.08524E-03     4.12397E-03
             655            1550     391.700E-06     421.311E-06
             655            1551     392.340E-06     423.458E-06
             656             297     5.08524E-03     4.12397E-03
             656             298     5.27536E-03     4.32034E-03
             656            1551     392.340E-06     423.458E-06
             656            1552     393.661E-06     425.079E-06
             657             298     5.27536E-03     4.32034E-03
             657             299     5.42927E-03     4.48061E-03
             657            1552     393.661E-06     425.079E-06
             657            1553     394.930E-06     427.614E-06
             658             299     5.42927E-03     4.48061E-03
             658             300     5.53804E-03     4.60233E-03
             658            1553     394.930E-06     427.614E-06
             658            1554     396.732E-06     429.567E-06
             659             300     5.53804E-03     4.60233E-03
             659             301     5.53824E-03     4.65803E-03
             659            1554     396.732E-06     429.567E-06
             659            1555     399.015E-06     431.975E-06
             660             301     5.53824E-03     4.65803E-03
             660             302     5.49452E-03     4.69482E-03
             660            1555     399.015E-06     431.975E-06
             660            1556     403.802E-06     437.994E-06
             661              17     5.22135E-03     4.87575E-03
             661             302     5.49452E-03     4.69482E-03
             661             303     419.885E-06     449.989E-06
             661            1556     403.802E-06     437.994E-06
             662             323     421.514E-06     420.854E-06
             662             324     417.110E-06     417.183E-06
             662            1539     410.414E-06     418.847E-06
             662            1557     416.283E-06     420.665E-06
             663            1539     410.414E-06     418.847E-06
             663            1540     399.429E-06     413.749E-06
             663            1557     416.283E-06     420.665E-06
             663            1558     408.272E-06     412.577E-06
             664            1540     399.429E-06     413.749E-06
             664            1541     394.542E-06     408.127E-06
             664            1558     408.272E-06     412.577E-06
             664            1559     406.065E-06     404.728E-06
             665            1541     394.542E-06     408.127E-06
             665            1542     393.332E-06     409.915E-06
             665            1559     406.065E-06     404.728E-06
             665            1560     407.066E-06     404.417E-06
             666            1542     393.332E-06     409.915E-06
             666            1543     392.503E-06     411.048E-06
             666            1560     407.066E-06     404.417E-06
             666            1561     408.365E-06     403.490E-06
             667            1543     392.503E-06     411.048E-06
             667            1544     391.685E-06     412.278E-06
             667            1561     408.365E-06     403.490E-06
             667            1562     409.554E-06     402.770E-06
             668            1544     391.685E-06     412.278E-06
             668            1545     391.033E-06     413.608E-06
             668            1562     409.554E-06     402.770E-06
             668            1563     410.762E-06     402.294E-06
             669            1545     391.033E-06     413.608E-06
             669            1546     390.760E-06     414.936E-06
             669            1563     410.762E-06     402.294E-06
             669            1564     412.217E-06     401.945E-06
             670            1546     390.760E-06     414.936E-06
             670            1547     390.535E-06     416.514E-06
             670            1564     412.217E-06     401.945E-06
             670            1565     413.571E-06     401.969E-06
             671            1547     390.535E-06     416.514E-06
             671            1548     390.751E-06     417.955E-06
             671            1565     413.571E-06     401.969E-06
             671            1566     415.222E-06     402.019E-06
             672            1548     390.751E-06     417.955E-06
             672            1549     390.957E-06     419.786E-06
             672            1566     415.222E-06     402.019E-06
             672            1567     416.725E-06     402.533E-06
             673            1549     390.957E-06     419.786E-06
             673            1550     391.700E-06     421.311E-06
             673            1567     416.725E-06     402.533E-06
             673            1568     418.573E-06     402.975E-06
             674            1550     391.700E-06     421.311E-06
             674            1551     392.340E-06     423.458E-06
             674            1568     418.573E-06     402.975E-06
             674            1569     420.210E-06     403.981E-06
             675            1551     392.340E-06     423.458E-06
             675            1552     393.661E-06     425.079E-06
             675            1569     420.210E-06     403.981E-06
             675            1570     422.228E-06     404.828E-06
             676            1552     393.661E-06     425.079E-06
             676            1553     394.930E-06     427.614E-06
             676            1570     422.228E-06     404.828E-06
             676            1571     424.052E-06     406.220E-06
             677            1553     394.930E-06     427.614E-06
             677            1554     396.732E-06     429.567E-06
             677            1571     424.052E-06     406.220E-06
             677            1572     425.863E-06     407.525E-06
             678            1554     396.732E-06     429.567E-06
             678            1555     399.015E-06     431.975E-06
             678            1572     425.863E-06     407.525E-06
             678            1573     427.412E-06     407.979E-06
             679            1555     399.015E-06     431.975E-06
             679            1556     403.802E-06     437.994E-06
             679            1573     427.412E-06     407.979E-06
             679            1574     431.967E-06     413.829E-06
             680             303     419.885E-06     449.989E-06
             680             304     446.261E-06     423.576E-06
             680            1556     403.802E-06     437.994E-06
             680            1574     431.967E-06     413.829E-06
             681              19     377.826E-06     385.717E-06
             681             322     402.958E-06     407.867E-06
             681             323     421.514E-06     420.854E-06
             681            1557     416.283E-06     420.665E-06
             682             321     426.082E-06     423.034E-06
             682             322     402.958E-06     407.867E-06
             682            1557     416.283E-06     420.665E-06
             682            1558     408.272E-06     412.577E-06
             683             320     424.498E-06     414.140E-06
             683             321     426.082E-06     423.034E-06
             683            1558     408.272E-06     412.577E-06
             683            1559     406.065E-06     404.728E-06
             684             319     425.648E-06     410.775E-06
             684             320     424.498E-06     414.140E-06
             684            1559     406.065E-06     404.728E-06
             684            1560     407.066E-06     404.417E-06
             685             318     427.179E-06     408.472E-06
             685             319     425.648E-06     410.775E-06
             685            1560     407.066E-06     404.417E-06
             685            1561     408.365E-06     403.490E-06
             686             317     428.813E-06     406.248E-06
             686             318     427.179E-06     408.472E-06
             686            1561     408.365E-06     403.490E-06
             686            1562     409.554E-06     402.770E-06
             687             316     430.443E-06     404.181E-06
             687             317     428.813E-06     406.248E-06
             687            1562     409.554E-06     402.770E-06
             687            1563     410.762E-06     402.294E-06
             688             315     432.032E-06     402.613E-06
             688             316     430.443E-06     404.181E-06
             688            1563     410.762E-06     402.294E-06
             688            1564     412.217E-06     401.945E-06
             689             314     433.805E-06     401.120E-06
             689             315     432.032E-06     402.613E-06
             689            1564     412.217E-06     401.945E-06
             689            1565     413.571E-06     401.969E-06
             690             313     435.377E-06     400.194E-06
             690             314     433.805E-06     401.120E-06
             690            1565     413.571E-06     401.969E-06
             690            1566     415.222E-06     402.019E-06
             691             312     437.311E-06     399.258E-06
             691             313     435.377E-06     400.194E-06
             691            1566     415.222E-06     402.019E-06
             691            1567     416.725E-06     402.533E-06
             692             311     438.811E-06     399.029E-06
             692             312     437.311E-06     399.258E-06
             692            1567     416.725E-06     402.533E-06
             692            1568     418.573E-06     402.975E-06
             693             310     440.947E-06     398.582E-06
             693             311     438.811E-06     399.029E-06
             693            1568     418.573E-06     402.975E-06
             693            1569     420.210E-06     403.981E-06
             694             309     442.322E-06     399.102E-06
             694             310     440.947E-06     398.582E-06
             694            1569     420.210E-06     403.981E-06
             694            1570     422.228E-06     404.828E-06
             695             308     444.572E-06     399.042E-06
             695             309     442.322E-06     399.102E-06
             695            1570     422.228E-06     404.828E-06
             695            1571     424.052E-06     406.220E-06
             696             307     445.595E-06     399.963E-06
             696             308     444.572E-06     399.042E-06
             696            1571     424.052E-06     406.220E-06
             696            1572     425.863E-06     407.525E-06
             697             306     446.971E-06     399.895E-06
             697             307     445.595E-06     399.963E-06
             697            1572     425.863E-06     407.525E-06
             697            1573     427.412E-06     407.979E-06
             698             305     453.888E-06     404.905E-06
             698             306     446.971E-06     399.895E-06
             698            1573     427.412E-06     407.979E-06
             698            1574     431.967E-06     413.829E-06
             699              18     441.433E-06     394.508E-06
             699             304     446.261E-06     423.576E-06
             699             305     453.888E-06     404.905E-06
             699            1574     431.967E-06     413.829E-06
             700              16     4.40001E-03     5.61850E-03
             700             325     6.68234E-03     6.75495E-03
             700             454     8.57502E-03     9.84135E-03
             700            1575     12.3059E-03     12.7675E-03
             701             325     6.68234E-03     6.75495E-03
             701             326     7.05431E-03     7.12466E-03
             701            1575     12.3059E-03     12.7675E-03
             701            1576     13.6186E-03     13.9759E-03
             702             326     7.05431E-03     7.12466E-03
             702             327     7.40754E-03     7.41052E-03
             702            1576     13.6186E-03     13.9759E-03
             702            1577     14.4205E-03     14.5080E-03
             703             327     7.40754E-03     7.41052E-03
             703             328     7.76804E-03     7.73414E-03
             703            1577     14.4205E-03     14.5080E-03
             703            1578     15.0891E-03     15.0568E-03
             704             328     7.76804E-03     7.73414E-03
             704             329     8.03082E-03     7.95791E-03
             704            1578     15.0891E-03     15.0568E-03
             704            1579     15.5729E-03     15.4515E-03
             705             329     8.03082E-03     7.95791E-03
             705             330     8.25741E-03     8.15010E-03
             705            1579     15.5729E-03     15.4515E-03
             705            1580     15.9659E-03     15.7645E-03
             706             330     8.25741E-03     8.15010E-03
             706             331     8.43320E-03     8.28672E-03
             706            1580     15.9659E-03     15.7645E-03
             706            1581     16.2879E-03     16.0164E-03
             707             331     8.43320E-03     8.28672E-03
             707             332     8.59106E-03     8.40703E-03
             707            1581     16.2879E-03     16.0164E-03
             707            1582     16.5767E-03     16.2317E-03
             708             332     8.59106E-03     8.40703E-03
             708             333     8.72572E-03     8.50200E-03
             708            1582     16.5767E-03     16.2317E-03
             708            1583     16.8424E-03     16.4277E-03
             709             333     8.72572E-03     8.50200E-03
             709             334     8.84717E-03     8.58511E-03
             709            1583     16.8424E-03     16.4277E-03
             709            1584     17.0971E-03     16.6115E-03
             710             334     8.84717E-03     8.58511E-03
             710             335     8.95420E-03     8.65208E-03
             710            1584     17.0971E-03     16.6115E-03
             710            1585     17.3336E-03     16.7799E-03
             711             335     8.95420E-03     8.65208E-03
             711             336     9.02925E-03     8.69043E-03
             711            1585     17.3336E-03     16.7799E-03
             711            1586     17.5460E-03     16.9195E-03
             712             336     9.02925E-03     8.69043E-03
             712             337     9.07524E-03     8.69107E-03
             712            1586     17.5460E-03     16.9195E-03
             712            1587     17.6988E-03     17.0072E-03
             713             337     9.07524E-03     8.69107E-03
             713             338     9.03295E-03     8.61645E-03
             713            1587     17.6988E-03     17.0072E-03
             713            1588     17.7633E-03     16.9868E-03
             714             338     9.03295E-03     8.61645E-03
             714             339     8.90599E-03     8.42658E-03
             714            1588     17.7633E-03     16.9868E-03
             714            1589     17.6354E-03     16.7948E-03
             715             339     8.90599E-03     8.42658E-03
             715             340     8.56540E-03     8.05271E-03
             715            1589     17.6354E-03     16.7948E-03
             715            1590     17.2230E-03     16.2691E-03
             716             340     8.56540E-03     8.05271E-03
             716             341     8.01549E-03     7.39532E-03
             716            1590     17.2230E-03     16.2691E-03
             716            1591     16.2949E-03     15.2449E-03
             717             341     8.01549E-03     7.39532E-03
             717             342     6.96184E-03     6.26168E-03
             717            1591     16.2949E-03     15.2449E-03
             717            1592     14.5151E-03     13.3132E-03
             718              20     5.48828E-03     4.61805E-03
             718             342     6.96184E-03     6.26168E-03
             718             343     11.3873E-03     10.0531E-03
             718            1592     14.5151E-03     13.3132E-03
             719             453     8.33692E-03     7.83307E-03
             719             454     8.57502E-03     9.84135E-03
             719            1575     12.3059E-03     12.7675E-03
             719            1593     11.3563E-03     11.3674E-03
             720            1575     12.3059E-03     12.7675E-03
             720            1576     13.6186E-03     13.9759E-03
             720            1593     11.3563E-03     11.3674E-03
             720            1594     13.3758E-03     13.6159E-03
             721            1576     13.6186E-03     13.9759E-03
             721            1577     14.4205E-03     14.5080E-03
             721            1594     13.3758E-03     13.6159E-03
             721            1595     14.4053E-03     14.5730E-03
             722            1577     14.4205E-03     14.5080E-03
             722            1578     15.0891E-03     15.0568E-03
             722            1595     14.4053E-03     14.5730E-03
             722            1596     15.0190E-03     15.0456E-03
             723            1578     15.0891E-03     15.0568E-03
             723            1579     15.5729E-03     15.4515E-03
             723            1596     15.0190E-03     15.0456E-03
             723            1597     15.4192E-03     15.3756E-03
             724            1579     15.5729E-03     15.4515E-03
             724            1580     15.9659E-03     15.7645E-03
             724            1597     15.4192E-03     15.3756E-03
             724            1598     15.7059E-03     15.5969E-03
             725            1580     15.9659E-03     15.7645E-03
             725            1581     16.2879E-03     16.0164E-03
             725            1598     15.7059E-03     15.5969E-03
             725            1599     15.9489E-03     15.7857E-03
             726            1581     16.2879E-03     16.0164E-03
             726            1582     16.5767E-03     16.2317E-03
             726            1599     15.9489E-03     15.7857E-03
             726            1600     16.1847E-03     15.9707E-03
             727            1582     16.5767E-03     16.2317E-03
             727            1583     16.8424E-03     16.4277E-03
             727            1600     16.1847E-03     15.9707E-03
             727            1601     16.4344E-03     16.1730E-03
             728            1583     16.8424E-03     16.4277E-03
             728            1584     17.0971E-03     16.6115E-03
             728            1601     16.4344E-03     16.1730E-03
             728            1602     16.7034E-03     16.3959E-03
             729            1584     17.0971E-03     16.6115E-03
             729            1585     17.3336E-03     16.7799E-03
             729            1602     16.7034E-03     16.3959E-03
             729            1603     16.9954E-03     16.6424E-03
             730            1585     17.3336E-03     16.7799E-03
             730            1586     17.5460E-03     16.9195E-03
             730            1603     16.9954E-03     16.6424E-03
             730            1604     17.3028E-03     16.9055E-03
             731            1586     17.5460E-03     16.9195E-03
             731            1587     17.6988E-03     17.0072E-03
             731            1604     17.3028E-03     16.9055E-03
             731            1605     17.6156E-03     17.1709E-03
             732            1587     17.6988E-03     17.0072E-03
             732            1588     17.7633E-03     16.9868E-03
             732            1605     17.6156E-03     17.1709E-03
             732            1606     17.8956E-03     17.4080E-03
             733            1588     17.7633E-03     16.9868E-03
             733            1589     17.6354E-03     16.7948E-03
             733            1606     17.8956E-03     17.4080E-03
             733            1607     18.0863E-03     17.5475E-03
             734            1589     17.6354E-03     16.7948E-03
             734            1590     17.2230E-03     16.2691E-03
             734            1607     18.0863E-03     17.5475E-03
             734            1608     18.0378E-03     17.4706E-03
             735            1590     17.2230E-03     16.2691E-03
             735            1591     16.2949E-03     15.2449E-03
             735            1608     18.0378E-03     17.4706E-03
             735            1609     17.4751E-03     16.8946E-03
             736            1591     16.2949E-03     15.2449E-03
             736            1592     14.5151E-03     13.3132E-03
             736            1609     17.4751E-03     16.8946E-03
             736            1610     16.0369E-03     15.4753E-03
             737             343     11.3873E-03     10.0531E-03
             737             344     12.3535E-03     12.2241E-03
             737            1592     14.5151E-03     13.3132E-03
             737            1610     16.0369E-03     15.4753E-03
             738             452     7.84323E-03     7.04301E-03
             738             453     8.33692E-03     7.83307E-03
             738            1593     11.3563E-03     11.3674E-03
             738            1611     10.8432E-03     10.1344E-03
             739            1593     11.3563E-03     11.3674E-03
             739            1594     13.3758E-03     13.6159E-03
             739            1611     10.8432E-03     10.1344E-03
             739            1612     13.0305E-03     12.7239E-03
             740            1594     13.3758E-03     13.6159E-03
             740            1595     14.4053E-03     14.5730E-03
             740            1612     13.0305E-03     12.7239E-03
             740            1613     14.2955E-03     14.2608E-03
             741            1595     14.4053E-03     14.5730E-03
             741            1596     15.0190E-03     15.0456E-03
             741            1613     14.2955E-03     14.2608E-03
             741            1614     14.9336E-03     14.9427E-03
             742            1596     15.0190E-03     15.0456E-03
             742            1597     15.4192E-03     15.3756E-03
             742            1614     14.9336E-03     14.9427E-03
             742            1615     15.2774E-03     15.2715E-03
             743            1597     15.4192E-03     15.3756E-03
             743            1598     15.7059E-03     15.5969E-03
             743            1615     15.2774E-03     15.2715E-03
             743            1616     15.4756E-03     15.4470E-03
             744            1598     15.7059E-03     15.5969E-03
             744            1599     15.9489E-03     15.7857E-03
             744            1616     15.4756E-03     15.4470E-03
             744            1617     15.6456E-03     15.5883E-03
             745            1599     15.9489E-03     15.7857E-03
             745            1600     16.1847E-03     15.9707E-03
             745            1617     15.6456E-03     15.5883E-03
             745            1618     15.8340E-03     15.7558E-03
             746            1600     16.1847E-03     15.9707E-03
             746            1601     16.4344E-03     16.1730E-03
             746            1618     15.8340E-03     15.7558E-03
             746            1619     16.0632E-03     15.9634E-03
             747            1601     16.4344E-03     16.1730E-03
             747            1602     16.7034E-03     16.3959E-03
             747            1619     16.0632E-03     15.9634E-03
             747            1620     16.3432E-03     16.2258E-03
             748            1602     16.7034E-03     16.3959E-03
             748            1603     16.9954E-03     16.6424E-03
             748            1620     16.3432E-03     16.2258E-03
             748            1621     16.6778E-03     16.5410E-03
             749            1603     16.9954E-03     16.6424E-03
             749            1604     17.3028E-03     16.9055E-03
             749            1621     16.6778E-03     16.5410E-03
             749            1622     17.0634E-03     16.9114E-03
             750            1604     17.3028E-03     16.9055E-03
             750            1605     17.6156E-03     17.1709E-03
             750            1622     17.0634E-03     16.9114E-03
             750            1623     17.4978E-03     17.3249E-03
             751            1605     17.6156E-03     17.1709E-03
             751            1606     17.8956E-03     17.4080E-03
             751            1623     17.4978E-03     17.3249E-03
             751            1624     17.9466E-03     17.7654E-03
             752            1606     17.8956E-03     17.4080E-03
             752            1607     18.0863E-03     17.5475E-03
             752            1624     17.9466E-03     17.7654E-03
             752            1625     18.3600E-03     18.1629E-03
             753            1607     18.0863E-03     17.5475E-03
             753            1608     18.0378E-03     17.4706E-03
             753            1625     18.3600E-03     18.1629E-03
             753            1626     18.5784E-03     18.4098E-03
             754            1608     18.0378E-03     17.4706E-03
             754            1609     17.4751E-03     16.8946E-03
             754            1626     18.5784E-03     18.4098E-03
             754            1627     18.3032E-03     18.2105E-03
             755            1609     17.4751E-03     16.8946E-03
             755            1610     16.0369E-03     15.4753E-03
             755            1627     18.3032E-03     18.2105E-03
             755            1628     16.8852E-03     17.0487E-03
             756             344     12.3535E-03     12.2241E-03
             756             345     13.7453E-03     14.1875E-03
             756            1610     16.0369E-03     15.4753E-03
             756            1628     16.8852E-03     17.0487E-03
             757             451     8.00576E-03     7.37287E-03
             757             452     7.84323E-03     7.04301E-03
             757            1611     10.8432E-03     10.1344E-03
             757            1629     10.6829E-03     9.95434E-03
             758            1611     10.8432E-03     10.1344E-03
             758            1612     13.0305E-03     12.7239E-03
             758            1629     10.6829E-03     9.95434E-03
             758            1630     12.7930E-03     12.2500E-03
             759            1612     13.0305E-03     12.7239E-03
             759            1613     14.2955E-03     14.2608E-03
             759            1630     12.7930E-03     12.2500E-03
             759            1631     14.1013E-03     13.8538E-03
             760            1613     14.2955E-03     14.2608E-03
             760            1614     14.9336E-03     14.9427E-03
             760            1631     14.1013E-03     13.8538E-03
             760            1632     14.7620E-03     14.7260E-03
             761            1614     14.9336E-03     14.9427E-03
             761            1615     15.2774E-03     15.2715E-03
             761            1632     14.7620E-03     14.7260E-03
             761            1633     15.0279E-03     15.0483E-03
             762            1615     15.2774E-03     15.2715E-03
             762            1616     15.4756E-03     15.4470E-03
             762            1633     15.0279E-03     15.0483E-03
             762            1634     15.1726E-03     15.2111E-03
             763            1616     15.4756E-03     15.4470E-03
             763            1617     15.6456E-03     15.5883E-03
             763            1634     15.1726E-03     15.2111E-03
             763            1635     15.2963E-03     15.3489E-03
             764            1617     15.6456E-03     15.5883E-03
             764            1618     15.8340E-03     15.7558E-03
             764            1635     15.2963E-03     15.3489E-03
             764            1636     15.4543E-03     15.5137E-03
             765            1618     15.8340E-03     15.7558E-03
             765            1619     16.0632E-03     15.9634E-03
             765            1636     15.4543E-03     15.5137E-03
             765            1637     15.6710E-03     15.7419E-03
             766            1619     16.0632E-03     15.9634E-03
             766            1620     16.3432E-03     16.2258E-03
             766            1637     15.6710E-03     15.7419E-03
             766            1638     15.9560E-03     16.0348E-03
             767            1620     16.3432E-03     16.2258E-03
             767            1621     16.6778E-03     16.5410E-03
             767            1638     15.9560E-03     16.0348E-03
             767            1639     16.3101E-03     16.4006E-03
             768            1621     16.6778E-03     16.5410E-03
             768            1622     17.0634E-03     16.9114E-03
             768            1639     16.3101E-03     16.4006E-03
             768            1640     16.7396E-03     16.8354E-03
             769            1622     17.0634E-03     16.9114E-03
             769            1623     17.4978E-03     17.3249E-03
             769            1640     16.7396E-03     16.8354E-03
             769            1641     17.2260E-03     17.3387E-03
             770            1623     17.4978E-03     17.3249E-03
             770            1624     17.9466E-03     17.7654E-03
             770            1641     17.2260E-03     17.3387E-03
             770            1642     17.7710E-03     17.8847E-03
             771            1624     17.9466E-03     17.7654E-03
             771            1625     18.3600E-03     18.1629E-03
             771            1642     17.7710E-03     17.8847E-03
             771            1643     18.2927E-03     18.4457E-03
             772            1625     18.3600E-03     18.1629E-03
             772            1626     18.5784E-03     18.4098E-03
             772            1643     18.2927E-03     18.4457E-03
             772            1644     18.7045E-03     18.8812E-03
             773            1626     18.5784E-03     18.4098E-03
             773            1627     18.3032E-03     18.2105E-03
             773            1644     18.7045E-03     18.8812E-03
             773            1645     18.7585E-03     19.0452E-03
             774            1627     18.3032E-03     18.2105E-03
             774            1628     16.8852E-03     17.0487E-03
             774            1645     18.7585E-03     19.0452E-03
             774            1646     17.8872E-03     18.4065E-03
             775             345     13.7453E-03     14.1875E-03
             775             346     16.1785E-03     16.7276E-03
             775            1628     16.8852E-03     17.0487E-03
             775            1646     17.8872E-03     18.4065E-03
             776             450     8.56297E-03     7.94300E-03
             776             451     8.00576E-03     7.37287E-03
             776            1629     10.6829E-03     9.95434E-03
             776            1647     11.0320E-03     10.1666E-03
             777            1629     10.6829E-03     9.95434E-03
             777            1630     12.7930E-03     12.2500E-03
             777            1647     11.0320E-03     10.1666E-03
             777            1648     12.8551E-03     12.3622E-03
             778            1630     12.7930E-03     12.2500E-03
             778            1631     14.1013E-03     13.8538E-03
             778            1648     12.8551E-03     12.3622E-03
             778            1649     13.9520E-03     13.7400E-03
             779            1631     14.1013E-03     13.8538E-03
             779            1632     14.7620E-03     14.7260E-03
             779            1649     13.9520E-03     13.7400E-03
             779            1650     14.4142E-03     14.3563E-03
             780            1632     14.7620E-03     14.7260E-03
             780            1633     15.0279E-03     15.0483E-03
             780            1650     14.4142E-03     14.3563E-03
             780            1651     14.6172E-03     14.6660E-03
             781            1633     15.0279E-03     15.0483E-03
             781            1634     15.1726E-03     15.2111E-03
             781            1651     14.6172E-03     14.6660E-03
             781            1652     14.7347E-03     14.8491E-03
             782            1634     15.1726E-03     15.2111E-03
             782            1635     15.2963E-03     15.3489E-03
             782            1652     14.7347E-03     14.8491E-03
             782            1653     14.8451E-03     15.0071E-03
             783            1635     15.2963E-03     15.3489E-03
             783            1636     15.4543E-03     15.5137E-03
             783            1653     14.8451E-03     15.0071E-03
             783            1654     15.0001E-03     15.2070E-03
             784            1636     15.4543E-03     15.5137E-03
             784            1637     15.6710E-03     15.7419E-03
             784            1654     15.0001E-03     15.2070E-03
             784            1655     15.2154E-03     15.4610E-03
             785            1637     15.6710E-03     15.7419E-03
             785            1638     15.9560E-03     16.0348E-03
             785            1655     15.2154E-03     15.4610E-03
             785            1656     15.4998E-03     15.7840E-03
             786            1638     15.9560E-03     16.0348E-03
             786            1639     16.3101E-03     16.4006E-03
             786            1656     15.4998E-03     15.7840E-03
             786            1657     15.8579E-03     16.1753E-03
             787            1639     16.3101E-03     16.4006E-03
             787            1640     16.7396E-03     16.8354E-03
             787            1657     15.8579E-03     16.1753E-03
             787            1658     16.2802E-03     16.6350E-03
             788            1640     16.7396E-03     16.8354E-03
             788            1641     17.2260E-03     17.3387E-03
             788            1658     16.2802E-03     16.6350E-03
             788            1659     16.7761E-03     17.1570E-03
             789            1641     17.2260E-03     17.3387E-03
             789            1642     17.7710E-03     17.8847E-03
             789            1659     16.7761E-03     17.1570E-03
             789            1660     17.3063E-03     17.7342E-03
             790            1642     17.7710E-03     17.8847E-03
             790            1643     18.2927E-03     18.4457E-03
             790            1660     17.3063E-03     17.7342E-03
             790            1661     17.8806E-03     18.3277E-03
             791            1643     18.2927E-03     18.4457E-03
             791            1644     18.7045E-03     18.8812E-03
             791            1661     17.8806E-03     18.3277E-03
             791            1662     18.3884E-03     18.9121E-03
             792            1644     18.7045E-03     18.8812E-03
             792            1645     18.7585E-03     19.0452E-03
             792            1662     18.3884E-03     18.9121E-03
             792            1663     18.7715E-03     19.3240E-03
             793            1645     18.7585E-03     19.0452E-03
             793            1646     17.8872E-03     18.4065E-03
             793            1663     18.7715E-03     19.3240E-03
             793            1664     19.0889E-03     19.6203E-03
             794             346     16.1785E-03     16.7276E-03
             794             347     19.0745E-03     19.6155E-03
             794            1646     17.8872E-03     18.4065E-03
             794            1664     19.0889E-03     19.6203E-03
             795             449     9.80063E-03     9.41912E-03
             795             450     8.56297E-03     7.94300E-03
             795            1647     11.0320E-03     10.1666E-03
             795            1665     11.9251E-03     11.4754E-03
             796            1647     11.0320E-03     10.1666E-03
             796            1648     12.8551E-03     12.3622E-03
             796            1665     11.9251E-03     11.4754E-03
             796            1666     13.2310E-03     12.9321E-03
             797            1648     12.8551E-03     12.3622E-03
             797            1649     13.9520E-03     13.7400E-03
             797            1666     13.2310E-03     12.9321E-03
             797            1667     13.6483E-03     13.4959E-03
             798            1649     13.9520E-03     13.7400E-03
             798            1650     14.4142E-03     14.3563E-03
             798            1667     13.6483E-03     13.4959E-03
             798            1668     13.8595E-03     13.8257E-03
             799            1650     14.4142E-03     14.3563E-03
             799            1651     14.6172E-03     14.6660E-03
             799            1668     13.8595E-03     13.8257E-03
             799            1669     14.0302E-03     14.1228E-03
             800            1651     14.6172E-03     14.6660E-03
             800            1652     14.7347E-03     14.8491E-03
             800            1669     14.0302E-03     14.1228E-03
             800            1670     14.1473E-03     14.3432E-03
             801            1652     14.7347E-03     14.8491E-03
             801            1653     14.8451E-03     15.0071E-03
             801            1670     14.1473E-03     14.3432E-03
             801            1671     14.2862E-03     14.5694E-03
             802            1653     14.8451E-03     15.0071E-03
             802            1654     15.0001E-03     15.2070E-03
             802            1671     14.2862E-03     14.5694E-03
             802            1672     14.4586E-03     14.8185E-03
             803            1654     15.0001E-03     15.2070E-03
             803            1655     15.2154E-03     15.4610E-03
             803            1672     14.4586E-03     14.8185E-03
             803            1673     14.6856E-03     15.1152E-03
             804            1655     15.2154E-03     15.4610E-03
             804            1656     15.4998E-03     15.7840E-03
             804            1673     14.6856E-03     15.1152E-03
             804            1674     14.9709E-03     15.4647E-03
             805            1656     15.4998E-03     15.7840E-03
             805            1657     15.8579E-03     16.1753E-03
             805            1674     14.9709E-03     15.4647E-03
             805            1675     15.3133E-03     15.8669E-03
             806            1657     15.8579E-03     16.1753E-03
             806            1658     16.2802E-03     16.6350E-03
             806            1675     15.3133E-03     15.8669E-03
             806            1676     15.7138E-03     16.3223E-03
             807            1658     16.2802E-03     16.6350E-03
             807            1659     16.7761E-03     17.1570E-03
             807            1676     15.7138E-03     16.3223E-03
             807            1677     16.1552E-03     16.8198E-03
             808            1659     16.7761E-03     17.1570E-03
             808            1660     17.3063E-03     17.7342E-03
             808            1677     16.1552E-03     16.8198E-03
             808            1678     16.6455E-03     17.3589E-03
             809            1660     17.3063E-03     17.7342E-03
             809            1661     17.8806E-03     18.3277E-03
             809            1678     16.6455E-03     17.3589E-03
             809            1679     17.1489E-03     17.9248E-03
             810            1661     17.8806E-03     18.3277E-03
             810            1662     18.3884E-03     18.9121E-03
             810            1679     17.1489E-03     17.9248E-03
             810            1680     17.7138E-03     18.5292E-03
             811            1662     18.3884E-03     18.9121E-03
             811            1663     18.7715E-03     19.3240E-03
             811            1680     17.7138E-03     18.5292E-03
             811            1681     18.3338E-03     19.2017E-03
             812            1663     18.7715E-03     19.3240E-03
             812            1664     19.0889E-03     19.6203E-03
             812            1681     18.3338E-03     19.2017E-03
             812            1682     19.3572E-03     20.1337E-03
             813             347     19.0745E-03     19.6155E-03
             813             348     21.5469E-03     22.0027E-03
             813            1664     19.0889E-03     19.6203E-03
             813            1682     19.3572E-03     20.1337E-03
             814             448     11.9090E-03     12.3027E-03
             814             449     9.80063E-03     9.41912E-03
             814            1665     11.9251E-03     11.4754E-03
             814            1683     13.6477E-03     13.0542E-03
             815            1665     11.9251E-03     11.4754E-03
             815            1666     13.2310E-03     12.9321E-03
             815            1683     13.6477E-03     13.0542E-03
             815            1684     13.2261E-03     12.8533E-03
             816            1666     13.2310E-03     12.9321E-03
             816            1667     13.6483E-03     13.4959E-03
             816            1684     13.2261E-03     12.8533E-03
             816            1685     12.9936E-03     12.7815E-03
             817            1667     13.6483E-03     13.4959E-03
             817            1668     13.8595E-03     13.8257E-03
             817            1685     12.9936E-03     12.7815E-03
             817            1686     13.1464E-03     13.1255E-03
             818            1668     13.8595E-03     13.8257E-03
             818            1669     14.0302E-03     14.1228E-03
             818            1686     13.1464E-03     13.1255E-03
             818            1687     13.2905E-03     13.4353E-03
             819            1669     14.0302E-03     14.1228E-03
             819            1670     14.1473E-03     14.3432E-03
             819            1687     13.2905E-03     13.4353E-03
             819            1688     13.4675E-03     13.7527E-03
             820            1670     14.1473E-03     14.3432E-03
             820            1671     14.2862E-03     14.5694E-03
             820            1688     13.4675E-03     13.7527E-03
             820            1689     13.6450E-03     14.0576E-03
             821            1671     14.2862E-03     14.5694E-03
             821            1672     14.4586E-03     14.8185E-03
             821            1689     13.6450E-03     14.0576E-03
             821            1690     13.8532E-03     14.3737E-03
             822            1672     14.4586E-03     14.8185E-03
             822            1673     14.6856E-03     15.1152E-03
             822            1690     13.8532E-03     14.3737E-03
             822            1691     14.0958E-03     14.7176E-03
             823            1673     14.6856E-03     15.1152E-03
             823            1674     14.9709E-03     15.4647E-03
             823            1691     14.0958E-03     14.7176E-03
             823            1692     14.3821E-03     15.0934E-03
             824            1674     14.9709E-03     15.4647E-03
             824            1675     15.3133E-03     15.8669E-03
             824            1692     14.3821E-03     15.0934E-03
             824            1693     14.7109E-03     15.5080E-03
             825            1675     15.3133E-03     15.8669E-03
             825            1676     15.7138E-03     16.3223E-03
             825            1693     14.7109E-03     15.5080E-03
             825            1694     15.0758E-03     15.9485E-03
             826            1676     15.7138E-03     16.3223E-03
             826            1677     16.1552E-03     16.8198E-03
             826            1694     15.0758E-03     15.9485E-03
             826            1695     15.4695E-03     16.4197E-03
             827            1677     16.1552E-03     16.8198E-03
             827            1678     16.6455E-03     17.3589E-03
             827            1695     15.4695E-03     16.4197E-03
             827            1696     15.8810E-03     16.8974E-03
             828            1678     16.6455E-03     17.3589E-03
             828            1679     17.1489E-03     17.9248E-03
             828            1696     15.8810E-03     16.8974E-03
             828            1697     16.3185E-03     17.4160E-03
             829            1679     17.1489E-03     17.9248E-03
             829            1680     17.7138E-03     18.5292E-03
             829            1697     16.3185E-03     17.4160E-03
             829            1698     16.8114E-03     17.9727E-03
             830            1680     17.7138E-03     18.5292E-03
             830            1681     18.3338E-03     19.2017E-03
             830            1698     16.8114E-03     17.9727E-03
             830            1699     17.5449E-03     18.7892E-03
             831            1681     18.3338E-03     19.2017E-03
             831            1682     19.3572E-03     20.1337E-03
             831            1699     17.5449E-03     18.7892E-03
             831            1700     18.7123E-03     20.0481E-03
             832             348     21.5469E-03     22.0027E-03
             832             349     21.5927E-03     22.9615E-03
             832            1682     19.3572E-03     20.1337E-03
             832            1700     18.7123E-03     20.0481E-03
             833             447     12.7098E-03     14.8334E-03
             833             448     11.9090E-03     12.3027E-03
             833            1683     13.6477E-03     13.0542E-03
             833            1701     14.7423E-03     15.5540E-03
             834            1683     13.6477E-03     13.0542E-03
             834            1684     13.2261E-03     12.8533E-03
             834            1701     14.7423E-03     15.5540E-03
             834            1702     15.0919E-03     15.2796E-03
             835            1684     13.2261E-03     12.8533E-03
             835            1685     12.9936E-03     12.7815E-03
             835            1702     15.0919E-03     15.2796E-03
             835            1703     15.6269E-03     15.6164E-03
             836            1685     12.9936E-03     12.7815E-03
             836            1686     13.1464E-03     13.1255E-03
             836            1703     15.6269E-03     15.6164E-03
             836            1704     16.3246E-03     16.2889E-03
             837            1686     13.1464E-03     13.1255E-03
             837            1687     13.2905E-03     13.4353E-03
             837            1704     16.3246E-03     16.2889E-03
             837            1705     16.9928E-03     16.9450E-03
             838            1687     13.2905E-03     13.4353E-03
             838            1688     13.4675E-03     13.7527E-03
             838            1705     16.9928E-03     16.9450E-03
             838            1706     17.7094E-03     17.6760E-03
             839            1688     13.4675E-03     13.7527E-03
             839            1689     13.6450E-03     14.0576E-03
             839            1706     17.7094E-03     17.6760E-03
             839            1707     18.4378E-03     18.4113E-03
             840            1689     13.6450E-03     14.0576E-03
             840            1690     13.8532E-03     14.3737E-03
             840            1707     18.4378E-03     18.4113E-03
             840            1708     19.2176E-03     19.2029E-03
             841            1690     13.8532E-03     14.3737E-03
             841            1691     14.0958E-03     14.7176E-03
             841            1708     19.2176E-03     19.2029E-03
             841            1709     20.0272E-03     20.0192E-03
             842            1691     14.0958E-03     14.7176E-03
             842            1692     14.3821E-03     15.0934E-03
             842            1709     20.0272E-03     20.0192E-03
             842            1710     20.8742E-03     20.8737E-03
             843            1692     14.3821E-03     15.0934E-03
             843            1693     14.7109E-03     15.5080E-03
             843            1710     20.8742E-03     20.8737E-03
             843            1711     21.7377E-03     21.7380E-03
             844            1693     14.7109E-03     15.5080E-03
             844            1694     15.0758E-03     15.9485E-03
             844            1711     21.7377E-03     21.7380E-03
             844            1712     22.5909E-03     22.5926E-03
             845            1694     15.0758E-03     15.9485E-03
             845            1695     15.4695E-03     16.4197E-03
             845            1712     22.5909E-03     22.5926E-03
             845            1713     23.4157E-03     23.4013E-03
             846            1695     15.4695E-03     16.4197E-03
             846            1696     15.8810E-03     16.8974E-03
             846            1713     23.4157E-03     23.4013E-03
             846            1714     24.1502E-03     24.1249E-03
             847            1696     15.8810E-03     16.8974E-03
             847            1697     16.3185E-03     17.4160E-03
             847            1714     24.1502E-03     24.1249E-03
             847            1715     24.7884E-03     24.7148E-03
             848            1697     16.3185E-03     17.4160E-03
             848            1698     16.8114E-03     17.9727E-03
             848            1715     24.7884E-03     24.7148E-03
             848            1716     25.2532E-03     25.1389E-03
             849            1698     16.8114E-03     17.9727E-03
             849            1699     17.5449E-03     18.7892E-03
             849            1716     25.2532E-03     25.1389E-03
             849            1717     25.5978E-03     25.3952E-03
             850            1699     17.5449E-03     18.7892E-03
             850            1700     18.7123E-03     20.0481E-03
             850            1717     25.5978E-03     25.3952E-03
             850            1718     25.8133E-03     25.5286E-03
             851             349     21.5927E-03     22.9615E-03
             851             350     26.1169E-03     25.8142E-03
             851            1700     18.7123E-03     20.0481E-03
             851            1718     25.8133E-03     25.5286E-03
             852             446     12.8744E-03     15.1544E-03
             852             447     12.7098E-03     14.8334E-03
             852            1701     14.7423E-03     15.5540E-03
             852            1719     15.0807E-03     17.1207E-03
             853            1701     14.7423E-03     15.5540E-03
             853            1702     15.0919E-03     15.2796E-03
             853            1719     15.0807E-03     17.1207E-03
             853            1720     16.8037E-03     18.0941E-03
             854            1702     15.0919E-03     15.2796E-03
             854            1703     15.6269E-03     15.6164E-03
             854            1720     16.8037E-03     18.0941E-03
             854            1721     18.1659E-03     18.6561E-03
             855            1703     15.6269E-03     15.6164E-03
             855            1704     16.3246E-03     16.2889E-03
             855            1721     18.1659E-03     18.6561E-03
             855            1722     19.3417E-03     19.4429E-03
             856            1704     16.3246E-03     16.2889E-03
             856            1705     16.9928E-03     16.9450E-03
             856            1722     19.3417E-03     19.4429E-03
             856            1723     20.4748E-03     20.3349E-03
             857            1705     16.9928E-03     16.9450E-03
             857            1706     17.7094E-03     17.6760E-03
             857            1723     20.4748E-03     20.3349E-03
             857            1724     21.6713E-03     21.3597E-03
             858            1706     17.7094E-03     17.6760E-03
             858            1707     18.4378E-03     18.4113E-03
             858            1724     21.6713E-03     21.3597E-03
             858            1725     22.9478E-03     22.5135E-03
             859            1707     18.4378E-03     18.4113E-03
             859            1708     19.2176E-03     19.2029E-03
             859            1725     22.9478E-03     22.5135E-03
             859            1726     24.3185E-03     23.7796E-03
             860            1708     19.2176E-03     19.2029E-03
             860            1709     20.0272E-03     20.0192E-03
             860            1726     24.3185E-03     23.7796E-03
             860            1727     25.7678E-03     25.1429E-03
             861            1709     20.0272E-03     20.0192E-03
             861            1710     20.8742E-03     20.8737E-03
             861            1727     25.7678E-03     25.1429E-03
             861            1728     27.2803E-03     26.5731E-03
             862            1710     20.8742E-03     20.8737E-03
             862            1711     21.7377E-03     21.7380E-03
             862            1728     27.2803E-03     26.5731E-03
             862            1729     28.8188E-03     28.0382E-03
             863            1711     21.7377E-03     21.7380E-03
             863            1712     22.5909E-03     22.5926E-03
             863            1729     28.8188E-03     28.0382E-03
             863            1730     30.3545E-03     29.4916E-03
             864            1712     22.5909E-03     22.5926E-03
             864            1713     23.4157E-03     23.4013E-03
             864            1730     30.3545E-03     29.4916E-03
             864            1731     31.8240E-03     30.8835E-03
             865            1713     23.4157E-03     23.4013E-03
             865            1714     24.1502E-03     24.1249E-03
             865            1731     31.8240E-03     30.8835E-03
             865            1732     33.1744E-03     32.1322E-03
             866            1714     24.1502E-03     24.1249E-03
             866            1715     24.7884E-03     24.7148E-03
             866            1732     33.1744E-03     32.1322E-03
             866            1733     34.2989E-03     33.1524E-03
             867            1715     24.7884E-03     24.7148E-03
             867            1716     25.2532E-03     25.1389E-03
             867            1733     34.2989E-03     33.1524E-03
             867            1734     35.0811E-03     33.8010E-03
             868            1716     25.2532E-03     25.1389E-03
             868            1717     25.5978E-03     25.3952E-03
             868            1734     35.0811E-03     33.8010E-03
             868            1735     35.3216E-03     33.8914E-03
             869            1717     25.5978E-03     25.3952E-03
             869            1718     25.8133E-03     25.5286E-03
             869            1735     35.3216E-03     33.8914E-03
             869            1736     34.7343E-03     33.1643E-03
             870             350     26.1169E-03     25.8142E-03
             870             351     32.6416E-03     31.0083E-03
             870            1718     25.8133E-03     25.5286E-03
             870            1736     34.7343E-03     33.1643E-03
             871             445     13.2069E-03     13.3378E-03
             871             446     12.8744E-03     15.1544E-03
             871            1719     15.0807E-03     17.1207E-03
             871            1737     15.1845E-03     15.4201E-03
             872            1719     15.0807E-03     17.1207E-03
             872            1720     16.8037E-03     18.0941E-03
             872            1737     15.1845E-03     15.4201E-03
             872            1738     16.3438E-03     17.2598E-03
             873            1720     16.8037E-03     18.0941E-03
             873            1721     18.1659E-03     18.6561E-03
             873            1738     16.3438E-03     17.2598E-03
             873            1739     17.3449E-03     18.0222E-03
             874            1721     18.1659E-03     18.6561E-03
             874            1722     19.3417E-03     19.4429E-03
             874            1739     17.3449E-03     18.0222E-03
             874            1740     18.3578E-03     18.6371E-03
             875            1722     19.3417E-03     19.4429E-03
             875            1723     20.4748E-03     20.3349E-03
             875            1740     18.3578E-03     18.6371E-03
             875            1741     19.3848E-03     19.4335E-03
             876            1723     20.4748E-03     20.3349E-03
             876            1724     21.6713E-03     21.3597E-03
             876            1741     19.3848E-03     19.4335E-03
             876            1742     20.5374E-03     20.4099E-03
             877            1724     21.6713E-03     21.3597E-03
             877            1725     22.9478E-03     22.5135E-03
             877            1742     20.5374E-03     20.4099E-03
             877            1743     21.8334E-03     21.5907E-03
             878            1725     22.9478E-03     22.5135E-03
             878            1726     24.3185E-03     23.7796E-03
             878            1743     21.8334E-03     21.5907E-03
             878            1744     23.2865E-03     22.9597E-03
             879            1726     24.3185E-03     23.7796E-03
             879            1727     25.7678E-03     25.1429E-03
             879            1744     23.2865E-03     22.9597E-03
             879            1745     24.8810E-03     24.4900E-03
             880            1727     25.7678E-03     25.1429E-03
             880            1728     27.2803E-03     26.5731E-03
             880            1745     24.8810E-03     24.4900E-03
             880            1746     26.5922E-03     26.1502E-03
             881            1728     27.2803E-03     26.5731E-03
             881            1729     28.8188E-03     28.0382E-03
             881            1746     26.5922E-03     26.1502E-03
             881            1747     28.3954E-03     27.9053E-03
             882            1729     28.8188E-03     28.0382E-03
             882            1730     30.3545E-03     29.4916E-03
             882            1747     28.3954E-03     27.9053E-03
             882            1748     30.2435E-03     29.7140E-03
             883            1730     30.3545E-03     29.4916E-03
             883            1731     31.8240E-03     30.8835E-03
             883            1748     30.2435E-03     29.7140E-03
             883            1749     32.1004E-03     31.5253E-03
             884            1731     31.8240E-03     30.8835E-03
             884            1732     33.1744E-03     32.1322E-03
             884            1749     32.1004E-03     31.5253E-03
             884            1750     33.8801E-03     33.2754E-03
             885            1732     33.1744E-03     32.1322E-03
             885            1733     34.2989E-03     33.1524E-03
             885            1750     33.8801E-03     33.2754E-03
             885            1751     35.4957E-03     34.8591E-03
             886            1733     34.2989E-03     33.1524E-03
             886            1734     35.0811E-03     33.8010E-03
             886            1751     35.4957E-03     34.8591E-03
             886            1752     36.7806E-03     36.1498E-03
             887            1734     35.0811E-03     33.8010E-03
             887            1735     35.3216E-03     33.8914E-03
             887            1752     36.7806E-03     36.1498E-03
             887            1753     37.4801E-03     36.9129E-03
             888            1735     35.3216E-03     33.8914E-03
             888            1736     34.7343E-03     33.1643E-03
             888            1753     37.4801E-03     36.9129E-03
             888            1754     37.2800E-03     36.8739E-03
             889             351     32.6416E-03     31.0083E-03
             889             352     35.3498E-03     35.3785E-03
             889            1736     34.7343E-03     33.1643E-03
             889            1754     37.2800E-03     36.8739E-03
             890             444     12.7360E-03     12.2881E-03
             890             445     13.2069E-03     13.3378E-03
             890            1737     15.1845E-03     15.4201E-03
             890            1755     14.5549E-03     13.8157E-03
             891            1737     15.1845E-03     15.4201E-03
             891            1738     16.3438E-03     17.2598E-03
             891            1755     14.5549E-03     13.8157E-03
             891            1756     15.8989E-03     15.7272E-03
             892            1738     16.3438E-03     17.2598E-03
             892            1739     17.3449E-03     18.0222E-03
             892            1756     15.8989E-03     15.7272E-03
             892            1757     16.7315E-03     16.9973E-03
             893            1739     17.3449E-03     18.0222E-03
             893            1740     18.3578E-03     18.6371E-03
             893            1757     16.7315E-03     16.9973E-03
             893            1758     17.5540E-03     17.8051E-03
             894            1740     18.3578E-03     18.6371E-03
             894            1741     19.3848E-03     19.4335E-03
             894            1758     17.5540E-03     17.8051E-03
             894            1759     18.5049E-03     18.6299E-03
             895            1741     19.3848E-03     19.4335E-03
             895            1742     20.5374E-03     20.4099E-03
             895            1759     18.5049E-03     18.6299E-03
             895            1760     19.6020E-03     19.6358E-03
             896            1742     20.5374E-03     20.4099E-03
             896            1743     21.8334E-03     21.5907E-03
             896            1760     19.6020E-03     19.6358E-03
             896            1761     20.9177E-03     20.8749E-03
             897            1743     21.8334E-03     21.5907E-03
             897            1744     23.2865E-03     22.9597E-03
             897            1761     20.9177E-03     20.8749E-03
             897            1762     22.4367E-03     22.3472E-03
             898            1744     23.2865E-03     22.9597E-03
             898            1745     24.8810E-03     24.4900E-03
             898            1762     22.4367E-03     22.3472E-03
             898            1763     24.1523E-03     24.0306E-03
             899            1745     24.8810E-03     24.4900E-03
             899            1746     26.5922E-03     26.1502E-03
             899            1763     24.1523E-03     24.0306E-03
             899            1764     26.0361E-03     25.8939E-03
             900            1746     26.5922E-03     26.1502E-03
             900            1747     28.3954E-03     27.9053E-03
             900            1764     26.0361E-03     25.8939E-03
             900            1765     28.0509E-03     27.8963E-03
             901            1747     28.3954E-03     27.9053E-03
             901            1748     30.2435E-03     29.7140E-03
             901            1765     28.0509E-03     27.8963E-03
             901            1766     30.1652E-03     30.0025E-03
             902            1748     30.2435E-03     29.7140E-03
             902            1749     32.1004E-03     31.5253E-03
             902            1766     30.1652E-03     30.0025E-03
             902            1767     32.3179E-03     32.1605E-03
             903            1749     32.1004E-03     31.5253E-03
             903            1750     33.8801E-03     33.2754E-03
             903            1767     32.3179E-03     32.1605E-03
             903            1768     34.4542E-03     34.3092E-03
             904            1750     33.8801E-03     33.2754E-03
             904            1751     35.4957E-03     34.8591E-03
             904            1768     34.4542E-03     34.3092E-03
             904            1769     36.4456E-03     36.3536E-03
             905            1751     35.4957E-03     34.8591E-03
             905            1752     36.7806E-03     36.1498E-03
             905            1769     36.4456E-03     36.3536E-03
             905            1770     38.1304E-03     38.1282E-03
             906            1752     36.7806E-03     36.1498E-03
             906            1753     37.4801E-03     36.9129E-03
             906            1770     38.1304E-03     38.1282E-03
             906            1771     39.2705E-03     39.4343E-03
             907            1753     37.4801E-03     36.9129E-03
             907            1754     37.2800E-03     36.8739E-03
             907            1771     39.2705E-03     39.4343E-03
             907            1772     39.4353E-03     39.8998E-03
             908             352     35.3498E-03     35.3785E-03
             908             353     38.6889E-03     39.3324E-03
             908            1754     37.2800E-03     36.8739E-03
             908            1772     39.4353E-03     39.8998E-03
             909             443     12.6984E-03     12.4192E-03
             909             444     12.7360E-03     12.2881E-03
             909            1755     14.5549E-03     13.8157E-03
             909            1773     14.0802E-03     13.0793E-03
             910            1755     14.5549E-03     13.8157E-03
             910            1756     15.8989E-03     15.7272E-03
             910            1773     14.0802E-03     13.0793E-03
             910            1774     15.1488E-03     14.5103E-03
             911            1756     15.8989E-03     15.7272E-03
             911            1757     16.7315E-03     16.9973E-03
             911            1774     15.1488E-03     14.5103E-03
             911            1775     16.0554E-03     15.8135E-03
             912            1757     16.7315E-03     16.9973E-03
             912            1758     17.5540E-03     17.8051E-03
             912            1775     16.0554E-03     15.8135E-03
             912            1776     16.8194E-03     16.8689E-03
             913            1758     17.5540E-03     17.8051E-03
             913            1759     18.5049E-03     18.6299E-03
             913            1776     16.8194E-03     16.8689E-03
             913            1777     17.6799E-03     17.8159E-03
             914            1759     18.5049E-03     18.6299E-03
             914            1760     19.6020E-03     19.6358E-03
             914            1777     17.6799E-03     17.8159E-03
             914            1778     18.7641E-03     18.9160E-03
             915            1760     19.6020E-03     19.6358E-03
             915            1761     20.9177E-03     20.8749E-03
             915            1778     18.7641E-03     18.9160E-03
             915            1779     20.0803E-03     20.2382E-03
             916            1761     20.9177E-03     20.8749E-03
             916            1762     22.4367E-03     22.3472E-03
             916            1779     20.0803E-03     20.2382E-03
             916            1780     21.6572E-03     21.8166E-03
             917            1762     22.4367E-03     22.3472E-03
             917            1763     24.1523E-03     24.0306E-03
             917            1780     21.6572E-03     21.8166E-03
             917            1781     23.4661E-03     23.6350E-03
             918            1763     24.1523E-03     24.0306E-03
             918            1764     26.0361E-03     25.8939E-03
             918            1781     23.4661E-03     23.6350E-03
             918            1782     25.4750E-03     25.6556E-03
             919            1764     26.0361E-03     25.8939E-03
             919            1765     28.0509E-03     27.8963E-03
             919            1782     25.4750E-03     25.6556E-03
             919            1783     27.6492E-03     27.8483E-03
             920            1765     28.0509E-03     27.8963E-03
             920            1766     30.1652E-03     30.0025E-03
             920            1783     27.6492E-03     27.8483E-03
             920            1784     29.9445E-03     30.1674E-03
             921            1766     30.1652E-03     30.0025E-03
             921            1767     32.3179E-03     32.1605E-03
             921            1784     29.9445E-03     30.1674E-03
             921            1785     32.3221E-03     32.5794E-03
             922            1767     32.3179E-03     32.1605E-03
             922            1768     34.4542E-03     34.3092E-03
             922            1785     32.3221E-03     32.5794E-03
             922            1786     34.7057E-03     35.0188E-03
             923            1768     34.4542E-03     34.3092E-03
             923            1769     36.4456E-03     36.3536E-03
             923            1786     34.7057E-03     35.0188E-03
             923            1787     37.0230E-03     37.4091E-03
             924            1769     36.4456E-03     36.3536E-03
             924            1770     38.1304E-03     38.1282E-03
             924            1787     37.0230E-03     37.4091E-03
             924            1788     39.0911E-03     39.6132E-03
             925            1770     38.1304E-03     38.1282E-03
             925            1771     39.2705E-03     39.4343E-03
             925            1788     39.0911E-03     39.6132E-03
             925            1789     40.7072E-03     41.3958E-03
             926            1771     39.2705E-03     39.4343E-03
             926            1772     39.4353E-03     39.8998E-03
             926            1789     40.7072E-03     41.3958E-03
             926            1790     41.7032E-03     42.5357E-03
             927             353     38.6889E-03     39.3324E-03
             927             354     42.2640E-03     43.0977E-03
             927            1772     39.4353E-03     39.8998E-03
             927            1790     41.7032E-03     42.5357E-03
             928             442     12.9652E-03     12.4519E-03
             928             443     12.6984E-03     12.4192E-03
             928            1773     14.0802E-03     13.0793E-03
             928            1791     13.8929E-03     12.5993E-03
             929            1773     14.0802E-03     13.0793E-03
             929            1774     15.1488E-03     14.5103E-03
             929            1791     13.8929E-03     12.5993E-03
             929            1792     14.6182E-03     13.7196E-03
             930            1774     15.1488E-03     14.5103E-03
             930            1775     16.0554E-03     15.8135E-03
             930            1792     14.6182E-03     13.7196E-03
             930            1793     15.3297E-03     14.8349E-03
             931            1775     16.0554E-03     15.8135E-03
             931            1776     16.8194E-03     16.8689E-03
             931            1793     15.3297E-03     14.8349E-03
             931            1794     16.0388E-03     15.8962E-03
             932            1776     16.8194E-03     16.8689E-03
             932            1777     17.6799E-03     17.8159E-03
             932            1794     16.0388E-03     15.8962E-03
             932            1795     16.8603E-03     16.9795E-03
             933            1777     17.6799E-03     17.8159E-03
             933            1778     18.7641E-03     18.9160E-03
             933            1795     16.8603E-03     16.9795E-03
             933            1796     17.8948E-03     18.1588E-03
             934            1778     18.7641E-03     18.9160E-03
             934            1779     20.0803E-03     20.2382E-03
             934            1796     17.8948E-03     18.1588E-03
             934            1797     19.2257E-03     19.5813E-03
             935            1779     20.0803E-03     20.2382E-03
             935            1780     21.6572E-03     21.8166E-03
             935            1797     19.2257E-03     19.5813E-03
             935            1798     20.8441E-03     21.2651E-03
             936            1780     21.6572E-03     21.8166E-03
             936            1781     23.4661E-03     23.6350E-03
             936            1798     20.8441E-03     21.2651E-03
             936            1799     22.7196E-03     23.1901E-03
             937            1781     23.4661E-03     23.6350E-03
             937            1782     25.4750E-03     25.6556E-03
             937            1799     22.7196E-03     23.1901E-03
             937            1800     24.8141E-03     25.3307E-03
             938            1782     25.4750E-03     25.6556E-03
             938            1783     27.6492E-03     27.8483E-03
             938            1800     24.8141E-03     25.3307E-03
             938            1801     27.0860E-03     27.6435E-03
             939            1783     27.6492E-03     27.8483E-03
             939            1784     29.9445E-03     30.1674E-03
             939            1801     27.0860E-03     27.6435E-03
             939            1802     29.4975E-03     30.1038E-03
             940            1784     29.9445E-03     30.1674E-03
             940            1785     32.3221E-03     32.5794E-03
             940            1802     29.4975E-03     30.1038E-03
             940            1803     32.0103E-03     32.6671E-03
             941            1785     32.3221E-03     32.5794E-03
             941            1786     34.7057E-03     35.0188E-03
             941            1803     32.0103E-03     32.6671E-03
             941            1804     34.5858E-03     35.3105E-03
             942            1786     34.7057E-03     35.0188E-03
             942            1787     37.0230E-03     37.4091E-03
             942            1804     34.5858E-03     35.3105E-03
             942            1805     37.1486E-03     37.9571E-03
             943            1787     37.0230E-03     37.4091E-03
             943            1788     39.0911E-03     39.6132E-03
             943            1805     37.1486E-03     37.9571E-03
             943            1806     39.6605E-03     40.5488E-03
             944            1788     39.0911E-03     39.6132E-03
             944            1789     40.7072E-03     41.3958E-03
             944            1806     39.6605E-03     40.5488E-03
             944            1807     41.9202E-03     42.9278E-03
             945            1789     40.7072E-03     41.3958E-03
             945            1790     41.7032E-03     42.5357E-03
             945            1807     41.9202E-03     42.9278E-03
             945            1808     43.9117E-03     44.9413E-03
             946             354     42.2640E-03     43.0977E-03
             946             355     45.7742E-03     46.6195E-03
             946            1790     41.7032E-03     42.5357E-03
             946            1808     43.9117E-03     44.9413E-03
             947             441     13.4933E-03     13.1570E-03
             947             442     12.9652E-03     12.4519E-03
             947            1791     13.8929E-03     12.5993E-03
             947            1809     14.0559E-03     12.6807E-03
             948            1791     13.8929E-03     12.5993E-03
             948            1792     14.6182E-03     13.7196E-03
             948            1809     14.0559E-03     12.6807E-03
             948            1810     14.3207E-03     13.2348E-03
             949            1792     14.6182E-03     13.7196E-03
             949            1793     15.3297E-03     14.8349E-03
             949            1810     14.3207E-03     13.2348E-03
             949            1811     14.7253E-03     14.0866E-03
             950            1793     15.3297E-03     14.8349E-03
             950            1794     16.0388E-03     15.8962E-03
             950            1811     14.7253E-03     14.0866E-03
             950            1812     15.2516E-03     15.0423E-03
             951            1794     16.0388E-03     15.8962E-03
             951            1795     16.8603E-03     16.9795E-03
             951            1812     15.2516E-03     15.0423E-03
             951            1813     15.9278E-03     16.0647E-03
             952            1795     16.8603E-03     16.9795E-03
             952            1796     17.8948E-03     18.1588E-03
             952            1813     15.9278E-03     16.0647E-03
             952            1814     16.9220E-03     17.3187E-03
             953            1796     17.8948E-03     18.1588E-03
             953            1797     19.2257E-03     19.5813E-03
             953            1814     16.9220E-03     17.3187E-03
             953            1815     18.2657E-03     18.8377E-03
             954            1797     19.2257E-03     19.5813E-03
             954            1798     20.8441E-03     21.2651E-03
             954            1815     18.2657E-03     18.8377E-03
             954            1816     19.9188E-03     20.6146E-03
             955            1798     20.8441E-03     21.2651E-03
             955            1799     22.7196E-03     23.1901E-03
             955            1816     19.9188E-03     20.6146E-03
             955            1817     21.8460E-03     22.6333E-03
             956            1799     22.7196E-03     23.1901E-03
             956            1800     24.8141E-03     25.3307E-03
             956            1817     21.8460E-03     22.6333E-03
             956            1818     23.9926E-03     24.8494E-03
             957            1800     24.8141E-03     25.3307E-03
             957            1801     27.0860E-03     27.6435E-03
             957            1818     23.9926E-03     24.8494E-03
             957            1819     26.3163E-03     27.2362E-03
             958            1801     27.0860E-03     27.6435E-03
             958            1802     29.4975E-03     30.1038E-03
             958            1819     26.3163E-03     27.2362E-03
             958            1820     28.7866E-03     29.7598E-03
             959            1802     29.4975E-03     30.1038E-03
             959            1803     32.0103E-03     32.6671E-03
             959            1820     28.7866E-03     29.7598E-03
             959            1821     31.3711E-03     32.4084E-03
             960            1803     32.0103E-03     32.6671E-03
             960            1804     34.5858E-03     35.3105E-03
             960            1821     31.3711E-03     32.4084E-03
             960            1822     34.0593E-03     35.1517E-03
             961            1804     34.5858E-03     35.3105E-03
             961            1805     37.1486E-03     37.9571E-03
             961            1822     34.0593E-03     35.1517E-03
             961            1823     36.8441E-03     38.0029E-03
             962            1805     37.1486E-03     37.9571E-03
             962            1806     39.6605E-03     40.5488E-03
             962            1823     36.8441E-03     38.0029E-03
             962            1824     39.7025E-03     40.9085E-03
             963            1806     39.6605E-03     40.5488E-03
             963            1807     41.9202E-03     42.9278E-03
             963            1824     39.7025E-03     40.9085E-03
             963            1825     42.7848E-03     43.9398E-03
             964            1807     41.9202E-03     42.9278E-03
             964            1808     43.9117E-03     44.9413E-03
             964            1825     42.7848E-03     43.9398E-03
             964            1826     45.8917E-03     47.0178E-03
             965             355     45.7742E-03     46.6195E-03
             965             356     49.0175E-03     50.0449E-03
             965            1808     43.9117E-03     44.9413E-03
             965            1826     45.8917E-03     47.0178E-03
             966             440     14.4485E-03     14.1847E-03
             966             441     13.4933E-03     13.1570E-03
             966            1809     14.0559E-03     12.6807E-03
             966            1827     14.6412E-03     13.1979E-03
             967            1809     14.0559E-03     12.6807E-03
             967            1810     14.3207E-03     13.2348E-03
             967            1827     14.6412E-03     13.1979E-03
             967            1828     14.4044E-03     13.2784E-03
             968            1810     14.3207E-03     13.2348E-03
             968            1811     14.7253E-03     14.0866E-03
             968            1828     14.4044E-03     13.2784E-03
             968            1829     14.3022E-03     13.6172E-03
             969            1811     14.7253E-03     14.0866E-03
             969            1812     15.2516E-03     15.0423E-03
             969            1829     14.3022E-03     13.6172E-03
             969            1830     14.3200E-03     14.1204E-03
             970            1812     15.2516E-03     15.0423E-03
             970            1813     15.9278E-03     16.0647E-03
             970            1830     14.3200E-03     14.1204E-03
             970            1831     14.8076E-03     15.0439E-03
             971            1813     15.9278E-03     16.0647E-03
             971            1814     16.9220E-03     17.3187E-03
             971            1831     14.8076E-03     15.0439E-03
             971            1832     15.7778E-03     16.3537E-03
             972            1814     16.9220E-03     17.3187E-03
             972            1815     18.2657E-03     18.8377E-03
             972            1832     15.7778E-03     16.3537E-03
             972            1833     17.1330E-03     17.9591E-03
             973            1815     18.2657E-03     18.8377E-03
             973            1816     19.9188E-03     20.6146E-03
             973            1833     17.1330E-03     17.9591E-03
             973            1834     18.8394E-03     19.8386E-03
             974            1816     19.9188E-03     20.6146E-03
             974            1817     21.8460E-03     22.6333E-03
             974            1834     18.8394E-03     19.8386E-03
             974            1835     20.8090E-03     21.9304E-03
             975            1817     21.8460E-03     22.6333E-03
             975            1818     23.9926E-03     24.8494E-03
             975            1835     20.8090E-03     21.9304E-03
             975            1836     22.9913E-03     24.2024E-03
             976            1818     23.9926E-03     24.8494E-03
             976            1819     26.3163E-03     27.2362E-03
             976            1836     22.9913E-03     24.2024E-03
             976            1837     25.3421E-03     26.6199E-03
             977            1819     26.3163E-03     27.2362E-03
             977            1820     28.7866E-03     29.7598E-03
             977            1837     25.3421E-03     26.6199E-03
             977            1838     27.8251E-03     29.1638E-03
             978            1820     28.7866E-03     29.7598E-03
             978            1821     31.3711E-03     32.4084E-03
             978            1838     27.8251E-03     29.1638E-03
             978            1839     30.4393E-03     31.8235E-03
             979            1821     31.3711E-03     32.4084E-03
             979            1822     34.0593E-03     35.1517E-03
             979            1839     30.4393E-03     31.8235E-03
             979            1840     33.1727E-03     34.6133E-03
             980            1822     34.0593E-03     35.1517E-03
             980            1823     36.8441E-03     38.0029E-03
             980            1840     33.1727E-03     34.6133E-03
             980            1841     36.0854E-03     37.5474E-03
             981            1823     36.8441E-03     38.0029E-03
             981            1824     39.7025E-03     40.9085E-03
             981            1841     36.0854E-03     37.5474E-03
             981            1842     39.2469E-03     40.7283E-03
             982            1824     39.7025E-03     40.9085E-03
             982            1825     42.7848E-03     43.9398E-03
             982            1842     39.2469E-03     40.7283E-03
             982            1843     42.8025E-03     44.2088E-03
             983            1825     42.7848E-03     43.9398E-03
             983            1826     45.8917E-03     47.0178E-03
             983            1843     42.8025E-03     44.2088E-03
             983            1844     47.2509E-03     48.3669E-03
             984             356     49.0175E-03     50.0449E-03
             984             357     52.1806E-03     53.0807E-03
             984            1826     45.8917E-03     47.0178E-03
             984            1844     47.2509E-03     48.3669E-03
             985             439     16.1778E-03     16.0014E-03
             985             440     14.4485E-03     14.1847E-03
             985            1827     14.6412E-03     13.1979E-03
             985            1845     16.0638E-03     14.7138E-03
             986            1827     14.6412E-03     13.1979E-03
             986            1828     14.4044E-03     13.2784E-03
             986            1845     16.0638E-03     14.7138E-03
             986            1846     14.8905E-03     13.7571E-03
             987            1828     14.4044E-03     13.2784E-03
             987            1829     14.3022E-03     13.6172E-03
             987            1846     14.8905E-03     13.7571E-03
             987            1847     13.5491E-03     12.8769E-03
             988            1829     14.3022E-03     13.6172E-03
             988            1830     14.3200E-03     14.1204E-03
             988            1847     13.5491E-03     12.8769E-03
             988            1848     13.0772E-03     12.9572E-03
             989            1830     14.3200E-03     14.1204E-03
             989            1831     14.8076E-03     15.0439E-03
             989            1848     13.0772E-03     12.9572E-03
             989            1849     13.4490E-03     13.8567E-03
             990            1831     14.8076E-03     15.0439E-03
             990            1832     15.7778E-03     16.3537E-03
             990            1849     13.4490E-03     13.8567E-03
             990            1850     14.3861E-03     15.2164E-03
             991            1832     15.7778E-03     16.3537E-03
             991            1833     17.1330E-03     17.9591E-03
             991            1850     14.3861E-03     15.2164E-03
             991            1851     15.8174E-03     16.9522E-03
             992            1833     17.1330E-03     17.9591E-03
             992            1834     18.8394E-03     19.8386E-03
             992            1851     15.8174E-03     16.9522E-03
             992            1852     17.5843E-03     18.9301E-03
             993            1834     18.8394E-03     19.8386E-03
             993            1835     20.8090E-03     21.9304E-03
             993            1852     17.5843E-03     18.9301E-03
             993            1853     19.6128E-03     21.0993E-03
             994            1835     20.8090E-03     21.9304E-03
             994            1836     22.9913E-03     24.2024E-03
             994            1853     19.6128E-03     21.0993E-03
             994            1854     21.8314E-03     23.4140E-03
             995            1836     22.9913E-03     24.2024E-03
             995            1837     25.3421E-03     26.6199E-03
             995            1854     21.8314E-03     23.4140E-03
             995            1855     24.1945E-03     25.8432E-03
             996            1837     25.3421E-03     26.6199E-03
             996            1838     27.8251E-03     29.1638E-03
             996            1855     24.1945E-03     25.8432E-03
             996            1856     26.6840E-03     28.3783E-03
             997            1838     27.8251E-03     29.1638E-03
             997            1839     30.4393E-03     31.8235E-03
             997            1856     26.6840E-03     28.3783E-03
             997            1857     29.2829E-03     31.0133E-03
             998            1839     30.4393E-03     31.8235E-03
             998            1840     33.1727E-03     34.6133E-03
             998            1857     29.2829E-03     31.0133E-03
             998            1858     32.0348E-03     33.7821E-03
             999            1840     33.1727E-03     34.6133E-03
             999            1841     36.0854E-03     37.5474E-03
             999            1858     32.0348E-03     33.7821E-03
             999            1859     34.9682E-03     36.7354E-03
            1000            1841     36.0854E-03     37.5474E-03
            1000            1842     39.2469E-03     40.7283E-03
            1000            1859     34.9682E-03     36.7354E-03
            1000            1860     38.2680E-03     40.0009E-03
            1001            1842     39.2469E-03     40.7283E-03
            1001            1843     42.8025E-03     44.2088E-03
            1001            1860     38.2680E-03     40.0009E-03
            1001            1861     42.0929E-03     43.7979E-03
            1002            1843     42.8025E-03     44.2088E-03
            1002            1844     47.2509E-03     48.3669E-03
            1002            1861     42.0929E-03     43.7979E-03
            1002            1862     46.9608E-03     48.4631E-03
            1003             357     52.1806E-03     53.0807E-03
            1003             358     54.0868E-03     54.9798E-03
            1003            1844     47.2509E-03     48.3669E-03
            1003            1862     46.9608E-03     48.4631E-03
            1004             438     19.5503E-03     19.6486E-03
            1004             439     16.1778E-03     16.0014E-03
            1004            1845     16.0638E-03     14.7138E-03
            1004            1863     18.0890E-03     16.5847E-03
            1005            1845     16.0638E-03     14.7138E-03
            1005            1846     14.8905E-03     13.7571E-03
            1005            1863     18.0890E-03     16.5847E-03
            1005            1864     14.3954E-03     13.1720E-03
            1006            1846     14.8905E-03     13.7571E-03
            1006            1847     13.5491E-03     12.8769E-03
            1006            1864     14.3954E-03     13.1720E-03
            1006            1865     12.1326E-03     11.4488E-03
            1007            1847     13.5491E-03     12.8769E-03
            1007            1848     13.0772E-03     12.9572E-03
            1007            1865     12.1326E-03     11.4488E-03
            1007            1866     11.4876E-03     11.4967E-03
            1008            1848     13.0772E-03     12.9572E-03
            1008            1849     13.4490E-03     13.8567E-03
            1008            1866     11.4876E-03     11.4967E-03
            1008            1867     11.7449E-03     12.4072E-03
            1009            1849     13.4490E-03     13.8567E-03
            1009            1850     14.3861E-03     15.2164E-03
            1009            1867     11.7449E-03     12.4072E-03
            1009            1868     12.7816E-03     13.9494E-03
            1010            1850     14.3861E-03     15.2164E-03
            1010            1851     15.8174E-03     16.9522E-03
            1010            1868     12.7816E-03     13.9494E-03
            1010            1869     14.3093E-03     15.8294E-03
            1011            1851     15.8174E-03     16.9522E-03
            1011            1852     17.5843E-03     18.9301E-03
            1011            1869     14.3093E-03     15.8294E-03
            1011            1870     16.1836E-03     17.9316E-03
            1012            1852     17.5843E-03     18.9301E-03
            1012            1853     19.6128E-03     21.0993E-03
            1012            1870     16.1836E-03     17.9316E-03
            1012            1871     18.2879E-03     20.1839E-03
            1013            1853     19.6128E-03     21.0993E-03
            1013            1854     21.8314E-03     23.4140E-03
            1013            1871     18.2879E-03     20.1839E-03
            1013            1872     20.5543E-03     22.5390E-03
            1014            1854     21.8314E-03     23.4140E-03
            1014            1855     24.1945E-03     25.8432E-03
            1014            1872     20.5543E-03     22.5390E-03
            1014            1873     22.9442E-03     24.9845E-03
            1015            1855     24.1945E-03     25.8432E-03
            1015            1856     26.6840E-03     28.3783E-03
            1015            1873     22.9442E-03     24.9845E-03
            1015            1874     25.4347E-03     27.4985E-03
            1016            1856     26.6840E-03     28.3783E-03
            1016            1857     29.2829E-03     31.0133E-03
            1016            1874     25.4347E-03     27.4985E-03
            1016            1875     28.0357E-03     30.1074E-03
            1017            1857     29.2829E-03     31.0133E-03
            1017            1858     32.0348E-03     33.7821E-03
            1017            1875     28.0357E-03     30.1074E-03
            1017            1876     30.7640E-03     32.8190E-03
            1018            1858     32.0348E-03     33.7821E-03
            1018            1859     34.9682E-03     36.7354E-03
            1018            1876     30.7640E-03     32.8190E-03
            1018            1877     33.7148E-03     35.7432E-03
            1019            1859     34.9682E-03     36.7354E-03
            1019            1860     38.2680E-03     40.0009E-03
            1019            1877     33.7148E-03     35.7432E-03
            1019            1878     36.9686E-03     38.9605E-03
            1020            1860     38.2680E-03     40.0009E-03
            1020            1861     42.0929E-03     43.7979E-03
            1020            1878     36.9686E-03     38.9605E-03
            1020            1879     40.8732E-03     42.8260E-03
            1021            1861     42.0929E-03     43.7979E-03
            1021            1862     46.9608E-03     48.4631E-03
            1021            1879     40.8732E-03     42.8260E-03
            1021            1880     45.6245E-03     47.6075E-03
            1022             358     54.0868E-03     54.9798E-03
            1022             359     52.7423E-03     54.7473E-03
            1022            1862     46.9608E-03     48.4631E-03
            1022            1880     45.6245E-03     47.6075E-03
            1023             437     21.0148E-03     23.6372E-03
            1023             438     19.5503E-03     19.6486E-03
            1023            1863     18.0890E-03     16.5847E-03
            1023            1881     18.7530E-03     21.0456E-03
            1024            1863     18.0890E-03     16.5847E-03
            1024            1864     14.3954E-03     13.1720E-03
            1024            1881     18.7530E-03     21.0456E-03
            1024            1882     17.7715E-03     18.0677E-03
            1025            1864     14.3954E-03     13.1720E-03
            1025            1865     12.1326E-03     11.4488E-03
            1025            1882     17.7715E-03     18.0677E-03
            1025            1883     17.6406E-03     17.5586E-03
            1026            1865     12.1326E-03     11.4488E-03
            1026            1866     11.4876E-03     11.4967E-03
            1026            1883     17.6406E-03     17.5586E-03
            1026            1884     18.2073E-03     18.2867E-03
            1027            1866     11.4876E-03     11.4967E-03
            1027            1867     11.7449E-03     12.4072E-03
            1027            1884     18.2073E-03     18.2867E-03
            1027            1885     19.3885E-03     19.6876E-03
            1028            1867     11.7449E-03     12.4072E-03
            1028            1868     12.7816E-03     13.9494E-03
            1028            1885     19.3885E-03     19.6876E-03
            1028            1886     21.1331E-03     21.6495E-03
            1029            1868     12.7816E-03     13.9494E-03
            1029            1869     14.3093E-03     15.8294E-03
            1029            1886     21.1331E-03     21.6495E-03
            1029            1887     23.2574E-03     23.9117E-03
            1030            1869     14.3093E-03     15.8294E-03
            1030            1870     16.1836E-03     17.9316E-03
            1030            1887     23.2574E-03     23.9117E-03
            1030            1888     25.6719E-03     26.4100E-03
            1031            1870     16.1836E-03     17.9316E-03
            1031            1871     18.2879E-03     20.1839E-03
            1031            1888     25.6719E-03     26.4100E-03
            1031            1889     28.2788E-03     29.0559E-03
            1032            1871     18.2879E-03     20.1839E-03
            1032            1872     20.5543E-03     22.5390E-03
            1032            1889     28.2788E-03     29.0559E-03
            1032            1890     31.0157E-03     31.7986E-03
            1033            1872     20.5543E-03     22.5390E-03
            1033            1873     22.9442E-03     24.9845E-03
            1033            1890     31.0157E-03     31.7986E-03
            1033            1891     33.8332E-03     34.5999E-03
            1034            1873     22.9442E-03     24.9845E-03
            1034            1874     25.4347E-03     27.4985E-03
            1034            1891     33.8332E-03     34.5999E-03
            1034            1892     36.6911E-03     37.4093E-03
            1035            1874     25.4347E-03     27.4985E-03
            1035            1875     28.0357E-03     30.1074E-03
            1035            1892     36.6911E-03     37.4093E-03
            1035            1893     39.5583E-03     40.2134E-03
            1036            1875     28.0357E-03     30.1074E-03
            1036            1876     30.7640E-03     32.8190E-03
            1036            1893     39.5583E-03     40.2134E-03
            1036            1894     42.4161E-03     42.9598E-03
            1037            1876     30.7640E-03     32.8190E-03
            1037            1877     33.7148E-03     35.7432E-03
            1037            1894     42.4161E-03     42.9598E-03
            1037            1895     45.2505E-03     45.6742E-03
            1038            1877     33.7148E-03     35.7432E-03
            1038            1878     36.9686E-03     38.9605E-03
            1038            1895     45.2505E-03     45.6742E-03
            1038            1896     48.0861E-03     48.3245E-03
            1039            1878     36.9686E-03     38.9605E-03
            1039            1879     40.8732E-03     42.8260E-03
            1039            1896     48.0861E-03     48.3245E-03
            1039            1897     50.9356E-03     51.0156E-03
            1040            1879     40.8732E-03     42.8260E-03
            1040            1880     45.6245E-03     47.6075E-03
            1040            1897     50.9356E-03     51.0156E-03
            1040            1898     53.9677E-03     53.8675E-03
            1041             359     52.7423E-03     54.7473E-03
            1041             360     57.2341E-03     57.1662E-03
            1041            1880     45.6245E-03     47.6075E-03
            1041            1898     53.9677E-03     53.8675E-03
            1042             436     21.0659E-03     24.5399E-03
            1042             437     21.0148E-03     23.6372E-03
            1042            1881     18.7530E-03     21.0456E-03
            1042            1899     20.2096E-03     23.9204E-03
            1043            1881     18.7530E-03     21.0456E-03
            1043            1882     17.7715E-03     18.0677E-03
            1043            1899     20.2096E-03     23.9204E-03
            1043            1900     21.2622E-03     23.5725E-03
            1044            1882     17.7715E-03     18.0677E-03
            1044            1883     17.6406E-03     17.5586E-03
            1044            1900     21.2622E-03     23.5725E-03
            1044            1901     22.9135E-03     23.8573E-03
            1045            1883     17.6406E-03     17.5586E-03
            1045            1884     18.2073E-03     18.2867E-03
            1045            1901     22.9135E-03     23.8573E-03
            1045            1902     24.6703E-03     24.9863E-03
            1046            1884     18.2073E-03     18.2867E-03
            1046            1885     19.3885E-03     19.6876E-03
            1046            1902     24.6703E-03     24.9863E-03
            1046            1903     26.7425E-03     26.7335E-03
            1047            1885     19.3885E-03     19.6876E-03
            1047            1886     21.1331E-03     21.6495E-03
            1047            1903     26.7425E-03     26.7335E-03
            1047            1904     29.1902E-03     28.9900E-03
            1048            1886     21.1331E-03     21.6495E-03
            1048            1887     23.2574E-03     23.9117E-03
            1048            1904     29.1902E-03     28.9900E-03
            1048            1905     31.9603E-03     31.6606E-03
            1049            1887     23.2574E-03     23.9117E-03
            1049            1888     25.6719E-03     26.4100E-03
            1049            1905     31.9603E-03     31.6606E-03
            1049            1906     35.0154E-03     34.6396E-03
            1050            1888     25.6719E-03     26.4100E-03
            1050            1889     28.2788E-03     29.0559E-03
            1050            1906     35.0154E-03     34.6396E-03
            1050            1907     38.2774E-03     37.8434E-03
            1051            1889     28.2788E-03     29.0559E-03
            1051            1890     31.0157E-03     31.7986E-03
            1051            1907     38.2774E-03     37.8434E-03
            1051            1908     41.6834E-03     41.1920E-03
            1052            1890     31.0157E-03     31.7986E-03
            1052            1891     33.8332E-03     34.5999E-03
            1052            1908     41.6834E-03     41.1920E-03
            1052            1909     45.1729E-03     44.6127E-03
            1053            1891     33.8332E-03     34.5999E-03
            1053            1892     36.6911E-03     37.4093E-03
            1053            1909     45.1729E-03     44.6127E-03
            1053            1910     48.6735E-03     48.0402E-03
            1054            1892     36.6911E-03     37.4093E-03
            1054            1893     39.5583E-03     40.2134E-03
            1054            1910     48.6735E-03     48.0402E-03
            1054            1911     52.1295E-03     51.3932E-03
            1055            1893     39.5583E-03     40.2134E-03
            1055            1894     42.4161E-03     42.9598E-03
            1055            1911     52.1295E-03     51.3932E-03
            1055            1912     55.4520E-03     54.6034E-03
            1056            1894     42.4161E-03     42.9598E-03
            1056            1895     45.2505E-03     45.6742E-03
            1056            1912     55.4520E-03     54.6034E-03
            1056            1913     58.5574E-03     57.5605E-03
            1057            1895     45.2505E-03     45.6742E-03
            1057            1896     48.0861E-03     48.3245E-03
            1057            1913     58.5574E-03     57.5605E-03
            1057            1914     61.3246E-03     60.1641E-03
            1058            1896     48.0861E-03     48.3245E-03
            1058            1897     50.9356E-03     51.0156E-03
            1058            1914     61.3246E-03     60.1641E-03
            1058            1915     63.5840E-03     62.2563E-03
            1059            1897     50.9356E-03     51.0156E-03
            1059            1898     53.9677E-03     53.8675E-03
            1059            1915     63.5840E-03     62.2563E-03
            1059            1916     65.1132E-03     63.6346E-03
            1060             360     57.2341E-03     57.1662E-03
            1060             361     65.3934E-03     63.9508E-03
            1060            1898     53.9677E-03     53.8675E-03
            1060            1916     65.1132E-03     63.6346E-03
            1061             435     21.2348E-03     21.7861E-03
            1061             436     21.0659E-03     24.5399E-03
            1061            1899     20.2096E-03     23.9204E-03
            1061            1917     21.4878E-03     21.4809E-03
            1062            1899     20.2096E-03     23.9204E-03
            1062            1900     21.2622E-03     23.5725E-03
            1062            1917     21.4878E-03     21.4809E-03
            1062            1918     20.7900E-03     22.2365E-03
            1063            1900     21.2622E-03     23.5725E-03
            1063            1901     22.9135E-03     23.8573E-03
            1063            1918     20.7900E-03     22.2365E-03
            1063            1919     21.2199E-03     22.4518E-03
            1064            1901     22.9135E-03     23.8573E-03
            1064            1902     24.6703E-03     24.9863E-03
            1064            1919     21.2199E-03     22.4518E-03
            1064            1920     22.6188E-03     23.2592E-03
            1065            1902     24.6703E-03     24.9863E-03
            1065            1903     26.7425E-03     26.7335E-03
            1065            1920     22.6188E-03     23.2592E-03
            1065            1921     24.5782E-03     24.8811E-03
            1066            1903     26.7425E-03     26.7335E-03
            1066            1904     29.1902E-03     28.9900E-03
            1066            1921     24.5782E-03     24.8811E-03
            1066            1922     27.1068E-03     27.1863E-03
            1067            1904     29.1902E-03     28.9900E-03
            1067            1905     31.9603E-03     31.6606E-03
            1067            1922     27.1068E-03     27.1863E-03
            1067            1923     30.0977E-03     30.0568E-03
            1068            1905     31.9603E-03     31.6606E-03
            1068            1906     35.0154E-03     34.6396E-03
            1068            1923     30.0977E-03     30.0568E-03
            1068            1924     33.4572E-03     33.3463E-03
            1069            1906     35.0154E-03     34.6396E-03
            1069            1907     38.2774E-03     37.8434E-03
            1069            1924     33.4572E-03     33.3463E-03
            1069            1925     37.0939E-03     36.9421E-03
            1070            1907     38.2774E-03     37.8434E-03
            1070            1908     41.6834E-03     41.1920E-03
            1070            1925     37.0939E-03     36.9421E-03
            1070            1926     40.9347E-03     40.7483E-03
            1071            1908     41.6834E-03     41.1920E-03
            1071            1909     45.1729E-03     44.6127E-03
            1071            1926     40.9347E-03     40.7483E-03
            1071            1927     44.9009E-03     44.6888E-03
            1072            1909     45.1729E-03     44.6127E-03
            1072            1910     48.6735E-03     48.0402E-03
            1072            1927     44.9009E-03     44.6888E-03
            1072            1928     48.9414E-03     48.6936E-03
            1073            1910     48.6735E-03     48.0402E-03
            1073            1911     52.1295E-03     51.3932E-03
            1073            1928     48.9414E-03     48.6936E-03
            1073            1929     52.9711E-03     52.6997E-03
            1074            1911     52.1295E-03     51.3932E-03
            1074            1912     55.4520E-03     54.6034E-03
            1074            1929     52.9711E-03     52.6997E-03
            1074            1930     56.9262E-03     56.6218E-03
            1075            1912     55.4520E-03     54.6034E-03
            1075            1913     58.5574E-03     57.5605E-03
            1075            1930     56.9262E-03     56.6218E-03
            1075            1931     60.6848E-03     60.3779E-03
            1076            1913     58.5574E-03     57.5605E-03
            1076            1914     61.3246E-03     60.1641E-03
            1076            1931     60.6848E-03     60.3779E-03
            1076            1932     64.1092E-03     63.8283E-03
            1077            1914     61.3246E-03     60.1641E-03
            1077            1915     63.5840E-03     62.2563E-03
            1077            1932     64.1092E-03     63.8283E-03
            1077            1933     66.9977E-03     66.8138E-03
            1078            1915     63.5840E-03     62.2563E-03
            1078            1916     65.1132E-03     63.6346E-03
            1078            1933     66.9977E-03     66.8138E-03
            1078            1934     69.0360E-03     69.1014E-03
            1079             361     65.3934E-03     63.9508E-03
            1079             362     69.8306E-03     70.2002E-03
            1079            1916     65.1132E-03     63.6346E-03
            1079            1934     69.0360E-03     69.1014E-03
            1080             434     20.2913E-03     20.0518E-03
            1080             435     21.2348E-03     21.7861E-03
            1080            1917     21.4878E-03     21.4809E-03
            1080            1935     20.5318E-03     19.3674E-03
            1081            1917     21.4878E-03     21.4809E-03
            1081            1918     20.7900E-03     22.2365E-03
            1081            1935     20.5318E-03     19.3674E-03
            1081            1936     20.2965E-03     20.0386E-03
            1082            1918     20.7900E-03     22.2365E-03
            1082            1919     21.2199E-03     22.4518E-03
            1082            1936     20.2965E-03     20.0386E-03
            1082            1937     20.1462E-03     20.7164E-03
            1083            1919     21.2199E-03     22.4518E-03
            1083            1920     22.6188E-03     23.2592E-03
            1083            1937     20.1462E-03     20.7164E-03
            1083            1938     21.0104E-03     21.6389E-03
            1084            1920     22.6188E-03     23.2592E-03
            1084            1921     24.5782E-03     24.8811E-03
            1084            1938     21.0104E-03     21.6389E-03
            1084            1939     22.8430E-03     23.3026E-03
            1085            1921     24.5782E-03     24.8811E-03
            1085            1922     27.1068E-03     27.1863E-03
            1085            1939     22.8430E-03     23.3026E-03
            1085            1940     25.4143E-03     25.7495E-03
            1086            1922     27.1068E-03     27.1863E-03
            1086            1923     30.0977E-03     30.0568E-03
            1086            1940     25.4143E-03     25.7495E-03
            1086            1941     28.5922E-03     28.8358E-03
            1087            1923     30.0977E-03     30.0568E-03
            1087            1924     33.4572E-03     33.3463E-03
            1087            1941     28.5922E-03     28.8358E-03
            1087            1942     32.2194E-03     32.4212E-03
            1088            1924     33.4572E-03     33.3463E-03
            1088            1925     37.0939E-03     36.9421E-03
            1088            1942     32.2194E-03     32.4212E-03
            1088            1943     36.1856E-03     36.3656E-03
            1089            1925     37.0939E-03     36.9421E-03
            1089            1926     40.9347E-03     40.7483E-03
            1089            1943     36.1856E-03     36.3656E-03
            1089            1944     40.3863E-03     40.5657E-03
            1090            1926     40.9347E-03     40.7483E-03
            1090            1927     44.9009E-03     44.6888E-03
            1090            1944     40.3863E-03     40.5657E-03
            1090            1945     44.7616E-03     44.9435E-03
            1091            1927     44.9009E-03     44.6888E-03
            1091            1928     48.9414E-03     48.6936E-03
            1091            1945     44.7616E-03     44.9435E-03
            1091            1946     49.2285E-03     49.4312E-03
            1092            1928     48.9414E-03     48.6936E-03
            1092            1929     52.9711E-03     52.6997E-03
            1092            1946     49.2285E-03     49.4312E-03
            1092            1947     53.7404E-03     53.9654E-03
            1093            1929     52.9711E-03     52.6997E-03
            1093            1930     56.9262E-03     56.6218E-03
            1093            1947     53.7404E-03     53.9654E-03
            1093            1948     58.1907E-03     58.4758E-03
            1094            1930     56.9262E-03     56.6218E-03
            1094            1931     60.6848E-03     60.3779E-03
            1094            1948     58.1907E-03     58.4758E-03
            1094            1949     62.4895E-03     62.8555E-03
            1095            1931     60.6848E-03     60.3779E-03
            1095            1932     64.1092E-03     63.8283E-03
            1095            1949     62.4895E-03     62.8555E-03
            1095            1950     66.4638E-03     66.9752E-03
            1096            1932     64.1092E-03     63.8283E-03
            1096            1933     66.9977E-03     66.8138E-03
            1096            1950     66.4638E-03     66.9752E-03
            1096            1951     69.8914E-03     70.6334E-03
            1097            1933     66.9977E-03     66.8138E-03
            1097            1934     69.0360E-03     69.1014E-03
            1097            1951     69.8914E-03     70.6334E-03
            1097            1952     72.5493E-03     73.5281E-03
            1098             362     69.8306E-03     70.2002E-03
            1098             363     74.2980E-03     75.4592E-03
            1098            1934     69.0360E-03     69.1014E-03
            1098            1952     72.5493E-03     73.5281E-03
            1099             433     19.8628E-03     19.8393E-03
            1099             434     20.2913E-03     20.0518E-03
            1099            1935     20.5318E-03     19.3674E-03
            1099            1953     19.6829E-03     18.0994E-03
            1100            1935     20.5318E-03     19.3674E-03
            1100            1936     20.2965E-03     20.0386E-03
            1100            1953     19.6829E-03     18.0994E-03
            1100            1954     19.0714E-03     18.1486E-03
            1101            1936     20.2965E-03     20.0386E-03
            1101            1937     20.1462E-03     20.7164E-03
            1101            1954     19.0714E-03     18.1486E-03
            1101            1955     18.9852E-03     18.7698E-03
            1102            1937     20.1462E-03     20.7164E-03
            1102            1938     21.0104E-03     21.6389E-03
            1102            1955     18.9852E-03     18.7698E-03
            1102            1956     19.6283E-03     19.9559E-03
            1103            1938     21.0104E-03     21.6389E-03
            1103            1939     22.8430E-03     23.3026E-03
            1103            1956     19.6283E-03     19.9559E-03
            1103            1957     21.3377E-03     21.8353E-03
            1104            1939     22.8430E-03     23.3026E-03
            1104            1940     25.4143E-03     25.7495E-03
            1104            1957     21.3377E-03     21.8353E-03
            1104            1958     23.9646E-03     24.4919E-03
            1105            1940     25.4143E-03     25.7495E-03
            1105            1941     28.5922E-03     28.8358E-03
            1105            1958     23.9646E-03     24.4919E-03
            1105            1959     27.3005E-03     27.8304E-03
            1106            1941     28.5922E-03     28.8358E-03
            1106            1942     32.2194E-03     32.4212E-03
            1106            1959     27.3005E-03     27.8304E-03
            1106            1960     31.1569E-03     31.6853E-03
            1107            1942     32.2194E-03     32.4212E-03
            1107            1943     36.1856E-03     36.3656E-03
            1107            1960     31.1569E-03     31.6853E-03
            1107            1961     35.3762E-03     35.9200E-03
            1108            1943     36.1856E-03     36.3656E-03
            1108            1944     40.3863E-03     40.5657E-03
            1108            1961     35.3762E-03     35.9200E-03
            1108            1962     39.8671E-03     40.4332E-03
            1109            1944     40.3863E-03     40.5657E-03
            1109            1945     44.7616E-03     44.9435E-03
            1109            1962     39.8671E-03     40.4332E-03
            1109            1963     44.5364E-03     45.1414E-03
            1110            1945     44.7616E-03     44.9435E-03
            1110            1946     49.2285E-03     49.4312E-03
            1110            1963     44.5364E-03     45.1414E-03
            1110            1964     49.3394E-03     49.9920E-03
            1111            1946     49.2285E-03     49.4312E-03
            1111            1947     53.7404E-03     53.9654E-03
            1111            1964     49.3394E-03     49.9920E-03
            1111            1965     54.1943E-03     54.9218E-03
            1112            1947     53.7404E-03     53.9654E-03
            1112            1948     58.1907E-03     58.4758E-03
            1112            1965     54.1943E-03     54.9218E-03
            1112            1966     59.0550E-03     59.8716E-03
            1113            1948     58.1907E-03     58.4758E-03
            1113            1949     62.4895E-03     62.8555E-03
            1113            1966     59.0550E-03     59.8716E-03
            1113            1967     63.7885E-03     64.7458E-03
            1114            1949     62.4895E-03     62.8555E-03
            1114            1950     66.4638E-03     66.9752E-03
            1114            1967     63.7885E-03     64.7458E-03
            1114            1968     68.2722E-03     69.3972E-03
            1115            1950     66.4638E-03     66.9752E-03
            1115            1951     69.8914E-03     70.6334E-03
            1115            1968     68.2722E-03     69.3972E-03
            1115            1969     72.3160E-03     73.6214E-03
            1116            1951     69.8914E-03     70.6334E-03
            1116            1952     72.5493E-03     73.5281E-03
            1116            1969     72.3160E-03     73.6214E-03
            1116            1970     75.7096E-03     77.1803E-03
            1117             363     74.2980E-03     75.4592E-03
            1117             364     78.6540E-03     79.9902E-03
            1117            1952     72.5493E-03     73.5281E-03
            1117            1970     75.7096E-03     77.1803E-03
            1118             432     19.8651E-03     19.4507E-03
            1118             433     19.8628E-03     19.8393E-03
            1118            1953     19.6829E-03     18.0994E-03
            1118            1971     19.1099E-03     17.0943E-03
            1119            1953     19.6829E-03     18.0994E-03
            1119            1954     19.0714E-03     18.1486E-03
            1119            1971     19.1099E-03     17.0943E-03
            1119            1972     18.0030E-03     16.6225E-03
            1120            1954     19.0714E-03     18.1486E-03
            1120            1955     18.9852E-03     18.7698E-03
            1120            1972     18.0030E-03     16.6225E-03
            1120            1973     17.6429E-03     16.9945E-03
            1121            1955     18.9852E-03     18.7698E-03
            1121            1956     19.6283E-03     19.9559E-03
            1121            1973     17.6429E-03     16.9945E-03
            1121            1974     18.2547E-03     18.2592E-03
            1122            1956     19.6283E-03     19.9559E-03
            1122            1957     21.3377E-03     21.8353E-03
            1122            1974     18.2547E-03     18.2592E-03
            1122            1975     19.9095E-03     20.3771E-03
            1123            1957     21.3377E-03     21.8353E-03
            1123            1958     23.9646E-03     24.4919E-03
            1123            1975     19.9095E-03     20.3771E-03
            1123            1976     22.6169E-03     23.3054E-03
            1124            1958     23.9646E-03     24.4919E-03
            1124            1959     27.3005E-03     27.8304E-03
            1124            1976     22.6169E-03     23.3054E-03
            1124            1977     26.0967E-03     26.8951E-03
            1125            1959     27.3005E-03     27.8304E-03
            1125            1960     31.1569E-03     31.6853E-03
            1125            1977     26.0967E-03     26.8951E-03
            1125            1978     30.1258E-03     30.9890E-03
            1126            1960     31.1569E-03     31.6853E-03
            1126            1961     35.3762E-03     35.9200E-03
            1126            1978     30.1258E-03     30.9890E-03
            1126            1979     34.5457E-03     35.4565E-03
            1127            1961     35.3762E-03     35.9200E-03
            1127            1962     39.8671E-03     40.4332E-03
            1127            1979     34.5457E-03     35.4565E-03
            1127            1980     39.2275E-03     40.1889E-03
            1128            1962     39.8671E-03     40.4332E-03
            1128            1963     44.5364E-03     45.1414E-03
            1128            1980     39.2275E-03     40.1889E-03
            1128            1981     44.1095E-03     45.1286E-03
            1129            1963     44.5364E-03     45.1414E-03
            1129            1964     49.3394E-03     49.9920E-03
            1129            1981     44.1095E-03     45.1286E-03
            1129            1982     49.1231E-03     50.2138E-03
            1130            1964     49.3394E-03     49.9920E-03
            1130            1965     54.1943E-03     54.9218E-03
            1130            1982     49.1231E-03     50.2138E-03
            1130            1983     54.2395E-03     55.4170E-03
            1131            1965     54.1943E-03     54.9218E-03
            1131            1966     59.0550E-03     59.8716E-03
            1131            1983     54.2395E-03     55.4170E-03
            1131            1984     59.3838E-03     60.6754E-03
            1132            1966     59.0550E-03     59.8716E-03
            1132            1967     63.7885E-03     64.7458E-03
            1132            1984     59.3838E-03     60.6754E-03
            1132            1985     64.5280E-03     65.9359E-03
            1133            1967     63.7885E-03     64.7458E-03
            1133            1968     68.2722E-03     69.3972E-03
            1133            1985     64.5280E-03     65.9359E-03
            1133            1986     69.5191E-03     71.0776E-03
            1134            1968     68.2722E-03     69.3972E-03
            1134            1969     72.3160E-03     73.6214E-03
            1134            1986     69.5191E-03     71.0776E-03
            1134            1987     74.2473E-03     75.9062E-03
            1135            1969     72.3160E-03     73.6214E-03
            1135            1970     75.7096E-03     77.1803E-03
            1135            1987     74.2473E-03     75.9062E-03
            1135            1988     78.6246E-03     80.2495E-03
            1136             364     78.6540E-03     79.9902E-03
            1136             365     82.5837E-03     84.0387E-03
            1136            1970     75.7096E-03     77.1803E-03
            1136            1988     78.6246E-03     80.2495E-03
            1137             431     20.0173E-03     19.8064E-03
            1137             432     19.8651E-03     19.4507E-03
            1137            1971     19.1099E-03     17.0943E-03
            1137            1989     18.8282E-03     16.6328E-03
            1138            1971     19.1099E-03     17.0943E-03
            1138            1972     18.0030E-03     16.6225E-03
            1138            1989     18.8282E-03     16.6328E-03
            1138            1990     17.1994E-03     15.4537E-03
            1139            1972     18.0030E-03     16.6225E-03
            1139            1973     17.6429E-03     16.9945E-03
            1139            1990     17.1994E-03     15.4537E-03
            1139            1991     16.4312E-03     15.4479E-03
            1140            1973     17.6429E-03     16.9945E-03
            1140            1974     18.2547E-03     18.2592E-03
            1140            1991     16.4312E-03     15.4479E-03
            1140            1992     16.7998E-03     16.6211E-03
            1141            1974     18.2547E-03     18.2592E-03
            1141            1975     19.9095E-03     20.3771E-03
            1141            1992     16.7998E-03     16.6211E-03
            1141            1993     18.4891E-03     18.9356E-03
            1142            1975     19.9095E-03     20.3771E-03
            1142            1976     22.6169E-03     23.3054E-03
            1142            1993     18.4891E-03     18.9356E-03
            1142            1994     21.2525E-03     22.1052E-03
            1143            1976     22.6169E-03     23.3054E-03
            1143            1977     26.0967E-03     26.8951E-03
            1143            1994     21.2525E-03     22.1052E-03
            1143            1995     24.8600E-03     25.9324E-03
            1144            1977     26.0967E-03     26.8951E-03
            1144            1978     30.1258E-03     30.9890E-03
            1144            1995     24.8600E-03     25.9324E-03
            1144            1996     29.0397E-03     30.2357E-03
            1145            1978     30.1258E-03     30.9890E-03
            1145            1979     34.5457E-03     35.4565E-03
            1145            1996     29.0397E-03     30.2357E-03
            1145            1997     33.5866E-03     34.8657E-03
            1146            1979     34.5457E-03     35.4565E-03
            1146            1980     39.2275E-03     40.1889E-03
            1146            1997     33.5866E-03     34.8657E-03
            1146            1998     38.3982E-03     39.7467E-03
            1147            1980     39.2275E-03     40.1889E-03
            1147            1981     44.1095E-03     45.1286E-03
            1147            1998     38.3982E-03     39.7467E-03
            1147            1999     43.3938E-03     44.8090E-03
            1148            1981     44.1095E-03     45.1286E-03
            1148            1982     49.1231E-03     50.2138E-03
            1148            1999     43.3938E-03     44.8090E-03
            1148            2000     48.5378E-03     50.0321E-03
            1149            1982     49.1231E-03     50.2138E-03
            1149            1983     54.2395E-03     55.4170E-03
            1149            2000     48.5378E-03     50.0321E-03
            1149            2001     53.7967E-03     55.3757E-03
            1150            1983     54.2395E-03     55.4170E-03
            1150            1984     59.3838E-03     60.6754E-03
            1150            2001     53.7967E-03     55.3757E-03
            1150            2002     59.1683E-03     60.8449E-03
            1151            1984     59.3838E-03     60.6754E-03
            1151            1985     64.5280E-03     65.9359E-03
            1151            2002     59.1683E-03     60.8449E-03
            1151            2003     64.6059E-03     66.3852E-03
            1152            1985     64.5280E-03     65.9359E-03
            1152            1986     69.5191E-03     71.0776E-03
            1152            2003     64.6059E-03     66.3852E-03
            1152            2004     70.1596E-03     71.9843E-03
            1153            1986     69.5191E-03     71.0776E-03
            1153            1987     74.2473E-03     75.9062E-03
            1153            2004     70.1596E-03     71.9843E-03
            1153            2005     75.6680E-03     77.5387E-03
            1154            1987     74.2473E-03     75.9062E-03
            1154            1988     78.6246E-03     80.2495E-03
            1154            2005     75.6680E-03     77.5387E-03
            1154            2006     81.0539E-03     82.8306E-03
            1155             365     82.5837E-03     84.0387E-03
            1155             366     86.3046E-03     87.7482E-03
            1155            1988     78.6246E-03     80.2495E-03
            1155            2006     81.0539E-03     82.8306E-03
            1156             430     20.7446E-03     20.4697E-03
            1156             431     20.0173E-03     19.8064E-03
            1156            1989     18.8282E-03     16.6328E-03
            1156            2007     19.0968E-03     16.7066E-03
            1157            1989     18.8282E-03     16.6328E-03
            1157            1990     17.1994E-03     15.4537E-03
            1157            2007     19.0968E-03     16.7066E-03
            1157            2008     16.7183E-03     14.7561E-03
            1158            1990     17.1994E-03     15.4537E-03
            1158            1991     16.4312E-03     15.4479E-03
            1158            2008     16.7183E-03     14.7561E-03
            1158            2009     15.3597E-03     14.1235E-03
            1159            1991     16.4312E-03     15.4479E-03
            1159            1992     16.7998E-03     16.6211E-03
            1159            2009     15.3597E-03     14.1235E-03
            1159            2010     15.4242E-03     15.1190E-03
            1160            1992     16.7998E-03     16.6211E-03
            1160            1993     18.4891E-03     18.9356E-03
            1160            2010     15.4242E-03     15.1190E-03
            1160            2011     16.9323E-03     17.4578E-03
            1161            1993     18.4891E-03     18.9356E-03
            1161            1994     21.2525E-03     22.1052E-03
            1161            2011     16.9323E-03     17.4578E-03
            1161            2012     19.7770E-03     20.8433E-03
            1162            1994     21.2525E-03     22.1052E-03
            1162            1995     24.8600E-03     25.9324E-03
            1162            2012     19.7770E-03     20.8433E-03
            1162            2013     23.5252E-03     24.8969E-03
            1163            1995     24.8600E-03     25.9324E-03
            1163            1996     29.0397E-03     30.2357E-03
            1163            2013     23.5252E-03     24.8969E-03
            1163            2014     27.8138E-03     29.3582E-03
            1164            1996     29.0397E-03     30.2357E-03
            1164            1997     33.5866E-03     34.8657E-03
            1164            2014     27.8138E-03     29.3582E-03
            1164            2015     32.4594E-03     34.1097E-03
            1165            1997     33.5866E-03     34.8657E-03
            1165            1998     38.3982E-03     39.7467E-03
            1165            2015     32.4594E-03     34.1097E-03
            1165            2016     37.3338E-03     39.0586E-03
            1166            1998     38.3982E-03     39.7467E-03
            1166            1999     43.3938E-03     44.8090E-03
            1166            2016     37.3338E-03     39.0586E-03
            1166            2017     42.3789E-03     44.1735E-03
            1167            1999     43.3938E-03     44.8090E-03
            1167            2000     48.5378E-03     50.0321E-03
            1167            2017     42.3789E-03     44.1735E-03
            1167            2018     47.5680E-03     49.4238E-03
            1168            2000     48.5378E-03     50.0321E-03
            1168            2001     53.7967E-03     55.3757E-03
            1168            2018     47.5680E-03     49.4238E-03
            1168            2019     52.8904E-03     54.8234E-03
            1169            2001     53.7967E-03     55.3757E-03
            1169            2002     59.1683E-03     60.8449E-03
            1169            2019     52.8904E-03     54.8234E-03
            1169            2020     58.3675E-03     60.3634E-03
            1170            2002     59.1683E-03     60.8449E-03
            1170            2003     64.6059E-03     66.3852E-03
            1170            2020     58.3675E-03     60.3634E-03
            1170            2021     64.0519E-03     66.1082E-03
            1171            2003     64.6059E-03     66.3852E-03
            1171            2004     70.1596E-03     71.9843E-03
            1171            2021     64.0519E-03     66.1082E-03
            1171            2022     69.9687E-03     72.0499E-03
            1172            2004     70.1596E-03     71.9843E-03
            1172            2005     75.6680E-03     77.5387E-03
            1172            2022     69.9687E-03     72.0499E-03
            1172            2023     76.3708E-03     78.3127E-03
            1173            2005     75.6680E-03     77.5387E-03
            1173            2006     81.0539E-03     82.8306E-03
            1173            2023     76.3708E-03     78.3127E-03
            1173            2024     82.9819E-03     84.8221E-03
            1174             366     86.3046E-03     87.7482E-03
            1174             367     89.5576E-03     91.2490E-03
            1174            2006     81.0539E-03     82.8306E-03
            1174            2024     82.9819E-03     84.8221E-03
            1175             429     21.8658E-03     21.7620E-03
            1175             430     20.7446E-03     20.4697E-03
            1175            2007     19.0968E-03     16.7066E-03
            1175            2025     19.7834E-03     17.3844E-03
            1176            2007     19.0968E-03     16.7066E-03
            1176            2008     16.7183E-03     14.7561E-03
            1176            2025     19.7834E-03     17.3844E-03
            1176            2026     16.8029E-03     14.6094E-03
            1177            2008     16.7183E-03     14.7561E-03
            1177            2009     15.3597E-03     14.1235E-03
            1177            2026     16.8029E-03     14.6094E-03
            1177            2027     14.5605E-03     13.1393E-03
            1178            2009     15.3597E-03     14.1235E-03
            1178            2010     15.4242E-03     15.1190E-03
            1178            2027     14.5605E-03     13.1393E-03
            1178            2028     13.7991E-03     13.5123E-03
            1179            2010     15.4242E-03     15.1190E-03
            1179            2011     16.9323E-03     17.4578E-03
            1179            2028     13.7991E-03     13.5123E-03
            1179            2029     15.1609E-03     15.8900E-03
            1180            2011     16.9323E-03     17.4578E-03
            1180            2012     19.7770E-03     20.8433E-03
            1180            2029     15.1609E-03     15.8900E-03
            1180            2030     18.1388E-03     19.5112E-03
            1181            2012     19.7770E-03     20.8433E-03
            1181            2013     23.5252E-03     24.8969E-03
            1181            2030     18.1388E-03     19.5112E-03
            1181            2031     22.0203E-03     23.7542E-03
            1182            2013     23.5252E-03     24.8969E-03
            1182            2014     27.8138E-03     29.3582E-03
            1182            2031     22.0203E-03     23.7542E-03
            1182            2032     26.4367E-03     28.3624E-03
            1183            2014     27.8138E-03     29.3582E-03
            1183            2015     32.4594E-03     34.1097E-03
            1183            2032     26.4367E-03     28.3624E-03
            1183            2033     31.1460E-03     33.1807E-03
            1184            2015     32.4594E-03     34.1097E-03
            1184            2016     37.3338E-03     39.0586E-03
            1184            2033     31.1460E-03     33.1807E-03
            1184            2034     36.0477E-03     38.1533E-03
            1185            2016     37.3338E-03     39.0586E-03
            1185            2017     42.3789E-03     44.1735E-03
            1185            2034     36.0477E-03     38.1533E-03
            1185            2035     41.0954E-03     43.2469E-03
            1186            2017     42.3789E-03     44.1735E-03
            1186            2018     47.5680E-03     49.4238E-03
            1186            2035     41.0954E-03     43.2469E-03
            1186            2036     46.2621E-03     48.4609E-03
            1187            2018     47.5680E-03     49.4238E-03
            1187            2019     52.8904E-03     54.8234E-03
            1187            2036     46.2621E-03     48.4609E-03
            1187            2037     51.5777E-03     53.8057E-03
            1188            2019     52.8904E-03     54.8234E-03
            1188            2020     58.3675E-03     60.3634E-03
            1188            2037     51.5777E-03     53.8057E-03
            1188            2038     57.0613E-03     59.3354E-03
            1189            2020     58.3675E-03     60.3634E-03
            1189            2021     64.0519E-03     66.1082E-03
            1189            2038     57.0613E-03     59.3354E-03
            1189            2039     62.8268E-03     65.1030E-03
            1190            2021     64.0519E-03     66.1082E-03
            1190            2022     69.9687E-03     72.0499E-03
            1190            2039     62.8268E-03     65.1030E-03
            1190            2040     69.0112E-03     71.2812E-03
            1191            2022     69.9687E-03     72.0499E-03
            1191            2023     76.3708E-03     78.3127E-03
            1191            2040     69.0112E-03     71.2812E-03
            1191            2041     75.8023E-03     77.9724E-03
            1192            2023     76.3708E-03     78.3127E-03
            1192            2024     82.9819E-03     84.8221E-03
            1192            2041     75.8023E-03     77.9724E-03
            1192            2042     83.8774E-03     85.6399E-03
            1193             367     89.5576E-03     91.2490E-03
            1193             368     92.5493E-03     94.0306E-03
            1193            2024     82.9819E-03     84.8221E-03
            1193            2042     83.8774E-03     85.6399E-03
            1194             428     24.1004E-03     24.0059E-03
            1194             429     21.8658E-03     21.7620E-03
            1194            2025     19.7834E-03     17.3844E-03
            1194            2043     21.6951E-03     19.0634E-03
            1195            2025     19.7834E-03     17.3844E-03
            1195            2026     16.8029E-03     14.6094E-03
            1195            2043     21.6951E-03     19.0634E-03
            1195            2044     17.1853E-03     14.9042E-03
            1196            2026     16.8029E-03     14.6094E-03
            1196            2027     14.5605E-03     13.1393E-03
            1196            2044     17.1853E-03     14.9042E-03
            1196            2045     13.1096E-03     11.6987E-03
            1197            2027     14.5605E-03     13.1393E-03
            1197            2028     13.7991E-03     13.5123E-03
            1197            2045     13.1096E-03     11.6987E-03
            1197            2046     11.7203E-03     11.6306E-03
            1198            2028     13.7991E-03     13.5123E-03
            1198            2029     15.1609E-03     15.8900E-03
            1198            2046     11.7203E-03     11.6306E-03
            1198            2047     13.1066E-03     14.2116E-03
            1199            2029     15.1609E-03     15.8900E-03
            1199            2030     18.1388E-03     19.5112E-03
            1199            2047     13.1066E-03     14.2116E-03
            1199            2048     16.2594E-03     18.0863E-03
            1200            2030     18.1388E-03     19.5112E-03
            1200            2031     22.0203E-03     23.7542E-03
            1200            2048     16.2594E-03     18.0863E-03
            1200            2049     20.3766E-03     22.5575E-03
            1201            2031     22.0203E-03     23.7542E-03
            1201            2032     26.4367E-03     28.3624E-03
            1201            2049     20.3766E-03     22.5575E-03
            1201            2050     24.9176E-03     27.2790E-03
            1202            2032     26.4367E-03     28.3624E-03
            1202            2033     31.1460E-03     33.1807E-03
            1202            2050     24.9176E-03     27.2790E-03
            1202            2051     29.6865E-03     32.1398E-03
            1203            2033     31.1460E-03     33.1807E-03
            1203            2034     36.0477E-03     38.1533E-03
            1203            2051     29.6865E-03     32.1398E-03
            1203            2052     34.5994E-03     37.0954E-03
            1204            2034     36.0477E-03     38.1533E-03
            1204            2035     41.0954E-03     43.2469E-03
            1204            2052     34.5994E-03     37.0954E-03
            1204            2053     39.6101E-03     42.1259E-03
            1205            2035     41.0954E-03     43.2469E-03
            1205            2036     46.2621E-03     48.4609E-03
            1205            2053     39.6101E-03     42.1259E-03
            1205            2054     44.7317E-03     47.2453E-03
            1206            2036     46.2621E-03     48.4609E-03
            1206            2037     51.5777E-03     53.8057E-03
            1206            2054     44.7317E-03     47.2453E-03
            1206            2055     49.9642E-03     52.4740E-03
            1207            2037     51.5777E-03     53.8057E-03
            1207            2038     57.0613E-03     59.3354E-03
            1207            2055     49.9642E-03     52.4740E-03
            1207            2056     55.3980E-03     57.8793E-03
            1208            2038     57.0613E-03     59.3354E-03
            1208            2039     62.8268E-03     65.1030E-03
            1208            2056     55.3980E-03     57.8793E-03
            1208            2057     61.0884E-03     63.5573E-03
            1209            2039     62.8268E-03     65.1030E-03
            1209            2040     69.0112E-03     71.2812E-03
            1209            2057     61.0884E-03     63.5573E-03
            1209            2058     67.2912E-03     69.6890E-03
            1210            2040     69.0112E-03     71.2812E-03
            1210            2041     75.8023E-03     77.9724E-03
            1210            2058     67.2912E-03     69.6890E-03
            1210            2059     74.2241E-03     76.5800E-03
            1211            2041     75.8023E-03     77.9724E-03
            1211            2042     83.8774E-03     85.6399E-03
            1211            2059     74.2241E-03     76.5800E-03
            1211            2060     82.4909E-03     84.6354E-03
            1212             368     92.5493E-03     94.0306E-03
            1212             369     93.7050E-03     95.0640E-03
            1212            2042     83.8774E-03     85.6399E-03
            1212            2060     82.4909E-03     84.6354E-03
            1213             427     28.5987E-03     28.6900E-03
            1213             428     24.1004E-03     24.0059E-03
            1213            2043     21.6951E-03     19.0634E-03
            1213            2061     23.4733E-03     21.3424E-03
            1214            2043     21.6951E-03     19.0634E-03
            1214            2044     17.1853E-03     14.9042E-03
            1214            2061     23.4733E-03     21.3424E-03
            1214            2062     15.7970E-03     13.7400E-03
            1215            2044     17.1853E-03     14.9042E-03
            1215            2045     13.1096E-03     11.6987E-03
            1215            2062     15.7970E-03     13.7400E-03
            1215            2063     10.6928E-03     9.41920E-03
            1216            2045     13.1096E-03     11.6987E-03
            1216            2046     11.7203E-03     11.6306E-03
            1216            2063     10.6928E-03     9.41920E-03
            1216            2064     9.10123E-03     9.43275E-03
            1217            2046     11.7203E-03     11.6306E-03
            1217            2047     13.1066E-03     14.2116E-03
            1217            2064     9.10123E-03     9.43275E-03
            1217            2065     10.6262E-03     12.3888E-03
            1218            2047     13.1066E-03     14.2116E-03
            1218            2048     16.2594E-03     18.0863E-03
            1218            2065     10.6262E-03     12.3888E-03
            1218            2066     14.2550E-03     16.6962E-03
            1219            2048     16.2594E-03     18.0863E-03
            1219            2049     20.3766E-03     22.5575E-03
            1219            2066     14.2550E-03     16.6962E-03
            1219            2067     18.6521E-03     21.3888E-03
            1220            2049     20.3766E-03     22.5575E-03
            1220            2050     24.9176E-03     27.2790E-03
            1220            2067     18.6521E-03     21.3888E-03
            1220            2068     23.3398E-03     26.2069E-03
            1221            2050     24.9176E-03     27.2790E-03
            1221            2051     29.6865E-03     32.1398E-03
            1221            2068     23.3398E-03     26.2069E-03
            1221            2069     28.1714E-03     31.0881E-03
            1222            2051     29.6865E-03     32.1398E-03
            1222            2052     34.5994E-03     37.0954E-03
            1222            2069     28.1714E-03     31.0881E-03
            1222            2070     33.0738E-03     35.9950E-03
            1223            2052     34.5994E-03     37.0954E-03
            1223            2053     39.6101E-03     42.1259E-03
            1223            2070     33.0738E-03     35.9950E-03
            1223            2071     38.0490E-03     40.9441E-03
            1224            2053     39.6101E-03     42.1259E-03
            1224            2054     44.7317E-03     47.2453E-03
            1224            2071     38.0490E-03     40.9441E-03
            1224            2072     43.0886E-03     45.9315E-03
            1225            2054     44.7317E-03     47.2453E-03
            1225            2055     49.9642E-03     52.4740E-03
            1225            2072     43.0886E-03     45.9315E-03
            1225            2073     48.2436E-03     51.0147E-03
            1226            2055     49.9642E-03     52.4740E-03
            1226            2056     55.3980E-03     57.8793E-03
            1226            2073     48.2436E-03     51.0147E-03
            1226            2074     53.5462E-03     56.2234E-03
            1227            2056     55.3980E-03     57.8793E-03
            1227            2057     61.0884E-03     63.5573E-03
            1227            2074     53.5462E-03     56.2234E-03
            1227            2075     59.1433E-03     61.7144E-03
            1228            2057     61.0884E-03     63.5573E-03
            1228            2058     67.2912E-03     69.6890E-03
            1228            2075     59.1433E-03     61.7144E-03
            1228            2076     65.1283E-03     67.5968E-03
            1229            2058     67.2912E-03     69.6890E-03
            1229            2059     74.2241E-03     76.5800E-03
            1229            2076     65.1283E-03     67.5968E-03
            1229            2077     71.9446E-03     74.3222E-03
            1230            2059     74.2241E-03     76.5800E-03
            1230            2060     82.4909E-03     84.6354E-03
            1230            2077     71.9446E-03     74.3222E-03
            1230            2078     79.8004E-03     82.2026E-03
            1231             369     93.7050E-03     95.0640E-03
            1231             370     90.5779E-03     93.0537E-03
            1231            2060     82.4909E-03     84.6354E-03
            1231            2078     79.8004E-03     82.2026E-03
            1232             426     30.7155E-03     34.1587E-03
            1232             427     28.5987E-03     28.6900E-03
            1232            2061     23.4733E-03     21.3424E-03
            1232            2079     23.5801E-03     27.6510E-03
            1233            2061     23.4733E-03     21.3424E-03
            1233            2062     15.7970E-03     13.7400E-03
            1233            2079     23.5801E-03     27.6510E-03
            1233            2080     20.5623E-03     21.0232E-03
            1234            2062     15.7970E-03     13.7400E-03
            1234            2063     10.6928E-03     9.41920E-03
            1234            2080     20.5623E-03     21.0232E-03
            1234            2081     19.3608E-03     19.1625E-03
            1235            2063     10.6928E-03     9.41920E-03
            1235            2064     9.10123E-03     9.43275E-03
            1235            2081     19.3608E-03     19.1625E-03
            1235            2082     19.7647E-03     20.1870E-03
            1236            2064     9.10123E-03     9.43275E-03
            1236            2065     10.6262E-03     12.3888E-03
            1236            2082     19.7647E-03     20.1870E-03
            1236            2083     22.2988E-03     23.3388E-03
            1237            2065     10.6262E-03     12.3888E-03
            1237            2066     14.2550E-03     16.6962E-03
            1237            2083     22.2988E-03     23.3388E-03
            1237            2084     26.2445E-03     27.5675E-03
            1238            2066     14.2550E-03     16.6962E-03
            1238            2067     18.6521E-03     21.3888E-03
            1238            2084     26.2445E-03     27.5675E-03
            1238            2085     30.7570E-03     32.1908E-03
            1239            2067     18.6521E-03     21.3888E-03
            1239            2068     23.3398E-03     26.2069E-03
            1239            2085     30.7570E-03     32.1908E-03
            1239            2086     35.5940E-03     37.0622E-03
            1240            2068     23.3398E-03     26.2069E-03
            1240            2069     28.1714E-03     31.0881E-03
            1240            2086     35.5940E-03     37.0622E-03
            1240            2087     40.6123E-03     42.0790E-03
            1241            2069     28.1714E-03     31.0881E-03
            1241            2070     33.0738E-03     35.9950E-03
            1241            2087     40.6123E-03     42.0790E-03
            1241            2088     45.7496E-03     47.1751E-03
            1242            2070     33.0738E-03     35.9950E-03
            1242            2071     38.0490E-03     40.9441E-03
            1242            2088     45.7496E-03     47.1751E-03
            1242            2089     50.9512E-03     52.3168E-03
            1243            2071     38.0490E-03     40.9441E-03
            1243            2072     43.0886E-03     45.9315E-03
            1243            2089     50.9512E-03     52.3168E-03
            1243            2090     56.1936E-03     57.4501E-03
            1244            2072     43.0886E-03     45.9315E-03
            1244            2073     48.2436E-03     51.0147E-03
            1244            2090     56.1936E-03     57.4501E-03
            1244            2091     61.4375E-03     62.5727E-03
            1245            2073     48.2436E-03     51.0147E-03
            1245            2074     53.5462E-03     56.2234E-03
            1245            2091     61.4375E-03     62.5727E-03
            1245            2092     66.6988E-03     67.6341E-03
            1246            2074     53.5462E-03     56.2234E-03
            1246            2075     59.1433E-03     61.7144E-03
            1246            2092     66.6988E-03     67.6341E-03
            1246            2093     71.9427E-03     72.6841E-03
            1247            2075     59.1433E-03     61.7144E-03
            1247            2076     65.1283E-03     67.5968E-03
            1247            2093     71.9427E-03     72.6841E-03
            1247            2094     77.2642E-03     77.7054E-03
            1248            2076     65.1283E-03     67.5968E-03
            1248            2077     71.9446E-03     74.3222E-03
            1248            2094     77.2642E-03     77.7054E-03
            1248            2095     82.6289E-03     82.8484E-03
            1249            2077     71.9446E-03     74.3222E-03
            1249            2078     79.8004E-03     82.2026E-03
            1249            2095     82.6289E-03     82.8484E-03
            1249            2096     88.3781E-03     88.3363E-03
            1250             370     90.5779E-03     93.0537E-03
            1250             371     94.4947E-03     94.5546E-03
            1250            2078     79.8004E-03     82.2026E-03
            1250            2096     88.3781E-03     88.3363E-03
            1251             425     30.6226E-03     35.1632E-03
            1251             426     30.7155E-03     34.1587E-03
            1251            2079     23.5801E-03     27.6510E-03
            1251            2097     26.4064E-03     31.4329E-03
            1252            2079     23.5801E-03     27.6510E-03
            1252            2080     20.5623E-03     21.0232E-03
            1252            2097     26.4064E-03     31.4329E-03
            1252            2098     25.9862E-03     29.1836E-03
            1253            2080     20.5623E-03     21.0232E-03
            1253            2081     19.3608E-03     19.1625E-03
            1253            2098     25.9862E-03     29.1836E-03
            1253            2099     27.6637E-03     29.0140E-03
            1254            2081     19.3608E-03     19.1625E-03
            1254            2082     19.7647E-03     20.1870E-03
            1254            2099     27.6637E-03     29.0140E-03
            1254            2100     30.1113E-03     30.6528E-03
            1255            2082     19.7647E-03     20.1870E-03
            1255            2083     22.2988E-03     23.3388E-03
            1255            2100     30.1113E-03     30.6528E-03
            1255            2101     33.4420E-03     33.6303E-03
            1256            2083     22.2988E-03     23.3388E-03
            1256            2084     26.2445E-03     27.5675E-03
            1256            2101     33.4420E-03     33.6303E-03
            1256            2102     37.5583E-03     37.5853E-03
            1257            2084     26.2445E-03     27.5675E-03
            1257            2085     30.7570E-03     32.1908E-03
            1257            2102     37.5583E-03     37.5853E-03
            1257            2103     42.2781E-03     42.2563E-03
            1258            2085     30.7570E-03     32.1908E-03
            1258            2086     35.5940E-03     37.0622E-03
            1258            2103     42.2781E-03     42.2563E-03
            1258            2104     47.4603E-03     47.4054E-03
            1259            2086     35.5940E-03     37.0622E-03
            1259            2087     40.6123E-03     42.0790E-03
            1259            2104     47.4603E-03     47.4054E-03
            1259            2105     52.9616E-03     52.8793E-03
            1260            2087     40.6123E-03     42.0790E-03
            1260            2088     45.7496E-03     47.1751E-03
            1260            2105     52.9616E-03     52.8793E-03
            1260            2106     58.6685E-03     58.5474E-03
            1261            2088     45.7496E-03     47.1751E-03
            1261            2089     50.9512E-03     52.3168E-03
            1261            2106     58.6685E-03     58.5474E-03
            1261            2107     64.4994E-03     64.3122E-03
            1262            2089     50.9512E-03     52.3168E-03
            1262            2090     56.1936E-03     57.4501E-03
            1262            2107     64.4994E-03     64.3122E-03
            1262            2108     70.3567E-03     70.0892E-03
            1263            2090     56.1936E-03     57.4501E-03
            1263            2091     61.4375E-03     62.5727E-03
            1263            2108     70.3567E-03     70.0892E-03
            1263            2109     76.1833E-03     75.7886E-03
            1264            2091     61.4375E-03     62.5727E-03
            1264            2092     66.6988E-03     67.6341E-03
            1264            2109     76.1833E-03     75.7886E-03
            1264            2110     81.8756E-03     81.3365E-03
            1265            2092     66.6988E-03     67.6341E-03
            1265            2093     71.9427E-03     72.6841E-03
            1265            2110     81.8756E-03     81.3365E-03
            1265            2111     87.3625E-03     86.6286E-03
            1266            2093     71.9427E-03     72.6841E-03
            1266            2094     77.2642E-03     77.7054E-03
            1266            2111     87.3625E-03     86.6286E-03
            1266            2112     92.5143E-03     91.5690E-03
            1267            2094     77.2642E-03     77.7054E-03
            1267            2095     82.6289E-03     82.8484E-03
            1267            2112     92.5143E-03     91.5690E-03
            1267            2113     97.2103E-03     96.0531E-03
            1268            2095     82.6289E-03     82.8484E-03
            1268            2096     88.3781E-03     88.3363E-03
            1268            2113     97.2103E-03     96.0531E-03
            1268            2114     101.223E-03     99.9006E-03
            1269             371     94.4947E-03     94.5546E-03
            1269             372     104.286E-03     103.043E-03
            1269            2096     88.3781E-03     88.3363E-03
            1269            2114     101.223E-03     99.9006E-03
            1270             424     30.2398E-03     31.0554E-03
            1270             425     30.6226E-03     35.1632E-03
            1270            2097     26.4064E-03     31.4329E-03
            1270            2115     28.6170E-03     28.0291E-03
            1271            2097     26.4064E-03     31.4329E-03
            1271            2098     25.9862E-03     29.1836E-03
            1271            2115     28.6170E-03     28.0291E-03
            1271            2116     25.5678E-03     27.2771E-03
            1272            2098     25.9862E-03     29.1836E-03
            1272            2099     27.6637E-03     29.0140E-03
            1272            2116     25.5678E-03     27.2771E-03
            1272            2117     25.0533E-03     26.7373E-03
            1273            2099     27.6637E-03     29.0140E-03
            1273            2100     30.1113E-03     30.6528E-03
            1273            2117     25.0533E-03     26.7373E-03
            1273            2118     26.8903E-03     27.8887E-03
            1274            2100     30.1113E-03     30.6528E-03
            1274            2101     33.4420E-03     33.6303E-03
            1274            2118     26.8903E-03     27.8887E-03
            1274            2119     30.1254E-03     30.7503E-03
            1275            2101     33.4420E-03     33.6303E-03
            1275            2102     37.5583E-03     37.5853E-03
            1275            2119     30.1254E-03     30.7503E-03
            1275            2120     34.5066E-03     34.9138E-03
            1276            2102     37.5583E-03     37.5853E-03
            1276            2103     42.2781E-03     42.2563E-03
            1276            2120     34.5066E-03     34.9138E-03
            1276            2121     39.6741E-03     39.9904E-03
            1277            2103     42.2781E-03     42.2563E-03
            1277            2104     47.4603E-03     47.4054E-03
            1277            2121     39.6741E-03     39.9904E-03
            1277            2122     45.3970E-03     45.6746E-03
            1278            2104     47.4603E-03     47.4054E-03
            1278            2105     52.9616E-03     52.8793E-03
            1278            2122     45.3970E-03     45.6746E-03
            1278            2123     51.4895E-03     51.7538E-03
            1279            2105     52.9616E-03     52.8793E-03
            1279            2106     58.6685E-03     58.5474E-03
            1279            2123     51.4895E-03     51.7538E-03
            1279            2124     57.8422E-03     58.0891E-03
            1280            2106     58.6685E-03     58.5474E-03
            1280            2107     64.4994E-03     64.3122E-03
            1280            2124     57.8422E-03     58.0891E-03
            1280            2125     64.3426E-03     64.5778E-03
            1281            2107     64.4994E-03     64.3122E-03
            1281            2108     70.3567E-03     70.0892E-03
            1281            2125     64.3426E-03     64.5778E-03
            1281            2126     70.9370E-03     71.1398E-03
            1282            2108     70.3567E-03     70.0892E-03
            1282            2109     76.1833E-03     75.7886E-03
            1282            2126     70.9370E-03     71.1398E-03
            1282            2127     77.5246E-03     77.7100E-03
            1283            2109     76.1833E-03     75.7886E-03
            1283            2110     81.8756E-03     81.3365E-03
            1283            2127     77.5246E-03     77.7100E-03
            1283            2128     84.0511E-03     84.2013E-03
            1284            2110     81.8756E-03     81.3365E-03
            1284            2111     87.3625E-03     86.6286E-03
            1284            2128     84.0511E-03     84.2013E-03
            1284            2129     90.3872E-03     90.5457E-03
            1285            2111     87.3625E-03     86.6286E-03
            1285            2112     92.5143E-03     91.5690E-03
            1285            2129     90.3872E-03     90.5457E-03
            1285            2130     96.4169E-03     96.6111E-03
            1286            2112     92.5143E-03     91.5690E-03
            1286            2113     97.2103E-03     96.0531E-03
            1286            2130     96.4169E-03     96.6111E-03
            1286            2131     101.960E-03     102.282E-03
            1287            2113     97.2103E-03     96.0531E-03
            1287            2114     101.223E-03     99.9006E-03
            1287            2131     101.960E-03     102.282E-03
            1287            2132     106.741E-03     107.355E-03
            1288             372     104.286E-03     103.043E-03
            1288             373     110.664E-03     111.477E-03
            1288            2114     101.223E-03     99.9006E-03
            1288            2132     106.741E-03     107.355E-03
            1289             423     28.6197E-03     28.4853E-03
            1289             424     30.2398E-03     31.0554E-03
            1289            2115     28.6170E-03     28.0291E-03
            1289            2133     27.1597E-03     25.2634E-03
            1290            2115     28.6170E-03     28.0291E-03
            1290            2116     25.5678E-03     27.2771E-03
            1290            2133     27.1597E-03     25.2634E-03
            1290            2134     24.9645E-03     24.3396E-03
            1291            2116     25.5678E-03     27.2771E-03
            1291            2117     25.0533E-03     26.7373E-03
            1291            2134     24.9645E-03     24.3396E-03
            1291            2135     23.4912E-03     24.2171E-03
            1292            2117     25.0533E-03     26.7373E-03
            1292            2118     26.8903E-03     27.8887E-03
            1292            2135     23.4912E-03     24.2171E-03
            1292            2136     24.3964E-03     25.4039E-03
            1293            2118     26.8903E-03     27.8887E-03
            1293            2119     30.1254E-03     30.7503E-03
            1293            2136     24.3964E-03     25.4039E-03
            1293            2137     27.4807E-03     28.3630E-03
            1294            2119     30.1254E-03     30.7503E-03
            1294            2120     34.5066E-03     34.9138E-03
            1294            2137     27.4807E-03     28.3630E-03
            1294            2138     32.0375E-03     32.8129E-03
            1295            2120     34.5066E-03     34.9138E-03
            1295            2121     39.6741E-03     39.9904E-03
            1295            2138     32.0375E-03     32.8129E-03
            1295            2139     37.5964E-03     38.2959E-03
            1296            2121     39.6741E-03     39.9904E-03
            1296            2122     45.3970E-03     45.6746E-03
            1296            2139     37.5964E-03     38.2959E-03
            1296            2140     43.7819E-03     44.4594E-03
            1297            2122     45.3970E-03     45.6746E-03
            1297            2123     51.4895E-03     51.7538E-03
            1297            2140     43.7819E-03     44.4594E-03
            1297            2141     50.3929E-03     51.0658E-03
            1298            2123     51.4895E-03     51.7538E-03
            1298            2124     57.8422E-03     58.0891E-03
            1298            2141     50.3929E-03     51.0658E-03
            1298            2142     57.2688E-03     57.9605E-03
            1299            2124     57.8422E-03     58.0891E-03
            1299            2125     64.3426E-03     64.5778E-03
            1299            2142     57.2688E-03     57.9605E-03
            1299            2143     64.3405E-03     65.0501E-03
            1300            2125     64.3426E-03     64.5778E-03
            1300            2126     70.9370E-03     71.1398E-03
            1300            2143     64.3405E-03     65.0501E-03
            1300            2144     71.5096E-03     72.2615E-03
            1301            2126     70.9370E-03     71.1398E-03
            1301            2127     77.5246E-03     77.7100E-03
            1301            2144     71.5096E-03     72.2615E-03
            1301            2145     78.7385E-03     79.5313E-03
            1302            2127     77.5246E-03     77.7100E-03
            1302            2128     84.0511E-03     84.2013E-03
            1302            2145     78.7385E-03     79.5313E-03
            1302            2146     85.9163E-03     86.8009E-03
            1303            2128     84.0511E-03     84.2013E-03
            1303            2129     90.3872E-03     90.5457E-03
            1303            2146     85.9163E-03     86.8009E-03
            1303            2147     92.9646E-03     93.9621E-03
            1304            2129     90.3872E-03     90.5457E-03
            1304            2130     96.4169E-03     96.6111E-03
            1304            2147     92.9646E-03     93.9621E-03
            1304            2148     99.7281E-03     100.911E-03
            1305            2130     96.4169E-03     96.6111E-03
            1305            2131     101.960E-03     102.282E-03
            1305            2148     99.7281E-03     100.911E-03
            1305            2149     105.973E-03     107.437E-03
            1306            2131     101.960E-03     102.282E-03
            1306            2132     106.741E-03     107.355E-03
            1306            2149     105.973E-03     107.437E-03
            1306            2150     111.601E-03     113.264E-03
            1307             373     110.664E-03     111.477E-03
            1307             374     116.258E-03     118.066E-03
            1307            2132     106.741E-03     107.355E-03
            1307            2150     111.601E-03     113.264E-03
            1308             422     27.7741E-03     27.8911E-03
            1308             423     28.6197E-03     28.4853E-03
            1308            2133     27.1597E-03     25.2634E-03
            1308            2151     25.9036E-03     23.4114E-03
            1309            2133     27.1597E-03     25.2634E-03
            1309            2134     24.9645E-03     24.3396E-03
            1309            2151     25.9036E-03     23.4114E-03
            1309            2152     23.2150E-03     21.7226E-03
            1310            2134     24.9645E-03     24.3396E-03
            1310            2135     23.4912E-03     24.2171E-03
            1310            2152     23.2150E-03     21.7226E-03
            1310            2153     21.7933E-03     21.4628E-03
            1311            2135     23.4912E-03     24.2171E-03
            1311            2136     24.3964E-03     25.4039E-03
            1311            2153     21.7933E-03     21.4628E-03
            1311            2154     22.3075E-03     22.9358E-03
            1312            2136     24.3964E-03     25.4039E-03
            1312            2137     27.4807E-03     28.3630E-03
            1312            2154     22.3075E-03     22.9358E-03
            1312            2155     25.2344E-03     26.2242E-03
            1313            2137     27.4807E-03     28.3630E-03
            1313            2138     32.0375E-03     32.8129E-03
            1313            2155     25.2344E-03     26.2242E-03
            1313            2156     29.9726E-03     31.0489E-03
            1314            2138     32.0375E-03     32.8129E-03
            1314            2139     37.5964E-03     38.2959E-03
            1314            2156     29.9726E-03     31.0489E-03
            1314            2157     35.8540E-03     36.9450E-03
            1315            2139     37.5964E-03     38.2959E-03
            1315            2140     43.7819E-03     44.4594E-03
            1315            2157     35.8540E-03     36.9450E-03
            1315            2158     42.4348E-03     43.5298E-03
            1316            2140     43.7819E-03     44.4594E-03
            1316            2141     50.3929E-03     51.0658E-03
            1316            2158     42.4348E-03     43.5298E-03
            1316            2159     49.4350E-03     50.5558E-03
            1317            2141     50.3929E-03     51.0658E-03
            1317            2142     57.2688E-03     57.9605E-03
            1317            2159     49.4350E-03     50.5558E-03
            1317            2160     56.7298E-03     57.8855E-03
            1318            2142     57.2688E-03     57.9605E-03
            1318            2143     64.3405E-03     65.0501E-03
            1318            2160     56.7298E-03     57.8855E-03
            1318            2161     64.2058E-03     65.4215E-03
            1319            2143     64.3405E-03     65.0501E-03
            1319            2144     71.5096E-03     72.2615E-03
            1319            2161     64.2058E-03     65.4215E-03
            1319            2162     71.8253E-03     73.1124E-03
            1320            2144     71.5096E-03     72.2615E-03
            1320            2145     78.7385E-03     79.5313E-03
            1320            2162     71.8253E-03     73.1124E-03
            1320            2163     79.5058E-03     80.9037E-03
            1321            2145     78.7385E-03     79.5313E-03
            1321            2146     85.9163E-03     86.8009E-03
            1321            2163     79.5058E-03     80.9037E-03
            1321            2164     87.2152E-03     88.7400E-03
            1322            2146     85.9163E-03     86.8009E-03
            1322            2147     92.9646E-03     93.9621E-03
            1322            2164     87.2152E-03     88.7400E-03
            1322            2165     94.8298E-03     96.5412E-03
            1323            2147     92.9646E-03     93.9621E-03
            1323            2148     99.7281E-03     100.911E-03
            1323            2165     94.8298E-03     96.5412E-03
            1323            2166     102.221E-03     104.149E-03
            1324            2148     99.7281E-03     100.911E-03
            1324            2149     105.973E-03     107.437E-03
            1324            2166     102.221E-03     104.149E-03
            1324            2167     109.238E-03     111.348E-03
            1325            2149     105.973E-03     107.437E-03
            1325            2150     111.601E-03     113.264E-03
            1325            2167     109.238E-03     111.348E-03
            1325            2168     115.557E-03     117.836E-03
            1326             374     116.258E-03     118.066E-03
            1326             375     121.249E-03     123.331E-03
            1326            2150     111.601E-03     113.264E-03
            1326            2168     115.557E-03     117.836E-03
            1327             421     27.5183E-03     27.1522E-03
            1327             422     27.7741E-03     27.8911E-03
            1327            2151     25.9036E-03     23.4114E-03
            1327            2169     24.9768E-03     21.9397E-03
            1328            2151     25.9036E-03     23.4114E-03
            1328            2152     23.2150E-03     21.7226E-03
            1328            2169     24.9768E-03     21.9397E-03
            1328            2170     21.6602E-03     19.5113E-03
            1329            2152     23.2150E-03     21.7226E-03
            1329            2153     21.7933E-03     21.4628E-03
            1329            2170     21.6602E-03     19.5113E-03
            1329            2171     19.8138E-03     18.8683E-03
            1330            2153     21.7933E-03     21.4628E-03
            1330            2154     22.3075E-03     22.9358E-03
            1330            2171     19.8138E-03     18.8683E-03
            1330            2172     20.2567E-03     20.4826E-03
            1331            2154     22.3075E-03     22.9358E-03
            1331            2155     25.2344E-03     26.2242E-03
            1331            2172     20.2567E-03     20.4826E-03
            1331            2173     23.1649E-03     24.1782E-03
            1332            2155     25.2344E-03     26.2242E-03
            1332            2156     29.9726E-03     31.0489E-03
            1332            2173     23.1649E-03     24.1782E-03
            1332            2174     28.1239E-03     29.4580E-03
            1333            2156     29.9726E-03     31.0489E-03
            1333            2157     35.8540E-03     36.9450E-03
            1333            2174     28.1239E-03     29.4580E-03
            1333            2175     34.2994E-03     35.7573E-03
            1334            2157     35.8540E-03     36.9450E-03
            1334            2158     42.4348E-03     43.5298E-03
            1334            2175     34.2994E-03     35.7573E-03
            1334            2176     41.1704E-03     42.6890E-03
            1335            2158     42.4348E-03     43.5298E-03
            1335            2159     49.4350E-03     50.5558E-03
            1335            2176     41.1704E-03     42.6890E-03
            1335            2177     48.4721E-03     50.0367E-03
            1336            2159     49.4350E-03     50.5558E-03
            1336            2160     56.7298E-03     57.8855E-03
            1336            2177     48.4721E-03     50.0367E-03
            1336            2178     56.0341E-03     57.6579E-03
            1337            2160     56.7298E-03     57.8855E-03
            1337            2161     64.2058E-03     65.4215E-03
            1337            2178     56.0341E-03     57.6579E-03
            1337            2179     63.7946E-03     65.4929E-03
            1338            2161     64.2058E-03     65.4215E-03
            1338            2162     71.8253E-03     73.1124E-03
            1338            2179     63.7946E-03     65.4929E-03
            1338            2180     71.6875E-03     73.4853E-03
            1339            2162     71.8253E-03     73.1124E-03
            1339            2163     79.5058E-03     80.9037E-03
            1339            2180     71.6875E-03     73.4853E-03
            1339            2181     79.6981E-03     81.6178E-03
            1340            2163     79.5058E-03     80.9037E-03
            1340            2164     87.2152E-03     88.7400E-03
            1340            2181     79.6981E-03     81.6178E-03
            1340            2182     87.7619E-03     89.8395E-03
            1341            2164     87.2152E-03     88.7400E-03
            1341            2165     94.8298E-03     96.5412E-03
            1341            2182     87.7619E-03     89.8395E-03
            1341            2183     95.8651E-03     98.1025E-03
            1342            2165     94.8298E-03     96.5412E-03
            1342            2166     102.221E-03     104.149E-03
            1342            2183     95.8651E-03     98.1025E-03
            1342            2184     103.862E-03     106.282E-03
            1343            2166     102.221E-03     104.149E-03
            1343            2167     109.238E-03     111.348E-03
            1343            2184     103.862E-03     106.282E-03
            1343            2185     111.602E-03     114.139E-03
            1344            2167     109.238E-03     111.348E-03
            1344            2168     115.557E-03     117.836E-03
            1344            2185     111.602E-03     114.139E-03
            1344            2186     118.919E-03     121.380E-03
            1345             375     121.249E-03     123.331E-03
            1345             376     125.593E-03     127.772E-03
            1345            2168     115.557E-03     117.836E-03
            1345            2186     118.919E-03     121.380E-03
            1346             420     27.5259E-03     27.3851E-03
            1346             421     27.5183E-03     27.1522E-03
            1346            2169     24.9768E-03     21.9397E-03
            1346            2187     24.4733E-03     21.1828E-03
            1347            2169     24.9768E-03     21.9397E-03
            1347            2170     21.6602E-03     19.5113E-03
            1347            2187     24.4733E-03     21.1828E-03
            1347            2188     20.4645E-03     17.7756E-03
            1348            2170     21.6602E-03     19.5113E-03
            1348            2171     19.8138E-03     18.8683E-03
            1348            2188     20.4645E-03     17.7756E-03
            1348            2189     17.9859E-03     16.5422E-03
            1349            2171     19.8138E-03     18.8683E-03
            1349            2172     20.2567E-03     20.4826E-03
            1349            2189     17.9859E-03     16.5422E-03
            1349            2190     18.0907E-03     18.0839E-03
            1350            2172     20.2567E-03     20.4826E-03
            1350            2173     23.1649E-03     24.1782E-03
            1350            2190     18.0907E-03     18.0839E-03
            1350            2191     21.1679E-03     22.2057E-03
            1351            2173     23.1649E-03     24.1782E-03
            1351            2174     28.1239E-03     29.4580E-03
            1351            2191     21.1679E-03     22.2057E-03
            1351            2192     26.3496E-03     27.9384E-03
            1352            2174     28.1239E-03     29.4580E-03
            1352            2175     34.2994E-03     35.7573E-03
            1352            2192     26.3496E-03     27.9384E-03
            1352            2193     32.7822E-03     34.6034E-03
            1353            2175     34.2994E-03     35.7573E-03
            1353            2176     41.1704E-03     42.6890E-03
            1353            2193     32.7822E-03     34.6034E-03
            1353            2194     39.8941E-03     41.8225E-03
            1354            2176     41.1704E-03     42.6890E-03
            1354            2177     48.4721E-03     50.0367E-03
            1354            2194     39.8941E-03     41.8225E-03
            1354            2195     47.3742E-03     49.3746E-03
            1355            2177     48.4721E-03     50.0367E-03
            1355            2178     56.0341E-03     57.6579E-03
            1355            2195     47.3742E-03     49.3746E-03
            1355            2196     55.1019E-03     57.1720E-03
            1356            2178     56.0341E-03     57.6579E-03
            1356            2179     63.7946E-03     65.4929E-03
            1356            2196     55.1019E-03     57.1720E-03
            1356            2197     62.9996E-03     65.1472E-03
            1357            2179     63.7946E-03     65.4929E-03
            1357            2180     71.6875E-03     73.4853E-03
            1357            2197     62.9996E-03     65.1472E-03
            1357            2198     71.0426E-03     73.2923E-03
            1358            2180     71.6875E-03     73.4853E-03
            1358            2181     79.6981E-03     81.6178E-03
            1358            2198     71.0426E-03     73.2923E-03
            1358            2199     79.2130E-03     81.5781E-03
            1359            2181     79.6981E-03     81.6178E-03
            1359            2182     87.7619E-03     89.8395E-03
            1359            2199     79.2130E-03     81.5781E-03
            1359            2200     87.5258E-03     90.0274E-03
            1360            2182     87.7619E-03     89.8395E-03
            1360            2183     95.8651E-03     98.1025E-03
            1360            2200     87.5258E-03     90.0274E-03
            1360            2201     95.9469E-03     98.5907E-03
            1361            2183     95.8651E-03     98.1025E-03
            1361            2184     103.862E-03     106.282E-03
            1361            2201     95.9469E-03     98.5907E-03
            1361            2202     104.548E-03     107.259E-03
            1362            2184     103.862E-03     106.282E-03
            1362            2185     111.602E-03     114.139E-03
            1362            2202     104.548E-03     107.259E-03
            1362            2203     113.120E-03     115.887E-03
            1363            2185     111.602E-03     114.139E-03
            1363            2186     118.919E-03     121.380E-03
            1363            2203     113.120E-03     115.887E-03
            1363            2204     121.504E-03     124.130E-03
            1364             376     125.593E-03     127.772E-03
            1364             377     129.541E-03     131.710E-03
            1364            2186     118.919E-03     121.380E-03
            1364            2204     121.504E-03     124.130E-03
            1365             419     28.2822E-03     28.0726E-03
            1365             420     27.5259E-03     27.3851E-03
            1365            2187     24.4733E-03     21.1828E-03
            1365            2205     24.7150E-03     21.1613E-03
            1366            2187     24.4733E-03     21.1828E-03
            1366            2188     20.4645E-03     17.7756E-03
            1366            2205     24.7150E-03     21.1613E-03
            1366            2206     19.7031E-03     16.6910E-03
            1367            2188     20.4645E-03     17.7756E-03
            1367            2189     17.9859E-03     16.5422E-03
            1367            2206     19.7031E-03     16.6910E-03
            1367            2207     16.3505E-03     14.4758E-03
            1368            2189     17.9859E-03     16.5422E-03
            1368            2190     18.0907E-03     18.0839E-03
            1368            2207     16.3505E-03     14.4758E-03
            1368            2208     16.0475E-03     15.8544E-03
            1369            2190     18.0907E-03     18.0839E-03
            1369            2191     21.1679E-03     22.2057E-03
            1369            2208     16.0475E-03     15.8544E-03
            1369            2209     19.0698E-03     20.2666E-03
            1370            2191     21.1679E-03     22.2057E-03
            1370            2192     26.3496E-03     27.9384E-03
            1370            2209     19.0698E-03     20.2666E-03
            1370            2210     24.5386E-03     26.4381E-03
            1371            2192     26.3496E-03     27.9384E-03
            1371            2193     32.7822E-03     34.6034E-03
            1371            2210     24.5386E-03     26.4381E-03
            1371            2211     31.2441E-03     33.4434E-03
            1372            2193     32.7822E-03     34.6034E-03
            1372            2194     39.8941E-03     41.8225E-03
            1372            2211     31.2441E-03     33.4434E-03
            1372            2212     38.5134E-03     40.8567E-03
            1373            2194     39.8941E-03     41.8225E-03
            1373            2195     47.3742E-03     49.3746E-03
            1373            2212     38.5134E-03     40.8567E-03
            1373            2213     46.1034E-03     48.5310E-03
            1374            2195     47.3742E-03     49.3746E-03
            1374            2196     55.1019E-03     57.1720E-03
            1374            2213     46.1034E-03     48.5310E-03
            1374            2214     53.8864E-03     56.3771E-03
            1375            2196     55.1019E-03     57.1720E-03
            1375            2197     62.9996E-03     65.1472E-03
            1375            2214     53.8864E-03     56.3771E-03
            1375            2215     61.8127E-03     64.3763E-03
            1376            2197     62.9996E-03     65.1472E-03
            1376            2198     71.0426E-03     73.2923E-03
            1376            2215     61.8127E-03     64.3763E-03
            1376            2216     69.8763E-03     72.5106E-03
            1377            2198     71.0426E-03     73.2923E-03
            1377            2199     79.2130E-03     81.5781E-03
            1377            2216     69.8763E-03     72.5106E-03
            1377            2217     78.0788E-03     80.8138E-03
            1378            2199     79.2130E-03     81.5781E-03
            1378            2200     87.5258E-03     90.0274E-03
            1378            2217     78.0788E-03     80.8138E-03
            1378            2218     86.4637E-03     89.2869E-03
            1379            2200     87.5258E-03     90.0274E-03
            1379            2201     95.9469E-03     98.5907E-03
            1379            2218     86.4637E-03     89.2869E-03
            1379            2219     95.1076E-03     98.0217E-03
            1380            2201     95.9469E-03     98.5907E-03
            1380            2202     104.548E-03     107.259E-03
            1380            2219     95.1076E-03     98.0217E-03
            1380            2220     104.038E-03     107.006E-03
            1381            2202     104.548E-03     107.259E-03
            1381            2203     113.120E-03     115.887E-03
            1381            2220     104.038E-03     107.006E-03
            1381            2221     113.570E-03     116.372E-03
            1382            2203     113.120E-03     115.887E-03
            1382            2204     121.504E-03     124.130E-03
            1382            2221     113.570E-03     116.372E-03
            1382            2222     123.299E-03     125.980E-03
            1383             377     129.541E-03     131.710E-03
            1383             378     132.817E-03     135.284E-03
            1383            2204     121.504E-03     124.130E-03
            1383            2222     123.299E-03     125.980E-03
            1384             418     29.6017E-03     29.5604E-03
            1384             419     28.2822E-03     28.0726E-03
            1384            2205     24.7150E-03     21.1613E-03
            1384            2223     25.4831E-03     21.9605E-03
            1385            2205     24.7150E-03     21.1613E-03
            1385            2206     19.7031E-03     16.6910E-03
            1385            2223     25.4831E-03     21.9605E-03
            1385            2224     19.7342E-03     16.3126E-03
            1386            2206     19.7031E-03     16.6910E-03
            1386            2207     16.3505E-03     14.4758E-03
            1386            2224     19.7342E-03     16.3126E-03
            1386            2225     15.0423E-03     12.8333E-03
            1387            2207     16.3505E-03     14.4758E-03
            1387            2208     16.0475E-03     15.8544E-03
            1387            2225     15.0423E-03     12.8333E-03
            1387            2226     13.6691E-03     13.5448E-03
            1388            2208     16.0475E-03     15.8544E-03
            1388            2209     19.0698E-03     20.2666E-03
            1388            2226     13.6691E-03     13.5448E-03
            1388            2227     16.7950E-03     18.3489E-03
            1389            2209     19.0698E-03     20.2666E-03
            1389            2210     24.5386E-03     26.4381E-03
            1389            2227     16.7950E-03     18.3489E-03
            1389            2228     22.6893E-03     24.9991E-03
            1390            2210     24.5386E-03     26.4381E-03
            1390            2211     31.2441E-03     33.4434E-03
            1390            2228     22.6893E-03     24.9991E-03
            1390            2229     29.6278E-03     32.2662E-03
            1391            2211     31.2441E-03     33.4434E-03
            1391            2212     38.5134E-03     40.8567E-03
            1391            2229     29.6278E-03     32.2662E-03
            1391            2230     37.0334E-03     39.8166E-03
            1392            2212     38.5134E-03     40.8567E-03
            1392            2213     46.1034E-03     48.5310E-03
            1392            2230     37.0334E-03     39.8166E-03
            1392            2231     44.6576E-03     47.5142E-03
            1393            2213     46.1034E-03     48.5310E-03
            1393            2214     53.8864E-03     56.3771E-03
            1393            2231     44.6576E-03     47.5142E-03
            1393            2232     52.4133E-03     55.3208E-03
            1394            2214     53.8864E-03     56.3771E-03
            1394            2215     61.8127E-03     64.3763E-03
            1394            2232     52.4133E-03     55.3208E-03
            1394            2233     60.2847E-03     63.2236E-03
            1395            2215     61.8127E-03     64.3763E-03
            1395            2216     69.8763E-03     72.5106E-03
            1395            2233     60.2847E-03     63.2236E-03
            1395            2234     68.2543E-03     71.2390E-03
            1396            2216     69.8763E-03     72.5106E-03
            1396            2217     78.0788E-03     80.8138E-03
            1396            2234     68.2543E-03     71.2390E-03
            1396            2235     76.3781E-03     79.3910E-03
            1397            2217     78.0788E-03     80.8138E-03
            1397            2218     86.4637E-03     89.2869E-03
            1397            2235     76.3781E-03     79.3910E-03
            1397            2236     84.6862E-03     87.7588E-03
            1398            2218     86.4637E-03     89.2869E-03
            1398            2219     95.1076E-03     98.0217E-03
            1398            2236     84.6862E-03     87.7588E-03
            1398            2237     93.3207E-03     96.4064E-03
            1399            2219     95.1076E-03     98.0217E-03
            1399            2220     104.038E-03     107.006E-03
            1399            2237     93.3207E-03     96.4064E-03
            1399            2238     102.456E-03     105.550E-03
            1400            2220     104.038E-03     107.006E-03
            1400            2221     113.570E-03     116.372E-03
            1400            2238     102.456E-03     105.550E-03
            1400            2239     112.289E-03     115.298E-03
            1401            2221     113.570E-03     116.372E-03
            1401            2222     123.299E-03     125.980E-03
            1401            2239     112.289E-03     115.298E-03
            1401            2240     123.665E-03     126.177E-03
            1402             378     132.817E-03     135.284E-03
            1402             379     135.629E-03     137.789E-03
            1402            2222     123.299E-03     125.980E-03
            1402            2240     123.665E-03     126.177E-03
            1403             417     32.3532E-03     32.3531E-03
            1403             418     29.6017E-03     29.5604E-03
            1403            2223     25.4831E-03     21.9605E-03
            1403            2241     27.8368E-03     23.8751E-03
            1404            2223     25.4831E-03     21.9605E-03
            1404            2224     19.7342E-03     16.3126E-03
            1404            2241     27.8368E-03     23.8751E-03
            1404            2242     19.8648E-03     16.4142E-03
            1405            2224     19.7342E-03     16.3126E-03
            1405            2225     15.0423E-03     12.8333E-03
            1405            2242     19.8648E-03     16.4142E-03
            1405            2243     12.6974E-03     10.5978E-03
            1406            2225     15.0423E-03     12.8333E-03
            1406            2226     13.6691E-03     13.5448E-03
            1406            2243     12.6974E-03     10.5978E-03
            1406            2244     10.7531E-03     11.0437E-03
            1407            2226     13.6691E-03     13.5448E-03
            1407            2227     16.7950E-03     18.3489E-03
            1407            2244     10.7531E-03     11.0437E-03
            1407            2245     14.4205E-03     16.5829E-03
            1408            2227     16.7950E-03     18.3489E-03
            1408            2228     22.6893E-03     24.9991E-03
            1408            2245     14.4205E-03     16.5829E-03
            1408            2246     20.7941E-03     23.6859E-03
            1409            2228     22.6893E-03     24.9991E-03
            1409            2229     29.6278E-03     32.2662E-03
            1409            2246     20.7941E-03     23.6859E-03
            1409            2247     28.0196E-03     31.1760E-03
            1410            2229     29.6278E-03     32.2662E-03
            1410            2230     37.0334E-03     39.8166E-03
            1410            2247     28.0196E-03     31.1760E-03
            1410            2248     35.5070E-03     38.7765E-03
            1411            2230     37.0334E-03     39.8166E-03
            1411            2231     44.6576E-03     47.5142E-03
            1411            2248     35.5070E-03     38.7765E-03
            1411            2249     43.1024E-03     46.4202E-03
            1412            2231     44.6576E-03     47.5142E-03
            1412            2232     52.4133E-03     55.3208E-03
            1412            2249     43.1024E-03     46.4202E-03
            1412            2250     50.7804E-03     54.1051E-03
            1413            2232     52.4133E-03     55.3208E-03
            1413            2233     60.2847E-03     63.2236E-03
            1413            2250     50.7804E-03     54.1051E-03
            1413            2251     58.5098E-03     61.8283E-03
            1414            2233     60.2847E-03     63.2236E-03
            1414            2234     68.2543E-03     71.2390E-03
            1414            2251     58.5098E-03     61.8283E-03
            1414            2252     66.3332E-03     69.6218E-03
            1415            2234     68.2543E-03     71.2390E-03
            1415            2235     76.3781E-03     79.3910E-03
            1415            2252     66.3332E-03     69.6218E-03
            1415            2253     74.2553E-03     77.5208E-03
            1416            2235     76.3781E-03     79.3910E-03
            1416            2236     84.6862E-03     87.7588E-03
            1416            2253     74.2553E-03     77.5208E-03
            1416            2254     82.3955E-03     85.6077E-03
            1417            2236     84.6862E-03     87.7588E-03
            1417            2237     93.3207E-03     96.4064E-03
            1417            2254     82.3955E-03     85.6077E-03
            1417            2255     90.8170E-03     94.0064E-03
            1418            2237     93.3207E-03     96.4064E-03
            1418            2238     102.456E-03     105.550E-03
            1418            2255     90.8170E-03     94.0064E-03
            1418            2256     99.8245E-03     102.926E-03
            1419            2238     102.456E-03     105.550E-03
            1419            2239     112.289E-03     115.298E-03
            1419            2256     99.8245E-03     102.926E-03
            1419            2257     109.679E-03     112.742E-03
            1420            2239     112.289E-03     115.298E-03
            1420            2240     123.665E-03     126.177E-03
            1420            2257     109.679E-03     112.742E-03
            1420            2258     121.071E-03     123.917E-03
            1421             379     135.629E-03     137.789E-03
            1421             380     136.015E-03     137.891E-03
            1421            2240     123.665E-03     126.177E-03
            1421            2258     121.071E-03     123.917E-03
            1422             416     37.8976E-03     38.2418E-03
            1422             417     32.3532E-03     32.3531E-03
            1422            2241     27.8368E-03     23.8751E-03
            1422            2259     29.1352E-03     26.6930E-03
            1423            2241     27.8368E-03     23.8751E-03
            1423            2242     19.8648E-03     16.4142E-03
            1423            2259     29.1352E-03     26.6930E-03
            1423            2260     17.5084E-03     14.8292E-03
            1424            2242     19.8648E-03     16.4142E-03
            1424            2243     12.6974E-03     10.5978E-03
            1424            2260     17.5084E-03     14.8292E-03
            1424            2261     9.20735E-03     7.57535E-03
            1425            2243     12.6974E-03     10.5978E-03
            1425            2244     10.7531E-03     11.0437E-03
            1425            2261     9.20735E-03     7.57535E-03
            1425            2262     7.43898E-03     8.60435E-03
            1426            2244     10.7531E-03     11.0437E-03
            1426            2245     14.4205E-03     16.5829E-03
            1426            2262     7.43898E-03     8.60435E-03
            1426            2263     12.0621E-03     15.2066E-03
            1427            2245     14.4205E-03     16.5829E-03
            1427            2246     20.7941E-03     23.6859E-03
            1427            2263     12.0621E-03     15.2066E-03
            1427            2264     19.1457E-03     22.7433E-03
            1428            2246     20.7941E-03     23.6859E-03
            1428            2247     28.0196E-03     31.1760E-03
            1428            2264     19.1457E-03     22.7433E-03
            1428            2265     26.5886E-03     30.3467E-03
            1429            2247     28.0196E-03     31.1760E-03
            1429            2248     35.5070E-03     38.7765E-03
            1429            2265     26.5886E-03     30.3467E-03
            1429            2266     34.0718E-03     37.8913E-03
            1430            2248     35.5070E-03     38.7765E-03
            1430            2249     43.1024E-03     46.4202E-03
            1430            2266     34.0718E-03     37.8913E-03
            1430            2267     41.5944E-03     45.4127E-03
            1431            2249     43.1024E-03     46.4202E-03
            1431            2250     50.7804E-03     54.1051E-03
            1431            2267     41.5944E-03     45.4127E-03
            1431            2268     49.1157E-03     52.8974E-03
            1432            2250     50.7804E-03     54.1051E-03
            1432            2251     58.5098E-03     61.8283E-03
            1432            2268     49.1157E-03     52.8974E-03
            1432            2269     56.6759E-03     60.3876E-03
            1433            2251     58.5098E-03     61.8283E-03
            1433            2252     66.3332E-03     69.6218E-03
            1433            2269     56.6759E-03     60.3876E-03
            1433            2270     64.2716E-03     67.8860E-03
            1434            2252     66.3332E-03     69.6218E-03
            1434            2253     74.2553E-03     77.5208E-03
            1434            2270     64.2716E-03     67.8860E-03
            1434            2271     71.9769E-03     75.4645E-03
            1435            2253     74.2553E-03     77.5208E-03
            1435            2254     82.3955E-03     85.6077E-03
            1435            2271     71.9769E-03     75.4645E-03
            1435            2272     79.8253E-03     83.1599E-03
            1436            2254     82.3955E-03     85.6077E-03
            1436            2255     90.8170E-03     94.0064E-03
            1436            2272     79.8253E-03     83.1599E-03
            1436            2273     87.9966E-03     91.1560E-03
            1437            2255     90.8170E-03     94.0064E-03
            1437            2256     99.8245E-03     102.926E-03
            1437            2273     87.9966E-03     91.1560E-03
            1437            2274     96.5888E-03     99.5786E-03
            1438            2256     99.8245E-03     102.926E-03
            1438            2257     109.679E-03     112.742E-03
            1438            2274     96.5888E-03     99.5786E-03
            1438            2275     106.133E-03     108.969E-03
            1439            2257     109.679E-03     112.742E-03
            1439            2258     121.071E-03     123.917E-03
            1439            2275     106.133E-03     108.969E-03
            1439            2276     116.850E-03     119.683E-03
            1440             380     136.015E-03     137.891E-03
            1440             381     131.015E-03     133.949E-03
            1440            2258     121.071E-03     123.917E-03
            1440            2276     116.850E-03     119.683E-03
            1441             415     38.7543E-03     42.2210E-03
            1441             416     37.8976E-03     38.2418E-03
            1441            2259     29.1352E-03     26.6930E-03
            1441            2277     26.9798E-03     31.8020E-03
            1442            2259     29.1352E-03     26.6930E-03
            1442            2260     17.5084E-03     14.8292E-03
            1442            2277     26.9798E-03     31.8020E-03
            1442            2278     21.1903E-03     21.5657E-03
            1443            2260     17.5084E-03     14.8292E-03
            1443            2261     9.20735E-03     7.57535E-03
            1443            2278     21.1903E-03     21.5657E-03
            1443            2279     18.5882E-03     18.2939E-03
            1444            2261     9.20735E-03     7.57535E-03
            1444            2262     7.43898E-03     8.60435E-03
            1444            2279     18.5882E-03     18.2939E-03
            1444            2280     19.4590E-03     20.4312E-03
            1445            2262     7.43898E-03     8.60435E-03
            1445            2263     12.0621E-03     15.2066E-03
            1445            2280     19.4590E-03     20.4312E-03
            1445            2281     24.7070E-03     26.5055E-03
            1446            2263     12.0621E-03     15.2066E-03
            1446            2264     19.1457E-03     22.7433E-03
            1446            2281     24.7070E-03     26.5055E-03
            1446            2282     31.5938E-03     33.4798E-03
            1447            2264     19.1457E-03     22.7433E-03
            1447            2265     26.5886E-03     30.3467E-03
            1447            2282     31.5938E-03     33.4798E-03
            1447            2283     38.8508E-03     40.7815E-03
            1448            2265     26.5886E-03     30.3467E-03
            1448            2266     34.0718E-03     37.8913E-03
            1448            2283     38.8508E-03     40.7815E-03
            1448            2284     46.4086E-03     48.3329E-03
            1449            2266     34.0718E-03     37.8913E-03
            1449            2267     41.5944E-03     45.4127E-03
            1449            2284     46.4086E-03     48.3329E-03
            1449            2285     54.1036E-03     56.0187E-03
            1450            2267     41.5944E-03     45.4127E-03
            1450            2268     49.1157E-03     52.8974E-03
            1450            2285     54.1036E-03     56.0187E-03
            1450            2286     61.9238E-03     63.7875E-03
            1451            2268     49.1157E-03     52.8974E-03
            1451            2269     56.6759E-03     60.3876E-03
            1451            2286     61.9238E-03     63.7875E-03
            1451            2287     69.7828E-03     71.6019E-03
            1452            2269     56.6759E-03     60.3876E-03
            1452            2270     64.2716E-03     67.8860E-03
            1452            2287     69.7828E-03     71.6019E-03
            1452            2288     77.6919E-03     79.4041E-03
            1453            2270     64.2716E-03     67.8860E-03
            1453            2271     71.9769E-03     75.4645E-03
            1453            2288     77.6919E-03     79.4041E-03
            1453            2289     85.5863E-03     87.1934E-03
            1454            2271     71.9769E-03     75.4645E-03
            1454            2272     79.8253E-03     83.1599E-03
            1454            2289     85.5863E-03     87.1934E-03
            1454            2290     93.5205E-03     94.9180E-03
            1455            2272     79.8253E-03     83.1599E-03
            1455            2273     87.9966E-03     91.1560E-03
            1455            2290     93.5205E-03     94.9180E-03
            1455            2291     101.405E-03     102.595E-03
            1456            2273     87.9966E-03     91.1560E-03
            1456            2274     96.5888E-03     99.5786E-03
            1456            2291     101.405E-03     102.595E-03
            1456            2292     109.416E-03     110.236E-03
            1457            2274     96.5888E-03     99.5786E-03
            1457            2275     106.133E-03     108.969E-03
            1457            2292     109.416E-03     110.236E-03
            1457            2293     117.376E-03     117.924E-03
            1458            2275     106.133E-03     108.969E-03
            1458            2276     116.850E-03     119.683E-03
            1458            2293     117.376E-03     117.924E-03
            1458            2294     125.853E-03     126.001E-03
            1459             381     131.015E-03     133.949E-03
            1459             382     134.604E-03     134.895E-03
            1459            2276     116.850E-03     119.683E-03
            1459            2294     125.853E-03     126.001E-03
            1460             414     36.2361E-03     40.3580E-03
            1460             415     38.7543E-03     42.2210E-03
            1460            2277     26.9798E-03     31.8020E-03
            1460            2295     29.2033E-03     33.4643E-03
            1461            2277     26.9798E-03     31.8020E-03
            1461            2278     21.1903E-03     21.5657E-03
            1461            2295     29.2033E-03     33.4643E-03
            1461            2296     26.5492E-03     29.3845E-03
            1462            2278     21.1903E-03     21.5657E-03
            1462            2279     18.5882E-03     18.2939E-03
            1462            2296     26.5492E-03     29.3845E-03
            1462            2297     27.6449E-03     28.8014E-03
            1463            2279     18.5882E-03     18.2939E-03
            1463            2280     19.4590E-03     20.4312E-03
            1463            2297     27.6449E-03     28.8014E-03
            1463            2298     30.8939E-03     31.3151E-03
            1464            2280     19.4590E-03     20.4312E-03
            1464            2281     24.7070E-03     26.5055E-03
            1464            2298     30.8939E-03     31.3151E-03
            1464            2299     36.0013E-03     36.1568E-03
            1465            2281     24.7070E-03     26.5055E-03
            1465            2282     31.5938E-03     33.4798E-03
            1465            2299     36.0013E-03     36.1568E-03
            1465            2300     42.4365E-03     42.5033E-03
            1466            2282     31.5938E-03     33.4798E-03
            1466            2283     38.8508E-03     40.7815E-03
            1466            2300     42.4365E-03     42.5033E-03
            1466            2301     49.7867E-03     49.8419E-03
            1467            2283     38.8508E-03     40.7815E-03
            1467            2284     46.4086E-03     48.3329E-03
            1467            2301     49.7867E-03     49.8419E-03
            1467            2302     57.7145E-03     57.7710E-03
            1468            2284     46.4086E-03     48.3329E-03
            1468            2285     54.1036E-03     56.0187E-03
            1468            2302     57.7145E-03     57.7710E-03
            1468            2303     66.0097E-03     66.0759E-03
            1469            2285     54.1036E-03     56.0187E-03
            1469            2286     61.9238E-03     63.7875E-03
            1469            2303     66.0097E-03     66.0759E-03
            1469            2304     74.5435E-03     74.6091E-03
            1470            2286     61.9238E-03     63.7875E-03
            1470            2287     69.7828E-03     71.6019E-03
            1470            2304     74.5435E-03     74.6091E-03
            1470            2305     83.2000E-03     83.2654E-03
            1471            2287     69.7828E-03     71.6019E-03
            1471            2288     77.6919E-03     79.4041E-03
            1471            2305     83.2000E-03     83.2654E-03
            1471            2306     91.9260E-03     91.9592E-03
            1472            2288     77.6919E-03     79.4041E-03
            1472            2289     85.5863E-03     87.1934E-03
            1472            2306     91.9260E-03     91.9592E-03
            1472            2307     100.630E-03     100.625E-03
            1473            2289     85.5863E-03     87.1934E-03
            1473            2290     93.5205E-03     94.9180E-03
            1473            2307     100.630E-03     100.625E-03
            1473            2308     109.267E-03     109.154E-03
            1474            2290     93.5205E-03     94.9180E-03
            1474            2291     101.405E-03     102.595E-03
            1474            2308     109.267E-03     109.154E-03
            1474            2309     117.728E-03     117.488E-03
            1475            2291     101.405E-03     102.595E-03
            1475            2292     109.416E-03     110.236E-03
            1475            2309     117.728E-03     117.488E-03
            1475            2310     125.860E-03     125.424E-03
            1476            2292     109.416E-03     110.236E-03
            1476            2293     117.376E-03     117.924E-03
            1476            2310     125.860E-03     125.424E-03
            1476            2311     133.570E-03     132.878E-03
            1477            2293     117.376E-03     117.924E-03
            1477            2294     125.853E-03     126.001E-03
            1477            2311     133.570E-03     132.878E-03
            1477            2312     140.382E-03     139.581E-03
            1478             382     134.604E-03     134.895E-03
            1478             383     146.362E-03     145.553E-03
            1478            2294     125.853E-03     126.001E-03
            1478            2312     140.382E-03     139.581E-03
            1479             413     35.2081E-03     35.7542E-03
            1479             414     36.2361E-03     40.3580E-03
            1479            2295     29.2033E-03     33.4643E-03
            1479            2313     32.0280E-03     29.6568E-03
            1480            2295     29.2033E-03     33.4643E-03
            1480            2296     26.5492E-03     29.3845E-03
            1480            2313     32.0280E-03     29.6568E-03
            1480            2314     26.6098E-03     27.0919E-03
            1481            2296     26.5492E-03     29.3845E-03
            1481            2297     27.6449E-03     28.8014E-03
            1481            2314     26.6098E-03     27.0919E-03
            1481            2315     24.5941E-03     25.6624E-03
            1482            2297     27.6449E-03     28.8014E-03
            1482            2298     30.8939E-03     31.3151E-03
            1482            2315     24.5941E-03     25.6624E-03
            1482            2316     26.6664E-03     27.4560E-03
            1483            2298     30.8939E-03     31.3151E-03
            1483            2299     36.0013E-03     36.1568E-03
            1483            2316     26.6664E-03     27.4560E-03
            1483            2317     31.5029E-03     32.1823E-03
            1484            2299     36.0013E-03     36.1568E-03
            1484            2300     42.4365E-03     42.5033E-03
            1484            2317     31.5029E-03     32.1823E-03
            1484            2318     38.2993E-03     38.9392E-03
            1485            2300     42.4365E-03     42.5033E-03
            1485            2301     49.7867E-03     49.8419E-03
            1485            2318     38.2993E-03     38.9392E-03
            1485            2319     46.1636E-03     46.8360E-03
            1486            2301     49.7867E-03     49.8419E-03
            1486            2302     57.7145E-03     57.7710E-03
            1486            2319     46.1636E-03     46.8360E-03
            1486            2320     54.6841E-03     55.4013E-03
            1487            2302     57.7145E-03     57.7710E-03
            1487            2303     66.0097E-03     66.0759E-03
            1487            2320     54.6841E-03     55.4013E-03
            1487            2321     63.6021E-03     64.3589E-03
            1488            2303     66.0097E-03     66.0759E-03
            1488            2304     74.5435E-03     74.6091E-03
            1488            2321     63.6021E-03     64.3589E-03
            1488            2322     72.7668E-03     73.5578E-03
            1489            2304     74.5435E-03     74.6091E-03
            1489            2305     83.2000E-03     83.2654E-03
            1489            2322     72.7668E-03     73.5578E-03
            1489            2323     82.1069E-03     82.9157E-03
            1490            2305     83.2000E-03     83.2654E-03
            1490            2306     91.9260E-03     91.9592E-03
            1490            2323     82.1069E-03     82.9157E-03
            1490            2324     91.5510E-03     92.3797E-03
            1491            2306     91.9260E-03     91.9592E-03
            1491            2307     100.630E-03     100.625E-03
            1491            2324     91.5510E-03     92.3797E-03
            1491            2325     101.084E-03     101.914E-03
            1492            2307     100.630E-03     100.625E-03
            1492            2308     109.267E-03     109.154E-03
            1492            2325     101.084E-03     101.914E-03
            1492            2326     110.630E-03     111.486E-03
            1493            2308     109.267E-03     109.154E-03
            1493            2309     117.728E-03     117.488E-03
            1493            2326     110.630E-03     111.486E-03
            1493            2327     120.173E-03     121.049E-03
            1494            2309     117.728E-03     117.488E-03
            1494            2310     125.860E-03     125.424E-03
            1494            2327     120.173E-03     121.049E-03
            1494            2328     129.546E-03     130.524E-03
            1495            2310     125.860E-03     125.424E-03
            1495            2311     133.570E-03     132.878E-03
            1495            2328     129.546E-03     130.524E-03
            1495            2329     138.546E-03     139.733E-03
            1496            2311     133.570E-03     132.878E-03
            1496            2312     140.382E-03     139.581E-03
            1496            2329     138.546E-03     139.733E-03
            1496            2330     146.880E-03     148.362E-03
            1497             383     146.362E-03     145.553E-03
            1497             384     154.345E-03     156.094E-03
            1497            2312     140.382E-03     139.581E-03
            1497            2330     146.880E-03     148.362E-03
            1498             412     33.5556E-03     33.2560E-03
            1498             413     35.2081E-03     35.7542E-03
            1498            2313     32.0280E-03     29.6568E-03
            1498            2331     30.4917E-03     26.8862E-03
            1499            2313     32.0280E-03     29.6568E-03
            1499            2314     26.6098E-03     27.0919E-03
            1499            2331     30.4917E-03     26.8862E-03
            1499            2332     26.1780E-03     23.9111E-03
            1500            2314     26.6098E-03     27.0919E-03
            1500            2315     24.5941E-03     25.6624E-03
            1500            2332     26.1780E-03     23.9111E-03
            1500            2333     22.7892E-03     22.5346E-03
            1501            2315     24.5941E-03     25.6624E-03
            1501            2316     26.6664E-03     27.4560E-03
            1501            2333     22.7892E-03     22.5346E-03
            1501            2334     23.3147E-03     24.0815E-03
            1502            2316     26.6664E-03     27.4560E-03
            1502            2317     31.5029E-03     32.1823E-03
            1502            2334     23.3147E-03     24.0815E-03
            1502            2335     27.8971E-03     29.0123E-03
            1503            2317     31.5029E-03     32.1823E-03
            1503            2318     38.2993E-03     38.9392E-03
            1503            2335     27.8971E-03     29.0123E-03
            1503            2336     34.8773E-03     36.1693E-03
            1504            2318     38.2993E-03     38.9392E-03
            1504            2319     46.1636E-03     46.8360E-03
            1504            2336     34.8773E-03     36.1693E-03
            1504            2337     43.1980E-03     44.5815E-03
            1505            2319     46.1636E-03     46.8360E-03
            1505            2320     54.6841E-03     55.4013E-03
            1505            2337     43.1980E-03     44.5815E-03
            1505            2338     52.2113E-03     53.6665E-03
            1506            2320     54.6841E-03     55.4013E-03
            1506            2321     63.6021E-03     64.3589E-03
            1506            2338     52.2113E-03     53.6665E-03
            1506            2339     61.6148E-03     63.1281E-03
            1507            2321     63.6021E-03     64.3589E-03
            1507            2322     72.7668E-03     73.5578E-03
            1507            2339     61.6148E-03     63.1281E-03
            1507            2340     71.2737E-03     72.8328E-03
            1508            2322     72.7668E-03     73.5578E-03
            1508            2323     82.1069E-03     82.9157E-03
            1508            2340     71.2737E-03     72.8328E-03
            1508            2341     81.1044E-03     82.7077E-03
            1509            2323     82.1069E-03     82.9157E-03
            1509            2324     91.5510E-03     92.3797E-03
            1509            2341     81.1044E-03     82.7077E-03
            1509            2342     91.0809E-03     92.7289E-03
            1510            2324     91.5510E-03     92.3797E-03
            1510            2325     101.084E-03     101.914E-03
            1510            2342     91.0809E-03     92.7289E-03
            1510            2343     101.163E-03     102.882E-03
            1511            2325     101.084E-03     101.914E-03
            1511            2326     110.630E-03     111.486E-03
            1511            2343     101.163E-03     102.882E-03
            1511            2344     111.375E-03     113.186E-03
            1512            2326     110.630E-03     111.486E-03
            1512            2327     120.173E-03     121.049E-03
            1512            2344     111.375E-03     113.186E-03
            1512            2345     121.623E-03     123.616E-03
            1513            2327     120.173E-03     121.049E-03
            1513            2328     129.546E-03     130.524E-03
            1513            2345     121.623E-03     123.616E-03
            1513            2346     131.995E-03     134.181E-03
            1514            2328     129.546E-03     130.524E-03
            1514            2329     138.546E-03     139.733E-03
            1514            2346     131.995E-03     134.181E-03
            1514            2347     142.116E-03     144.710E-03
            1515            2329     138.546E-03     139.733E-03
            1515            2330     146.880E-03     148.362E-03
            1515            2347     142.116E-03     144.710E-03
            1515            2348     151.852E-03     154.758E-03
            1516             384     154.345E-03     156.094E-03
            1516             385     160.582E-03     163.434E-03
            1516            2330     146.880E-03     148.362E-03
            1516            2348     151.852E-03     154.758E-03
            1517             411     33.3537E-03     33.2678E-03
            1517             412     33.5556E-03     33.2560E-03
            1517            2331     30.4917E-03     26.8862E-03
            1517            2349     29.8472E-03     25.4297E-03
            1518            2331     30.4917E-03     26.8862E-03
            1518            2332     26.1780E-03     23.9111E-03
            1518            2349     29.8472E-03     25.4297E-03
            1518            2350     24.4794E-03     21.2809E-03
            1519            2332     26.1780E-03     23.9111E-03
            1519            2333     22.7892E-03     22.5346E-03
            1519            2350     24.4794E-03     21.2809E-03
            1519            2351     20.7490E-03     19.2533E-03
            1520            2333     22.7892E-03     22.5346E-03
            1520            2334     23.3147E-03     24.0815E-03
            1520            2351     20.7490E-03     19.2533E-03
            1520            2352     20.5270E-03     20.9707E-03
            1521            2334     23.3147E-03     24.0815E-03
            1521            2335     27.8971E-03     29.0123E-03
            1521            2352     20.5270E-03     20.9707E-03
            1521            2353     24.7059E-03     26.2796E-03
            1522            2335     27.8971E-03     29.0123E-03
            1522            2336     34.8773E-03     36.1693E-03
            1522            2353     24.7059E-03     26.2796E-03
            1522            2354     31.9812E-03     33.9814E-03
            1523            2336     34.8773E-03     36.1693E-03
            1523            2337     43.1980E-03     44.5815E-03
            1523            2354     31.9812E-03     33.9814E-03
            1523            2355     40.7147E-03     42.8819E-03
            1524            2337     43.1980E-03     44.5815E-03
            1524            2338     52.2113E-03     53.6665E-03
            1524            2355     40.7147E-03     42.8819E-03
            1524            2356     50.1022E-03     52.3595E-03
            1525            2338     52.2113E-03     53.6665E-03
            1525            2339     61.6148E-03     63.1281E-03
            1525            2356     50.1022E-03     52.3595E-03
            1525            2357     59.8548E-03     62.1700E-03
            1526            2339     61.6148E-03     63.1281E-03
            1526            2340     71.2737E-03     72.8328E-03
            1526            2357     59.8548E-03     62.1700E-03
            1526            2358     69.8228E-03     72.1854E-03
            1527            2340     71.2737E-03     72.8328E-03
            1527            2341     81.1044E-03     82.7077E-03
            1527            2358     69.8228E-03     72.1854E-03
            1527            2359     79.9506E-03     82.3579E-03
            1528            2341     81.1044E-03     82.7077E-03
            1528            2342     91.0809E-03     92.7289E-03
            1528            2359     79.9506E-03     82.3579E-03
            1528            2360     90.2057E-03     92.6709E-03
            1529            2342     91.0809E-03     92.7289E-03
            1529            2343     101.163E-03     102.882E-03
            1529            2360     90.2057E-03     92.6709E-03
            1529            2361     100.592E-03     103.144E-03
            1530            2343     101.163E-03     102.882E-03
            1530            2344     111.375E-03     113.186E-03
            1530            2361     100.592E-03     103.144E-03
            1530            2362     111.094E-03     113.785E-03
            1531            2344     111.375E-03     113.186E-03
            1531            2345     121.623E-03     123.616E-03
            1531            2362     111.094E-03     113.785E-03
            1531            2363     121.800E-03     124.677E-03
            1532            2345     121.623E-03     123.616E-03
            1532            2346     131.995E-03     134.181E-03
            1532            2363     121.800E-03     124.677E-03
            1532            2364     132.603E-03     135.788E-03
            1533            2346     131.995E-03     134.181E-03
            1533            2347     142.116E-03     144.710E-03
            1533            2364     132.603E-03     135.788E-03
            1533            2365     143.871E-03     147.185E-03
            1534            2347     142.116E-03     144.710E-03
            1534            2348     151.852E-03     154.758E-03
            1534            2365     143.871E-03     147.185E-03
            1534            2366     154.912E-03     158.499E-03
            1535             385     160.582E-03     163.434E-03
            1535             386     165.025E-03     168.738E-03
            1535            2348     151.852E-03     154.758E-03
            1535            2366     154.912E-03     158.499E-03
            1536             410     34.1768E-03     33.9285E-03
            1536             411     33.3537E-03     33.2678E-03
            1536            2349     29.8472E-03     25.4297E-03
            1536            2367     29.8111E-03     25.1168E-03
            1537            2349     29.8472E-03     25.4297E-03
            1537            2350     24.4794E-03     21.2809E-03
            1537            2367     29.8111E-03     25.1168E-03
            1537            2368     23.6427E-03     19.5198E-03
            1538            2350     24.4794E-03     21.2809E-03
            1538            2351     20.7490E-03     19.2533E-03
            1538            2368     23.6427E-03     19.5198E-03
            1538            2369     18.4732E-03     16.3385E-03
            1539            2351     20.7490E-03     19.2533E-03
            1539            2352     20.5270E-03     20.9707E-03
            1539            2369     18.4732E-03     16.3385E-03
            1539            2370     17.3242E-03     17.7891E-03
            1540            2352     20.5270E-03     20.9707E-03
            1540            2353     24.7059E-03     26.2796E-03
            1540            2370     17.3242E-03     17.7891E-03
            1540            2371     21.6696E-03     23.8729E-03
            1541            2353     24.7059E-03     26.2796E-03
            1541            2354     31.9812E-03     33.9814E-03
            1541            2371     21.6696E-03     23.8729E-03
            1541            2372     29.4708E-03     32.2814E-03
            1542            2354     31.9812E-03     33.9814E-03
            1542            2355     40.7147E-03     42.8819E-03
            1542            2372     29.4708E-03     32.2814E-03
            1542            2373     38.5703E-03     41.5978E-03
            1543            2355     40.7147E-03     42.8819E-03
            1543            2356     50.1022E-03     52.3595E-03
            1543            2373     38.5703E-03     41.5978E-03
            1543            2374     48.2496E-03     51.3605E-03
            1544            2356     50.1022E-03     52.3595E-03
            1544            2357     59.8548E-03     62.1700E-03
            1544            2374     48.2496E-03     51.3605E-03
            1544            2375     58.1928E-03     61.3498E-03
            1545            2357     59.8548E-03     62.1700E-03
            1545            2358     69.8228E-03     72.1854E-03
            1545            2375     58.1928E-03     61.3498E-03
            1545            2376     68.2992E-03     71.4836E-03
            1546            2358     69.8228E-03     72.1854E-03
            1546            2359     79.9506E-03     82.3579E-03
            1546            2376     68.2992E-03     71.4836E-03
            1546            2377     78.5195E-03     81.7311E-03
            1547            2359     79.9506E-03     82.3579E-03
            1547            2360     90.2057E-03     92.6709E-03
            1547            2377     78.5195E-03     81.7311E-03
            1547            2378     88.8335E-03     92.0823E-03
            1548            2360     90.2057E-03     92.6709E-03
            1548            2361     100.592E-03     103.144E-03
            1548            2378     88.8335E-03     92.0823E-03
            1548            2379     99.2461E-03     102.554E-03
            1549            2361     100.592E-03     103.144E-03
            1549            2362     111.094E-03     113.785E-03
            1549            2379     99.2461E-03     102.554E-03
            1549            2380     109.782E-03     113.196E-03
            1550            2362     111.094E-03     113.785E-03
            1550            2363     121.800E-03     124.677E-03
            1550            2380     109.782E-03     113.196E-03
            1550            2381     120.486E-03     124.051E-03
            1551            2363     121.800E-03     124.677E-03
            1551            2364     132.603E-03     135.788E-03
            1551            2381     120.486E-03     124.051E-03
            1551            2382     131.535E-03     135.285E-03
            1552            2364     132.603E-03     135.788E-03
            1552            2365     143.871E-03     147.185E-03
            1552            2382     131.535E-03     135.285E-03
            1552            2383     142.970E-03     146.907E-03
            1553            2365     143.871E-03     147.185E-03
            1553            2366     154.912E-03     158.499E-03
            1553            2383     142.970E-03     146.907E-03
            1553            2384     155.666E-03     159.309E-03
            1554             386     165.025E-03     168.738E-03
            1554             387     168.530E-03     171.678E-03
            1554            2366     154.912E-03     158.499E-03
            1554            2384     155.666E-03     159.309E-03
            1555             409     36.8221E-03     36.7916E-03
            1555             410     34.1768E-03     33.9285E-03
            1555            2367     29.8111E-03     25.1168E-03
            1555            2385     31.8344E-03     26.5660E-03
            1556            2367     29.8111E-03     25.1168E-03
            1556            2368     23.6427E-03     19.5198E-03
            1556            2385     31.8344E-03     26.5660E-03
            1556            2386     22.9184E-03     18.5032E-03
            1557            2368     23.6427E-03     19.5198E-03
            1557            2369     18.4732E-03     16.3385E-03
            1557            2386     22.9184E-03     18.5032E-03
            1557            2387     14.9674E-03     12.8398E-03
            1558            2369     18.4732E-03     16.3385E-03
            1558            2370     17.3242E-03     17.7891E-03
            1558            2387     14.9674E-03     12.8398E-03
            1558            2388     13.4580E-03     14.6151E-03
            1559            2370     17.3242E-03     17.7891E-03
            1559            2371     21.6696E-03     23.8729E-03
            1559            2388     13.4580E-03     14.6151E-03
            1559            2389     18.8120E-03     21.9808E-03
            1560            2371     21.6696E-03     23.8729E-03
            1560            2372     29.4708E-03     32.2814E-03
            1560            2389     18.8120E-03     21.9808E-03
            1560            2390     27.2852E-03     31.0736E-03
            1561            2372     29.4708E-03     32.2814E-03
            1561            2373     38.5703E-03     41.5978E-03
            1561            2390     27.2852E-03     31.0736E-03
            1561            2391     36.7889E-03     40.7476E-03
            1562            2373     38.5703E-03     41.5978E-03
            1562            2374     48.2496E-03     51.3605E-03
            1562            2391     36.7889E-03     40.7476E-03
            1562            2392     46.6254E-03     50.6414E-03
            1563            2374     48.2496E-03     51.3605E-03
            1563            2375     58.1928E-03     61.3498E-03
            1563            2392     46.6254E-03     50.6414E-03
            1563            2393     56.6196E-03     60.6465E-03
            1564            2375     58.1928E-03     61.3498E-03
            1564            2376     68.2992E-03     71.4836E-03
            1564            2393     56.6196E-03     60.6465E-03
            1564            2394     66.6998E-03     70.7261E-03
            1565            2376     68.2992E-03     71.4836E-03
            1565            2377     78.5195E-03     81.7311E-03
            1565            2394     66.6998E-03     70.7261E-03
            1565            2395     76.8316E-03     80.8460E-03
            1566            2377     78.5195E-03     81.7311E-03
            1566            2378     88.8335E-03     92.0823E-03
            1566            2395     76.8316E-03     80.8460E-03
            1566            2396     87.0109E-03     91.0163E-03
            1567            2378     88.8335E-03     92.0823E-03
            1567            2379     99.2461E-03     102.554E-03
            1567            2396     87.0109E-03     91.0163E-03
            1567            2397     97.2316E-03     101.233E-03
            1568            2379     99.2461E-03     102.554E-03
            1568            2380     109.782E-03     113.196E-03
            1568            2397     97.2316E-03     101.233E-03
            1568            2398     107.545E-03     111.549E-03
            1569            2380     109.782E-03     113.196E-03
            1569            2381     120.486E-03     124.051E-03
            1569            2398     107.545E-03     111.549E-03
            1569            2399     117.983E-03     122.028E-03
            1570            2381     120.486E-03     124.051E-03
            1570            2382     131.535E-03     135.285E-03
            1570            2399     117.983E-03     122.028E-03
            1570            2400     128.768E-03     132.824E-03
            1571            2382     131.535E-03     135.285E-03
            1571            2383     142.970E-03     146.907E-03
            1571            2400     128.768E-03     132.824E-03
            1571            2401     140.102E-03     144.244E-03
            1572            2383     142.970E-03     146.907E-03
            1572            2384     155.666E-03     159.309E-03
            1572            2401     140.102E-03     144.244E-03
            1572            2402     152.689E-03     156.629E-03
            1573             387     168.530E-03     171.678E-03
            1573             388     168.711E-03     171.539E-03
            1573            2384     155.666E-03     159.309E-03
            1573            2402     152.689E-03     156.629E-03
            1574             408     42.9566E-03     43.3150E-03
            1574             409     36.8221E-03     36.7916E-03
            1574            2385     31.8344E-03     26.5660E-03
            1574            2403     32.9687E-03     29.2984E-03
            1575            2385     31.8344E-03     26.5660E-03
            1575            2386     22.9184E-03     18.5032E-03
            1575            2403     32.9687E-03     29.2984E-03
            1575            2404     19.5192E-03     15.7167E-03
            1576            2386     22.9184E-03     18.5032E-03
            1576            2387     14.9674E-03     12.8398E-03
            1576            2404     19.5192E-03     15.7167E-03
            1576            2405     10.0660E-03     8.76690E-03
            1577            2387     14.9674E-03     12.8398E-03
            1577            2388     13.4580E-03     14.6151E-03
            1577            2405     10.0660E-03     8.76690E-03
            1577            2406     9.38354E-03     12.1103E-03
            1578            2388     13.4580E-03     14.6151E-03
            1578            2389     18.8120E-03     21.9808E-03
            1578            2406     9.38354E-03     12.1103E-03
            1578            2407     16.4162E-03     20.9528E-03
            1579            2389     18.8120E-03     21.9808E-03
            1579            2390     27.2852E-03     31.0736E-03
            1579            2407     16.4162E-03     20.9528E-03
            1579            2408     25.7536E-03     30.6292E-03
            1580            2390     27.2852E-03     31.0736E-03
            1580            2391     36.7889E-03     40.7476E-03
            1580            2408     25.7536E-03     30.6292E-03
            1580            2409     35.5006E-03     40.4488E-03
            1581            2391     36.7889E-03     40.7476E-03
            1581            2392     46.6254E-03     50.6414E-03
            1581            2409     35.5006E-03     40.4488E-03
            1581            2410     45.3492E-03     50.2954E-03
            1582            2392     46.6254E-03     50.6414E-03
            1582            2393     56.6196E-03     60.6465E-03
            1582            2410     45.3492E-03     50.2954E-03
            1582            2411     55.2438E-03     60.1652E-03
            1583            2393     56.6196E-03     60.6465E-03
            1583            2394     66.6998E-03     70.7261E-03
            1583            2411     55.2438E-03     60.1652E-03
            1583            2412     65.1432E-03     70.0212E-03
            1584            2394     66.6998E-03     70.7261E-03
            1584            2395     76.8316E-03     80.8460E-03
            1584            2412     65.1432E-03     70.0212E-03
            1584            2413     75.0355E-03     79.8704E-03
            1585            2395     76.8316E-03     80.8460E-03
            1585            2396     87.0109E-03     91.0163E-03
            1585            2413     75.0355E-03     79.8704E-03
            1585            2414     84.9116E-03     89.6780E-03
            1586            2396     87.0109E-03     91.0163E-03
            1586            2397     97.2316E-03     101.233E-03
            1586            2414     84.9116E-03     89.6780E-03
            1586            2415     94.7891E-03     99.4759E-03
            1587            2397     97.2316E-03     101.233E-03
            1587            2398     107.545E-03     111.549E-03
            1587            2415     94.7891E-03     99.4759E-03
            1587            2416     104.677E-03     109.237E-03
            1588            2398     107.545E-03     111.549E-03
            1588            2399     117.983E-03     122.028E-03
            1588            2416     104.677E-03     109.237E-03
            1588            2417     114.702E-03     119.093E-03
            1589            2399     117.983E-03     122.028E-03
            1589            2400     128.768E-03     132.824E-03
            1589            2417     114.702E-03     119.093E-03
            1589            2418     124.895E-03     129.086E-03
            1590            2400     128.768E-03     132.824E-03
            1590            2401     140.102E-03     144.244E-03
            1590            2418     124.895E-03     129.086E-03
            1590            2419     135.811E-03     139.715E-03
            1591            2401     140.102E-03     144.244E-03
            1591            2402     152.689E-03     156.629E-03
            1591            2419     135.811E-03     139.715E-03
            1591            2420     147.544E-03     151.327E-03
            1592             388     168.711E-03     171.539E-03
            1592             389     162.708E-03     166.343E-03
            1592            2402     152.689E-03     156.629E-03
            1592            2420     147.544E-03     151.327E-03
            1593              22     75.2394E-03     85.8800E-03
            1593             407     32.5348E-03     49.6707E-03
            1593             408     42.9566E-03     43.3150E-03
            1593            2403     32.9687E-03     29.2984E-03
            1594             406     25.6828E-03     27.3169E-03
            1594             407     32.5348E-03     49.6707E-03
            1594            2403     32.9687E-03     29.2984E-03
            1594            2404     19.5192E-03     15.7167E-03
            1595             405     23.4508E-03     19.8775E-03
            1595             406     25.6828E-03     27.3169E-03
            1595            2404     19.5192E-03     15.7167E-03
            1595            2405     10.0660E-03     8.76690E-03
            1596             404     27.8210E-03     15.6845E-03
            1596             405     23.4508E-03     19.8775E-03
            1596            2405     10.0660E-03     8.76690E-03
            1596            2406     9.38354E-03     12.1103E-03
            1597             403     36.0325E-03     15.8466E-03
            1597             404     27.8210E-03     15.6845E-03
            1597            2406     9.38354E-03     12.1103E-03
            1597            2407     16.4162E-03     20.9528E-03
            1598             402     45.1594E-03     20.3292E-03
            1598             403     36.0325E-03     15.8466E-03
            1598            2407     16.4162E-03     20.9528E-03
            1598            2408     25.7536E-03     30.6292E-03
            1599             401     54.2559E-03     29.5768E-03
            1599             402     45.1594E-03     20.3292E-03
            1599            2408     25.7536E-03     30.6292E-03
            1599            2409     35.5006E-03     40.4488E-03
            1600             400     63.3901E-03     40.2275E-03
            1600             401     54.2559E-03     29.5768E-03
            1600            2409     35.5006E-03     40.4488E-03
            1600            2410     45.3492E-03     50.2954E-03
            1601             399     72.5007E-03     51.0645E-03
            1601             400     63.3901E-03     40.2275E-03
            1601            2410     45.3492E-03     50.2954E-03
            1601            2411     55.2438E-03     60.1652E-03
            1602             398     81.6147E-03     61.9313E-03
            1602             399     72.5007E-03     51.0645E-03
            1602            2411     55.2438E-03     60.1652E-03
            1602            2412     65.1432E-03     70.0212E-03
            1603             397     90.6875E-03     72.8172E-03
            1603             398     81.6147E-03     61.9313E-03
            1603            2412     65.1432E-03     70.0212E-03
            1603            2413     75.0355E-03     79.8704E-03
            1604             396     99.7747E-03     83.6553E-03
            1604             397     90.6875E-03     72.8172E-03
            1604            2413     75.0355E-03     79.8704E-03
            1604            2414     84.9116E-03     89.6780E-03
            1605             395     108.791E-03     94.5146E-03
            1605             396     99.7747E-03     83.6553E-03
            1605            2414     84.9116E-03     89.6780E-03
            1605            2415     94.7891E-03     99.4759E-03
            1606             394     117.899E-03     105.272E-03
            1606             395     108.791E-03     94.5146E-03
            1606            2415     94.7891E-03     99.4759E-03
            1606            2416     104.677E-03     109.237E-03
            1607             393     126.910E-03     116.145E-03
            1607             394     117.899E-03     105.272E-03
            1607            2416     104.677E-03     109.237E-03
            1607            2417     114.702E-03     119.093E-03
            1608             392     136.233E-03     126.921E-03
            1608             393     126.910E-03     116.145E-03
            1608            2417     114.702E-03     119.093E-03
            1608            2418     124.895E-03     129.086E-03
            1609             391     145.559E-03     138.140E-03
            1609             392     136.233E-03     126.921E-03
            1609            2418     124.895E-03     129.086E-03
            1609            2419     135.811E-03     139.715E-03
            1610             390     155.624E-03     149.650E-03
            1610             391     145.559E-03     138.140E-03
            1610            2419     135.811E-03     139.715E-03
            1610            2420     147.544E-03     151.327E-03
            1611              21     166.854E-03     162.955E-03
            1611             389     162.708E-03     166.343E-03
            1611             390     155.624E-03     149.650E-03
            1611            2420     147.544E-03     151.327E-03
            1612              17     5.22135E-03     4.87575E-03
            1612             303     419.885E-06     449.989E-06
            1612             455     6.44752E-03     7.24238E-03
            1612            2421     360.198E-06     413.626E-06
            1613              23     7.29160E-03     8.86398E-03
            1613             455     6.44752E-03     7.24238E-03
            1613             456     365.304E-06     429.054E-06
            1613            2421     360.198E-06     413.626E-06
            1614             303     419.885E-06     449.989E-06
            1614             304     446.261E-06     423.576E-06
            1614            2421     360.198E-06     413.626E-06
            1614            2422     309.992E-06     323.555E-06
            1615             456     365.304E-06     429.054E-06
            1615             457     236.839E-06     275.715E-06
            1615            2421     360.198E-06     413.626E-06
            1615            2422     309.992E-06     323.555E-06
            1616              18     441.433E-06     394.508E-06
            1616             304     446.261E-06     423.576E-06
            1616             458     288.565E-06     307.060E-06
            1616            2422     309.992E-06     323.555E-06
            1617              24     182.084E-06     273.810E-06
            1617             457     236.839E-06     275.715E-06
            1617             458     288.565E-06     307.060E-06
            1617            2422     309.992E-06     323.555E-06
            1618              20     5.48828E-03     4.61805E-03
            1618             343     11.3873E-03     10.0531E-03
            1618             459     3.80046E-03     4.22780E-03
            1618            2423     6.50675E-03     6.90893E-03
            1619               3     3.86661E-03     5.80739E-03
            1619             155     6.43941E-03     8.40239E-03
            1619             459     3.80046E-03     4.22780E-03
            1619            2423     6.50675E-03     6.90893E-03
            1620             343     11.3873E-03     10.0531E-03
            1620             344     12.3535E-03     12.2241E-03
            1620            2423     6.50675E-03     6.90893E-03
            1620            2424     7.25336E-03     7.21938E-03
            1621             154     7.32513E-03     7.06628E-03
            1621             155     6.43941E-03     8.40239E-03
            1621            2423     6.50675E-03     6.90893E-03
            1621            2424     7.25336E-03     7.21938E-03
            1622             344     12.3535E-03     12.2241E-03
            1622             345     13.7453E-03     14.1875E-03
            1622            2424     7.25336E-03     7.21938E-03
            1622            2425     10.7121E-03     10.9138E-03
            1623             153     11.1823E-03     11.3584E-03
            1623             154     7.32513E-03     7.06628E-03
            1623            2424     7.25336E-03     7.21938E-03
            1623            2425     10.7121E-03     10.9138E-03
            1624             345     13.7453E-03     14.1875E-03
            1624             346     16.1785E-03     16.7276E-03
            1624            2425     10.7121E-03     10.9138E-03
            1624            2426     15.0929E-03     15.3450E-03
            1625             152     16.7433E-03     16.3769E-03
            1625             153     11.1823E-03     11.3584E-03
            1625            2425     10.7121E-03     10.9138E-03
            1625            2426     15.0929E-03     15.3450E-03
            1626             346     16.1785E-03     16.7276E-03
            1626             347     19.0745E-03     19.6155E-03
            1626            2426     15.0929E-03     15.3450E-03
            1626            2427     19.5339E-03     20.0521E-03
            1627             151     21.6727E-03     22.6583E-03
            1627             152     16.7433E-03     16.3769E-03
            1627            2426     15.0929E-03     15.3450E-03
            1627            2427     19.5339E-03     20.0521E-03
            1628             347     19.0745E-03     19.6155E-03
            1628             348     21.5469E-03     22.0027E-03
            1628            2427     19.5339E-03     20.0521E-03
            1628            2428     24.5465E-03     24.6023E-03
            1629             150     29.0933E-03     28.2428E-03
            1629             151     21.6727E-03     22.6583E-03
            1629            2427     19.5339E-03     20.0521E-03
            1629            2428     24.5465E-03     24.6023E-03
            1630             348     21.5469E-03     22.0027E-03
            1630             349     21.5927E-03     22.9615E-03
            1630            2428     24.5465E-03     24.6023E-03
            1630            2429     27.8140E-03     29.0567E-03
            1631             149     35.6390E-03     35.8314E-03
            1631             150     29.0933E-03     28.2428E-03
            1631            2428     24.5465E-03     24.6023E-03
            1631            2429     27.8140E-03     29.0567E-03
            1632             349     21.5927E-03     22.9615E-03
            1632             350     26.1169E-03     25.8142E-03
            1632            2429     27.8140E-03     29.0567E-03
            1632            2430     27.1049E-03     27.3098E-03
            1633             148     28.3726E-03     30.3382E-03
            1633             149     35.6390E-03     35.8314E-03
            1633            2429     27.8140E-03     29.0567E-03
            1633            2430     27.1049E-03     27.3098E-03
            1634             350     26.1169E-03     25.8142E-03
            1634             351     32.6416E-03     31.0083E-03
            1634            2430     27.1049E-03     27.3098E-03
            1634            2431     28.0541E-03     26.6045E-03
            1635             147     23.9346E-03     22.6030E-03
            1635             148     28.3726E-03     30.3382E-03
            1635            2430     27.1049E-03     27.3098E-03
            1635            2431     28.0541E-03     26.6045E-03
            1636             351     32.6416E-03     31.0083E-03
            1636             352     35.3498E-03     35.3785E-03
            1636            2431     28.0541E-03     26.6045E-03
            1636            2432     32.8519E-03     33.0577E-03
            1637             146     30.9453E-03     30.5961E-03
            1637             147     23.9346E-03     22.6030E-03
            1637            2431     28.0541E-03     26.6045E-03
            1637            2432     32.8519E-03     33.0577E-03
            1638             352     35.3498E-03     35.3785E-03
            1638             353     38.6889E-03     39.3324E-03
            1638            2432     32.8519E-03     33.0577E-03
            1638            2433     38.2247E-03     38.6281E-03
            1639             145     37.5228E-03     37.6325E-03
            1639             146     30.9453E-03     30.5961E-03
            1639            2432     32.8519E-03     33.0577E-03
            1639            2433     38.2247E-03     38.6281E-03
            1640             353     38.6889E-03     39.3324E-03
            1640             354     42.2640E-03     43.0977E-03
            1640            2433     38.2247E-03     38.6281E-03
            1640            2434     43.1981E-03     43.6763E-03
            1641             144     43.7905E-03     43.6447E-03
            1641             145     37.5228E-03     37.6325E-03
            1641            2433     38.2247E-03     38.6281E-03
            1641            2434     43.1981E-03     43.6763E-03
            1642             354     42.2640E-03     43.0977E-03
            1642             355     45.7742E-03     46.6195E-03
            1642            2434     43.1981E-03     43.6763E-03
            1642            2435     47.8244E-03     48.4959E-03
            1643             143     49.4869E-03     49.9319E-03
            1643             144     43.7905E-03     43.6447E-03
            1643            2434     43.1981E-03     43.6763E-03
            1643            2435     47.8244E-03     48.4959E-03
            1644             355     45.7742E-03     46.6195E-03
            1644             356     49.0175E-03     50.0449E-03
            1644            2435     47.8244E-03     48.4959E-03
            1644            2436     52.5220E-03     53.1077E-03
            1645             142     55.8680E-03     55.1560E-03
            1645             143     49.4869E-03     49.9319E-03
            1645            2435     47.8244E-03     48.4959E-03
            1645            2436     52.5220E-03     53.1077E-03
            1646             356     49.0175E-03     50.0449E-03
            1646             357     52.1806E-03     53.0807E-03
            1646            2436     52.5220E-03     53.1077E-03
            1646            2437     56.9817E-03     58.0372E-03
            1647             141     60.7357E-03     62.6613E-03
            1647             142     55.8680E-03     55.1560E-03
            1647            2436     52.5220E-03     53.1077E-03
            1647            2437     56.9817E-03     58.0372E-03
            1648             357     52.1806E-03     53.0807E-03
            1648             358     54.0868E-03     54.9798E-03
            1648            2437     56.9817E-03     58.0372E-03
            1648            2438     61.9516E-03     62.1278E-03
            1649             140     69.8600E-03     67.9711E-03
            1649             141     60.7357E-03     62.6613E-03
            1649            2437     56.9817E-03     58.0372E-03
            1649            2438     61.9516E-03     62.1278E-03
            1650             358     54.0868E-03     54.9798E-03
            1650             359     52.7423E-03     54.7473E-03
            1650            2438     61.9516E-03     62.1278E-03
            1650            2439     64.1534E-03     65.7200E-03
            1651             139     77.0209E-03     76.3427E-03
            1651             140     69.8600E-03     67.9711E-03
            1651            2438     61.9516E-03     62.1278E-03
            1651            2439     64.1534E-03     65.7200E-03
            1652             359     52.7423E-03     54.7473E-03
            1652             360     57.2341E-03     57.1662E-03
            1652            2439     64.1534E-03     65.7200E-03
            1652            2440     62.0500E-03     63.0400E-03
            1653             138     66.9597E-03     71.7081E-03
            1653             139     77.0209E-03     76.3427E-03
            1653            2439     64.1534E-03     65.7200E-03
            1653            2440     62.0500E-03     63.0400E-03
            1654             360     57.2341E-03     57.1662E-03
            1654             361     65.3934E-03     63.9508E-03
            1654            2440     62.0500E-03     63.0400E-03
            1654            2441     63.7725E-03     62.2761E-03
            1655             137     63.0342E-03     60.4881E-03
            1655             138     66.9597E-03     71.7081E-03
            1655            2440     62.0500E-03     63.0400E-03
            1655            2441     63.7725E-03     62.2761E-03
            1656             361     65.3934E-03     63.9508E-03
            1656             362     69.8306E-03     70.2002E-03
            1656            2441     63.7725E-03     62.2761E-03
            1656            2442     69.9099E-03     70.2637E-03
            1657             136     69.8189E-03     68.4135E-03
            1657             137     63.0342E-03     60.4881E-03
            1657            2441     63.7725E-03     62.2761E-03
            1657            2442     69.9099E-03     70.2637E-03
            1658             362     69.8306E-03     70.2002E-03
            1658             363     74.2980E-03     75.4592E-03
            1658            2442     69.9099E-03     70.2637E-03
            1658            2443     75.9662E-03     76.8215E-03
            1659             135     75.6958E-03     76.3525E-03
            1659             136     69.8189E-03     68.4135E-03
            1659            2442     69.9099E-03     70.2637E-03
            1659            2443     75.9662E-03     76.8215E-03
            1660             363     74.2980E-03     75.4592E-03
            1660             364     78.6540E-03     79.9902E-03
            1660            2443     75.9662E-03     76.8215E-03
            1660            2444     81.4300E-03     82.3183E-03
            1661             134     82.5276E-03     82.2288E-03
            1661             135     75.6958E-03     76.3525E-03
            1661            2443     75.9662E-03     76.8215E-03
            1661            2444     81.4300E-03     82.3183E-03
            1662             364     78.6540E-03     79.9902E-03
            1662             365     82.5837E-03     84.0387E-03
            1662            2444     81.4300E-03     82.3183E-03
            1662            2445     86.5271E-03     87.5141E-03
            1663             133     88.6692E-03     88.7665E-03
            1663             134     82.5276E-03     82.2288E-03
            1663            2444     81.4300E-03     82.3183E-03
            1663            2445     86.5271E-03     87.5141E-03
            1664             365     82.5837E-03     84.0387E-03
            1664             366     86.3046E-03     87.7482E-03
            1664            2445     86.5271E-03     87.5141E-03
            1664            2446     91.2977E-03     92.4983E-03
            1665             132     94.4862E-03     95.1868E-03
            1665             133     88.6692E-03     88.7665E-03
            1665            2445     86.5271E-03     87.5141E-03
            1665            2446     91.2977E-03     92.4983E-03
            1666             366     86.3046E-03     87.7482E-03
            1666             367     89.5576E-03     91.2490E-03
            1666            2446     91.2977E-03     92.4983E-03
            1666            2447     96.1314E-03     97.2025E-03
            1667             131     101.369E-03     100.321E-03
            1667             132     94.4862E-03     95.1868E-03
            1667            2446     91.2977E-03     92.4983E-03
            1667            2447     96.1314E-03     97.2025E-03
            1668             367     89.5576E-03     91.2490E-03
            1668             368     92.5493E-03     94.0306E-03
            1668            2447     96.1314E-03     97.2025E-03
            1668            2448     100.597E-03     102.304E-03
            1669             130     105.992E-03     108.899E-03
            1669             131     101.369E-03     100.321E-03
            1669            2447     96.1314E-03     97.2025E-03
            1669            2448     100.597E-03     102.304E-03
            1670             368     92.5493E-03     94.0306E-03
            1670             369     93.7050E-03     95.0640E-03
            1670            2448     100.597E-03     102.304E-03
            1670            2449     105.547E-03     105.907E-03
            1671             129     116.854E-03     113.808E-03
            1671             130     105.992E-03     108.899E-03
            1671            2448     100.597E-03     102.304E-03
            1671            2449     105.547E-03     105.907E-03
            1672             369     93.7050E-03     95.0640E-03
            1672             370     90.5779E-03     93.0537E-03
            1672            2449     105.547E-03     105.907E-03
            1672            2450     106.650E-03     108.457E-03
            1673             128     124.698E-03     123.001E-03
            1673             129     116.854E-03     113.808E-03
            1673            2449     105.547E-03     105.907E-03
            1673            2450     106.650E-03     108.457E-03
            1674             370     90.5779E-03     93.0537E-03
            1674             371     94.4947E-03     94.5546E-03
            1674            2450     106.650E-03     108.457E-03
            1674            2451     103.157E-03     104.959E-03
            1675             127     111.892E-03     119.893E-03
            1675             128     124.698E-03     123.001E-03
            1675            2450     106.650E-03     108.457E-03
            1675            2451     103.157E-03     104.959E-03
            1676             371     94.4947E-03     94.5546E-03
            1676             372     104.286E-03     103.043E-03
            1676            2451     103.157E-03     104.959E-03
            1676            2452     106.001E-03     104.497E-03
            1677             126     109.189E-03     105.454E-03
            1677             127     111.892E-03     119.893E-03
            1677            2451     103.157E-03     104.959E-03
            1677            2452     106.001E-03     104.497E-03
            1678             372     104.286E-03     103.043E-03
            1678             373     110.664E-03     111.477E-03
            1678            2452     106.001E-03     104.497E-03
            1678            2453     113.653E-03     114.205E-03
            1679             125     116.020E-03     113.454E-03
            1679             126     109.189E-03     105.454E-03
            1679            2452     106.001E-03     104.497E-03
            1679            2453     113.653E-03     114.205E-03
            1680             373     110.664E-03     111.477E-03
            1680             374     116.258E-03     118.066E-03
            1680            2453     113.653E-03     114.205E-03
            1680            2454     120.368E-03     121.856E-03
            1681             124     121.029E-03     122.515E-03
            1681             125     116.020E-03     113.454E-03
            1681            2453     113.653E-03     114.205E-03
            1681            2454     120.368E-03     121.856E-03
            1682             374     116.258E-03     118.066E-03
            1682             375     121.249E-03     123.331E-03
            1682            2454     120.368E-03     121.856E-03
            1682            2455     126.389E-03     127.782E-03
            1683             123     128.726E-03     128.108E-03
            1683             124     121.029E-03     122.515E-03
            1683            2454     120.368E-03     121.856E-03
            1683            2455     126.389E-03     127.782E-03
            1684             375     121.249E-03     123.331E-03
            1684             376     125.593E-03     127.772E-03
            1684            2455     126.389E-03     127.782E-03
            1684            2456     131.855E-03     133.404E-03
            1685             122     135.072E-03     135.358E-03
            1685             123     128.726E-03     128.108E-03
            1685            2455     126.389E-03     127.782E-03
            1685            2456     131.855E-03     133.404E-03
            1686             376     125.593E-03     127.772E-03
            1686             377     129.541E-03     131.710E-03
            1686            2456     131.855E-03     133.404E-03
            1686            2457     136.913E-03     138.690E-03
            1687             121     141.247E-03     142.177E-03
            1687             122     135.072E-03     135.358E-03
            1687            2456     131.855E-03     133.404E-03
            1687            2457     136.913E-03     138.690E-03
            1688             377     129.541E-03     131.710E-03
            1688             378     132.817E-03     135.284E-03
            1688            2457     136.913E-03     138.690E-03
            1688            2458     141.975E-03     143.566E-03
            1689             120     148.729E-03     147.321E-03
            1689             121     141.247E-03     142.177E-03
            1689            2457     136.913E-03     138.690E-03
            1689            2458     141.975E-03     143.566E-03
            1690             378     132.817E-03     135.284E-03
            1690             379     135.629E-03     137.789E-03
            1690            2458     141.975E-03     143.566E-03
            1690            2459     146.480E-03     148.880E-03
            1691             119     153.178E-03     157.064E-03
            1691             120     148.729E-03     147.321E-03
            1691            2458     141.975E-03     143.566E-03
            1691            2459     146.480E-03     148.880E-03
            1692             379     135.629E-03     137.789E-03
            1692             380     136.015E-03     137.891E-03
            1692            2459     146.480E-03     148.880E-03
            1692            2460     151.444E-03     152.009E-03
            1693             118     165.891E-03     161.626E-03
            1693             119     153.178E-03     157.064E-03
            1693            2459     146.480E-03     148.880E-03
            1693            2460     151.444E-03     152.009E-03
            1694             380     136.015E-03     137.891E-03
            1694             381     131.015E-03     133.949E-03
            1694            2460     151.444E-03     152.009E-03
            1694            2461     151.461E-03     153.481E-03
            1695             117     174.523E-03     171.736E-03
            1695             118     165.891E-03     161.626E-03
            1695            2460     151.444E-03     152.009E-03
            1695            2461     151.461E-03     153.481E-03
            1696             381     131.015E-03     133.949E-03
            1696             382     134.604E-03     134.895E-03
            1696            2461     151.461E-03     153.481E-03
            1696            2462     146.718E-03     149.475E-03
            1697             116     158.749E-03     170.268E-03
            1697             117     174.523E-03     171.736E-03
            1697            2461     151.461E-03     153.481E-03
            1697            2462     146.718E-03     149.475E-03
            1698             382     134.604E-03     134.895E-03
            1698             383     146.362E-03     145.553E-03
            1698            2462     146.718E-03     149.475E-03
            1698            2463     151.059E-03     149.830E-03
            1699             115     157.297E-03     152.827E-03
            1699             116     158.749E-03     170.268E-03
            1699            2462     146.718E-03     149.475E-03
            1699            2463     151.059E-03     149.830E-03
            1700             383     146.362E-03     145.553E-03
            1700             384     154.345E-03     156.094E-03
            1700            2463     151.059E-03     149.830E-03
            1700            2464     160.464E-03     161.465E-03
            1701             114     165.249E-03     161.428E-03
            1701             115     157.297E-03     152.827E-03
            1701            2463     151.059E-03     149.830E-03
            1701            2464     160.464E-03     161.465E-03
            1702             384     154.345E-03     156.094E-03
            1702             385     160.582E-03     163.434E-03
            1702            2464     160.464E-03     161.465E-03
            1702            2465     167.591E-03     170.381E-03
            1703             113     169.412E-03     172.980E-03
            1703             114     165.249E-03     161.428E-03
            1703            2464     160.464E-03     161.465E-03
            1703            2465     167.591E-03     170.381E-03
            1704             385     160.582E-03     163.434E-03
            1704             386     165.025E-03     168.738E-03
            1704            2465     167.591E-03     170.381E-03
            1704            2466     174.246E-03     176.333E-03
            1705             112     179.970E-03     176.994E-03
            1705             113     169.412E-03     172.980E-03
            1705            2465     167.591E-03     170.381E-03
            1705            2466     174.246E-03     176.333E-03
            1706             386     165.025E-03     168.738E-03
            1706             387     168.530E-03     171.678E-03
            1706            2466     174.246E-03     176.333E-03
            1706            2467     179.333E-03     182.620E-03
            1707             111     184.324E-03     189.391E-03
            1707             112     179.970E-03     176.994E-03
            1707            2466     174.246E-03     176.333E-03
            1707            2467     179.333E-03     182.620E-03
            1708             387     168.530E-03     171.678E-03
            1708             388     168.711E-03     171.539E-03
            1708            2467     179.333E-03     182.620E-03
            1708            2468     184.832E-03     185.739E-03
            1709             110     199.140E-03     193.813E-03
            1709             111     184.324E-03     189.391E-03
            1709            2467     179.333E-03     182.620E-03
            1709            2468     184.832E-03     185.739E-03
            1710             388     168.711E-03     171.539E-03
            1710             389     162.708E-03     166.343E-03
            1710            2468     184.832E-03     185.739E-03
            1710            2469     184.381E-03     186.703E-03
            1711             109     208.668E-03     205.209E-03
            1711             110     199.140E-03     193.813E-03
            1711            2468     184.832E-03     185.739E-03
            1711            2469     184.381E-03     186.703E-03
            1712              21     166.854E-03     162.955E-03
            1712             389     162.708E-03     166.343E-03
            1712             460     180.474E-03     180.629E-03
            1712            2469     184.381E-03     186.703E-03
            1713               6     192.040E-03     199.390E-03
            1713             109     208.668E-03     205.209E-03
            1713             460     180.474E-03     180.629E-03
            1713            2469     184.381E-03     186.703E-03
            1714               2     15.1454E-03     15.0083E-03
            1714              44     796.196E-06     777.344E-06
            1714             470     15.4430E-03     15.2802E-03
            1714            2470     763.988E-06     746.979E-06
            1715              43     795.250E-06     781.439E-06
            1715              44     796.196E-06     777.344E-06
            1715            2470     763.988E-06     746.979E-06
            1715            2471     763.520E-06     748.737E-06
            1716               1     782.040E-06     780.005E-06
            1716              43     795.250E-06     781.439E-06
            1716             461     749.775E-06     746.941E-06
            1716            2471     763.520E-06     748.737E-06
            1717             469     14.6181E-03     14.4534E-03
            1717             470     15.4430E-03     15.2802E-03
            1717            2470     763.988E-06     746.979E-06
            1717            2472     669.374E-06     660.415E-06
            1718            2470     763.988E-06     746.979E-06
            1718            2471     763.520E-06     748.737E-06
            1718            2472     669.374E-06     660.415E-06
            1718            2473     668.066E-06     652.156E-06
            1719             461     749.775E-06     746.941E-06
            1719             462     654.244E-06     649.770E-06
            1719            2471     763.520E-06     748.737E-06
            1719            2473     668.066E-06     652.156E-06
            1720             468     12.4822E-03     12.6142E-03
            1720             469     14.6181E-03     14.4534E-03
            1720            2472     669.374E-06     660.415E-06
            1720            2474     526.340E-06     528.806E-06
            1721            2472     669.374E-06     660.415E-06
            1721            2473     668.066E-06     652.156E-06
            1721            2474     526.340E-06     528.806E-06
            1721            2475     521.452E-06     503.299E-06
            1722             462     654.244E-06     649.770E-06
            1722             463     508.389E-06     501.688E-06
            1722            2473     668.066E-06     652.156E-06
            1722            2475     521.452E-06     503.299E-06
            1723             467     9.98771E-03     10.3061E-03
            1723             468     12.4822E-03     12.6142E-03
            1723            2474     526.340E-06     528.806E-06
            1723            2476     354.745E-06     383.217E-06
            1724            2474     526.340E-06     528.806E-06
            1724            2475     521.452E-06     503.299E-06
            1724            2476     354.745E-06     383.217E-06
            1724            2477     353.751E-06     329.804E-06
            1725             463     508.389E-06     501.688E-06
            1725             464     319.199E-06     315.247E-06
            1725            2475     521.452E-06     503.299E-06
            1725            2477     353.751E-06     329.804E-06
            1726             466     7.81315E-03     8.72390E-03
            1726             467     9.98771E-03     10.3061E-03
            1726            2476     354.745E-06     383.217E-06
            1726            2478     352.741E-06     401.539E-06
            1727            2476     354.745E-06     383.217E-06
            1727            2477     353.751E-06     329.804E-06
            1727            2478     352.741E-06     401.539E-06
            1727            2479     289.304E-06     286.927E-06
            1728             464     319.199E-06     315.247E-06
            1728             465     212.451E-06     261.486E-06
            1728            2477     353.751E-06     329.804E-06
            1728            2479     289.304E-06     286.927E-06
            1729              23     7.29160E-03     8.86398E-03
            1729             456     365.304E-06     429.054E-06
            1729             466     7.81315E-03     8.72390E-03
            1729            2478     352.741E-06     401.539E-06
            1730             456     365.304E-06     429.054E-06
            1730             457     236.839E-06     275.715E-06
            1730            2478     352.741E-06     401.539E-06
            1730            2479     289.304E-06     286.927E-06
            1731              24     182.084E-06     273.810E-06
            1731             457     236.839E-06     275.715E-06
            1731             465     212.451E-06     261.486E-06
            1731            2479     289.304E-06     286.927E-06
            2140               3     3.86661E-03     5.80739E-03
            2140              50     365.304E-06     429.054E-06
            2140             459     3.80046E-03     4.22780E-03
            2140            2823     360.198E-06     413.626E-06
            2141              20     5.48828E-03     4.61805E-03
            2141             459     3.80046E-03     4.22780E-03
            2141             539     419.885E-06     449.989E-06
            2141            2823     360.198E-06     413.626E-06
            2142              50     365.304E-06     429.054E-06
            2142              51     236.839E-06     275.715E-06
            2142            2823     360.198E-06     413.626E-06
            2142            2824     309.992E-06     323.555E-06
            2143             539     419.885E-06     449.989E-06
            2143             540     446.261E-06     423.576E-06
            2143            2823     360.198E-06     413.626E-06
            2143            2824     309.992E-06     323.555E-06
            2144               4     182.084E-06     273.810E-06
            2144              51     236.839E-06     275.715E-06
            2144             541     288.565E-06     307.060E-06
            2144            2824     309.992E-06     323.555E-06
            2145              26     441.433E-06     394.508E-06
            2145             540     446.261E-06     423.576E-06
            2145             541     288.565E-06     307.060E-06
            2145            2824     309.992E-06     323.555E-06
            2146               7     51.2184E-03     57.7149E-03
            2146             161     53.4240E-03     59.4087E-03
            2146             557     83.5901E-03     100.409E-03
            2146            2825     100.366E-03     103.596E-03
            2147             160     52.0008E-03     53.5013E-03
            2147             161     53.4240E-03     59.4087E-03
            2147            2825     100.366E-03     103.596E-03
            2147            2826     95.7795E-03     92.8500E-03
            2148             159     54.5257E-03     54.7518E-03
            2148             160     52.0008E-03     53.5013E-03
            2148            2826     95.7795E-03     92.8500E-03
            2148            2827     84.1328E-03     90.2444E-03
            2149             158     54.8837E-03     55.3004E-03
            2149             159     54.5257E-03     54.7518E-03
            2149            2827     84.1328E-03     90.2444E-03
            2149            2828     79.3836E-03     77.7068E-03
            2150             157     59.2858E-03     61.6308E-03
            2150             158     54.8837E-03     55.3004E-03
            2150            2828     79.3836E-03     77.7068E-03
            2150            2829     82.3015E-03     83.9356E-03
            2151             156     56.7316E-03     60.6145E-03
            2151             157     59.2858E-03     61.6308E-03
            2151            2829     82.3015E-03     83.9356E-03
            2151            2830     78.6376E-03     80.8344E-03
            2152               5     44.8595E-03     49.4229E-03
            2152             156     56.7316E-03     60.6145E-03
            2152             542     55.7358E-03     53.7125E-03
            2152            2830     78.6376E-03     80.8344E-03
            2153             556     123.581E-03     149.565E-03
            2153             557     83.5901E-03     100.409E-03
            2153            2825     100.366E-03     103.596E-03
            2153            2831     152.477E-03     152.636E-03
            2154            2825     100.366E-03     103.596E-03
            2154            2826     95.7795E-03     92.8500E-03
            2154            2831     152.477E-03     152.636E-03
            2154            2832     149.826E-03     145.354E-03
            2155            2826     95.7795E-03     92.8500E-03
            2155            2827     84.1328E-03     90.2444E-03
            2155            2832     149.826E-03     145.354E-03
            2155            2833     135.510E-03     142.222E-03
            2156            2827     84.1328E-03     90.2444E-03
            2156            2828     79.3836E-03     77.7068E-03
            2156            2833     135.510E-03     142.222E-03
            2156            2834     128.028E-03     122.802E-03
            2157            2828     79.3836E-03     77.7068E-03
            2157            2829     82.3015E-03     83.9356E-03
            2157            2834     128.028E-03     122.802E-03
            2157            2835     122.701E-03     127.189E-03
            2158            2829     82.3015E-03     83.9356E-03
            2158            2830     78.6376E-03     80.8344E-03
            2158            2835     122.701E-03     127.189E-03
            2158            2836     119.664E-03     121.447E-03
            2159             542     55.7358E-03     53.7125E-03
            2159             543     90.1665E-03     89.9797E-03
            2159            2830     78.6376E-03     80.8344E-03
            2159            2836     119.664E-03     121.447E-03
            2160             555     160.513E-03     200.832E-03
            2160             556     123.581E-03     149.565E-03
            2160            2831     152.477E-03     152.636E-03
            2160            2837     198.949E-03     199.930E-03
            2161            2831     152.477E-03     152.636E-03
            2161            2832     149.826E-03     145.354E-03
            2161            2837     198.949E-03     199.930E-03
            2161            2838     198.129E-03     191.643E-03
            2162            2832     149.826E-03     145.354E-03
            2162            2833     135.510E-03     142.222E-03
            2162            2838     198.129E-03     191.643E-03
            2162            2839     185.337E-03     187.262E-03
            2163            2833     135.510E-03     142.222E-03
            2163            2834     128.028E-03     122.802E-03
            2163            2839     185.337E-03     187.262E-03
            2163            2840     178.130E-03     166.577E-03
            2164            2834     128.028E-03     122.802E-03
            2164            2835     122.701E-03     127.189E-03
            2164            2840     178.130E-03     166.577E-03
            2164            2841     164.557E-03     171.553E-03
            2165            2835     122.701E-03     127.189E-03
            2165            2836     119.664E-03     121.447E-03
            2165            2841     164.557E-03     171.553E-03
            2165            2842     161.485E-03     163.349E-03
            2166             543     90.1665E-03     89.9797E-03
            2166             544     127.673E-03     135.143E-03
            2166            2836     119.664E-03     121.447E-03
            2166            2842     161.485E-03     163.349E-03
            2167             554     197.626E-03     249.091E-03
            2167             555     160.513E-03     200.832E-03
            2167            2837     198.949E-03     199.930E-03
            2167            2843     246.021E-03     245.433E-03
            2168            2837     198.949E-03     199.930E-03
            2168            2838     198.129E-03     191.643E-03
            2168            2843     246.021E-03     245.433E-03
            2168            2844     236.453E-03     233.389E-03
            2169            2838     198.129E-03     191.643E-03
            2169            2839     185.337E-03     187.262E-03
            2169            2844     236.453E-03     233.389E-03
            2169            2845     218.620E-03     222.977E-03
            2170            2839     185.337E-03     187.262E-03
            2170            2840     178.130E-03     166.577E-03
            2170            2845     218.620E-03     222.977E-03
            2170            2846     211.616E-03     201.455E-03
            2171            2840     178.130E-03     166.577E-03
            2171            2841     164.557E-03     171.553E-03
            2171            2846     211.616E-03     201.455E-03
            2171            2847     195.142E-03     208.512E-03
            2172            2841     164.557E-03     171.553E-03
            2172            2842     161.485E-03     163.349E-03
            2172            2847     195.142E-03     208.512E-03
            2172            2848     196.223E-03     198.392E-03
            2173             544     127.673E-03     135.143E-03
            2173             545     159.250E-03     175.706E-03
            2173            2842     161.485E-03     163.349E-03
            2173            2848     196.223E-03     198.392E-03
            2174             553     244.710E-03     282.633E-03
            2174             554     197.626E-03     249.091E-03
            2174            2843     246.021E-03     245.433E-03
            2174            2849     293.125E-03     284.875E-03
            2175            2843     246.021E-03     245.433E-03
            2175            2844     236.453E-03     233.389E-03
            2175            2849     293.125E-03     284.875E-03
            2175            2850     268.598E-03     266.805E-03
            2176            2844     236.453E-03     233.389E-03
            2176            2845     218.620E-03     222.977E-03
            2176            2850     268.598E-03     266.805E-03
            2176            2851     240.092E-03     246.406E-03
            2177            2845     218.620E-03     222.977E-03
            2177            2846     211.616E-03     201.455E-03
            2177            2851     240.092E-03     246.406E-03
            2177            2852     223.146E-03     221.651E-03
            2178            2846     211.616E-03     201.455E-03
            2178            2847     195.142E-03     208.512E-03
            2178            2852     223.146E-03     221.651E-03
            2178            2853     210.768E-03     230.261E-03
            2179            2847     195.142E-03     208.512E-03
            2179            2848     196.223E-03     198.392E-03
            2179            2853     210.768E-03     230.261E-03
            2179            2854     223.321E-03     226.118E-03
            2180             545     159.250E-03     175.706E-03
            2180             546     189.356E-03     204.382E-03
            2180            2848     196.223E-03     198.392E-03
            2180            2854     223.321E-03     226.118E-03
            2181              27     263.443E-03     279.656E-03
            2181             552     300.042E-03     294.026E-03
            2181             553     244.710E-03     282.633E-03
            2181            2849     293.125E-03     284.875E-03
            2182             551     276.374E-03     275.023E-03
            2182             552     300.042E-03     294.026E-03
            2182            2849     293.125E-03     284.875E-03
            2182            2850     268.598E-03     266.805E-03
            2183             550     249.324E-03     252.757E-03
            2183             551     276.374E-03     275.023E-03
            2183            2850     268.598E-03     266.805E-03
            2183            2851     240.092E-03     246.406E-03
            2184             549     226.295E-03     229.303E-03
            2184             550     249.324E-03     252.757E-03
            2184            2851     240.092E-03     246.406E-03
            2184            2852     223.146E-03     221.651E-03
            2185             548     222.226E-03     235.140E-03
            2185             549     226.295E-03     229.303E-03
            2185            2852     223.146E-03     221.651E-03
            2185            2853     210.768E-03     230.261E-03
            2186             547     235.096E-03     238.173E-03
            2186             548     222.226E-03     235.140E-03
            2186            2853     210.768E-03     230.261E-03
            2186            2854     223.321E-03     226.118E-03
            2187              25     201.783E-03     210.198E-03
            2187             546     189.356E-03     204.382E-03
            2187             547     235.096E-03     238.173E-03
            2187            2854     223.321E-03     226.118E-03
            2188              25     201.783E-03     210.198E-03
            2188             547     235.096E-03     238.173E-03
            2188             558     194.774E-03     199.623E-03
            2188            2855     234.948E-03     238.944E-03
            2189              28     188.676E-03     189.618E-03
            2189             558     194.774E-03     199.623E-03
            2189             559     233.017E-03     236.624E-03
            2189            2855     234.948E-03     238.944E-03
            2190             547     235.096E-03     238.173E-03
            2190             548     222.226E-03     235.140E-03
            2190            2855     234.948E-03     238.944E-03
            2190            2856     229.892E-03     234.759E-03
            2191             559     233.017E-03     236.624E-03
            2191             560     232.184E-03     235.808E-03
            2191            2855     234.948E-03     238.944E-03
            2191            2856     229.892E-03     234.759E-03
            2192             548     222.226E-03     235.140E-03
            2192             549     226.295E-03     229.303E-03
            2192            2856     229.892E-03     234.759E-03
            2192            2857     233.071E-03     236.249E-03
            2193             560     232.184E-03     235.808E-03
            2193             561     240.427E-03     242.076E-03
            2193            2856     229.892E-03     234.759E-03
            2193            2857     233.071E-03     236.249E-03
            2194             549     226.295E-03     229.303E-03
            2194             550     249.324E-03     252.757E-03
            2194            2857     233.071E-03     236.249E-03
            2194            2858     250.614E-03     255.666E-03
            2195             561     240.427E-03     242.076E-03
            2195             562     252.316E-03     257.723E-03
            2195            2857     233.071E-03     236.249E-03
            2195            2858     250.614E-03     255.666E-03
            2196             550     249.324E-03     252.757E-03
            2196             551     276.374E-03     275.023E-03
            2196            2858     250.614E-03     255.666E-03
            2196            2859     268.062E-03     272.055E-03
            2197             562     252.316E-03     257.723E-03
            2197             563     262.395E-03     267.867E-03
            2197            2858     250.614E-03     255.666E-03
            2197            2859     268.062E-03     272.055E-03
            2198             551     276.374E-03     275.023E-03
            2198             552     300.042E-03     294.026E-03
            2198            2859     268.062E-03     272.055E-03
            2198            2860     278.802E-03     281.059E-03
            2199             563     262.395E-03     267.867E-03
            2199             564     264.029E-03     269.102E-03
            2199            2859     268.062E-03     272.055E-03
            2199            2860     278.802E-03     281.059E-03
            2200              27     263.443E-03     279.656E-03
            2200             552     300.042E-03     294.026E-03
            2200             565     242.132E-03     249.226E-03
            2200            2860     278.802E-03     281.059E-03
            2201              29     222.075E-03     227.468E-03
            2201             564     264.029E-03     269.102E-03
            2201             565     242.132E-03     249.226E-03
            2201            2860     278.802E-03     281.059E-03
            2202              20     5.48828E-03     4.61805E-03
            2202             342     6.96184E-03     6.26168E-03
            2202             539     419.885E-06     449.989E-06
            2202            2861     403.802E-06     437.994E-06
            2203             341     8.01549E-03     7.39532E-03
            2203             342     6.96184E-03     6.26168E-03
            2203            2861     403.802E-06     437.994E-06
            2203            2862     399.015E-06     431.975E-06
            2204             340     8.56540E-03     8.05271E-03
            2204             341     8.01549E-03     7.39532E-03
            2204            2862     399.015E-06     431.975E-06
            2204            2863     396.732E-06     429.567E-06
            2205             339     8.90599E-03     8.42658E-03
            2205             340     8.56540E-03     8.05271E-03
            2205            2863     396.732E-06     429.567E-06
            2205            2864     394.930E-06     427.614E-06
            2206             338     9.03295E-03     8.61645E-03
            2206             339     8.90599E-03     8.42658E-03
            2206            2864     394.930E-06     427.614E-06
            2206            2865     393.661E-06     425.079E-06
            2207             337     9.07524E-03     8.69107E-03
            2207             338     9.03295E-03     8.61645E-03
            2207            2865     393.661E-06     425.079E-06
            2207            2866     392.340E-06     423.458E-06
            2208             336     9.02925E-03     8.69043E-03
            2208             337     9.07524E-03     8.69107E-03
            2208            2866     392.340E-06     423.458E-06
            2208            2867     391.700E-06     421.311E-06
            2209             335     8.95420E-03     8.65208E-03
            2209             336     9.02925E-03     8.69043E-03
            2209            2867     391.700E-06     421.311E-06
            2209            2868     390.957E-06     419.786E-06
            2210             334     8.84717E-03     8.58511E-03
            2210             335     8.95420E-03     8.65208E-03
            2210            2868     390.957E-06     419.786E-06
            2210            2869     390.751E-06     417.955E-06
            2211             333     8.72572E-03     8.50200E-03
            2211             334     8.84717E-03     8.58511E-03
            2211            2869     390.751E-06     417.955E-06
            2211            2870     390.535E-06     416.514E-06
            2212             332     8.59106E-03     8.40703E-03
            2212             333     8.72572E-03     8.50200E-03
            2212            2870     390.535E-06     416.514E-06
            2212            2871     390.760E-06     414.936E-06
            2213             331     8.43320E-03     8.28672E-03
            2213             332     8.59106E-03     8.40703E-03
            2213            2871     390.760E-06     414.936E-06
            2213            2872     391.033E-06     413.608E-06
            2214             330     8.25741E-03     8.15010E-03
            2214             331     8.43320E-03     8.28672E-03
            2214            2872     391.033E-06     413.608E-06
            2214            2873     391.685E-06     412.278E-06
            2215             329     8.03082E-03     7.95791E-03
            2215             330     8.25741E-03     8.15010E-03
            2215            2873     391.685E-06     412.278E-06
            2215            2874     392.503E-06     411.048E-06
            2216             328     7.76804E-03     7.73414E-03
            2216             329     8.03082E-03     7.95791E-03
            2216            2874     392.503E-06     411.048E-06
            2216            2875     393.332E-06     409.915E-06
            2217             327     7.40754E-03     7.41052E-03
            2217             328     7.76804E-03     7.73414E-03
            2217            2875     393.332E-06     409.915E-06
            2217            2876     394.542E-06     408.127E-06
            2218             326     7.05431E-03     7.12466E-03
            2218             327     7.40754E-03     7.41052E-03
            2218            2876     394.542E-06     408.127E-06
            2218            2877     399.429E-06     413.749E-06
            2219             325     6.68234E-03     6.75495E-03
            2219             326     7.05431E-03     7.12466E-03
            2219            2877     399.429E-06     413.749E-06
            2219            2878     410.414E-06     418.847E-06
            2220              16     4.40001E-03     5.61850E-03
            2220             324     417.110E-06     417.183E-06
            2220             325     6.68234E-03     6.75495E-03
            2220            2878     410.414E-06     418.847E-06
            2221             539     419.885E-06     449.989E-06
            2221             540     446.261E-06     423.576E-06
            2221            2861     403.802E-06     437.994E-06
            2221            2879     431.967E-06     413.829E-06
            2222            2861     403.802E-06     437.994E-06
            2222            2862     399.015E-06     431.975E-06
            2222            2879     431.967E-06     413.829E-06
            2222            2880     427.412E-06     407.979E-06
            2223            2862     399.015E-06     431.975E-06
            2223            2863     396.732E-06     429.567E-06
            2223            2880     427.412E-06     407.979E-06
            2223            2881     425.863E-06     407.525E-06
            2224            2863     396.732E-06     429.567E-06
            2224            2864     394.930E-06     427.614E-06
            2224            2881     425.863E-06     407.525E-06
            2224            2882     424.052E-06     406.220E-06
            2225            2864     394.930E-06     427.614E-06
            2225            2865     393.661E-06     425.079E-06
            2225            2882     424.052E-06     406.220E-06
            2225            2883     422.228E-06     404.828E-06
            2226            2865     393.661E-06     425.079E-06
            2226            2866     392.340E-06     423.458E-06
            2226            2883     422.228E-06     404.828E-06
            2226            2884     420.210E-06     403.981E-06
            2227            2866     392.340E-06     423.458E-06
            2227            2867     391.700E-06     421.311E-06
            2227            2884     420.210E-06     403.981E-06
            2227            2885     418.573E-06     402.975E-06
            2228            2867     391.700E-06     421.311E-06
            2228            2868     390.957E-06     419.786E-06
            2228            2885     418.573E-06     402.975E-06
            2228            2886     416.725E-06     402.533E-06
            2229            2868     390.957E-06     419.786E-06
            2229            2869     390.751E-06     417.955E-06
            2229            2886     416.725E-06     402.533E-06
            2229            2887     415.222E-06     402.019E-06
            2230            2869     390.751E-06     417.955E-06
            2230            2870     390.535E-06     416.514E-06
            2230            2887     415.222E-06     402.019E-06
            2230            2888     413.571E-06     401.969E-06
            2231            2870     390.535E-06     416.514E-06
            2231            2871     390.760E-06     414.936E-06
            2231            2888     413.571E-06     401.969E-06
            2231            2889     412.217E-06     401.945E-06
            2232            2871     390.760E-06     414.936E-06
            2232            2872     391.033E-06     413.608E-06
            2232            2889     412.217E-06     401.945E-06
            2232            2890     410.762E-06     402.294E-06
            2233            2872     391.033E-06     413.608E-06
            2233            2873     391.685E-06     412.278E-06
            2233            2890     410.762E-06     402.294E-06
            2233            2891     409.554E-06     402.770E-06
            2234            2873     391.685E-06     412.278E-06
            2234            2874     392.503E-06     411.048E-06
            2234            2891     409.554E-06     402.770E-06
            2234            2892     408.365E-06     403.490E-06
            2235            2874     392.503E-06     411.048E-06
            2235            2875     393.332E-06     409.915E-06
            2235            2892     408.365E-06     403.490E-06
            2235            2893     407.066E-06     404.417E-06
            2236            2875     393.332E-06     409.915E-06
            2236            2876     394.542E-06     408.127E-06
            2236            2893     407.066E-06     404.417E-06
            2236            2894     406.065E-06     404.728E-06
            2237            2876     394.542E-06     408.127E-06
            2237            2877     399.429E-06     413.749E-06
            2237            2894     406.065E-06     404.728E-06
            2237            2895     408.272E-06     412.577E-06
            2238            2877     399.429E-06     413.749E-06
            2238            2878     410.414E-06     418.847E-06
            2238            2895     408.272E-06     412.577E-06
            2238            2896     416.283E-06     420.665E-06
            2239             323     421.514E-06     420.854E-06
            2239             324     417.110E-06     417.183E-06
            2239            2878     410.414E-06     418.847E-06
            2239            2896     416.283E-06     420.665E-06
            2240              26     441.433E-06     394.508E-06
            2240             540     446.261E-06     423.576E-06
            2240             583     453.888E-06     404.905E-06
            2240            2879     431.967E-06     413.829E-06
            2241             582     446.971E-06     399.895E-06
            2241             583     453.888E-06     404.905E-06
            2241            2879     431.967E-06     413.829E-06
            2241            2880     427.412E-06     407.979E-06
            2242             581     445.595E-06     399.963E-06
            2242             582     446.971E-06     399.895E-06
            2242            2880     427.412E-06     407.979E-06
            2242            2881     425.863E-06     407.525E-06
            2243             580     444.572E-06     399.042E-06
            2243             581     445.595E-06     399.963E-06
            2243            2881     425.863E-06     407.525E-06
            2243            2882     424.052E-06     406.220E-06
            2244             579     442.322E-06     399.102E-06
            2244             580     444.572E-06     399.042E-06
            2244            2882     424.052E-06     406.220E-06
            2244            2883     422.228E-06     404.828E-06
            2245             578     440.947E-06     398.582E-06
            2245             579     442.322E-06     399.102E-06
            2245            2883     422.228E-06     404.828E-06
            2245            2884     420.210E-06     403.981E-06
            2246             577     438.811E-06     399.029E-06
            2246             578     440.947E-06     398.582E-06
            2246            2884     420.210E-06     403.981E-06
            2246            2885     418.573E-06     402.975E-06
            2247             576     437.311E-06     399.258E-06
            2247             577     438.811E-06     399.029E-06
            2247            2885     418.573E-06     402.975E-06
            2247            2886     416.725E-06     402.533E-06
            2248             575     435.377E-06     400.194E-06
            2248             576     437.311E-06     399.258E-06
            2248            2886     416.725E-06     402.533E-06
            2248            2887     415.222E-06     402.019E-06
            2249             574     433.805E-06     401.120E-06
            2249             575     435.377E-06     400.194E-06
            2249            2887     415.222E-06     402.019E-06
            2249            2888     413.571E-06     401.969E-06
            2250             573     432.032E-06     402.613E-06
            2250             574     433.805E-06     401.120E-06
            2250            2888     413.571E-06     401.969E-06
            2250            2889     412.217E-06     401.945E-06
            2251             572     430.443E-06     404.181E-06
            2251             573     432.032E-06     402.613E-06
            2251            2889     412.217E-06     401.945E-06
            2251            2890     410.762E-06     402.294E-06
            2252             571     428.813E-06     406.248E-06
            2252             572     430.443E-06     404.181E-06
            2252            2890     410.762E-06     402.294E-06
            2252            2891     409.554E-06     402.770E-06
            2253             570     427.179E-06     408.472E-06
            2253             571     428.813E-06     406.248E-06
            2253            2891     409.554E-06     402.770E-06
            2253            2892     408.365E-06     403.490E-06
            2254             569     425.648E-06     410.775E-06
            2254             570     427.179E-06     408.472E-06
            2254            2892     408.365E-06     403.490E-06
            2254            2893     407.066E-06     404.417E-06
            2255             568     424.498E-06     414.140E-06
            2255             569     425.648E-06     410.775E-06
            2255            2893     407.066E-06     404.417E-06
            2255            2894     406.065E-06     404.728E-06
            2256             567     426.082E-06     423.034E-06
            2256             568     424.498E-06     414.140E-06
            2256            2894     406.065E-06     404.728E-06
            2256            2895     408.272E-06     412.577E-06
            2257             566     402.958E-06     407.867E-06
            2257             567     426.082E-06     423.034E-06
            2257            2895     408.272E-06     412.577E-06
            2257            2896     416.283E-06     420.665E-06
            2258              19     377.826E-06     385.717E-06
            2258             323     421.514E-06     420.854E-06
            2258             566     402.958E-06     407.867E-06
            2258            2896     416.283E-06     420.665E-06
            2259              28     188.676E-03     189.618E-03
            2259             559     233.017E-03     236.624E-03
            2259             584     182.392E-03     182.352E-03
            2259            2897     227.983E-03     231.598E-03
            2260             584     182.392E-03     182.352E-03
            2260             585     177.425E-03     176.627E-03
            2260            2897     227.983E-03     231.598E-03
            2260            2898     223.728E-03     227.559E-03
            2261             585     177.425E-03     176.627E-03
            2261             586     172.991E-03     171.229E-03
            2261            2898     223.728E-03     227.559E-03
            2261            2899     219.605E-03     223.223E-03
            2262             586     172.991E-03     171.229E-03
            2262             587     168.596E-03     166.331E-03
            2262            2899     219.605E-03     223.223E-03
            2262            2900     215.492E-03     219.289E-03
            2263             587     168.596E-03     166.331E-03
            2263             588     164.539E-03     161.427E-03
            2263            2900     215.492E-03     219.289E-03
            2263            2901     211.675E-03     215.348E-03
            2264             588     164.539E-03     161.427E-03
            2264             589     160.393E-03     156.763E-03
            2264            2901     211.675E-03     215.348E-03
            2264            2902     207.936E-03     211.679E-03
            2265             589     160.393E-03     156.763E-03
            2265             590     156.384E-03     152.104E-03
            2265            2902     207.936E-03     211.679E-03
            2265            2903     204.433E-03     208.121E-03
            2266             590     156.384E-03     152.104E-03
            2266             591     152.318E-03     147.604E-03
            2266            2903     204.433E-03     208.121E-03
            2266            2904     201.089E-03     204.782E-03
            2267             591     152.318E-03     147.604E-03
            2267             592     148.300E-03     143.178E-03
            2267            2904     201.089E-03     204.782E-03
            2267            2905     197.959E-03     201.618E-03
            2268             592     148.300E-03     143.178E-03
            2268             593     144.268E-03     138.901E-03
            2268            2905     197.959E-03     201.618E-03
            2268            2906     195.034E-03     198.666E-03
            2269             593     144.268E-03     138.901E-03
            2269             594     140.270E-03     134.756E-03
            2269            2906     195.034E-03     198.666E-03
            2269            2907     192.335E-03     195.925E-03
            2270             594     140.270E-03     134.756E-03
            2270             595     136.300E-03     130.784E-03
            2270            2907     192.335E-03     195.925E-03
            2270            2908     189.860E-03     193.406E-03
            2271             595     136.300E-03     130.784E-03
            2271             596     132.406E-03     127.000E-03
            2271            2908     189.860E-03     193.406E-03
            2271            2909     187.647E-03     191.134E-03
            2272             596     132.406E-03     127.000E-03
            2272             597     128.608E-03     123.426E-03
            2272            2909     187.647E-03     191.134E-03
            2272            2910     185.612E-03     189.029E-03
            2273             597     128.608E-03     123.426E-03
            2273             598     125.119E-03     120.273E-03
            2273            2910     185.612E-03     189.029E-03
            2273            2911     184.096E-03     187.491E-03
            2274             598     125.119E-03     120.273E-03
            2274             599     121.697E-03     117.065E-03
            2274            2911     184.096E-03     187.491E-03
            2274            2912     181.837E-03     184.895E-03
            2275             599     121.697E-03     117.065E-03
            2275             600     120.694E-03     117.138E-03
            2275            2912     181.837E-03     184.895E-03
            2275            2913     183.799E-03     187.965E-03
            2276             600     120.694E-03     117.138E-03
            2276             601     117.793E-03     111.147E-03
            2276            2913     183.799E-03     187.965E-03
            2276            2914     172.699E-03     170.590E-03
            2277              22     75.2394E-03     85.8800E-03
            2277             601     117.793E-03     111.147E-03
            2277             602     99.7164E-03     113.736E-03
            2277            2914     172.699E-03     170.590E-03
            2278             559     233.017E-03     236.624E-03
            2278             560     232.184E-03     235.808E-03
            2278            2897     227.983E-03     231.598E-03
            2278            2915     231.700E-03     235.917E-03
            2279            2897     227.983E-03     231.598E-03
            2279            2898     223.728E-03     227.559E-03
            2279            2915     231.700E-03     235.917E-03
            2279            2916     229.354E-03     234.704E-03
            2280            2898     223.728E-03     227.559E-03
            2280            2899     219.605E-03     223.223E-03
            2280            2916     229.354E-03     234.704E-03
            2280            2917     226.271E-03     231.932E-03
            2281            2899     219.605E-03     223.223E-03
            2281            2900     215.492E-03     219.289E-03
            2281            2917     226.271E-03     231.932E-03
            2281            2918     222.360E-03     228.622E-03
            2282            2900     215.492E-03     219.289E-03
            2282            2901     211.675E-03     215.348E-03
            2282            2918     222.360E-03     228.622E-03
            2282            2919     218.382E-03     225.094E-03
            2283            2901     211.675E-03     215.348E-03
            2283            2902     207.936E-03     211.679E-03
            2283            2919     218.382E-03     225.094E-03
            2283            2920     214.264E-03     221.342E-03
            2284            2902     207.936E-03     211.679E-03
            2284            2903     204.433E-03     208.121E-03
            2284            2920     214.264E-03     221.342E-03
            2284            2921     210.230E-03     217.691E-03
            2285            2903     204.433E-03     208.121E-03
            2285            2904     201.089E-03     204.782E-03
            2285            2921     210.230E-03     217.691E-03
            2285            2922     206.309E-03     214.059E-03
            2286            2904     201.089E-03     204.782E-03
            2286            2905     197.959E-03     201.618E-03
            2286            2922     206.309E-03     214.059E-03
            2286            2923     202.584E-03     210.626E-03
            2287            2905     197.959E-03     201.618E-03
            2287            2906     195.034E-03     198.666E-03
            2287            2923     202.584E-03     210.626E-03
            2287            2924     199.091E-03     207.356E-03
            2288            2906     195.034E-03     198.666E-03
            2288            2907     192.335E-03     195.925E-03
            2288            2924     199.091E-03     207.356E-03
            2288            2925     195.863E-03     204.326E-03
            2289            2907     192.335E-03     195.925E-03
            2289            2908     189.860E-03     193.406E-03
            2289            2925     195.863E-03     204.326E-03
            2289            2926     192.917E-03     201.524E-03
            2290            2908     189.860E-03     193.406E-03
            2290            2909     187.647E-03     191.134E-03
            2290            2926     192.917E-03     201.524E-03
            2290            2927     190.204E-03     198.921E-03
            2291            2909     187.647E-03     191.134E-03
            2291            2910     185.612E-03     189.029E-03
            2291            2927     190.204E-03     198.921E-03
            2291            2928     187.583E-03     196.335E-03
            2292            2910     185.612E-03     189.029E-03
            2292            2911     184.096E-03     187.491E-03
            2292            2928     187.583E-03     196.335E-03
            2292            2929     184.993E-03     193.715E-03
            2293            2911     184.096E-03     187.491E-03
            2293            2912     181.837E-03     184.895E-03
            2293            2929     184.993E-03     193.715E-03
            2293            2930     180.671E-03     188.841E-03
            2294            2912     181.837E-03     184.895E-03
            2294            2913     183.799E-03     187.965E-03
            2294            2930     180.671E-03     188.841E-03
            2294            2931     178.491E-03     187.410E-03
            2295            2913     183.799E-03     187.965E-03
            2295            2914     172.699E-03     170.590E-03
            2295            2931     178.491E-03     187.410E-03
            2295            2932     166.155E-03     170.472E-03
            2296             602     99.7164E-03     113.736E-03
            2296             603     103.375E-03     120.670E-03
            2296            2914     172.699E-03     170.590E-03
            2296            2932     166.155E-03     170.472E-03
            2297             560     232.184E-03     235.808E-03
            2297             561     240.427E-03     242.076E-03
            2297            2915     231.700E-03     235.917E-03
            2297            2933     243.194E-03     243.307E-03
            2298            2915     231.700E-03     235.917E-03
            2298            2916     229.354E-03     234.704E-03
            2298            2933     243.194E-03     243.307E-03
            2298            2934     242.252E-03     241.463E-03
            2299            2916     229.354E-03     234.704E-03
            2299            2917     226.271E-03     231.932E-03
            2299            2934     242.252E-03     241.463E-03
            2299            2935     239.218E-03     237.945E-03
            2300            2917     226.271E-03     231.932E-03
            2300            2918     222.360E-03     228.622E-03
            2300            2935     239.218E-03     237.945E-03
            2300            2936     235.591E-03     233.646E-03
            2301            2918     222.360E-03     228.622E-03
            2301            2919     218.382E-03     225.094E-03
            2301            2936     235.591E-03     233.646E-03
            2301            2937     231.503E-03     229.016E-03
            2302            2919     218.382E-03     225.094E-03
            2302            2920     214.264E-03     221.342E-03
            2302            2937     231.503E-03     229.016E-03
            2302            2938     227.243E-03     224.267E-03
            2303            2920     214.264E-03     221.342E-03
            2303            2921     210.230E-03     217.691E-03
            2303            2938     227.243E-03     224.267E-03
            2303            2939     222.947E-03     219.559E-03
            2304            2921     210.230E-03     217.691E-03
            2304            2922     206.309E-03     214.059E-03
            2304            2939     222.947E-03     219.559E-03
            2304            2940     218.691E-03     215.027E-03
            2305            2922     206.309E-03     214.059E-03
            2305            2923     202.584E-03     210.626E-03
            2305            2940     218.691E-03     215.027E-03
            2305            2941     214.581E-03     210.738E-03
            2306            2923     202.584E-03     210.626E-03
            2306            2924     199.091E-03     207.356E-03
            2306            2941     214.581E-03     210.738E-03
            2306            2942     210.654E-03     206.787E-03
            2307            2924     199.091E-03     207.356E-03
            2307            2925     195.863E-03     204.326E-03
            2307            2942     210.654E-03     206.787E-03
            2307            2943     206.975E-03     203.203E-03
            2308            2925     195.863E-03     204.326E-03
            2308            2926     192.917E-03     201.524E-03
            2308            2943     206.975E-03     203.203E-03
            2308            2944     203.562E-03     200.050E-03
            2309            2926     192.917E-03     201.524E-03
            2309            2927     190.204E-03     198.921E-03
            2309            2944     203.562E-03     200.050E-03
            2309            2945     200.425E-03     197.311E-03
            2310            2927     190.204E-03     198.921E-03
            2310            2928     187.583E-03     196.335E-03
            2310            2945     200.425E-03     197.311E-03
            2310            2946     197.344E-03     194.820E-03
            2311            2928     187.583E-03     196.335E-03
            2311            2929     184.993E-03     193.715E-03
            2311            2946     197.344E-03     194.820E-03
            2311            2947     194.335E-03     192.482E-03
            2312            2929     184.993E-03     193.715E-03
            2312            2930     180.671E-03     188.841E-03
            2312            2947     194.335E-03     192.482E-03
            2312            2948     189.003E-03     187.818E-03
            2313            2930     180.671E-03     188.841E-03
            2313            2931     178.491E-03     187.410E-03
            2313            2948     189.003E-03     187.818E-03
            2313            2949     181.592E-03     182.242E-03
            2314            2931     178.491E-03     187.410E-03
            2314            2932     166.155E-03     170.472E-03
            2314            2949     181.592E-03     182.242E-03
            2314            2950     164.021E-03     165.855E-03
            2315             603     103.375E-03     120.670E-03
            2315             604     110.341E-03     124.695E-03
            2315            2932     166.155E-03     170.472E-03
            2315            2950     164.021E-03     165.855E-03
            2316             561     240.427E-03     242.076E-03
            2316             562     252.316E-03     257.723E-03
            2316            2933     243.194E-03     243.307E-03
            2316            2951     248.959E-03     252.807E-03
            2317            2933     243.194E-03     243.307E-03
            2317            2934     242.252E-03     241.463E-03
            2317            2951     248.959E-03     252.807E-03
            2317            2952     243.235E-03     246.390E-03
            2318            2934     242.252E-03     241.463E-03
            2318            2935     239.218E-03     237.945E-03
            2318            2952     243.235E-03     246.390E-03
            2318            2953     237.327E-03     240.381E-03
            2319            2935     239.218E-03     237.945E-03
            2319            2936     235.591E-03     233.646E-03
            2319            2953     237.327E-03     240.381E-03
            2319            2954     231.627E-03     234.390E-03
            2320            2936     235.591E-03     233.646E-03
            2320            2937     231.503E-03     229.016E-03
            2320            2954     231.627E-03     234.390E-03
            2320            2955     226.077E-03     228.660E-03
            2321            2937     231.503E-03     229.016E-03
            2321            2938     227.243E-03     224.267E-03
            2321            2955     226.077E-03     228.660E-03
            2321            2956     220.773E-03     223.184E-03
            2322            2938     227.243E-03     224.267E-03
            2322            2939     222.947E-03     219.559E-03
            2322            2956     220.773E-03     223.184E-03
            2322            2957     215.675E-03     217.947E-03
            2323            2939     222.947E-03     219.559E-03
            2323            2940     218.691E-03     215.027E-03
            2323            2957     215.675E-03     217.947E-03
            2323            2958     210.854E-03     213.014E-03
            2324            2940     218.691E-03     215.027E-03
            2324            2941     214.581E-03     210.738E-03
            2324            2958     210.854E-03     213.014E-03
            2324            2959     206.309E-03     208.398E-03
            2325            2941     214.581E-03     210.738E-03
            2325            2942     210.654E-03     206.787E-03
            2325            2959     206.309E-03     208.398E-03
            2325            2960     202.103E-03     204.150E-03
            2326            2942     210.654E-03     206.787E-03
            2326            2943     206.975E-03     203.203E-03
            2326            2960     202.103E-03     204.150E-03
            2326            2961     198.269E-03     200.320E-03
            2327            2943     206.975E-03     203.203E-03
            2327            2944     203.562E-03     200.050E-03
            2327            2961     198.269E-03     200.320E-03
            2327            2962     194.890E-03     196.978E-03
            2328            2944     203.562E-03     200.050E-03
            2328            2945     200.425E-03     197.311E-03
            2328            2962     194.890E-03     196.978E-03
            2328            2963     192.077E-03     194.226E-03
            2329            2945     200.425E-03     197.311E-03
            2329            2946     197.344E-03     194.820E-03
            2329            2963     192.077E-03     194.226E-03
            2329            2964     189.953E-03     192.256E-03
            2330            2946     197.344E-03     194.820E-03
            2330            2947     194.335E-03     192.482E-03
            2330            2964     189.953E-03     192.256E-03
            2330            2965     188.193E-03     190.781E-03
            2331            2947     194.335E-03     192.482E-03
            2331            2948     189.003E-03     187.818E-03
            2331            2965     188.193E-03     190.781E-03
            2331            2966     185.887E-03     189.302E-03
            2332            2948     189.003E-03     187.818E-03
            2332            2949     181.592E-03     182.242E-03
            2332            2966     185.887E-03     189.302E-03
            2332            2967     177.359E-03     179.129E-03
            2333            2949     181.592E-03     182.242E-03
            2333            2950     164.021E-03     165.855E-03
            2333            2967     177.359E-03     179.129E-03
            2333            2968     150.750E-03     146.154E-03
            2334             604     110.341E-03     124.695E-03
            2334             605     105.414E-03     93.0083E-03
            2334            2950     164.021E-03     165.855E-03
            2334            2968     150.750E-03     146.154E-03
            2335             562     252.316E-03     257.723E-03
            2335             563     262.395E-03     267.867E-03
            2335            2951     248.959E-03     252.807E-03
            2335            2969     252.114E-03     258.128E-03
            2336            2951     248.959E-03     252.807E-03
            2336            2952     243.235E-03     246.390E-03
            2336            2969     252.114E-03     258.128E-03
            2336            2970     242.934E-03     249.385E-03
            2337            2952     243.235E-03     246.390E-03
            2337            2953     237.327E-03     240.381E-03
            2337            2970     242.934E-03     249.385E-03
            2337            2971     235.121E-03     241.437E-03
            2338            2953     237.327E-03     240.381E-03
            2338            2954     231.627E-03     234.390E-03
            2338            2971     235.121E-03     241.437E-03
            2338            2972     227.676E-03     234.265E-03
            2339            2954     231.627E-03     234.390E-03
            2339            2955     226.077E-03     228.660E-03
            2339            2972     227.676E-03     234.265E-03
            2339            2973     220.960E-03     227.701E-03
            2340            2955     226.077E-03     228.660E-03
            2340            2956     220.773E-03     223.184E-03
            2340            2973     220.960E-03     227.701E-03
            2340            2974     214.671E-03     221.574E-03
            2341            2956     220.773E-03     223.184E-03
            2341            2957     215.675E-03     217.947E-03
            2341            2974     214.671E-03     221.574E-03
            2341            2975     208.876E-03     215.908E-03
            2342            2957     215.675E-03     217.947E-03
            2342            2958     210.854E-03     213.014E-03
            2342            2975     208.876E-03     215.908E-03
            2342            2976     203.501E-03     210.599E-03
            2343            2958     210.854E-03     213.014E-03
            2343            2959     206.309E-03     208.398E-03
            2343            2976     203.501E-03     210.599E-03
            2343            2977     198.579E-03     205.695E-03
            2344            2959     206.309E-03     208.398E-03
            2344            2960     202.103E-03     204.150E-03
            2344            2977     198.579E-03     205.695E-03
            2344            2978     194.109E-03     201.173E-03
            2345            2960     202.103E-03     204.150E-03
            2345            2961     198.269E-03     200.320E-03
            2345            2978     194.109E-03     201.173E-03
            2345            2979     190.143E-03     197.096E-03
            2346            2961     198.269E-03     200.320E-03
            2346            2962     194.890E-03     196.978E-03
            2346            2979     190.143E-03     197.096E-03
            2346            2980     186.745E-03     193.515E-03
            2347            2962     194.890E-03     196.978E-03
            2347            2963     192.077E-03     194.226E-03
            2347            2980     186.745E-03     193.515E-03
            2347            2981     184.024E-03     190.538E-03
            2348            2963     192.077E-03     194.226E-03
            2348            2964     189.953E-03     192.256E-03
            2348            2981     184.024E-03     190.538E-03
            2348            2982     182.188E-03     188.331E-03
            2349            2964     189.953E-03     192.256E-03
            2349            2965     188.193E-03     190.781E-03
            2349            2982     182.188E-03     188.331E-03
            2349            2983     180.667E-03     186.530E-03
            2350            2965     188.193E-03     190.781E-03
            2350            2966     185.887E-03     189.302E-03
            2350            2983     180.667E-03     186.530E-03
            2350            2984     178.970E-03     184.597E-03
            2351            2966     185.887E-03     189.302E-03
            2351            2967     177.359E-03     179.129E-03
            2351            2984     178.970E-03     184.597E-03
            2351            2985     171.140E-03     172.662E-03
            2352            2967     177.359E-03     179.129E-03
            2352            2968     150.750E-03     146.154E-03
            2352            2985     171.140E-03     172.662E-03
            2352            2986     144.999E-03     137.745E-03
            2353             605     105.414E-03     93.0083E-03
            2353             606     100.615E-03     87.0137E-03
            2353            2968     150.750E-03     146.154E-03
            2353            2986     144.999E-03     137.745E-03
            2354             563     262.395E-03     267.867E-03
            2354             564     264.029E-03     269.102E-03
            2354            2969     252.114E-03     258.128E-03
            2354            2987     250.560E-03     257.527E-03
            2355            2969     252.114E-03     258.128E-03
            2355            2970     242.934E-03     249.385E-03
            2355            2987     250.560E-03     257.527E-03
            2355            2988     240.533E-03     248.410E-03
            2356            2970     242.934E-03     249.385E-03
            2356            2971     235.121E-03     241.437E-03
            2356            2988     240.533E-03     248.410E-03
            2356            2989     231.200E-03     239.857E-03
            2357            2971     235.121E-03     241.437E-03
            2357            2972     227.676E-03     234.265E-03
            2357            2989     231.200E-03     239.857E-03
            2357            2990     223.018E-03     232.373E-03
            2358            2972     227.676E-03     234.265E-03
            2358            2973     220.960E-03     227.701E-03
            2358            2990     223.018E-03     232.373E-03
            2358            2991     215.421E-03     225.396E-03
            2359            2973     220.960E-03     227.701E-03
            2359            2974     214.671E-03     221.574E-03
            2359            2991     215.421E-03     225.396E-03
            2359            2992     208.527E-03     219.042E-03
            2360            2974     214.671E-03     221.574E-03
            2360            2975     208.876E-03     215.908E-03
            2360            2992     208.527E-03     219.042E-03
            2360            2993     202.197E-03     213.094E-03
            2361            2975     208.876E-03     215.908E-03
            2361            2976     203.501E-03     210.599E-03
            2361            2993     202.197E-03     213.094E-03
            2361            2994     196.438E-03     207.610E-03
            2362            2976     203.501E-03     210.599E-03
            2362            2977     198.579E-03     205.695E-03
            2362            2994     196.438E-03     207.610E-03
            2362            2995     191.231E-03     202.491E-03
            2363            2977     198.579E-03     205.695E-03
            2363            2978     194.109E-03     201.173E-03
            2363            2995     191.231E-03     202.491E-03
            2363            2996     186.584E-03     197.790E-03
            2364            2978     194.109E-03     201.173E-03
            2364            2979     190.143E-03     197.096E-03
            2364            2996     186.584E-03     197.790E-03
            2364            2997     182.520E-03     193.472E-03
            2365            2979     190.143E-03     197.096E-03
            2365            2980     186.745E-03     193.515E-03
            2365            2997     182.520E-03     193.472E-03
            2365            2998     179.054E-03     189.592E-03
            2366            2980     186.745E-03     193.515E-03
            2366            2981     184.024E-03     190.538E-03
            2366            2998     179.054E-03     189.592E-03
            2366            2999     176.191E-03     186.125E-03
            2367            2981     184.024E-03     190.538E-03
            2367            2982     182.188E-03     188.331E-03
            2367            2999     176.191E-03     186.125E-03
            2367            3000     173.718E-03     182.845E-03
            2368            2982     182.188E-03     188.331E-03
            2368            2983     180.667E-03     186.530E-03
            2368            3000     173.718E-03     182.845E-03
            2368            3001     171.551E-03     179.498E-03
            2369            2983     180.667E-03     186.530E-03
            2369            2984     178.970E-03     184.597E-03
            2369            3001     171.551E-03     179.498E-03
            2369            3002     167.319E-03     173.205E-03
            2370            2984     178.970E-03     184.597E-03
            2370            2985     171.140E-03     172.662E-03
            2370            3002     167.319E-03     173.205E-03
            2370            3003     161.426E-03     164.433E-03
            2371            2985     171.140E-03     172.662E-03
            2371            2986     144.999E-03     137.745E-03
            2371            3003     161.426E-03     164.433E-03
            2371            3004     147.395E-03     144.921E-03
            2372             606     100.615E-03     87.0137E-03
            2372             607     101.910E-03     111.899E-03
            2372            2986     144.999E-03     137.745E-03
            2372            3004     147.395E-03     144.921E-03
            2373              29     222.075E-03     227.468E-03
            2373             564     264.029E-03     269.102E-03
            2373             625     208.656E-03     215.087E-03
            2373            2987     250.560E-03     257.527E-03
            2374             624     197.616E-03     204.976E-03
            2374             625     208.656E-03     215.087E-03
            2374            2987     250.560E-03     257.527E-03
            2374            2988     240.533E-03     248.410E-03
            2375             623     187.425E-03     195.638E-03
            2375             624     197.616E-03     204.976E-03
            2375            2988     240.533E-03     248.410E-03
            2375            2989     231.200E-03     239.857E-03
            2376             622     177.906E-03     186.817E-03
            2376             623     187.425E-03     195.638E-03
            2376            2989     231.200E-03     239.857E-03
            2376            2990     223.018E-03     232.373E-03
            2377             621     168.750E-03     178.176E-03
            2377             622     177.906E-03     186.817E-03
            2377            2990     223.018E-03     232.373E-03
            2377            2991     215.421E-03     225.396E-03
            2378             620     159.920E-03     169.811E-03
            2378             621     168.750E-03     178.176E-03
            2378            2991     215.421E-03     225.396E-03
            2378            2992     208.527E-03     219.042E-03
            2379             619     151.370E-03     161.571E-03
            2379             620     159.920E-03     169.811E-03
            2379            2992     208.527E-03     219.042E-03
            2379            2993     202.197E-03     213.094E-03
            2380             618     143.096E-03     153.545E-03
            2380             619     151.370E-03     161.571E-03
            2380            2993     202.197E-03     213.094E-03
            2380            2994     196.438E-03     207.610E-03
            2381             617     135.108E-03     145.671E-03
            2381             618     143.096E-03     153.545E-03
            2381            2994     196.438E-03     207.610E-03
            2381            2995     191.231E-03     202.491E-03
            2382             616     127.418E-03     138.003E-03
            2382             617     135.108E-03     145.671E-03
            2382            2995     191.231E-03     202.491E-03
            2382            2996     186.584E-03     197.790E-03
            2383             615     120.053E-03     130.529E-03
            2383             616     127.418E-03     138.003E-03
            2383            2996     186.584E-03     197.790E-03
            2383            2997     182.520E-03     193.472E-03
            2384             614     113.029E-03     123.283E-03
            2384             615     120.053E-03     130.529E-03
            2384            2997     182.520E-03     193.472E-03
            2384            2998     179.054E-03     189.592E-03
            2385             613     106.348E-03     116.225E-03
            2385             614     113.029E-03     123.283E-03
            2385            2998     179.054E-03     189.592E-03
            2385            2999     176.191E-03     186.125E-03
            2386             612     99.9163E-03     109.223E-03
            2386             613     106.348E-03     116.225E-03
            2386            2999     176.191E-03     186.125E-03
            2386            3000     173.718E-03     182.845E-03
            2387             611     93.9429E-03     102.001E-03
            2387             612     99.9163E-03     109.223E-03
            2387            3000     173.718E-03     182.845E-03
            2387            3001     171.551E-03     179.498E-03
            2388             610     87.9405E-03     93.1736E-03
            2388             611     93.9429E-03     102.001E-03
            2388            3001     171.551E-03     179.498E-03
            2388            3002     167.319E-03     173.205E-03
            2389             609     85.4380E-03     86.7858E-03
            2389             610     87.9405E-03     93.1736E-03
            2389            3002     167.319E-03     173.205E-03
            2389            3003     161.426E-03     164.433E-03
            2390             608     88.7260E-03     83.2593E-03
            2390             609     85.4380E-03     86.7858E-03
            2390            3003     161.426E-03     164.433E-03
            2390            3004     147.395E-03     144.921E-03
            2391              30     69.0526E-03     79.5885E-03
            2391             607     101.910E-03     111.899E-03
            2391             608     88.7260E-03     83.2593E-03
            2391            3004     147.395E-03     144.921E-03
            2392              17     5.22135E-03     4.87575E-03
            2392             302     5.49452E-03     4.69482E-03
            2392             672     9.81574E-03     9.32562E-03
            2392            3005     10.6337E-03     9.36183E-03
            2393             301     5.53824E-03     4.65803E-03
            2393             302     5.49452E-03     4.69482E-03
            2393            3005     10.6337E-03     9.36183E-03
            2393            3006     10.8518E-03     9.33828E-03
            2394             300     5.53804E-03     4.60233E-03
            2394             301     5.53824E-03     4.65803E-03
            2394            3006     10.8518E-03     9.33828E-03
            2394            3007     10.8331E-03     9.22539E-03
            2395             299     5.42927E-03     4.48061E-03
            2395             300     5.53804E-03     4.60233E-03
            2395            3007     10.8331E-03     9.22539E-03
            2395            3008     10.5627E-03     8.92564E-03
            2396             298     5.27536E-03     4.32034E-03
            2396             299     5.42927E-03     4.48061E-03
            2396            3008     10.5627E-03     8.92564E-03
            2396            3009     10.1976E-03     8.54149E-03
            2397             297     5.08524E-03     4.12397E-03
            2397             298     5.27536E-03     4.32034E-03
            2397            3009     10.1976E-03     8.54149E-03
            2397            3010     9.76608E-03     8.10815E-03
            2398             296     4.87841E-03     3.91551E-03
            2398             297     5.08524E-03     4.12397E-03
            2398            3010     9.76608E-03     8.10815E-03
            2398            3011     9.32232E-03     7.65691E-03
            2399             295     4.66271E-03     3.69643E-03
            2399             296     4.87841E-03     3.91551E-03
            2399            3011     9.32232E-03     7.65691E-03
            2399            3012     8.86631E-03     7.20000E-03
            2400             294     4.44206E-03     3.47334E-03
            2400             295     4.66271E-03     3.69643E-03
            2400            3012     8.86631E-03     7.20000E-03
            2400            3013     8.41278E-03     6.74270E-03
            2401             293     4.21688E-03     3.24649E-03
            2401             294     4.44206E-03     3.47334E-03
            2401            3013     8.41278E-03     6.74270E-03
            2401            3014     7.95820E-03     6.28660E-03
            2402             292     3.98650E-03     3.01406E-03
            2402             293     4.21688E-03     3.24649E-03
            2402            3014     7.95820E-03     6.28660E-03
            2402            3015     7.49766E-03     5.82524E-03
            2403             291     3.74557E-03     2.77519E-03
            2403             292     3.98650E-03     3.01406E-03
            2403            3015     7.49766E-03     5.82524E-03
            2403            3016     7.02731E-03     5.35524E-03
            2404             290     3.48585E-03     2.51796E-03
            2404             291     3.74557E-03     2.77519E-03
            2404            3016     7.02731E-03     5.35524E-03
            2404            3017     6.52154E-03     4.85463E-03
            2405             289     3.20279E-03     2.25034E-03
            2405             290     3.48585E-03     2.51796E-03
            2405            3017     6.52154E-03     4.85463E-03
            2405            3018     5.96472E-03     4.31682E-03
            2406             288     2.86885E-03     1.95763E-03
            2406             289     3.20279E-03     2.25034E-03
            2406            3018     5.96472E-03     4.31682E-03
            2406            3019     5.29482E-03     3.71316E-03
            2407             287     2.51732E-03     1.75955E-03
            2407             288     2.86885E-03     1.95763E-03
            2407            3019     5.29482E-03     3.71316E-03
            2407            3020     4.49767E-03     3.18830E-03
            2408             286     2.09838E-03     1.91037E-03
            2408             287     2.51732E-03     1.75955E-03
            2408            3020     4.49767E-03     3.18830E-03
            2408            3021     3.48153E-03     3.27211E-03
            2409             285     2.12447E-03     3.46190E-03
            2409             286     2.09838E-03     1.91037E-03
            2409            3021     3.48153E-03     3.27211E-03
            2409            3022     4.32071E-03     5.73385E-03
            2410              16     4.40001E-03     5.61850E-03
            2410             285     2.12447E-03     3.46190E-03
            2410             454     8.57502E-03     9.84135E-03
            2410            3022     4.32071E-03     5.73385E-03
            2411             671     10.4113E-03     10.2203E-03
            2411             672     9.81574E-03     9.32562E-03
            2411            3005     10.6337E-03     9.36183E-03
            2411            3023     10.7368E-03     10.1202E-03
            2412            3005     10.6337E-03     9.36183E-03
            2412            3006     10.8518E-03     9.33828E-03
            2412            3023     10.7368E-03     10.1202E-03
            2412            3024     11.0512E-03     10.1839E-03
            2413            3006     10.8518E-03     9.33828E-03
            2413            3007     10.8331E-03     9.22539E-03
            2413            3024     11.0512E-03     10.1839E-03
            2413            3025     10.9440E-03     9.98373E-03
            2414            3007     10.8331E-03     9.22539E-03
            2414            3008     10.5627E-03     8.92564E-03
            2414            3025     10.9440E-03     9.98373E-03
            2414            3026     10.6032E-03     9.58582E-03
            2415            3008     10.5627E-03     8.92564E-03
            2415            3009     10.1976E-03     8.54149E-03
            2415            3026     10.6032E-03     9.58582E-03
            2415            3027     10.1366E-03     9.11621E-03
            2416            3009     10.1976E-03     8.54149E-03
            2416            3010     9.76608E-03     8.10815E-03
            2416            3027     10.1366E-03     9.11621E-03
            2416            3028     9.65590E-03     8.61965E-03
            2417            3010     9.76608E-03     8.10815E-03
            2417            3011     9.32232E-03     7.65691E-03
            2417            3028     9.65590E-03     8.61965E-03
            2417            3029     9.16155E-03     8.12526E-03
            2418            3011     9.32232E-03     7.65691E-03
            2418            3012     8.86631E-03     7.20000E-03
            2418            3029     9.16155E-03     8.12526E-03
            2418            3030     8.68351E-03     7.64132E-03
            2419            3012     8.86631E-03     7.20000E-03
            2419            3013     8.41278E-03     6.74270E-03
            2419            3030     8.68351E-03     7.64132E-03
            2419            3031     8.21398E-03     7.17010E-03
            2420            3013     8.41278E-03     6.74270E-03
            2420            3014     7.95820E-03     6.28660E-03
            2420            3031     8.21398E-03     7.17010E-03
            2420            3032     7.75557E-03     6.70893E-03
            2421            3014     7.95820E-03     6.28660E-03
            2421            3015     7.49766E-03     5.82524E-03
            2421            3032     7.75557E-03     6.70893E-03
            2421            3033     7.30503E-03     6.25462E-03
            2422            3015     7.49766E-03     5.82524E-03
            2422            3016     7.02731E-03     5.35524E-03
            2422            3033     7.30503E-03     6.25462E-03
            2422            3034     6.84744E-03     5.79538E-03
            2423            3016     7.02731E-03     5.35524E-03
            2423            3017     6.52154E-03     4.85463E-03
            2423            3034     6.84744E-03     5.79538E-03
            2423            3035     6.37762E-03     5.32053E-03
            2424            3017     6.52154E-03     4.85463E-03
            2424            3018     5.96472E-03     4.31682E-03
            2424            3035     6.37762E-03     5.32053E-03
            2424            3036     5.83944E-03     4.79219E-03
            2425            3018     5.96472E-03     4.31682E-03
            2425            3019     5.29482E-03     3.71316E-03
            2425            3036     5.83944E-03     4.79219E-03
            2425            3037     5.17725E-03     4.18496E-03
            2426            3019     5.29482E-03     3.71316E-03
            2426            3020     4.49767E-03     3.18830E-03
            2426            3037     5.17725E-03     4.18496E-03
            2426            3038     4.28167E-03     3.50255E-03
            2427            3020     4.49767E-03     3.18830E-03
            2427            3021     3.48153E-03     3.27211E-03
            2427            3038     4.28167E-03     3.50255E-03
            2427            3039     3.40666E-03     3.29680E-03
            2428            3021     3.48153E-03     3.27211E-03
            2428            3022     4.32071E-03     5.73385E-03
            2428            3039     3.40666E-03     3.29680E-03
            2428            3040     4.87370E-03     4.65250E-03
            2429             453     8.33692E-03     7.83307E-03
            2429             454     8.57502E-03     9.84135E-03
            2429            3022     4.32071E-03     5.73385E-03
            2429            3040     4.87370E-03     4.65250E-03
            2430             670     12.3651E-03     12.1336E-03
            2430             671     10.4113E-03     10.2203E-03
            2430            3023     10.7368E-03     10.1202E-03
            2430            3041     11.1378E-03     11.0503E-03
            2431            3023     10.7368E-03     10.1202E-03
            2431            3024     11.0512E-03     10.1839E-03
            2431            3041     11.1378E-03     11.0503E-03
            2431            3042     11.0852E-03     10.8256E-03
            2432            3024     11.0512E-03     10.1839E-03
            2432            3025     10.9440E-03     9.98373E-03
            2432            3042     11.0852E-03     10.8256E-03
            2432            3043     10.7837E-03     10.4372E-03
            2433            3025     10.9440E-03     9.98373E-03
            2433            3026     10.6032E-03     9.58582E-03
            2433            3043     10.7837E-03     10.4372E-03
            2433            3044     10.3517E-03     9.97951E-03
            2434            3026     10.6032E-03     9.58582E-03
            2434            3027     10.1366E-03     9.11621E-03
            2434            3044     10.3517E-03     9.97951E-03
            2434            3045     9.87734E-03     9.47744E-03
            2435            3027     10.1366E-03     9.11621E-03
            2435            3028     9.65590E-03     8.61965E-03
            2435            3045     9.87734E-03     9.47744E-03
            2435            3046     9.37863E-03     8.97365E-03
            2436            3028     9.65590E-03     8.61965E-03
            2436            3029     9.16155E-03     8.12526E-03
            2436            3046     9.37863E-03     8.97365E-03
            2436            3047     8.89413E-03     8.47966E-03
            2437            3029     9.16155E-03     8.12526E-03
            2437            3030     8.68351E-03     7.64132E-03
            2437            3047     8.89413E-03     8.47966E-03
            2437            3048     8.41643E-03     7.99970E-03
            2438            3030     8.68351E-03     7.64132E-03
            2438            3031     8.21398E-03     7.17010E-03
            2438            3048     8.41643E-03     7.99970E-03
            2438            3049     7.95352E-03     7.53300E-03
            2439            3031     8.21398E-03     7.17010E-03
            2439            3032     7.75557E-03     6.70893E-03
            2439            3049     7.95352E-03     7.53300E-03
            2439            3050     7.50074E-03     7.07777E-03
            2440            3032     7.75557E-03     6.70893E-03
            2440            3033     7.30503E-03     6.25462E-03
            2440            3050     7.50074E-03     7.07777E-03
            2440            3051     7.05568E-03     6.63030E-03
            2441            3033     7.30503E-03     6.25462E-03
            2441            3034     6.84744E-03     5.79538E-03
            2441            3051     7.05568E-03     6.63030E-03
            2441            3052     6.61566E-03     6.18691E-03
            2442            3034     6.84744E-03     5.79538E-03
            2442            3035     6.37762E-03     5.32053E-03
            2442            3052     6.61566E-03     6.18691E-03
            2442            3053     6.15985E-03     5.73146E-03
            2443            3035     6.37762E-03     5.32053E-03
            2443            3036     5.83944E-03     4.79219E-03
            2443            3053     6.15985E-03     5.73146E-03
            2443            3054     5.66682E-03     5.25095E-03
            2444            3036     5.83944E-03     4.79219E-03
            2444            3037     5.17725E-03     4.18496E-03
            2444            3054     5.66682E-03     5.25095E-03
            2444            3055     5.06022E-03     4.69043E-03
            2445            3037     5.17725E-03     4.18496E-03
            2445            3038     4.28167E-03     3.50255E-03
            2445            3055     5.06022E-03     4.69043E-03
            2445            3056     4.23776E-03     4.06898E-03
            2446            3038     4.28167E-03     3.50255E-03
            2446            3039     3.40666E-03     3.29680E-03
            2446            3056     4.23776E-03     4.06898E-03
            2446            3057     3.92750E-03     3.76375E-03
            2447            3039     3.40666E-03     3.29680E-03
            2447            3040     4.87370E-03     4.65250E-03
            2447            3057     3.92750E-03     3.76375E-03
            2447            3058     5.13394E-03     4.62038E-03
            2448             452     7.84323E-03     7.04301E-03
            2448             453     8.33692E-03     7.83307E-03
            2448            3040     4.87370E-03     4.65250E-03
            2448            3058     5.13394E-03     4.62038E-03
            2449             669     14.3060E-03     14.2983E-03
            2449             670     12.3651E-03     12.1336E-03
            2449            3041     11.1378E-03     11.0503E-03
            2449            3059     12.0595E-03     12.2395E-03
            2450            3041     11.1378E-03     11.0503E-03
            2450            3042     11.0852E-03     10.8256E-03
            2450            3059     12.0595E-03     12.2395E-03
            2450            3060     11.0386E-03     11.3101E-03
            2451            3042     11.0852E-03     10.8256E-03
            2451            3043     10.7837E-03     10.4372E-03
            2451            3060     11.0386E-03     11.3101E-03
            2451            3061     10.4371E-03     10.7069E-03
            2452            3043     10.7837E-03     10.4372E-03
            2452            3044     10.3517E-03     9.97951E-03
            2452            3061     10.4371E-03     10.7069E-03
            2452            3062     9.93503E-03     10.1802E-03
            2453            3044     10.3517E-03     9.97951E-03
            2453            3045     9.87734E-03     9.47744E-03
            2453            3062     9.93503E-03     10.1802E-03
            2453            3063     9.45291E-03     9.68102E-03
            2454            3045     9.87734E-03     9.47744E-03
            2454            3046     9.37863E-03     8.97365E-03
            2454            3063     9.45291E-03     9.68102E-03
            2454            3064     8.98810E-03     9.20425E-03
            2455            3046     9.37863E-03     8.97365E-03
            2455            3047     8.89413E-03     8.47966E-03
            2455            3064     8.98810E-03     9.20425E-03
            2455            3065     8.53093E-03     8.74011E-03
            2456            3047     8.89413E-03     8.47966E-03
            2456            3048     8.41643E-03     7.99970E-03
            2456            3065     8.53093E-03     8.74011E-03
            2456            3066     8.08119E-03     8.28539E-03
            2457            3048     8.41643E-03     7.99970E-03
            2457            3049     7.95352E-03     7.53300E-03
            2457            3066     8.08119E-03     8.28539E-03
            2457            3067     7.63530E-03     7.83662E-03
            2458            3049     7.95352E-03     7.53300E-03
            2458            3050     7.50074E-03     7.07777E-03
            2458            3067     7.63530E-03     7.83662E-03
            2458            3068     7.19528E-03     7.39343E-03
            2459            3050     7.50074E-03     7.07777E-03
            2459            3051     7.05568E-03     6.63030E-03
            2459            3068     7.19528E-03     7.39343E-03
            2459            3069     6.75925E-03     6.95546E-03
            2460            3051     7.05568E-03     6.63030E-03
            2460            3052     6.61566E-03     6.18691E-03
            2460            3069     6.75925E-03     6.95546E-03
            2460            3070     6.32921E-03     6.52242E-03
            2461            3052     6.61566E-03     6.18691E-03
            2461            3053     6.15985E-03     5.73146E-03
            2461            3070     6.32921E-03     6.52242E-03
            2461            3071     5.89754E-03     6.09438E-03
            2462            3053     6.15985E-03     5.73146E-03
            2462            3054     5.66682E-03     5.25095E-03
            2462            3071     5.89754E-03     6.09438E-03
            2462            3072     5.45160E-03     5.65730E-03
            2463            3054     5.66682E-03     5.25095E-03
            2463            3055     5.06022E-03     4.69043E-03
            2463            3072     5.45160E-03     5.65730E-03
            2463            3073     4.97322E-03     5.21573E-03
            2464            3055     5.06022E-03     4.69043E-03
            2464            3056     4.23776E-03     4.06898E-03
            2464            3073     4.97322E-03     5.21573E-03
            2464            3074     4.49741E-03     4.76169E-03
            2465            3056     4.23776E-03     4.06898E-03
            2465            3057     3.92750E-03     3.76375E-03
            2465            3074     4.49741E-03     4.76169E-03
            2465            3075     4.43919E-03     4.54076E-03
            2466            3057     3.92750E-03     3.76375E-03
            2466            3058     5.13394E-03     4.62038E-03
            2466            3075     4.43919E-03     4.54076E-03
            2466            3076     5.60413E-03     5.33537E-03
            2467             451     8.00576E-03     7.37287E-03
            2467             452     7.84323E-03     7.04301E-03
            2467            3058     5.13394E-03     4.62038E-03
            2467            3076     5.60413E-03     5.33537E-03
            2468             668     16.0904E-03     16.2371E-03
            2468             669     14.3060E-03     14.2983E-03
            2468            3059     12.0595E-03     12.2395E-03
            2468            3077     12.7146E-03     13.2823E-03
            2469            3059     12.0595E-03     12.2395E-03
            2469            3060     11.0386E-03     11.3101E-03
            2469            3077     12.7146E-03     13.2823E-03
            2469            3078     10.9168E-03     11.7528E-03
            2470            3060     11.0386E-03     11.3101E-03
            2470            3061     10.4371E-03     10.7069E-03
            2470            3078     10.9168E-03     11.7528E-03
            2470            3079     10.0568E-03     10.9161E-03
            2471            3061     10.4371E-03     10.7069E-03
            2471            3062     9.93503E-03     10.1802E-03
            2471            3079     10.0568E-03     10.9161E-03
            2471            3080     9.46104E-03     10.3133E-03
            2472            3062     9.93503E-03     10.1802E-03
            2472            3063     9.45291E-03     9.68102E-03
            2472            3080     9.46104E-03     10.3133E-03
            2472            3081     8.98284E-03     9.82698E-03
            2473            3063     9.45291E-03     9.68102E-03
            2473            3064     8.98810E-03     9.20425E-03
            2473            3081     8.98284E-03     9.82698E-03
            2473            3082     8.55185E-03     9.38400E-03
            2474            3064     8.98810E-03     9.20425E-03
            2474            3065     8.53093E-03     8.74011E-03
            2474            3082     8.55185E-03     9.38400E-03
            2474            3083     8.13072E-03     8.95828E-03
            2475            3065     8.53093E-03     8.74011E-03
            2475            3066     8.08119E-03     8.28539E-03
            2475            3083     8.13072E-03     8.95828E-03
            2475            3084     7.71137E-03     8.53384E-03
            2476            3066     8.08119E-03     8.28539E-03
            2476            3067     7.63530E-03     7.83662E-03
            2476            3084     7.71137E-03     8.53384E-03
            2476            3085     7.28835E-03     8.10734E-03
            2477            3067     7.63530E-03     7.83662E-03
            2477            3068     7.19528E-03     7.39343E-03
            2477            3085     7.28835E-03     8.10734E-03
            2477            3086     6.86124E-03     7.67719E-03
            2478            3068     7.19528E-03     7.39343E-03
            2478            3069     6.75925E-03     6.95546E-03
            2478            3086     6.86124E-03     7.67719E-03
            2478            3087     6.43705E-03     7.24790E-03
            2479            3069     6.75925E-03     6.95546E-03
            2479            3070     6.32921E-03     6.52242E-03
            2479            3087     6.43705E-03     7.24790E-03
            2479            3088     6.01317E-03     6.82303E-03
            2480            3070     6.32921E-03     6.52242E-03
            2480            3071     5.89754E-03     6.09438E-03
            2480            3088     6.01317E-03     6.82303E-03
            2480            3089     5.60734E-03     6.41331E-03
            2481            3071     5.89754E-03     6.09438E-03
            2481            3072     5.45160E-03     5.65730E-03
            2481            3089     5.60734E-03     6.41331E-03
            2481            3090     5.21583E-03     6.02926E-03
            2482            3072     5.45160E-03     5.65730E-03
            2482            3073     4.97322E-03     5.21573E-03
            2482            3090     5.21583E-03     6.02926E-03
            2482            3091     4.86762E-03     5.69251E-03
            2483            3073     4.97322E-03     5.21573E-03
            2483            3074     4.49741E-03     4.76169E-03
            2483            3091     4.86762E-03     5.69251E-03
            2483            3092     4.77839E-03     5.49247E-03
            2484            3074     4.49741E-03     4.76169E-03
            2484            3075     4.43919E-03     4.54076E-03
            2484            3092     4.77839E-03     5.49247E-03
            2484            3093     5.14270E-03     5.54729E-03
            2485            3075     4.43919E-03     4.54076E-03
            2485            3076     5.60413E-03     5.33537E-03
            2485            3093     5.14270E-03     5.54729E-03
            2485            3094     6.30548E-03     6.31122E-03
            2486             450     8.56297E-03     7.94300E-03
            2486             451     8.00576E-03     7.37287E-03
            2486            3076     5.60413E-03     5.33537E-03
            2486            3094     6.30548E-03     6.31122E-03
            2487             667     16.9131E-03     17.7247E-03
            2487             668     16.0904E-03     16.2371E-03
            2487            3077     12.7146E-03     13.2823E-03
            2487            3095     12.7115E-03     14.0605E-03
            2488            3077     12.7146E-03     13.2823E-03
            2488            3078     10.9168E-03     11.7528E-03
            2488            3095     12.7115E-03     14.0605E-03
            2488            3096     10.8427E-03     12.2465E-03
            2489            3078     10.9168E-03     11.7528E-03
            2489            3079     10.0568E-03     10.9161E-03
            2489            3096     10.8427E-03     12.2465E-03
            2489            3097     9.74668E-03     11.1865E-03
            2490            3079     10.0568E-03     10.9161E-03
            2490            3080     9.46104E-03     10.3133E-03
            2490            3097     9.74668E-03     11.1865E-03
            2490            3098     9.07138E-03     10.5152E-03
            2491            3080     9.46104E-03     10.3133E-03
            2491            3081     8.98284E-03     9.82698E-03
            2491            3098     9.07138E-03     10.5152E-03
            2491            3099     8.57766E-03     10.0174E-03
            2492            3081     8.98284E-03     9.82698E-03
            2492            3082     8.55185E-03     9.38400E-03
            2492            3099     8.57766E-03     10.0174E-03
            2492            3100     8.15084E-03     9.59227E-03
            2493            3082     8.55185E-03     9.38400E-03
            2493            3083     8.13072E-03     8.95828E-03
            2493            3100     8.15084E-03     9.59227E-03
            2493            3101     7.75150E-03     9.18835E-03
            2494            3083     8.13072E-03     8.95828E-03
            2494            3084     7.71137E-03     8.53384E-03
            2494            3101     7.75150E-03     9.18835E-03
            2494            3102     7.35017E-03     8.78583E-03
            2495            3084     7.71137E-03     8.53384E-03
            2495            3085     7.28835E-03     8.10734E-03
            2495            3102     7.35017E-03     8.78583E-03
            2495            3103     6.94352E-03     8.37488E-03
            2496            3085     7.28835E-03     8.10734E-03
            2496            3086     6.86124E-03     7.67719E-03
            2496            3103     6.94352E-03     8.37488E-03
            2496            3104     6.53138E-03     7.95720E-03
            2497            3086     6.86124E-03     7.67719E-03
            2497            3087     6.43705E-03     7.24790E-03
            2497            3104     6.53138E-03     7.95720E-03
            2497            3105     6.11303E-03     7.53376E-03
            2498            3087     6.43705E-03     7.24790E-03
            2498            3088     6.01317E-03     6.82303E-03
            2498            3105     6.11303E-03     7.53376E-03
            2498            3106     5.70522E-03     7.11745E-03
            2499            3088     6.01317E-03     6.82303E-03
            2499            3089     5.60734E-03     6.41331E-03
            2499            3106     5.70522E-03     7.11745E-03
            2499            3107     5.30861E-03     6.71737E-03
            2500            3089     5.60734E-03     6.41331E-03
            2500            3090     5.21583E-03     6.02926E-03
            2500            3107     5.30861E-03     6.71737E-03
            2500            3108     4.96882E-03     6.37478E-03
            2501            3090     5.21583E-03     6.02926E-03
            2501            3091     4.86762E-03     5.69251E-03
            2501            3108     4.96882E-03     6.37478E-03
            2501            3109     4.73156E-03     6.12590E-03
            2502            3091     4.86762E-03     5.69251E-03
            2502            3092     4.77839E-03     5.49247E-03
            2502            3109     4.73156E-03     6.12590E-03
            2502            3110     4.75306E-03     6.11153E-03
            2503            3092     4.77839E-03     5.49247E-03
            2503            3093     5.14270E-03     5.54729E-03
            2503            3110     4.75306E-03     6.11153E-03
            2503            3111     5.65931E-03     6.66869E-03
            2504            3093     5.14270E-03     5.54729E-03
            2504            3094     6.30548E-03     6.31122E-03
            2504            3111     5.65931E-03     6.66869E-03
            2504            3112     7.54444E-03     7.75990E-03
            2505             449     9.80063E-03     9.41912E-03
            2505             450     8.56297E-03     7.94300E-03
            2505            3094     6.30548E-03     6.31122E-03
            2505            3112     7.54444E-03     7.75990E-03
            2506             666     16.4999E-03     18.7481E-03
            2506             667     16.9131E-03     17.7247E-03
            2506            3095     12.7115E-03     14.0605E-03
            2506            3113     12.8915E-03     14.9152E-03
            2507            3095     12.7115E-03     14.0605E-03
            2507            3096     10.8427E-03     12.2465E-03
            2507            3113     12.8915E-03     14.9152E-03
            2507            3114     10.8826E-03     12.8698E-03
            2508            3096     10.8427E-03     12.2465E-03
            2508            3097     9.74668E-03     11.1865E-03
            2508            3114     10.8826E-03     12.8698E-03
            2508            3115     9.65062E-03     11.6416E-03
            2509            3097     9.74668E-03     11.1865E-03
            2509            3098     9.07138E-03     10.5152E-03
            2509            3115     9.65062E-03     11.6416E-03
            2509            3116     8.86558E-03     10.8719E-03
            2510            3098     9.07138E-03     10.5152E-03
            2510            3099     8.57766E-03     10.0174E-03
            2510            3116     8.86558E-03     10.8719E-03
            2510            3117     8.29362E-03     10.3229E-03
            2511            3099     8.57766E-03     10.0174E-03
            2511            3100     8.15084E-03     9.59227E-03
            2511            3117     8.29362E-03     10.3229E-03
            2511            3118     7.83916E-03     9.87406E-03
            2512            3100     8.15084E-03     9.59227E-03
            2512            3101     7.75150E-03     9.18835E-03
            2512            3118     7.83916E-03     9.87406E-03
            2512            3119     7.42272E-03     9.46460E-03
            2513            3101     7.75150E-03     9.18835E-03
            2513            3102     7.35017E-03     8.78583E-03
            2513            3119     7.42272E-03     9.46460E-03
            2513            3120     7.02477E-03     9.06380E-03
            2514            3102     7.35017E-03     8.78583E-03
            2514            3103     6.94352E-03     8.37488E-03
            2514            3120     7.02477E-03     9.06380E-03
            2514            3121     6.62622E-03     8.66126E-03
            2515            3103     6.94352E-03     8.37488E-03
            2515            3104     6.53138E-03     7.95720E-03
            2515            3121     6.62622E-03     8.66126E-03
            2515            3122     6.22391E-03     8.25152E-03
            2516            3104     6.53138E-03     7.95720E-03
            2516            3105     6.11303E-03     7.53376E-03
            2516            3122     6.22391E-03     8.25152E-03
            2516            3123     5.82318E-03     7.84101E-03
            2517            3105     6.11303E-03     7.53376E-03
            2517            3106     5.70522E-03     7.11745E-03
            2517            3123     5.82318E-03     7.84101E-03
            2517            3124     5.42385E-03     7.43182E-03
            2518            3106     5.70522E-03     7.11745E-03
            2518            3107     5.30861E-03     6.71737E-03
            2518            3124     5.42385E-03     7.43182E-03
            2518            3125     5.05348E-03     7.05282E-03
            2519            3107     5.30861E-03     6.71737E-03
            2519            3108     4.96882E-03     6.37478E-03
            2519            3125     5.05348E-03     7.05282E-03
            2519            3126     4.73098E-03     6.72379E-03
            2520            3108     4.96882E-03     6.37478E-03
            2520            3109     4.73156E-03     6.12590E-03
            2520            3126     4.73098E-03     6.72379E-03
            2520            3127     4.55001E-03     6.55149E-03
            2521            3109     4.73156E-03     6.12590E-03
            2521            3110     4.75306E-03     6.11153E-03
            2521            3127     4.55001E-03     6.55149E-03
            2521            3128     4.61085E-03     6.63330E-03
            2522            3110     4.75306E-03     6.11153E-03
            2522            3111     5.65931E-03     6.66869E-03
            2522            3128     4.61085E-03     6.63330E-03
            2522            3129     5.40567E-03     7.46226E-03
            2523            3111     5.65931E-03     6.66869E-03
            2523            3112     7.54444E-03     7.75990E-03
            2523            3129     5.40567E-03     7.46226E-03
            2523            3130     8.10622E-03     9.91282E-03
            2524             448     11.9090E-03     12.3027E-03
            2524             449     9.80063E-03     9.41912E-03
            2524            3112     7.54444E-03     7.75990E-03
            2524            3130     8.10622E-03     9.91282E-03
            2525             665     23.4284E-03     23.7103E-03
            2525             666     16.4999E-03     18.7481E-03
            2525            3113     12.8915E-03     14.9152E-03
            2525            3131     22.3630E-03     22.4318E-03
            2526            3113     12.8915E-03     14.9152E-03
            2526            3114     10.8826E-03     12.8698E-03
            2526            3131     22.3630E-03     22.4318E-03
            2526            3132     21.3327E-03     21.5095E-03
            2527            3114     10.8826E-03     12.8698E-03
            2527            3115     9.65062E-03     11.6416E-03
            2527            3132     21.3327E-03     21.5095E-03
            2527            3133     20.5618E-03     20.7794E-03
            2528            3115     9.65062E-03     11.6416E-03
            2528            3116     8.86558E-03     10.8719E-03
            2528            3133     20.5618E-03     20.7794E-03
            2528            3134     19.7759E-03     20.0998E-03
            2529            3116     8.86558E-03     10.8719E-03
            2529            3117     8.29362E-03     10.3229E-03
            2529            3134     19.7759E-03     20.0998E-03
            2529            3135     19.0407E-03     19.4092E-03
            2530            3117     8.29362E-03     10.3229E-03
            2530            3118     7.83916E-03     9.87406E-03
            2530            3135     19.0407E-03     19.4092E-03
            2530            3136     18.2635E-03     18.6819E-03
            2531            3118     7.83916E-03     9.87406E-03
            2531            3119     7.42272E-03     9.46460E-03
            2531            3136     18.2635E-03     18.6819E-03
            2531            3137     17.4767E-03     17.9162E-03
            2532            3119     7.42272E-03     9.46460E-03
            2532            3120     7.02477E-03     9.06380E-03
            2532            3137     17.4767E-03     17.9162E-03
            2532            3138     16.6530E-03     17.1117E-03
            2533            3120     7.02477E-03     9.06380E-03
            2533            3121     6.62622E-03     8.66126E-03
            2533            3138     16.6530E-03     17.1117E-03
            2533            3139     15.8124E-03     16.2775E-03
            2534            3121     6.62622E-03     8.66126E-03
            2534            3122     6.22391E-03     8.25152E-03
            2534            3139     15.8124E-03     16.2775E-03
            2534            3140     14.9479E-03     15.4198E-03
            2535            3122     6.22391E-03     8.25152E-03
            2535            3123     5.82318E-03     7.84101E-03
            2535            3140     14.9479E-03     15.4198E-03
            2535            3141     14.0724E-03     14.5434E-03
            2536            3123     5.82318E-03     7.84101E-03
            2536            3124     5.42385E-03     7.43182E-03
            2536            3141     14.0724E-03     14.5434E-03
            2536            3142     13.1871E-03     13.6587E-03
            2537            3124     5.42385E-03     7.43182E-03
            2537            3125     5.05348E-03     7.05282E-03
            2537            3142     13.1871E-03     13.6587E-03
            2537            3143     12.3064E-03     12.7709E-03
            2538            3125     5.05348E-03     7.05282E-03
            2538            3126     4.73098E-03     6.72379E-03
            2538            3143     12.3064E-03     12.7709E-03
            2538            3144     11.4521E-03     11.9084E-03
            2539            3126     4.73098E-03     6.72379E-03
            2539            3127     4.55001E-03     6.55149E-03
            2539            3144     11.4521E-03     11.9084E-03
            2539            3145     10.6604E-03     11.1139E-03
            2540            3127     4.55001E-03     6.55149E-03
            2540            3128     4.61085E-03     6.63330E-03
            2540            3145     10.6604E-03     11.1139E-03
            2540            3146     10.0455E-03     10.5057E-03
            2541            3128     4.61085E-03     6.63330E-03
            2541            3129     5.40567E-03     7.46226E-03
            2541            3146     10.0455E-03     10.5057E-03
            2541            3147     9.68810E-03     10.3705E-03
            2542            3129     5.40567E-03     7.46226E-03
            2542            3130     8.10622E-03     9.91282E-03
            2542            3147     9.68810E-03     10.3705E-03
            2542            3148     10.2591E-03     12.2138E-03
            2543             447     12.7098E-03     14.8334E-03
            2543             448     11.9090E-03     12.3027E-03
            2543            3130     8.10622E-03     9.91282E-03
            2543            3148     10.2591E-03     12.2138E-03
            2544             664     30.9624E-03     29.5952E-03
            2544             665     23.4284E-03     23.7103E-03
            2544            3131     22.3630E-03     22.4318E-03
            2544            3149     32.3043E-03     30.8162E-03
            2545            3131     22.3630E-03     22.4318E-03
            2545            3132     21.3327E-03     21.5095E-03
            2545            3149     32.3043E-03     30.8162E-03
            2545            3150     32.4826E-03     31.0176E-03
            2546            3132     21.3327E-03     21.5095E-03
            2546            3133     20.5618E-03     20.7794E-03
            2546            3150     32.4826E-03     31.0176E-03
            2546            3151     32.1206E-03     30.7176E-03
            2547            3133     20.5618E-03     20.7794E-03
            2547            3134     19.7759E-03     20.0998E-03
            2547            3151     32.1206E-03     30.7176E-03
            2547            3152     31.3619E-03     30.0206E-03
            2548            3134     19.7759E-03     20.0998E-03
            2548            3135     19.0407E-03     19.4092E-03
            2548            3152     31.3619E-03     30.0206E-03
            2548            3153     30.3656E-03     29.0755E-03
            2549            3135     19.0407E-03     19.4092E-03
            2549            3136     18.2635E-03     18.6819E-03
            2549            3153     30.3656E-03     29.0755E-03
            2549            3154     29.2108E-03     27.9654E-03
            2550            3136     18.2635E-03     18.6819E-03
            2550            3137     17.4767E-03     17.9162E-03
            2550            3154     29.2108E-03     27.9654E-03
            2550            3155     27.9618E-03     26.7441E-03
            2551            3137     17.4767E-03     17.9162E-03
            2551            3138     16.6530E-03     17.1117E-03
            2551            3155     27.9618E-03     26.7441E-03
            2551            3156     26.6492E-03     25.4565E-03
            2552            3138     16.6530E-03     17.1117E-03
            2552            3139     15.8124E-03     16.2775E-03
            2552            3156     26.6492E-03     25.4565E-03
            2552            3157     25.3007E-03     24.1217E-03
            2553            3139     15.8124E-03     16.2775E-03
            2553            3140     14.9479E-03     15.4198E-03
            2553            3157     25.3007E-03     24.1217E-03
            2553            3158     23.9250E-03     22.7584E-03
            2554            3140     14.9479E-03     15.4198E-03
            2554            3141     14.0724E-03     14.5434E-03
            2554            3158     23.9250E-03     22.7584E-03
            2554            3159     22.5320E-03     21.3714E-03
            2555            3141     14.0724E-03     14.5434E-03
            2555            3142     13.1871E-03     13.6587E-03
            2555            3159     22.5320E-03     21.3714E-03
            2555            3160     21.1197E-03     19.9628E-03
            2556            3142     13.1871E-03     13.6587E-03
            2556            3143     12.3064E-03     12.7709E-03
            2556            3160     21.1197E-03     19.9628E-03
            2556            3161     19.6919E-03     18.5327E-03
            2557            3143     12.3064E-03     12.7709E-03
            2557            3144     11.4521E-03     11.9084E-03
            2557            3161     19.6919E-03     18.5327E-03
            2557            3162     18.2357E-03     17.0753E-03
            2558            3144     11.4521E-03     11.9084E-03
            2558            3145     10.6604E-03     11.1139E-03
            2558            3162     18.2357E-03     17.0753E-03
            2558            3163     16.7571E-03     15.6108E-03
            2559            3145     10.6604E-03     11.1139E-03
            2559            3146     10.0455E-03     10.5057E-03
            2559            3163     16.7571E-03     15.6108E-03
            2559            3164     15.2290E-03     14.1863E-03
            2560            3146     10.0455E-03     10.5057E-03
            2560            3147     9.68810E-03     10.3705E-03
            2560            3164     15.2290E-03     14.1863E-03
            2560            3165     13.5860E-03     13.0902E-03
            2561            3147     9.68810E-03     10.3705E-03
            2561            3148     10.2591E-03     12.2138E-03
            2561            3165     13.5860E-03     13.0902E-03
            2561            3166     12.1936E-03     13.3284E-03
            2562             446     12.8744E-03     15.1544E-03
            2562             447     12.7098E-03     14.8334E-03
            2562            3148     10.2591E-03     12.2138E-03
            2562            3166     12.1936E-03     13.3284E-03
            2563             663     32.4783E-03     32.4906E-03
            2563             664     30.9624E-03     29.5952E-03
            2563            3149     32.3043E-03     30.8162E-03
            2563            3167     33.6341E-03     33.2838E-03
            2564            3149     32.3043E-03     30.8162E-03
            2564            3150     32.4826E-03     31.0176E-03
            2564            3167     33.6341E-03     33.2838E-03
            2564            3168     33.8005E-03     33.2542E-03
            2565            3150     32.4826E-03     31.0176E-03
            2565            3151     32.1206E-03     30.7176E-03
            2565            3168     33.8005E-03     33.2542E-03
            2565            3169     33.3071E-03     32.6478E-03
            2566            3151     32.1206E-03     30.7176E-03
            2566            3152     31.3619E-03     30.0206E-03
            2566            3169     33.3071E-03     32.6478E-03
            2566            3170     32.3696E-03     31.6619E-03
            2567            3152     31.3619E-03     30.0206E-03
            2567            3153     30.3656E-03     29.0755E-03
            2567            3170     32.3696E-03     31.6619E-03
            2567            3171     31.1741E-03     30.4536E-03
            2568            3153     30.3656E-03     29.0755E-03
            2568            3154     29.2108E-03     27.9654E-03
            2568            3171     31.1741E-03     30.4536E-03
            2568            3172     29.8424E-03     29.1132E-03
            2569            3154     29.2108E-03     27.9654E-03
            2569            3155     27.9618E-03     26.7441E-03
            2569            3172     29.8424E-03     29.1132E-03
            2569            3173     28.4334E-03     27.7096E-03
            2570            3155     27.9618E-03     26.7441E-03
            2570            3156     26.6492E-03     25.4565E-03
            2570            3173     28.4334E-03     27.7096E-03
            2570            3174     26.9965E-03     26.2717E-03
            2571            3156     26.6492E-03     25.4565E-03
            2571            3157     25.3007E-03     24.1217E-03
            2571            3174     26.9965E-03     26.2717E-03
            2571            3175     25.5448E-03     24.8228E-03
            2572            3157     25.3007E-03     24.1217E-03
            2572            3158     23.9250E-03     22.7584E-03
            2572            3175     25.5448E-03     24.8228E-03
            2572            3176     24.0911E-03     23.3677E-03
            2573            3158     23.9250E-03     22.7584E-03
            2573            3159     22.5320E-03     21.3714E-03
            2573            3176     24.0911E-03     23.3677E-03
            2573            3177     22.6354E-03     21.9099E-03
            2574            3159     22.5320E-03     21.3714E-03
            2574            3160     21.1197E-03     19.9628E-03
            2574            3177     22.6354E-03     21.9099E-03
            2574            3178     21.1690E-03     20.4436E-03
            2575            3160     21.1197E-03     19.9628E-03
            2575            3161     19.6919E-03     18.5327E-03
            2575            3178     21.1690E-03     20.4436E-03
            2575            3179     19.6805E-03     18.9591E-03
            2576            3161     19.6919E-03     18.5327E-03
            2576            3162     18.2357E-03     17.0753E-03
            2576            3179     19.6805E-03     18.9591E-03
            2576            3180     18.1375E-03     17.4516E-03
            2577            3162     18.2357E-03     17.0753E-03
            2577            3163     16.7571E-03     15.6108E-03
            2577            3180     18.1375E-03     17.4516E-03
            2577            3181     16.5016E-03     15.9179E-03
            2578            3163     16.7571E-03     15.6108E-03
            2578            3164     15.2290E-03     14.1863E-03
            2578            3181     16.5016E-03     15.9179E-03
            2578            3182     14.6980E-03     14.4276E-03
            2579            3164     15.2290E-03     14.1863E-03
            2579            3165     13.5860E-03     13.0902E-03
            2579            3182     14.6980E-03     14.4276E-03
            2579            3183     12.7184E-03     13.2697E-03
            2580            3165     13.5860E-03     13.0902E-03
            2580            3166     12.1936E-03     13.3284E-03
            2580            3183     12.7184E-03     13.2697E-03
            2580            3184     11.8108E-03     12.7087E-03
            2581             445     13.2069E-03     13.3378E-03
            2581             446     12.8744E-03     15.1544E-03
            2581            3166     12.1936E-03     13.3284E-03
            2581            3184     11.8108E-03     12.7087E-03
            2582             662     35.2673E-03     35.6994E-03
            2582             663     32.4783E-03     32.4906E-03
            2582            3167     33.6341E-03     33.2838E-03
            2582            3185     35.0280E-03     35.4437E-03
            2583            3167     33.6341E-03     33.2838E-03
            2583            3168     33.8005E-03     33.2542E-03
            2583            3185     35.0280E-03     35.4437E-03
            2583            3186     34.8715E-03     35.0355E-03
            2584            3168     33.8005E-03     33.2542E-03
            2584            3169     33.3071E-03     32.6478E-03
            2584            3186     34.8715E-03     35.0355E-03
            2584            3187     34.1047E-03     34.1115E-03
            2585            3169     33.3071E-03     32.6478E-03
            2585            3170     32.3696E-03     31.6619E-03
            2585            3187     34.1047E-03     34.1115E-03
            2585            3188     32.9846E-03     32.8863E-03
            2586            3170     32.3696E-03     31.6619E-03
            2586            3171     31.1741E-03     30.4536E-03
            2586            3188     32.9846E-03     32.8863E-03
            2586            3189     31.6374E-03     31.4687E-03
            2587            3171     31.1741E-03     30.4536E-03
            2587            3172     29.8424E-03     29.1132E-03
            2587            3189     31.6374E-03     31.4687E-03
            2587            3190     30.1730E-03     29.9719E-03
            2588            3172     29.8424E-03     29.1132E-03
            2588            3173     28.4334E-03     27.7096E-03
            2588            3190     30.1730E-03     29.9719E-03
            2588            3191     28.6691E-03     28.4398E-03
            2589            3173     28.4334E-03     27.7096E-03
            2589            3174     26.9965E-03     26.2717E-03
            2589            3191     28.6691E-03     28.4398E-03
            2589            3192     27.1477E-03     26.9055E-03
            2590            3174     26.9965E-03     26.2717E-03
            2590            3175     25.5448E-03     24.8228E-03
            2590            3192     27.1477E-03     26.9055E-03
            2590            3193     25.6331E-03     25.3783E-03
            2591            3175     25.5448E-03     24.8228E-03
            2591            3176     24.0911E-03     23.3677E-03
            2591            3193     25.6331E-03     25.3783E-03
            2591            3194     24.1272E-03     23.8652E-03
            2592            3176     24.0911E-03     23.3677E-03
            2592            3177     22.6354E-03     21.9099E-03
            2592            3194     24.1272E-03     23.8652E-03
            2592            3195     22.6262E-03     22.3606E-03
            2593            3177     22.6354E-03     21.9099E-03
            2593            3178     21.1690E-03     20.4436E-03
            2593            3195     22.6262E-03     22.3606E-03
            2593            3196     21.1252E-03     20.8629E-03
            2594            3178     21.1690E-03     20.4436E-03
            2594            3179     19.6805E-03     18.9591E-03
            2594            3196     21.1252E-03     20.8629E-03
            2594            3197     19.5944E-03     19.3566E-03
            2595            3179     19.6805E-03     18.9591E-03
            2595            3180     18.1375E-03     17.4516E-03
            2595            3197     19.5944E-03     19.3566E-03
            2595            3198     18.0042E-03     17.8373E-03
            2596            3180     18.1375E-03     17.4516E-03
            2596            3181     16.5016E-03     15.9179E-03
            2596            3198     18.0042E-03     17.8373E-03
            2596            3199     16.3024E-03     16.2925E-03
            2597            3181     16.5016E-03     15.9179E-03
            2597            3182     14.6980E-03     14.4276E-03
            2597            3199     16.3024E-03     16.2925E-03
            2597            3200     14.4187E-03     14.7925E-03
            2598            3182     14.6980E-03     14.4276E-03
            2598            3183     12.7184E-03     13.2697E-03
            2598            3200     14.4187E-03     14.7925E-03
            2598            3201     12.6984E-03     13.3949E-03
            2599            3183     12.7184E-03     13.2697E-03
            2599            3184     11.8108E-03     12.7087E-03
            2599            3201     12.6984E-03     13.3949E-03
            2599            3202     11.8774E-03     12.2725E-03
            2600             444     12.7360E-03     12.2881E-03
            2600             445     13.2069E-03     13.3378E-03
            2600            3184     11.8108E-03     12.7087E-03
            2600            3202     11.8774E-03     12.2725E-03
            2601             661     38.2210E-03     38.8214E-03
            2601             662     35.2673E-03     35.6994E-03
            2601            3185     35.0280E-03     35.4437E-03
            2601            3203     36.8212E-03     37.5350E-03
            2602            3185     35.0280E-03     35.4437E-03
            2602            3186     34.8715E-03     35.0355E-03
            2602            3203     36.8212E-03     37.5350E-03
            2602            3204     35.7640E-03     36.4377E-03
            2603            3186     34.8715E-03     35.0355E-03
            2603            3187     34.1047E-03     34.1115E-03
            2603            3204     35.7640E-03     36.4377E-03
            2603            3205     34.6115E-03     35.1504E-03
            2604            3187     34.1047E-03     34.1115E-03
            2604            3188     32.9846E-03     32.8863E-03
            2604            3205     34.6115E-03     35.1504E-03
            2604            3206     33.2313E-03     33.6588E-03
            2605            3188     32.9846E-03     32.8863E-03
            2605            3189     31.6374E-03     31.4687E-03
            2605            3206     33.2313E-03     33.6588E-03
            2605            3207     31.7306E-03     32.0890E-03
            2606            3189     31.6374E-03     31.4687E-03
            2606            3190     30.1730E-03     29.9719E-03
            2606            3207     31.7306E-03     32.0890E-03
            2606            3208     30.1875E-03     30.4860E-03
            2607            3190     30.1730E-03     29.9719E-03
            2607            3191     28.6691E-03     28.4398E-03
            2607            3208     30.1875E-03     30.4860E-03
            2607            3209     28.6229E-03     28.8864E-03
            2608            3191     28.6691E-03     28.4398E-03
            2608            3192     27.1477E-03     26.9055E-03
            2608            3209     28.6229E-03     28.8864E-03
            2608            3210     27.0683E-03     27.3036E-03
            2609            3192     27.1477E-03     26.9055E-03
            2609            3193     25.6331E-03     25.3783E-03
            2609            3210     27.0683E-03     27.3036E-03
            2609            3211     25.5250E-03     25.7432E-03
            2610            3193     25.6331E-03     25.3783E-03
            2610            3194     24.1272E-03     23.8652E-03
            2610            3211     25.5250E-03     25.7432E-03
            2610            3212     23.9965E-03     24.2034E-03
            2611            3194     24.1272E-03     23.8652E-03
            2611            3195     22.6262E-03     22.3606E-03
            2611            3212     23.9965E-03     24.2034E-03
            2611            3213     22.4818E-03     22.6859E-03
            2612            3195     22.6262E-03     22.3606E-03
            2612            3196     21.1252E-03     20.8629E-03
            2612            3213     22.4818E-03     22.6859E-03
            2612            3214     20.9654E-03     21.1793E-03
            2613            3196     21.1252E-03     20.8629E-03
            2613            3197     19.5944E-03     19.3566E-03
            2613            3214     20.9654E-03     21.1793E-03
            2613            3215     19.4409E-03     19.6905E-03
            2614            3197     19.5944E-03     19.3566E-03
            2614            3198     18.0042E-03     17.8373E-03
            2614            3215     19.4409E-03     19.6905E-03
            2614            3216     17.8686E-03     18.1928E-03
            2615            3198     18.0042E-03     17.8373E-03
            2615            3199     16.3024E-03     16.2925E-03
            2615            3216     17.8686E-03     18.1928E-03
            2615            3217     16.2036E-03     16.6982E-03
            2616            3199     16.3024E-03     16.2925E-03
            2616            3200     14.4187E-03     14.7925E-03
            2616            3217     16.2036E-03     16.6982E-03
            2616            3218     14.5087E-03     15.1964E-03
            2617            3200     14.4187E-03     14.7925E-03
            2617            3201     12.6984E-03     13.3949E-03
            2617            3218     14.5087E-03     15.1964E-03
            2617            3219     12.9901E-03     13.6793E-03
            2618            3201     12.6984E-03     13.3949E-03
            2618            3202     11.8774E-03     12.2725E-03
            2618            3219     12.9901E-03     13.6793E-03
            2618            3220     12.0946E-03     12.7132E-03
            2619             443     12.6984E-03     12.4192E-03
            2619             444     12.7360E-03     12.2881E-03
            2619            3202     11.8774E-03     12.2725E-03
            2619            3220     12.0946E-03     12.7132E-03
            2620             660     40.9975E-03     41.6879E-03
            2620             661     38.2210E-03     38.8214E-03
            2620            3203     36.8212E-03     37.5350E-03
            2620            3221     38.5194E-03     39.4589E-03
            2621            3203     36.8212E-03     37.5350E-03
            2621            3204     35.7640E-03     36.4377E-03
            2621            3221     38.5194E-03     39.4589E-03
            2621            3222     36.5775E-03     37.5654E-03
            2622            3204     35.7640E-03     36.4377E-03
            2622            3205     34.6115E-03     35.1504E-03
            2622            3222     36.5775E-03     37.5654E-03
            2622            3223     34.8277E-03     35.7702E-03
            2623            3205     34.6115E-03     35.1504E-03
            2623            3206     33.2313E-03     33.6588E-03
            2623            3223     34.8277E-03     35.7702E-03
            2623            3224     33.1369E-03     34.0330E-03
            2624            3206     33.2313E-03     33.6588E-03
            2624            3207     31.7306E-03     32.0890E-03
            2624            3224     33.1369E-03     34.0330E-03
            2624            3225     31.5117E-03     32.3377E-03
            2625            3207     31.7306E-03     32.0890E-03
            2625            3208     30.1875E-03     30.4860E-03
            2625            3225     31.5117E-03     32.3377E-03
            2625            3226     29.9034E-03     30.6797E-03
            2626            3208     30.1875E-03     30.4860E-03
            2626            3209     28.6229E-03     28.8864E-03
            2626            3226     29.9034E-03     30.6797E-03
            2626            3227     28.3267E-03     29.0619E-03
            2627            3209     28.6229E-03     28.8864E-03
            2627            3210     27.0683E-03     27.3036E-03
            2627            3227     28.3267E-03     29.0619E-03
            2627            3228     26.7686E-03     27.4755E-03
            2628            3210     27.0683E-03     27.3036E-03
            2628            3211     25.5250E-03     25.7432E-03
            2628            3228     26.7686E-03     27.4755E-03
            2628            3229     25.2302E-03     25.9176E-03
            2629            3211     25.5250E-03     25.7432E-03
            2629            3212     23.9965E-03     24.2034E-03
            2629            3229     25.2302E-03     25.9176E-03
            2629            3230     23.7087E-03     24.3856E-03
            2630            3212     23.9965E-03     24.2034E-03
            2630            3213     22.4818E-03     22.6859E-03
            2630            3230     23.7087E-03     24.3856E-03
            2630            3231     22.1997E-03     22.8745E-03
            2631            3213     22.4818E-03     22.6859E-03
            2631            3214     20.9654E-03     21.1793E-03
            2631            3231     22.1997E-03     22.8745E-03
            2631            3232     20.7061E-03     21.3930E-03
            2632            3214     20.9654E-03     21.1793E-03
            2632            3215     19.4409E-03     19.6905E-03
            2632            3232     20.7061E-03     21.3930E-03
            2632            3233     19.2132E-03     19.9296E-03
            2633            3215     19.4409E-03     19.6905E-03
            2633            3216     17.8686E-03     18.1928E-03
            2633            3233     19.2132E-03     19.9296E-03
            2633            3234     17.7300E-03     18.5097E-03
            2634            3216     17.8686E-03     18.1928E-03
            2634            3217     16.2036E-03     16.6982E-03
            2634            3234     17.7300E-03     18.5097E-03
            2634            3235     16.2309E-03     17.1009E-03
            2635            3217     16.2036E-03     16.6982E-03
            2635            3218     14.5087E-03     15.1964E-03
            2635            3235     16.2309E-03     17.1009E-03
            2635            3236     14.7534E-03     15.6718E-03
            2636            3218     14.5087E-03     15.1964E-03
            2636            3219     12.9901E-03     13.6793E-03
            2636            3236     14.7534E-03     15.6718E-03
            2636            3237     13.4397E-03     14.3581E-03
            2637            3219     12.9901E-03     13.6793E-03
            2637            3220     12.0946E-03     12.7132E-03
            2637            3237     13.4397E-03     14.3581E-03
            2637            3238     12.6119E-03     13.2905E-03
            2638             442     12.9652E-03     12.4519E-03
            2638             443     12.6984E-03     12.4192E-03
            2638            3220     12.0946E-03     12.7132E-03
            2638            3238     12.6119E-03     13.2905E-03
            2639             659     43.4233E-03     44.3763E-03
            2639             660     40.9975E-03     41.6879E-03
            2639            3221     38.5194E-03     39.4589E-03
            2639            3239     39.9384E-03     41.0278E-03
            2640            3221     38.5194E-03     39.4589E-03
            2640            3222     36.5775E-03     37.5654E-03
            2640            3239     39.9384E-03     41.0278E-03
            2640            3240     37.0601E-03     38.2825E-03
            2641            3222     36.5775E-03     37.5654E-03
            2641            3223     34.8277E-03     35.7702E-03
            2641            3240     37.0601E-03     38.2825E-03
            2641            3241     34.6921E-03     36.0130E-03
            2642            3223     34.8277E-03     35.7702E-03
            2642            3224     33.1369E-03     34.0330E-03
            2642            3241     34.6921E-03     36.0130E-03
            2642            3242     32.7755E-03     34.0684E-03
            2643            3224     33.1369E-03     34.0330E-03
            2643            3225     31.5117E-03     32.3377E-03
            2643            3242     32.7755E-03     34.0684E-03
            2643            3243     31.0292E-03     32.2877E-03
            2644            3225     31.5117E-03     32.3377E-03
            2644            3226     29.9034E-03     30.6797E-03
            2644            3243     31.0292E-03     32.2877E-03
            2644            3244     29.4043E-03     30.6251E-03
            2645            3226     29.9034E-03     30.6797E-03
            2645            3227     28.3267E-03     29.0619E-03
            2645            3244     29.4043E-03     30.6251E-03
            2645            3245     27.8370E-03     29.0255E-03
            2646            3227     28.3267E-03     29.0619E-03
            2646            3228     26.7686E-03     27.4755E-03
            2646            3245     27.8370E-03     29.0255E-03
            2646            3246     26.3046E-03     27.4715E-03
            2647            3228     26.7686E-03     27.4755E-03
            2647            3229     25.2302E-03     25.9176E-03
            2647            3246     26.3046E-03     27.4715E-03
            2647            3247     24.7934E-03     25.9450E-03
            2648            3229     25.2302E-03     25.9176E-03
            2648            3230     23.7087E-03     24.3856E-03
            2648            3247     24.7934E-03     25.9450E-03
            2648            3248     23.2970E-03     24.4406E-03
            2649            3230     23.7087E-03     24.3856E-03
            2649            3231     22.1997E-03     22.8745E-03
            2649            3248     23.2970E-03     24.4406E-03
            2649            3249     21.8170E-03     22.9603E-03
            2650            3231     22.1997E-03     22.8745E-03
            2650            3232     20.7061E-03     21.3930E-03
            2650            3249     21.8170E-03     22.9603E-03
            2650            3250     20.3565E-03     21.5064E-03
            2651            3232     20.7061E-03     21.3930E-03
            2651            3233     19.2132E-03     19.9296E-03
            2651            3250     20.3565E-03     21.5064E-03
            2651            3251     18.9325E-03     20.1013E-03
            2652            3233     19.2132E-03     19.9296E-03
            2652            3234     17.7300E-03     18.5097E-03
            2652            3251     18.9325E-03     20.1013E-03
            2652            3252     17.5481E-03     18.7468E-03
            2653            3234     17.7300E-03     18.5097E-03
            2653            3235     16.2309E-03     17.1009E-03
            2653            3252     17.5481E-03     18.7468E-03
            2653            3253     16.2883E-03     17.4927E-03
            2654            3235     16.2309E-03     17.1009E-03
            2654            3236     14.7534E-03     15.6718E-03
            2654            3253     16.2883E-03     17.4927E-03
            2654            3254     15.0988E-03     16.3034E-03
            2655            3236     14.7534E-03     15.6718E-03
            2655            3237     13.4397E-03     14.3581E-03
            2655            3254     15.0988E-03     16.3034E-03
            2655            3255     14.0399E-03     15.1531E-03
            2656            3237     13.4397E-03     14.3581E-03
            2656            3238     12.6119E-03     13.2905E-03
            2656            3255     14.0399E-03     15.1531E-03
            2656            3256     13.3144E-03     14.2127E-03
            2657             441     13.4933E-03     13.1570E-03
            2657             442     12.9652E-03     12.4519E-03
            2657            3238     12.6119E-03     13.2905E-03
            2657            3256     13.3144E-03     14.2127E-03
            2658             658     45.6192E-03     46.5374E-03
            2658             659     43.4233E-03     44.3763E-03
            2658            3239     39.9384E-03     41.0278E-03
            2658            3257     40.6691E-03     41.9410E-03
            2659            3239     39.9384E-03     41.0278E-03
            2659            3240     37.0601E-03     38.2825E-03
            2659            3257     40.6691E-03     41.9410E-03
            2659            3258     36.8864E-03     38.4829E-03
            2660            3240     37.0601E-03     38.2825E-03
            2660            3241     34.6921E-03     36.0130E-03
            2660            3258     36.8864E-03     38.4829E-03
            2660            3259     34.2845E-03     35.9356E-03
            2661            3241     34.6921E-03     36.0130E-03
            2661            3242     32.7755E-03     34.0684E-03
            2661            3259     34.2845E-03     35.9356E-03
            2661            3260     32.1787E-03     33.8445E-03
            2662            3242     32.7755E-03     34.0684E-03
            2662            3243     31.0292E-03     32.2877E-03
            2662            3260     32.1787E-03     33.8445E-03
            2662            3261     30.3972E-03     32.0544E-03
            2663            3243     31.0292E-03     32.2877E-03
            2663            3244     29.4043E-03     30.6251E-03
            2663            3261     30.3972E-03     32.0544E-03
            2663            3262     28.7780E-03     30.4156E-03
            2664            3244     29.4043E-03     30.6251E-03
            2664            3245     27.8370E-03     29.0255E-03
            2664            3262     28.7780E-03     30.4156E-03
            2664            3263     27.2413E-03     28.8685E-03
            2665            3245     27.8370E-03     29.0255E-03
            2665            3246     26.3046E-03     27.4715E-03
            2665            3263     27.2413E-03     28.8685E-03
            2665            3264     25.7487E-03     27.3650E-03
            2666            3246     26.3046E-03     27.4715E-03
            2666            3247     24.7934E-03     25.9450E-03
            2666            3264     25.7487E-03     27.3650E-03
            2666            3265     24.2756E-03     25.8873E-03
            2667            3247     24.7934E-03     25.9450E-03
            2667            3248     23.2970E-03     24.4406E-03
            2667            3265     24.2756E-03     25.8873E-03
            2667            3266     22.8161E-03     24.4250E-03
            2668            3248     23.2970E-03     24.4406E-03
            2668            3249     21.8170E-03     22.9603E-03
            2668            3266     22.8161E-03     24.4250E-03
            2668            3267     21.3736E-03     22.9817E-03
            2669            3249     21.8170E-03     22.9603E-03
            2669            3250     20.3565E-03     21.5064E-03
            2669            3267     21.3736E-03     22.9817E-03
            2669            3268     19.9578E-03     21.5684E-03
            2670            3250     20.3565E-03     21.5064E-03
            2670            3251     18.9325E-03     20.1013E-03
            2670            3268     19.9578E-03     21.5684E-03
            2670            3269     18.5953E-03     20.2085E-03
            2671            3251     18.9325E-03     20.1013E-03
            2671            3252     17.5481E-03     18.7468E-03
            2671            3269     18.5953E-03     20.2085E-03
            2671            3270     17.3333E-03     18.9399E-03
            2672            3252     17.5481E-03     18.7468E-03
            2672            3253     16.2883E-03     17.4927E-03
            2672            3270     17.3333E-03     18.9399E-03
            2672            3271     16.2123E-03     17.8046E-03
            2673            3253     16.2883E-03     17.4927E-03
            2673            3254     15.0988E-03     16.3034E-03
            2673            3271     16.2123E-03     17.8046E-03
            2673            3272     15.4617E-03     16.9516E-03
            2674            3254     15.0988E-03     16.3034E-03
            2674            3255     14.0399E-03     15.1531E-03
            2674            3272     15.4617E-03     16.9516E-03
            2674            3273     14.8738E-03     16.2006E-03
            2675            3255     14.0399E-03     15.1531E-03
            2675            3256     13.3144E-03     14.2127E-03
            2675            3273     14.8738E-03     16.2006E-03
            2675            3274     14.2875E-03     15.4320E-03
            2676             440     14.4485E-03     14.1847E-03
            2676             441     13.4933E-03     13.1570E-03
            2676            3256     13.3144E-03     14.2127E-03
            2676            3274     14.2875E-03     15.4320E-03
            2677             657     46.4680E-03     47.7197E-03
            2677             658     45.6192E-03     46.5374E-03
            2677            3257     40.6691E-03     41.9410E-03
            2677            3275     40.1227E-03     41.9751E-03
            2678            3257     40.6691E-03     41.9410E-03
            2678            3258     36.8864E-03     38.4829E-03
            2678            3275     40.1227E-03     41.9751E-03
            2678            3276     36.3607E-03     38.3051E-03
            2679            3258     36.8864E-03     38.4829E-03
            2679            3259     34.2845E-03     35.9356E-03
            2679            3276     36.3607E-03     38.3051E-03
            2679            3277     33.6282E-03     35.6123E-03
            2680            3259     34.2845E-03     35.9356E-03
            2680            3260     32.1787E-03     33.8445E-03
            2680            3277     33.6282E-03     35.6123E-03
            2680            3278     31.5028E-03     33.5178E-03
            2681            3260     32.1787E-03     33.8445E-03
            2681            3261     30.3972E-03     32.0544E-03
            2681            3278     31.5028E-03     33.5178E-03
            2681            3279     29.7269E-03     31.7525E-03
            2682            3261     30.3972E-03     32.0544E-03
            2682            3262     28.7780E-03     30.4156E-03
            2682            3279     29.7269E-03     31.7525E-03
            2682            3280     28.1261E-03     30.1701E-03
            2683            3262     28.7780E-03     30.4156E-03
            2683            3263     27.2413E-03     28.8685E-03
            2683            3280     28.1261E-03     30.1701E-03
            2683            3281     26.6278E-03     28.6806E-03
            2684            3263     27.2413E-03     28.8685E-03
            2684            3264     25.7487E-03     27.3650E-03
            2684            3281     26.6278E-03     28.6806E-03
            2684            3282     25.1717E-03     27.2361E-03
            2685            3264     25.7487E-03     27.3650E-03
            2685            3265     24.2756E-03     25.8873E-03
            2685            3282     25.1717E-03     27.2361E-03
            2685            3283     23.7393E-03     25.8101E-03
            2686            3265     24.2756E-03     25.8873E-03
            2686            3266     22.8161E-03     24.4250E-03
            2686            3283     23.7393E-03     25.8101E-03
            2686            3284     22.3206E-03     24.3959E-03
            2687            3266     22.8161E-03     24.4250E-03
            2687            3267     21.3736E-03     22.9817E-03
            2687            3284     22.3206E-03     24.3959E-03
            2687            3285     20.9164E-03     22.9926E-03
            2688            3267     21.3736E-03     22.9817E-03
            2688            3268     19.9578E-03     21.5684E-03
            2688            3285     20.9164E-03     22.9926E-03
            2688            3286     19.5495E-03     21.6216E-03
            2689            3268     19.9578E-03     21.5684E-03
            2689            3269     18.5953E-03     20.2085E-03
            2689            3286     19.5495E-03     21.6216E-03
            2689            3287     18.2391E-03     20.3002E-03
            2690            3269     18.5953E-03     20.2085E-03
            2690            3270     17.3333E-03     18.9399E-03
            2690            3287     18.2391E-03     20.3002E-03
            2690            3288     17.0556E-03     19.0947E-03
            2691            3270     17.3333E-03     18.9399E-03
            2691            3271     16.2123E-03     17.8046E-03
            2691            3288     17.0556E-03     19.0947E-03
            2691            3289     16.0708E-03     18.0631E-03
            2692            3271     16.2123E-03     17.8046E-03
            2692            3272     15.4617E-03     16.9516E-03
            2692            3289     16.0708E-03     18.0631E-03
            2692            3290     15.4574E-03     17.3599E-03
            2693            3272     15.4617E-03     16.9516E-03
            2693            3273     14.8738E-03     16.2006E-03
            2693            3290     15.4574E-03     17.3599E-03
            2693            3291     15.7060E-03     17.3552E-03
            2694            3273     14.8738E-03     16.2006E-03
            2694            3274     14.2875E-03     15.4320E-03
            2694            3291     15.7060E-03     17.3552E-03
            2694            3292     16.0206E-03     17.2590E-03
            2695             439     16.1778E-03     16.0014E-03
            2695             440     14.4485E-03     14.1847E-03
            2695            3274     14.2875E-03     15.4320E-03
            2695            3292     16.0206E-03     17.2590E-03
            2696             656     44.9495E-03     47.4562E-03
            2696             657     46.4680E-03     47.7197E-03
            2696            3275     40.1227E-03     41.9751E-03
            2696            3293     39.2792E-03     41.5751E-03
            2697            3275     40.1227E-03     41.9751E-03
            2697            3276     36.3607E-03     38.3051E-03
            2697            3293     39.2792E-03     41.5751E-03
            2697            3294     35.6963E-03     37.9396E-03
            2698            3276     36.3607E-03     38.3051E-03
            2698            3277     33.6282E-03     35.6123E-03
            2698            3294     35.6963E-03     37.9396E-03
            2698            3295     32.9945E-03     35.2736E-03
            2699            3277     33.6282E-03     35.6123E-03
            2699            3278     31.5028E-03     33.5178E-03
            2699            3295     32.9945E-03     35.2736E-03
            2699            3296     30.9064E-03     33.2354E-03
            2700            3278     31.5028E-03     33.5178E-03
            2700            3279     29.7269E-03     31.7525E-03
            2700            3296     30.9064E-03     33.2354E-03
            2700            3297     29.1206E-03     31.5143E-03
            2701            3279     29.7269E-03     31.7525E-03
            2701            3280     28.1261E-03     30.1701E-03
            2701            3297     29.1206E-03     31.5143E-03
            2701            3298     27.5398E-03     29.9830E-03
            2702            3280     28.1261E-03     30.1701E-03
            2702            3281     26.6278E-03     28.6806E-03
            2702            3298     27.5398E-03     29.9830E-03
            2702            3299     26.0551E-03     28.5414E-03
            2703            3281     26.6278E-03     28.6806E-03
            2703            3282     25.1717E-03     27.2361E-03
            2703            3299     26.0551E-03     28.5414E-03
            2703            3300     24.6300E-03     27.1454E-03
            2704            3282     25.1717E-03     27.2361E-03
            2704            3283     23.7393E-03     25.8101E-03
            2704            3300     24.6300E-03     27.1454E-03
            2704            3301     23.2317E-03     25.7679E-03
            2705            3283     23.7393E-03     25.8101E-03
            2705            3284     22.3206E-03     24.3959E-03
            2705            3301     23.2317E-03     25.7679E-03
            2705            3302     21.8506E-03     24.3978E-03
            2706            3284     22.3206E-03     24.3959E-03
            2706            3285     20.9164E-03     22.9926E-03
            2706            3302     21.8506E-03     24.3978E-03
            2706            3303     20.4934E-03     23.0432E-03
            2707            3285     20.9164E-03     22.9926E-03
            2707            3286     19.5495E-03     21.6216E-03
            2707            3303     20.4934E-03     23.0432E-03
            2707            3304     19.1659E-03     21.7074E-03
            2708            3286     19.5495E-03     21.6216E-03
            2708            3287     18.2391E-03     20.3002E-03
            2708            3304     19.1659E-03     21.7074E-03
            2708            3305     17.9151E-03     20.4367E-03
            2709            3287     18.2391E-03     20.3002E-03
            2709            3288     17.0556E-03     19.0947E-03
            2709            3305     17.9151E-03     20.4367E-03
            2709            3306     16.7652E-03     19.2508E-03
            2710            3288     17.0556E-03     19.0947E-03
            2710            3289     16.0708E-03     18.0631E-03
            2710            3306     16.7652E-03     19.2508E-03
            2710            3307     15.8628E-03     18.2928E-03
            2711            3289     16.0708E-03     18.0631E-03
            2711            3290     15.4574E-03     17.3599E-03
            2711            3307     15.8628E-03     18.2928E-03
            2711            3308     15.2607E-03     17.6232E-03
            2712            3290     15.4574E-03     17.3599E-03
            2712            3291     15.7060E-03     17.3552E-03
            2712            3308     15.2607E-03     17.6232E-03
            2712            3309     15.6256E-03     17.8593E-03
            2713            3291     15.7060E-03     17.3552E-03
            2713            3292     16.0206E-03     17.2590E-03
            2713            3309     15.6256E-03     17.8593E-03
            2713            3310     17.6567E-03     19.6133E-03
            2714             438     19.5503E-03     19.6486E-03
            2714             439     16.1778E-03     16.0014E-03
            2714            3292     16.0206E-03     17.2590E-03
            2714            3310     17.6567E-03     19.6133E-03
            2715             655     51.5775E-03     51.6967E-03
            2715             656     44.9495E-03     47.4562E-03
            2715            3293     39.2792E-03     41.5751E-03
            2715            3311     49.2653E-03     49.2757E-03
            2716            3293     39.2792E-03     41.5751E-03
            2716            3294     35.6963E-03     37.9396E-03
            2716            3311     49.2653E-03     49.2757E-03
            2716            3312     47.1087E-03     47.2981E-03
            2717            3294     35.6963E-03     37.9396E-03
            2717            3295     32.9945E-03     35.2736E-03
            2717            3312     47.1087E-03     47.2981E-03
            2717            3313     45.2428E-03     45.5691E-03
            2718            3295     32.9945E-03     35.2736E-03
            2718            3296     30.9064E-03     33.2354E-03
            2718            3313     45.2428E-03     45.5691E-03
            2718            3314     43.3979E-03     43.9176E-03
            2719            3296     30.9064E-03     33.2354E-03
            2719            3297     29.1206E-03     31.5143E-03
            2719            3314     43.3979E-03     43.9176E-03
            2719            3315     41.6122E-03     42.2539E-03
            2720            3297     29.1206E-03     31.5143E-03
            2720            3298     27.5398E-03     29.9830E-03
            2720            3315     41.6122E-03     42.2539E-03
            2720            3316     39.8029E-03     40.5661E-03
            2721            3298     27.5398E-03     29.9830E-03
            2721            3299     26.0551E-03     28.5414E-03
            2721            3316     39.8029E-03     40.5661E-03
            2721            3317     37.9871E-03     38.8234E-03
            2722            3299     26.0551E-03     28.5414E-03
            2722            3300     24.6300E-03     27.1454E-03
            2722            3317     37.9871E-03     38.8234E-03
            2722            3318     36.1383E-03     37.0380E-03
            2723            3300     24.6300E-03     27.1454E-03
            2723            3301     23.2317E-03     25.7679E-03
            2723            3318     36.1383E-03     37.0380E-03
            2723            3319     34.2734E-03     35.2092E-03
            2724            3301     23.2317E-03     25.7679E-03
            2724            3302     21.8506E-03     24.3978E-03
            2724            3319     34.2734E-03     35.2092E-03
            2724            3320     32.3851E-03     33.3468E-03
            2725            3302     21.8506E-03     24.3978E-03
            2725            3303     20.4934E-03     23.0432E-03
            2725            3320     32.3851E-03     33.3468E-03
            2725            3321     30.4979E-03     31.4666E-03
            2726            3303     20.4934E-03     23.0432E-03
            2726            3304     19.1659E-03     21.7074E-03
            2726            3321     30.4979E-03     31.4666E-03
            2726            3322     28.6146E-03     29.5748E-03
            2727            3304     19.1659E-03     21.7074E-03
            2727            3305     17.9151E-03     20.4367E-03
            2727            3322     28.6146E-03     29.5748E-03
            2727            3323     26.7800E-03     27.7065E-03
            2728            3305     17.9151E-03     20.4367E-03
            2728            3306     16.7652E-03     19.2508E-03
            2728            3323     26.7800E-03     27.7065E-03
            2728            3324     25.0171E-03     25.8775E-03
            2729            3306     16.7652E-03     19.2508E-03
            2729            3307     15.8628E-03     18.2928E-03
            2729            3324     25.0171E-03     25.8775E-03
            2729            3325     23.4188E-03     24.1782E-03
            2730            3307     15.8628E-03     18.2928E-03
            2730            3308     15.2607E-03     17.6232E-03
            2730            3325     23.4188E-03     24.1782E-03
            2730            3326     22.0880E-03     22.6924E-03
            2731            3308     15.2607E-03     17.6232E-03
            2731            3309     15.6256E-03     17.8593E-03
            2731            3326     22.0880E-03     22.6924E-03
            2731            3327     21.2486E-03     21.7875E-03
            2732            3309     15.6256E-03     17.8593E-03
            2732            3310     17.6567E-03     19.6133E-03
            2732            3327     21.2486E-03     21.7875E-03
            2732            3328     21.7864E-03     22.7734E-03
            2733             437     21.0148E-03     23.6372E-03
            2733             438     19.5503E-03     19.6486E-03
            2733            3310     17.6567E-03     19.6133E-03
            2733            3328     21.7864E-03     22.7734E-03
            2734             654     60.4694E-03     58.9911E-03
            2734             655     51.5775E-03     51.6967E-03
            2734            3311     49.2653E-03     49.2757E-03
            2734            3329     60.9249E-03     59.4369E-03
            2735            3311     49.2653E-03     49.2757E-03
            2735            3312     47.1087E-03     47.2981E-03
            2735            3329     60.9249E-03     59.4369E-03
            2735            3330     60.2414E-03     58.8835E-03
            2736            3312     47.1087E-03     47.2981E-03
            2736            3313     45.2428E-03     45.5691E-03
            2736            3330     60.2414E-03     58.8835E-03
            2736            3331     58.9821E-03     57.7611E-03
            2737            3313     45.2428E-03     45.5691E-03
            2737            3314     43.3979E-03     43.9176E-03
            2737            3331     58.9821E-03     57.7611E-03
            2737            3332     57.2794E-03     56.2026E-03
            2738            3314     43.3979E-03     43.9176E-03
            2738            3315     41.6122E-03     42.2539E-03
            2738            3332     57.2794E-03     56.2026E-03
            2738            3333     55.3066E-03     54.3497E-03
            2739            3315     41.6122E-03     42.2539E-03
            2739            3316     39.8029E-03     40.5661E-03
            2739            3333     55.3066E-03     54.3497E-03
            2739            3334     53.1295E-03     52.2677E-03
            2740            3316     39.8029E-03     40.5661E-03
            2740            3317     37.9871E-03     38.8234E-03
            2740            3334     53.1295E-03     52.2677E-03
            2740            3335     50.8220E-03     50.0370E-03
            2741            3317     37.9871E-03     38.8234E-03
            2741            3318     36.1383E-03     37.0380E-03
            2741            3335     50.8220E-03     50.0370E-03
            2741            3336     48.4214E-03     47.6880E-03
            2742            3318     36.1383E-03     37.0380E-03
            2742            3319     34.2734E-03     35.2092E-03
            2742            3336     48.4214E-03     47.6880E-03
            2742            3337     45.9604E-03     45.2662E-03
            2743            3319     34.2734E-03     35.2092E-03
            2743            3320     32.3851E-03     33.3468E-03
            2743            3337     45.9604E-03     45.2662E-03
            2743            3338     43.4590E-03     42.7850E-03
            2744            3320     32.3851E-03     33.3468E-03
            2744            3321     30.4979E-03     31.4666E-03
            2744            3338     43.4590E-03     42.7850E-03
            2744            3339     40.9353E-03     40.2680E-03
            2745            3321     30.4979E-03     31.4666E-03
            2745            3322     28.6146E-03     29.5748E-03
            2745            3339     40.9353E-03     40.2680E-03
            2745            3340     38.4001E-03     37.7219E-03
            2746            3322     28.6146E-03     29.5748E-03
            2746            3323     26.7800E-03     27.7065E-03
            2746            3340     38.4001E-03     37.7219E-03
            2746            3341     35.8739E-03     35.1633E-03
            2747            3323     26.7800E-03     27.7065E-03
            2747            3324     25.0171E-03     25.8775E-03
            2747            3341     35.8739E-03     35.1633E-03
            2747            3342     33.3641E-03     32.6029E-03
            2748            3324     25.0171E-03     25.8775E-03
            2748            3325     23.4188E-03     24.1782E-03
            2748            3342     33.3641E-03     32.6029E-03
            2748            3343     30.9184E-03     30.0989E-03
            2749            3325     23.4188E-03     24.1782E-03
            2749            3326     22.0880E-03     22.6924E-03
            2749            3343     30.9184E-03     30.0989E-03
            2749            3344     28.5106E-03     27.6992E-03
            2750            3326     22.0880E-03     22.6924E-03
            2750            3327     21.2486E-03     21.7875E-03
            2750            3344     28.5106E-03     27.6992E-03
            2750            3345     26.2159E-03     25.8574E-03
            2751            3327     21.2486E-03     21.7875E-03
            2751            3328     21.7864E-03     22.7734E-03
            2751            3345     26.2159E-03     25.8574E-03
            2751            3346     23.6490E-03     25.0545E-03
            2752             436     21.0659E-03     24.5399E-03
            2752             437     21.0148E-03     23.6372E-03
            2752            3328     21.7864E-03     22.7734E-03
            2752            3346     23.6490E-03     25.0545E-03
            2753             653     63.2218E-03     63.5843E-03
            2753             654     60.4694E-03     58.9911E-03
            2753            3329     60.9249E-03     59.4369E-03
            2753            3347     63.4862E-03     63.5622E-03
            2754            3329     60.9249E-03     59.4369E-03
            2754            3330     60.2414E-03     58.8835E-03
            2754            3347     63.4862E-03     63.5622E-03
            2754            3348     62.7231E-03     62.5749E-03
            2755            3330     60.2414E-03     58.8835E-03
            2755            3331     58.9821E-03     57.7611E-03
            2755            3348     62.7231E-03     62.5749E-03
            2755            3349     61.2282E-03     60.9713E-03
            2756            3331     58.9821E-03     57.7611E-03
            2756            3332     57.2794E-03     56.2026E-03
            2756            3349     61.2282E-03     60.9713E-03
            2756            3350     59.2658E-03     58.9657E-03
            2757            3332     57.2794E-03     56.2026E-03
            2757            3333     55.3066E-03     54.3497E-03
            2757            3350     59.2658E-03     58.9657E-03
            2757            3351     56.9932E-03     56.6806E-03
            2758            3333     55.3066E-03     54.3497E-03
            2758            3334     53.1295E-03     52.2677E-03
            2758            3351     56.9932E-03     56.6806E-03
            2758            3352     54.5370E-03     54.2365E-03
            2759            3334     53.1295E-03     52.2677E-03
            2759            3335     50.8220E-03     50.0370E-03
            2759            3352     54.5370E-03     54.2365E-03
            2759            3353     51.9732E-03     51.6803E-03
            2760            3335     50.8220E-03     50.0370E-03
            2760            3336     48.4214E-03     47.6880E-03
            2760            3353     51.9732E-03     51.6803E-03
            2760            3354     49.3484E-03     49.0705E-03
            2761            3336     48.4214E-03     47.6880E-03
            2761            3337     45.9604E-03     45.2662E-03
            2761            3354     49.3484E-03     49.0705E-03
            2761            3355     46.6951E-03     46.4215E-03
            2762            3337     45.9604E-03     45.2662E-03
            2762            3338     43.4590E-03     42.7850E-03
            2762            3355     46.6951E-03     46.4215E-03
            2762            3356     44.0278E-03     43.7584E-03
            2763            3338     43.4590E-03     42.7850E-03
            2763            3339     40.9353E-03     40.2680E-03
            2763            3356     44.0278E-03     43.7584E-03
            2763            3357     41.3556E-03     41.0814E-03
            2764            3339     40.9353E-03     40.2680E-03
            2764            3340     38.4001E-03     37.7219E-03
            2764            3357     41.3556E-03     41.0814E-03
            2764            3358     38.6784E-03     38.4012E-03
            2765            3340     38.4001E-03     37.7219E-03
            2765            3341     35.8739E-03     35.1633E-03
            2765            3358     38.6784E-03     38.4012E-03
            2765            3359     35.9931E-03     35.7150E-03
            2766            3341     35.8739E-03     35.1633E-03
            2766            3342     33.3641E-03     32.6029E-03
            2766            3359     35.9931E-03     35.7150E-03
            2766            3360     33.2801E-03     33.0411E-03
            2767            3342     33.3641E-03     32.6029E-03
            2767            3343     30.9184E-03     30.0989E-03
            2767            3360     33.2801E-03     33.0411E-03
            2767            3361     30.5237E-03     30.4069E-03
            2768            3343     30.9184E-03     30.0989E-03
            2768            3344     28.5106E-03     27.6992E-03
            2768            3361     30.5237E-03     30.4069E-03
            2768            3362     27.6439E-03     27.9275E-03
            2769            3344     28.5106E-03     27.6992E-03
            2769            3345     26.2159E-03     25.8574E-03
            2769            3362     27.6439E-03     27.9275E-03
            2769            3363     24.5475E-03     25.9448E-03
            2770            3345     26.2159E-03     25.8574E-03
            2770            3346     23.6490E-03     25.0545E-03
            2770            3363     24.5475E-03     25.9448E-03
            2770            3364     21.6860E-03     23.9708E-03
            2771             435     21.2348E-03     21.7861E-03
            2771             436     21.0659E-03     24.5399E-03
            2771            3346     23.6490E-03     25.0545E-03
            2771            3364     21.6860E-03     23.9708E-03
            2772             652     66.7435E-03     67.8280E-03
            2772             653     63.2218E-03     63.5843E-03
            2772            3347     63.4862E-03     63.5622E-03
            2772            3365     65.9450E-03     66.9388E-03
            2773            3347     63.4862E-03     63.5622E-03
            2773            3348     62.7231E-03     62.5749E-03
            2773            3365     65.9450E-03     66.9388E-03
            2773            3366     64.7746E-03     65.5529E-03
            2774            3348     62.7231E-03     62.5749E-03
            2774            3349     61.2282E-03     60.9713E-03
            2774            3366     64.7746E-03     65.5529E-03
            2774            3367     62.9882E-03     63.5513E-03
            2775            3349     61.2282E-03     60.9713E-03
            2775            3350     59.2658E-03     58.9657E-03
            2775            3367     62.9882E-03     63.5513E-03
            2775            3368     60.7510E-03     61.1678E-03
            2776            3350     59.2658E-03     58.9657E-03
            2776            3351     56.9932E-03     56.6806E-03
            2776            3368     60.7510E-03     61.1678E-03
            2776            3369     58.2322E-03     58.5594E-03
            2777            3351     56.9932E-03     56.6806E-03
            2777            3352     54.5370E-03     54.2365E-03
            2777            3369     58.2322E-03     58.5594E-03
            2777            3370     55.5589E-03     55.8183E-03
            2778            3352     54.5370E-03     54.2365E-03
            2778            3353     51.9732E-03     51.6803E-03
            2778            3370     55.5589E-03     55.8183E-03
            2778            3371     52.7996E-03     53.0257E-03
            2779            3353     51.9732E-03     51.6803E-03
            2779            3354     49.3484E-03     49.0705E-03
            2779            3371     52.7996E-03     53.0257E-03
            2779            3372     50.0125E-03     50.2081E-03
            2780            3354     49.3484E-03     49.0705E-03
            2780            3355     46.6951E-03     46.4215E-03
            2780            3372     50.0125E-03     50.2081E-03
            2780            3373     47.2144E-03     47.3956E-03
            2781            3355     46.6951E-03     46.4215E-03
            2781            3356     44.0278E-03     43.7584E-03
            2781            3373     47.2144E-03     47.3956E-03
            2781            3374     44.4226E-03     44.5902E-03
            2782            3356     44.0278E-03     43.7584E-03
            2782            3357     41.3556E-03     41.0814E-03
            2782            3374     44.4226E-03     44.5902E-03
            2782            3375     41.6353E-03     41.8015E-03
            2783            3357     41.3556E-03     41.0814E-03
            2783            3358     38.6784E-03     38.4012E-03
            2783            3375     41.6353E-03     41.8015E-03
            2783            3376     38.8462E-03     39.0233E-03
            2784            3358     38.6784E-03     38.4012E-03
            2784            3359     35.9931E-03     35.7150E-03
            2784            3376     38.8462E-03     39.0233E-03
            2784            3377     36.0328E-03     36.2557E-03
            2785            3359     35.9931E-03     35.7150E-03
            2785            3360     33.2801E-03     33.0411E-03
            2785            3377     36.0328E-03     36.2557E-03
            2785            3378     33.1688E-03     33.5078E-03
            2786            3360     33.2801E-03     33.0411E-03
            2786            3361     30.5237E-03     30.4069E-03
            2786            3378     33.1688E-03     33.5078E-03
            2786            3379     30.1882E-03     30.7715E-03
            2787            3361     30.5237E-03     30.4069E-03
            2787            3362     27.6439E-03     27.9275E-03
            2787            3379     30.1882E-03     30.7715E-03
            2787            3380     27.0396E-03     28.1844E-03
            2788            3362     27.6439E-03     27.9275E-03
            2788            3363     24.5475E-03     25.9448E-03
            2788            3380     27.0396E-03     28.1844E-03
            2788            3381     23.8264E-03     25.5333E-03
            2789            3363     24.5475E-03     25.9448E-03
            2789            3364     21.6860E-03     23.9708E-03
            2789            3381     23.8264E-03     25.5333E-03
            2789            3382     21.1657E-03     22.5687E-03
            2790             434     20.2913E-03     20.0518E-03
            2790             435     21.2348E-03     21.7861E-03
            2790            3364     21.6860E-03     23.9708E-03
            2790            3382     21.1657E-03     22.5687E-03
            2791             651     70.3678E-03     71.5991E-03
            2791             652     66.7435E-03     67.8280E-03
            2791            3365     65.9450E-03     66.9388E-03
            2791            3383     68.4210E-03     69.8783E-03
            2792            3365     65.9450E-03     66.9388E-03
            2792            3366     64.7746E-03     65.5529E-03
            2792            3383     68.4210E-03     69.8783E-03
            2792            3384     66.5265E-03     67.8687E-03
            2793            3366     64.7746E-03     65.5529E-03
            2793            3367     62.9882E-03     63.5513E-03
            2793            3384     66.5265E-03     67.8687E-03
            2793            3385     64.2737E-03     65.4568E-03
            2794            3367     62.9882E-03     63.5513E-03
            2794            3368     60.7510E-03     61.1678E-03
            2794            3385     64.2737E-03     65.4568E-03
            2794            3386     61.7121E-03     62.7379E-03
            2795            3368     60.7510E-03     61.1678E-03
            2795            3369     58.2322E-03     58.5594E-03
            2795            3386     61.7121E-03     62.7379E-03
            2795            3387     58.9640E-03     59.8524E-03
            2796            3369     58.2322E-03     58.5594E-03
            2796            3370     55.5589E-03     55.8183E-03
            2796            3387     58.9640E-03     59.8524E-03
            2796            3388     56.1041E-03     56.9036E-03
            2797            3370     55.5589E-03     55.8183E-03
            2797            3371     52.7996E-03     53.0257E-03
            2797            3388     56.1041E-03     56.9036E-03
            2797            3389     53.2167E-03     53.9394E-03
            2798            3371     52.7996E-03     53.0257E-03
            2798            3372     50.0125E-03     50.2081E-03
            2798            3389     53.2167E-03     53.9394E-03
            2798            3390     50.3163E-03     50.9923E-03
            2799            3372     50.0125E-03     50.2081E-03
            2799            3373     47.2144E-03     47.3956E-03
            2799            3390     50.3163E-03     50.9923E-03
            2799            3391     47.4318E-03     48.0712E-03
            2800            3373     47.2144E-03     47.3956E-03
            2800            3374     44.4226E-03     44.5902E-03
            2800            3391     47.4318E-03     48.0712E-03
            2800            3392     44.5620E-03     45.1844E-03
            2801            3374     44.4226E-03     44.5902E-03
            2801            3375     41.6353E-03     41.8015E-03
            2801            3392     44.5620E-03     45.1844E-03
            2801            3393     41.7059E-03     42.3273E-03
            2802            3375     41.6353E-03     41.8015E-03
            2802            3376     38.8462E-03     39.0233E-03
            2802            3393     41.7059E-03     42.3273E-03
            2802            3394     38.8532E-03     39.5012E-03
            2803            3376     38.8462E-03     39.0233E-03
            2803            3377     36.0328E-03     36.2557E-03
            2803            3394     38.8532E-03     39.5012E-03
            2803            3395     35.9767E-03     36.7012E-03
            2804            3377     36.0328E-03     36.2557E-03
            2804            3378     33.1688E-03     33.5078E-03
            2804            3395     35.9767E-03     36.7012E-03
            2804            3396     33.0410E-03     33.9074E-03
            2805            3378     33.1688E-03     33.5078E-03
            2805            3379     30.1882E-03     30.7715E-03
            2805            3396     33.0410E-03     33.9074E-03
            2805            3397     29.9932E-03     31.1466E-03
            2806            3379     30.1882E-03     30.7715E-03
            2806            3380     27.0396E-03     28.1844E-03
            2806            3397     29.9932E-03     31.1466E-03
            2806            3398     26.8241E-03     28.3208E-03
            2807            3380     27.0396E-03     28.1844E-03
            2807            3381     23.8264E-03     25.5333E-03
            2807            3398     26.8241E-03     28.3208E-03
            2807            3399     23.7124E-03     25.3030E-03
            2808            3381     23.8264E-03     25.5333E-03
            2808            3382     21.1657E-03     22.5687E-03
            2808            3399     23.7124E-03     25.3030E-03
            2808            3400     20.8898E-03     22.6006E-03
            2809             433     19.8628E-03     19.8393E-03
            2809             434     20.2913E-03     20.0518E-03
            2809            3382     21.1657E-03     22.5687E-03
            2809            3400     20.8898E-03     22.6006E-03
            2810             650     73.5999E-03     75.0063E-03
            2810             651     70.3678E-03     71.5991E-03
            2810            3383     68.4210E-03     69.8783E-03
            2810            3401     70.7745E-03     72.3871E-03
            2811            3383     68.4210E-03     69.8783E-03
            2811            3384     66.5265E-03     67.8687E-03
            2811            3401     70.7745E-03     72.3871E-03
            2811            3402     67.9538E-03     69.6561E-03
            2812            3384     66.5265E-03     67.8687E-03
            2812            3385     64.2737E-03     65.4568E-03
            2812            3402     67.9538E-03     69.6561E-03
            2812            3403     65.1043E-03     66.7259E-03
            2813            3385     64.2737E-03     65.4568E-03
            2813            3386     61.7121E-03     62.7379E-03
            2813            3403     65.1043E-03     66.7259E-03
            2813            3404     62.1657E-03     63.6559E-03
            2814            3386     61.7121E-03     62.7379E-03
            2814            3387     58.9640E-03     59.8524E-03
            2814            3404     62.1657E-03     63.6559E-03
            2814            3405     59.1626E-03     60.5455E-03
            2815            3387     58.9640E-03     59.8524E-03
            2815            3388     56.1041E-03     56.9036E-03
            2815            3405     59.1626E-03     60.5455E-03
            2815            3406     56.1771E-03     57.4497E-03
            2816            3388     56.1041E-03     56.9036E-03
            2816            3389     53.2167E-03     53.9394E-03
            2816            3406     56.1771E-03     57.4497E-03
            2816            3407     53.1932E-03     54.3885E-03
            2817            3389     53.2167E-03     53.9394E-03
            2817            3390     50.3163E-03     50.9923E-03
            2817            3407     53.1932E-03     54.3885E-03
            2817            3408     50.2435E-03     51.3758E-03
            2818            3390     50.3163E-03     50.9923E-03
            2818            3391     47.4318E-03     48.0712E-03
            2818            3408     50.2435E-03     51.3758E-03
            2818            3409     47.3176E-03     48.4102E-03
            2819            3391     47.4318E-03     48.0712E-03
            2819            3392     44.5620E-03     45.1844E-03
            2819            3409     47.3176E-03     48.4102E-03
            2819            3410     44.4195E-03     45.4903E-03
            2820            3392     44.5620E-03     45.1844E-03
            2820            3393     41.7059E-03     42.3273E-03
            2820            3410     44.4195E-03     45.4903E-03
            2820            3411     41.5448E-03     42.6165E-03
            2821            3393     41.7059E-03     42.3273E-03
            2821            3394     38.8532E-03     39.5012E-03
            2821            3411     41.5448E-03     42.6165E-03
            2821            3412     38.6773E-03     39.7831E-03
            2822            3394     38.8532E-03     39.5012E-03
            2822            3395     35.9767E-03     36.7012E-03
            2822            3412     38.6773E-03     39.7831E-03
            2822            3413     35.8137E-03     36.9920E-03
            2823            3395     35.9767E-03     36.7012E-03
            2823            3396     33.0410E-03     33.9074E-03
            2823            3413     35.8137E-03     36.9920E-03
            2823            3414     32.9045E-03     34.2289E-03
            2824            3396     33.0410E-03     33.9074E-03
            2824            3397     29.9932E-03     31.1466E-03
            2824            3414     32.9045E-03     34.2289E-03
            2824            3415     29.9312E-03     31.4513E-03
            2825            3397     29.9932E-03     31.1466E-03
            2825            3398     26.8241E-03     28.3208E-03
            2825            3415     29.9312E-03     31.4513E-03
            2825            3416     26.8992E-03     28.5733E-03
            2826            3398     26.8241E-03     28.3208E-03
            2826            3399     23.7124E-03     25.3030E-03
            2826            3416     26.8992E-03     28.5733E-03
            2826            3417     23.8304E-03     25.6674E-03
            2827            3399     23.7124E-03     25.3030E-03
            2827            3400     20.8898E-03     22.6006E-03
            2827            3417     23.8304E-03     25.6674E-03
            2827            3418     21.1242E-03     22.8111E-03
            2828             432     19.8651E-03     19.4507E-03
            2828             433     19.8628E-03     19.8393E-03
            2828            3400     20.8898E-03     22.6006E-03
            2828            3418     21.1242E-03     22.8111E-03
            2829             649     76.6348E-03     78.0925E-03
            2829             650     73.5999E-03     75.0063E-03
            2829            3401     70.7745E-03     72.3871E-03
            2829            3419     72.6622E-03     74.4795E-03
            2830            3401     70.7745E-03     72.3871E-03
            2830            3402     67.9538E-03     69.6561E-03
            2830            3419     72.6622E-03     74.4795E-03
            2830            3420     68.9699E-03     70.8944E-03
            2831            3402     67.9538E-03     69.6561E-03
            2831            3403     65.1043E-03     66.7259E-03
            2831            3420     68.9699E-03     70.8944E-03
            2831            3421     65.4422E-03     67.3560E-03
            2832            3403     65.1043E-03     66.7259E-03
            2832            3404     62.1657E-03     63.6559E-03
            2832            3421     65.4422E-03     67.3560E-03
            2832            3422     62.0694E-03     63.9479E-03
            2833            3404     62.1657E-03     63.6559E-03
            2833            3405     59.1626E-03     60.5455E-03
            2833            3422     62.0694E-03     63.9479E-03
            2833            3423     58.8894E-03     60.6693E-03
            2834            3405     59.1626E-03     60.5455E-03
            2834            3406     56.1771E-03     57.4497E-03
            2834            3423     58.8894E-03     60.6693E-03
            2834            3424     55.7900E-03     57.4867E-03
            2835            3406     56.1771E-03     57.4497E-03
            2835            3407     53.1932E-03     54.3885E-03
            2835            3424     55.7900E-03     57.4867E-03
            2835            3425     52.7792E-03     54.4005E-03
            2836            3407     53.1932E-03     54.3885E-03
            2836            3408     50.2435E-03     51.3758E-03
            2836            3425     52.7792E-03     54.4005E-03
            2836            3426     49.8169E-03     51.3814E-03
            2837            3408     50.2435E-03     51.3758E-03
            2837            3409     47.3176E-03     48.4102E-03
            2837            3426     49.8169E-03     51.3814E-03
            2837            3427     46.8992E-03     48.4254E-03
            2838            3409     47.3176E-03     48.4102E-03
            2838            3410     44.4195E-03     45.4903E-03
            2838            3427     46.8992E-03     48.4254E-03
            2838            3428     44.0156E-03     45.5209E-03
            2839            3410     44.4195E-03     45.4903E-03
            2839            3411     41.5448E-03     42.6165E-03
            2839            3428     44.0156E-03     45.5209E-03
            2839            3429     41.1587E-03     42.6657E-03
            2840            3411     41.5448E-03     42.6165E-03
            2840            3412     38.6773E-03     39.7831E-03
            2840            3429     41.1587E-03     42.6657E-03
            2840            3430     38.3350E-03     39.8665E-03
            2841            3412     38.6773E-03     39.7831E-03
            2841            3413     35.8137E-03     36.9920E-03
            2841            3430     38.3350E-03     39.8665E-03
            2841            3431     35.5223E-03     37.1158E-03
            2842            3413     35.8137E-03     36.9920E-03
            2842            3414     32.9045E-03     34.2289E-03
            2842            3431     35.5223E-03     37.1158E-03
            2842            3432     32.7478E-03     34.4380E-03
            2843            3414     32.9045E-03     34.2289E-03
            2843            3415     29.9312E-03     31.4513E-03
            2843            3432     32.7478E-03     34.4380E-03
            2843            3433     29.9536E-03     31.7557E-03
            2844            3415     29.9312E-03     31.4513E-03
            2844            3416     26.8992E-03     28.5733E-03
            2844            3433     29.9536E-03     31.7557E-03
            2844            3434     27.1132E-03     29.0448E-03
            2845            3416     26.8992E-03     28.5733E-03
            2845            3417     23.8304E-03     25.6674E-03
            2845            3434     27.1132E-03     29.0448E-03
            2845            3435     24.2961E-03     26.2459E-03
            2846            3417     23.8304E-03     25.6674E-03
            2846            3418     21.1242E-03     22.8111E-03
            2846            3435     24.2961E-03     26.2459E-03
            2846            3436     21.5311E-03     23.4304E-03
            2847             431     20.0173E-03     19.8064E-03
            2847             432     19.8651E-03     19.4507E-03
            2847            3418     21.1242E-03     22.8111E-03
            2847            3436     21.5311E-03     23.4304E-03
            2848             648     79.1675E-03     80.9362E-03
            2848             649     76.6348E-03     78.0925E-03
            2848            3419     72.6622E-03     74.4795E-03
            2848            3437     74.0769E-03     75.9950E-03
            2849            3419     72.6622E-03     74.4795E-03
            2849            3420     68.9699E-03     70.8944E-03
            2849            3437     74.0769E-03     75.9950E-03
            2849            3438     69.3383E-03     71.4056E-03
            2850            3420     68.9699E-03     70.8944E-03
            2850            3421     65.4422E-03     67.3560E-03
            2850            3438     69.3383E-03     71.4056E-03
            2850            3439     65.1201E-03     67.3208E-03
            2851            3421     65.4422E-03     67.3560E-03
            2851            3422     62.0694E-03     63.9479E-03
            2851            3439     65.1201E-03     67.3208E-03
            2851            3440     61.5017E-03     63.6710E-03
            2852            3422     62.0694E-03     63.9479E-03
            2852            3423     58.8894E-03     60.6693E-03
            2852            3440     61.5017E-03     63.6710E-03
            2852            3441     58.1629E-03     60.2844E-03
            2853            3423     58.8894E-03     60.6693E-03
            2853            3424     55.7900E-03     57.4867E-03
            2853            3441     58.1629E-03     60.2844E-03
            2853            3442     55.0427E-03     57.1060E-03
            2854            3424     55.7900E-03     57.4867E-03
            2854            3425     52.7792E-03     54.4005E-03
            2854            3442     55.0427E-03     57.1060E-03
            2854            3443     52.0387E-03     54.0470E-03
            2855            3425     52.7792E-03     54.4005E-03
            2855            3426     49.8169E-03     51.3814E-03
            2855            3443     52.0387E-03     54.0470E-03
            2855            3444     49.1131E-03     51.0832E-03
            2856            3426     49.8169E-03     51.3814E-03
            2856            3427     46.8992E-03     48.4254E-03
            2856            3444     49.1131E-03     51.0832E-03
            2856            3445     46.2377E-03     48.1782E-03
            2857            3427     46.8992E-03     48.4254E-03
            2857            3428     44.0156E-03     45.5209E-03
            2857            3445     46.2377E-03     48.1782E-03
            2857            3446     43.3992E-03     45.3263E-03
            2858            3428     44.0156E-03     45.5209E-03
            2858            3429     41.1587E-03     42.6657E-03
            2858            3446     43.3992E-03     45.3263E-03
            2858            3447     40.5982E-03     42.5228E-03
            2859            3429     41.1587E-03     42.6657E-03
            2859            3430     38.3350E-03     39.8665E-03
            2859            3447     40.5982E-03     42.5228E-03
            2859            3448     37.8337E-03     39.7732E-03
            2860            3430     38.3350E-03     39.8665E-03
            2860            3431     35.5223E-03     37.1158E-03
            2860            3448     37.8337E-03     39.7732E-03
            2860            3449     35.1345E-03     37.1059E-03
            2861            3431     35.5223E-03     37.1158E-03
            2861            3432     32.7478E-03     34.4380E-03
            2861            3449     35.1345E-03     37.1059E-03
            2861            3450     32.4928E-03     34.5080E-03
            2862            3432     32.7478E-03     34.4380E-03
            2862            3433     29.9536E-03     31.7557E-03
            2862            3450     32.4928E-03     34.5080E-03
            2862            3451     29.9911E-03     32.0731E-03
            2863            3433     29.9536E-03     31.7557E-03
            2863            3434     27.1132E-03     29.0448E-03
            2863            3451     29.9911E-03     32.0731E-03
            2863            3452     27.5093E-03     29.6451E-03
            2864            3434     27.1132E-03     29.0448E-03
            2864            3435     24.2961E-03     26.2459E-03
            2864            3452     27.5093E-03     29.6451E-03
            2864            3453     24.9415E-03     27.0895E-03
            2865            3435     24.2961E-03     26.2459E-03
            2865            3436     21.5311E-03     23.4304E-03
            2865            3453     24.9415E-03     27.0895E-03
            2865            3454     22.3587E-03     24.4273E-03
            2866             430     20.7446E-03     20.4697E-03
            2866             431     20.0173E-03     19.8064E-03
            2866            3436     21.5311E-03     23.4304E-03
            2866            3454     22.3587E-03     24.4273E-03
            2867             647     81.3775E-03     83.0093E-03
            2867             648     79.1675E-03     80.9362E-03
            2867            3437     74.0769E-03     75.9950E-03
            2867            3455     74.5037E-03     76.4837E-03
            2868            3437     74.0769E-03     75.9950E-03
            2868            3438     69.3383E-03     71.4056E-03
            2868            3455     74.5037E-03     76.4837E-03
            2868            3456     68.6864E-03     71.0387E-03
            2869            3438     69.3383E-03     71.4056E-03
            2869            3439     65.1201E-03     67.3208E-03
            2869            3456     68.6864E-03     71.0387E-03
            2869            3457     64.2601E-03     66.6680E-03
            2870            3439     65.1201E-03     67.3208E-03
            2870            3440     61.5017E-03     63.6710E-03
            2870            3457     64.2601E-03     66.6680E-03
            2870            3458     60.4688E-03     62.8877E-03
            2871            3440     61.5017E-03     63.6710E-03
            2871            3441     58.1629E-03     60.2844E-03
            2871            3458     60.4688E-03     62.8877E-03
            2871            3459     57.1235E-03     59.5336E-03
            2872            3441     58.1629E-03     60.2844E-03
            2872            3442     55.0427E-03     57.1060E-03
            2872            3459     57.1235E-03     59.5336E-03
            2872            3460     54.0315E-03     56.4141E-03
            2873            3442     55.0427E-03     57.1060E-03
            2873            3443     52.0387E-03     54.0470E-03
            2873            3460     54.0315E-03     56.4141E-03
            2873            3461     51.0838E-03     53.4535E-03
            2874            3443     52.0387E-03     54.0470E-03
            2874            3444     49.1131E-03     51.0832E-03
            2874            3461     51.0838E-03     53.4535E-03
            2874            3462     48.2252E-03     50.5782E-03
            2875            3444     49.1131E-03     51.0832E-03
            2875            3445     46.2377E-03     48.1782E-03
            2875            3462     48.2252E-03     50.5782E-03
            2875            3463     45.4166E-03     47.7638E-03
            2876            3445     46.2377E-03     48.1782E-03
            2876            3446     43.3992E-03     45.3263E-03
            2876            3463     45.4166E-03     47.7638E-03
            2876            3464     42.6470E-03     44.9880E-03
            2877            3446     43.3992E-03     45.3263E-03
            2877            3447     40.5982E-03     42.5228E-03
            2877            3464     42.6470E-03     44.9880E-03
            2877            3465     39.9155E-03     42.2556E-03
            2878            3447     40.5982E-03     42.5228E-03
            2878            3448     37.8337E-03     39.7732E-03
            2878            3465     39.9155E-03     42.2556E-03
            2878            3466     37.2360E-03     39.5769E-03
            2879            3448     37.8337E-03     39.7732E-03
            2879            3449     35.1345E-03     37.1059E-03
            2879            3466     37.2360E-03     39.5769E-03
            2879            3467     34.6372E-03     36.9771E-03
            2880            3449     35.1345E-03     37.1059E-03
            2880            3450     32.4928E-03     34.5080E-03
            2880            3467     34.6372E-03     36.9771E-03
            2880            3468     32.1725E-03     34.5174E-03
            2881            3450     32.4928E-03     34.5080E-03
            2881            3451     29.9911E-03     32.0731E-03
            2881            3468     32.1725E-03     34.5174E-03
            2881            3469     29.8813E-03     32.2184E-03
            2882            3451     29.9911E-03     32.0731E-03
            2882            3452     27.5093E-03     29.6451E-03
            2882            3469     29.8813E-03     32.2184E-03
            2882            3470     27.9634E-03     30.2995E-03
            2883            3452     27.5093E-03     29.6451E-03
            2883            3453     24.9415E-03     27.0895E-03
            2883            3470     27.9634E-03     30.2995E-03
            2883            3471     25.9945E-03     28.3476E-03
            2884            3453     24.9415E-03     27.0895E-03
            2884            3454     22.3587E-03     24.4273E-03
            2884            3471     25.9945E-03     28.3476E-03
            2884            3472     23.5781E-03     25.8303E-03
            2885             429     21.8658E-03     21.7620E-03
            2885             430     20.7446E-03     20.4697E-03
            2885            3454     22.3587E-03     24.4273E-03
            2885            3472     23.5781E-03     25.8303E-03
            2886             646     81.8389E-03     83.5789E-03
            2886             647     81.3775E-03     83.0093E-03
            2886            3455     74.5037E-03     76.4837E-03
            2886            3473     73.1161E-03     75.5526E-03
            2887            3455     74.5037E-03     76.4837E-03
            2887            3456     68.6864E-03     71.0387E-03
            2887            3473     73.1161E-03     75.5526E-03
            2887            3474     67.3911E-03     69.9264E-03
            2888            3456     68.6864E-03     71.0387E-03
            2888            3457     64.2601E-03     66.6680E-03
            2888            3474     67.3911E-03     69.9264E-03
            2888            3475     62.9139E-03     65.4840E-03
            2889            3457     64.2601E-03     66.6680E-03
            2889            3458     60.4688E-03     62.8877E-03
            2889            3475     62.9139E-03     65.4840E-03
            2889            3476     59.1795E-03     61.8020E-03
            2890            3458     60.4688E-03     62.8877E-03
            2890            3459     57.1235E-03     59.5336E-03
            2890            3476     59.1795E-03     61.8020E-03
            2890            3477     55.9140E-03     58.5597E-03
            2891            3459     57.1235E-03     59.5336E-03
            2891            3460     54.0315E-03     56.4141E-03
            2891            3477     55.9140E-03     58.5597E-03
            2891            3478     52.8928E-03     55.5790E-03
            2892            3460     54.0315E-03     56.4141E-03
            2892            3461     51.0838E-03     53.4535E-03
            2892            3478     52.8928E-03     55.5790E-03
            2892            3479     50.0337E-03     52.7438E-03
            2893            3461     51.0838E-03     53.4535E-03
            2893            3462     48.2252E-03     50.5782E-03
            2893            3479     50.0337E-03     52.7438E-03
            2893            3480     47.2535E-03     49.9912E-03
            2894            3462     48.2252E-03     50.5782E-03
            2894            3463     45.4166E-03     47.7638E-03
            2894            3480     47.2535E-03     49.9912E-03
            2894            3481     44.5274E-03     47.2808E-03
            2895            3463     45.4166E-03     47.7638E-03
            2895            3464     42.6470E-03     44.9880E-03
            2895            3481     44.5274E-03     47.2808E-03
            2895            3482     41.8377E-03     44.6025E-03
            2896            3464     42.6470E-03     44.9880E-03
            2896            3465     39.9155E-03     42.2556E-03
            2896            3482     41.8377E-03     44.6025E-03
            2896            3483     39.1847E-03     41.9503E-03
            2897            3465     39.9155E-03     42.2556E-03
            2897            3466     37.2360E-03     39.5769E-03
            2897            3483     39.1847E-03     41.9503E-03
            2897            3484     36.5958E-03     39.3499E-03
            2898            3466     37.2360E-03     39.5769E-03
            2898            3467     34.6372E-03     36.9771E-03
            2898            3484     36.5958E-03     39.3499E-03
            2898            3485     34.0918E-03     36.8231E-03
            2899            3467     34.6372E-03     36.9771E-03
            2899            3468     32.1725E-03     34.5174E-03
            2899            3485     34.0918E-03     36.8231E-03
            2899            3486     31.7654E-03     34.4485E-03
            2900            3468     32.1725E-03     34.5174E-03
            2900            3469     29.8813E-03     32.2184E-03
            2900            3486     31.7654E-03     34.4485E-03
            2900            3487     29.6809E-03     32.3029E-03
            2901            3469     29.8813E-03     32.2184E-03
            2901            3470     27.9634E-03     30.2995E-03
            2901            3487     29.6809E-03     32.3029E-03
            2901            3488     28.0449E-03     30.5722E-03
            2902            3470     27.9634E-03     30.2995E-03
            2902            3471     25.9945E-03     28.3476E-03
            2902            3488     28.0449E-03     30.5722E-03
            2902            3489     27.2695E-03     29.7101E-03
            2903            3471     25.9945E-03     28.3476E-03
            2903            3472     23.5781E-03     25.8303E-03
            2903            3489     27.2695E-03     29.7101E-03
            2903            3490     25.8312E-03     28.3101E-03
            2904             428     24.1004E-03     24.0059E-03
            2904             429     21.8658E-03     21.7620E-03
            2904            3472     23.5781E-03     25.8303E-03
            2904            3490     25.8312E-03     28.3101E-03
            2905             645     78.9765E-03     81.8000E-03
            2905             646     81.8389E-03     83.5789E-03
            2905            3473     73.1161E-03     75.5526E-03
            2905            3491     71.0812E-03     73.6862E-03
            2906            3473     73.1161E-03     75.5526E-03
            2906            3474     67.3911E-03     69.9264E-03
            2906            3491     71.0812E-03     73.6862E-03
            2906            3492     65.7524E-03     68.3183E-03
            2907            3474     67.3911E-03     69.9264E-03
            2907            3475     62.9139E-03     65.4840E-03
            2907            3492     65.7524E-03     68.3183E-03
            2907            3493     61.4355E-03     64.0874E-03
            2908            3475     62.9139E-03     65.4840E-03
            2908            3476     59.1795E-03     61.8020E-03
            2908            3493     61.4355E-03     64.0874E-03
            2908            3494     57.8786E-03     60.6341E-03
            2909            3476     59.1795E-03     61.8020E-03
            2909            3477     55.9140E-03     58.5597E-03
            2909            3494     57.8786E-03     60.6341E-03
            2909            3495     54.6894E-03     57.5677E-03
            2910            3477     55.9140E-03     58.5597E-03
            2910            3478     52.8928E-03     55.5790E-03
            2910            3495     54.6894E-03     57.5677E-03
            2910            3496     51.7711E-03     54.7511E-03
            2911            3478     52.8928E-03     55.5790E-03
            2911            3479     50.0337E-03     52.7438E-03
            2911            3496     51.7711E-03     54.7511E-03
            2911            3497     48.9856E-03     52.0547E-03
            2912            3479     50.0337E-03     52.7438E-03
            2912            3480     47.2535E-03     49.9912E-03
            2912            3497     48.9856E-03     52.0547E-03
            2912            3498     46.2930E-03     49.4270E-03
            2913            3480     47.2535E-03     49.9912E-03
            2913            3481     44.5274E-03     47.2808E-03
            2913            3498     46.2930E-03     49.4270E-03
            2913            3499     43.6492E-03     46.8310E-03
            2914            3481     44.5274E-03     47.2808E-03
            2914            3482     41.8377E-03     44.6025E-03
            2914            3499     43.6492E-03     46.8310E-03
            2914            3500     41.0429E-03     44.2515E-03
            2915            3482     41.8377E-03     44.6025E-03
            2915            3483     39.1847E-03     41.9503E-03
            2915            3500     41.0429E-03     44.2515E-03
            2915            3501     38.4818E-03     41.6971E-03
            2916            3483     39.1847E-03     41.9503E-03
            2916            3484     36.5958E-03     39.3499E-03
            2916            3501     38.4818E-03     41.6971E-03
            2916            3502     35.9717E-03     39.1712E-03
            2917            3484     36.5958E-03     39.3499E-03
            2917            3485     34.0918E-03     36.8231E-03
            2917            3502     35.9717E-03     39.1712E-03
            2917            3503     33.5792E-03     36.7312E-03
            2918            3485     34.0918E-03     36.8231E-03
            2918            3486     31.7654E-03     34.4485E-03
            2918            3503     33.5792E-03     36.7312E-03
            2918            3504     31.3219E-03     34.3956E-03
            2919            3486     31.7654E-03     34.4485E-03
            2919            3487     29.6809E-03     32.3029E-03
            2919            3504     31.3219E-03     34.3956E-03
            2919            3505     29.4099E-03     32.3530E-03
            2920            3487     29.6809E-03     32.3029E-03
            2920            3488     28.0449E-03     30.5722E-03
            2920            3505     29.4099E-03     32.3530E-03
            2920            3506     27.8611E-03     30.6335E-03
            2921            3488     28.0449E-03     30.5722E-03
            2921            3489     27.2695E-03     29.7101E-03
            2921            3506     27.8611E-03     30.6335E-03
            2921            3507     27.5661E-03     30.0780E-03
            2922            3489     27.2695E-03     29.7101E-03
            2922            3490     25.8312E-03     28.3101E-03
            2922            3507     27.5661E-03     30.0780E-03
            2922            3508     28.7893E-03     31.0858E-03
            2923             427     28.5987E-03     28.6900E-03
            2923             428     24.1004E-03     24.0059E-03
            2923            3490     25.8312E-03     28.3101E-03
            2923            3508     28.7893E-03     31.0858E-03
            2924             644     85.1460E-03     85.1854E-03
            2924             645     78.9765E-03     81.8000E-03
            2924            3491     71.0812E-03     73.6862E-03
            2924            3509     81.2401E-03     81.2100E-03
            2925            3491     71.0812E-03     73.6862E-03
            2925            3492     65.7524E-03     68.3183E-03
            2925            3509     81.2401E-03     81.2100E-03
            2925            3510     77.6315E-03     77.8830E-03
            2926            3492     65.7524E-03     68.3183E-03
            2926            3493     61.4355E-03     64.0874E-03
            2926            3510     77.6315E-03     77.8830E-03
            2926            3511     74.4222E-03     74.9058E-03
            2927            3493     61.4355E-03     64.0874E-03
            2927            3494     57.8786E-03     60.6341E-03
            2927            3511     74.4222E-03     74.9058E-03
            2927            3512     71.2599E-03     72.0480E-03
            2928            3494     57.8786E-03     60.6341E-03
            2928            3495     54.6894E-03     57.5677E-03
            2928            3512     71.2599E-03     72.0480E-03
            2928            3513     68.1947E-03     69.1846E-03
            2929            3495     54.6894E-03     57.5677E-03
            2929            3496     51.7711E-03     54.7511E-03
            2929            3513     68.1947E-03     69.1846E-03
            2929            3514     65.1104E-03     66.3007E-03
            2930            3496     51.7711E-03     54.7511E-03
            2930            3497     48.9856E-03     52.0547E-03
            2930            3514     65.1104E-03     66.3007E-03
            2930            3515     62.0346E-03     63.3507E-03
            2931            3497     48.9856E-03     52.0547E-03
            2931            3498     46.2930E-03     49.4270E-03
            2931            3515     62.0346E-03     63.3507E-03
            2931            3516     58.9260E-03     60.3511E-03
            2932            3498     46.2930E-03     49.4270E-03
            2932            3499     43.6492E-03     46.8310E-03
            2932            3516     58.9260E-03     60.3511E-03
            2932            3517     55.8090E-03     57.2971E-03
            2933            3499     43.6492E-03     46.8310E-03
            2933            3500     41.0429E-03     44.2515E-03
            2933            3517     55.8090E-03     57.2971E-03
            2933            3518     52.6716E-03     54.2033E-03
            2934            3500     41.0429E-03     44.2515E-03
            2934            3501     38.4818E-03     41.6971E-03
            2934            3518     52.6716E-03     54.2033E-03
            2934            3519     49.5481E-03     51.0886E-03
            2935            3501     38.4818E-03     41.6971E-03
            2935            3502     35.9717E-03     39.1712E-03
            2935            3519     49.5481E-03     51.0886E-03
            2935            3520     46.4443E-03     47.9643E-03
            2936            3502     35.9717E-03     39.1712E-03
            2936            3503     33.5792E-03     36.7312E-03
            2936            3520     46.4443E-03     47.9643E-03
            2936            3521     43.4238E-03     44.8761E-03
            2937            3503     33.5792E-03     36.7312E-03
            2937            3504     31.3219E-03     34.3956E-03
            2937            3521     43.4238E-03     44.8761E-03
            2937            3522     40.5221E-03     41.8475E-03
            2938            3504     31.3219E-03     34.3956E-03
            2938            3505     29.4099E-03     32.3530E-03
            2938            3522     40.5221E-03     41.8475E-03
            2938            3523     37.8783E-03     38.9975E-03
            2939            3505     29.4099E-03     32.3530E-03
            2939            3506     27.8611E-03     30.6335E-03
            2939            3523     37.8783E-03     38.9975E-03
            2939            3524     35.6250E-03     36.4189E-03
            2940            3506     27.8611E-03     30.6335E-03
            2940            3507     27.5661E-03     30.0780E-03
            2940            3524     35.6250E-03     36.4189E-03
            2940            3525     34.1541E-03     34.6011E-03
            2941            3507     27.5661E-03     30.0780E-03
            2941            3508     28.7893E-03     31.0858E-03
            2941            3525     34.1541E-03     34.6011E-03
            2941            3526     34.6955E-03     34.8761E-03
            2942             426     30.7155E-03     34.1587E-03
            2942             427     28.5987E-03     28.6900E-03
            2942            3508     28.7893E-03     31.0858E-03
            2942            3526     34.6955E-03     34.8761E-03
            2943             643     95.3835E-03     93.9526E-03
            2943             644     85.1460E-03     85.1854E-03
            2943            3509     81.2401E-03     81.2100E-03
            2943            3527     94.3896E-03     92.9881E-03
            2944            3509     81.2401E-03     81.2100E-03
            2944            3510     77.6315E-03     77.8830E-03
            2944            3527     94.3896E-03     92.9881E-03
            2944            3528     92.4214E-03     91.2093E-03
            2945            3510     77.6315E-03     77.8830E-03
            2945            3511     74.4222E-03     74.9058E-03
            2945            3528     92.4214E-03     91.2093E-03
            2945            3529     89.8653E-03     88.8660E-03
            2946            3511     74.4222E-03     74.9058E-03
            2946            3512     71.2599E-03     72.0480E-03
            2946            3529     89.8653E-03     88.8660E-03
            2946            3530     86.8827E-03     86.0980E-03
            2947            3512     71.2599E-03     72.0480E-03
            2947            3513     68.1947E-03     69.1846E-03
            2947            3530     86.8827E-03     86.0980E-03
            2947            3531     83.6139E-03     83.0124E-03
            2948            3513     68.1947E-03     69.1846E-03
            2948            3514     65.1104E-03     66.3007E-03
            2948            3531     83.6139E-03     83.0124E-03
            2948            3532     80.1329E-03     79.6753E-03
            2949            3514     65.1104E-03     66.3007E-03
            2949            3515     62.0346E-03     63.3507E-03
            2949            3532     80.1329E-03     79.6753E-03
            2949            3533     76.5072E-03     76.1658E-03
            2950            3515     62.0346E-03     63.3507E-03
            2950            3516     58.9260E-03     60.3511E-03
            2950            3533     76.5072E-03     76.1658E-03
            2950            3534     72.7800E-03     72.5158E-03
            2951            3516     58.9260E-03     60.3511E-03
            2951            3517     55.8090E-03     57.2971E-03
            2951            3534     72.7800E-03     72.5158E-03
            2951            3535     68.9852E-03     68.7777E-03
            2952            3517     55.8090E-03     57.2971E-03
            2952            3518     52.6716E-03     54.2033E-03
            2952            3535     68.9852E-03     68.7777E-03
            2952            3536     65.1478E-03     64.9670E-03
            2953            3518     52.6716E-03     54.2033E-03
            2953            3519     49.5481E-03     51.0886E-03
            2953            3536     65.1478E-03     64.9670E-03
            2953            3537     61.2940E-03     61.1173E-03
            2954            3519     49.5481E-03     51.0886E-03
            2954            3520     46.4443E-03     47.9643E-03
            2954            3537     61.2940E-03     61.1173E-03
            2954            3538     57.4399E-03     57.2381E-03
            2955            3520     46.4443E-03     47.9643E-03
            2955            3521     43.4238E-03     44.8761E-03
            2955            3538     57.4399E-03     57.2381E-03
            2955            3539     53.6281E-03     53.3640E-03
            2956            3521     43.4238E-03     44.8761E-03
            2956            3522     40.5221E-03     41.8475E-03
            2956            3539     53.6281E-03     53.3640E-03
            2956            3540     49.8704E-03     49.5087E-03
            2957            3522     40.5221E-03     41.8475E-03
            2957            3523     37.8783E-03     38.9975E-03
            2957            3540     49.8704E-03     49.5087E-03
            2957            3541     46.2749E-03     45.7834E-03
            2958            3523     37.8783E-03     38.9975E-03
            2958            3524     35.6250E-03     36.4189E-03
            2958            3541     46.2749E-03     45.7834E-03
            2958            3542     42.7956E-03     42.2242E-03
            2959            3524     35.6250E-03     36.4189E-03
            2959            3525     34.1541E-03     34.6011E-03
            2959            3542     42.7956E-03     42.2242E-03
            2959            3543     39.7075E-03     39.5275E-03
            2960            3525     34.1541E-03     34.6011E-03
            2960            3526     34.6955E-03     34.8761E-03
            2960            3543     39.7075E-03     39.5275E-03
            2960            3544     36.0676E-03     37.9116E-03
            2961             425     30.6226E-03     35.1632E-03
            2961             426     30.7155E-03     34.1587E-03
            2961            3526     34.6955E-03     34.8761E-03
            2961            3544     36.0676E-03     37.9116E-03
            2962             642     99.6020E-03     100.438E-03
            2962             643     95.3835E-03     93.9526E-03
            2962            3527     94.3896E-03     92.9881E-03
            2962            3545     98.2893E-03     98.8902E-03
            2963            3527     94.3896E-03     92.9881E-03
            2963            3528     92.4214E-03     91.2093E-03
            2963            3545     98.2893E-03     98.8902E-03
            2963            3546     96.0684E-03     96.4223E-03
            2964            3528     92.4214E-03     91.2093E-03
            2964            3529     89.8653E-03     88.8660E-03
            2964            3546     96.0684E-03     96.4223E-03
            2964            3547     93.1406E-03     93.3676E-03
            2965            3529     89.8653E-03     88.8660E-03
            2965            3530     86.8827E-03     86.0980E-03
            2965            3547     93.1406E-03     93.3676E-03
            2965            3548     89.7523E-03     89.9405E-03
            2966            3530     86.8827E-03     86.0980E-03
            2966            3531     83.6139E-03     83.0124E-03
            2966            3548     89.7523E-03     89.9405E-03
            2966            3549     86.0620E-03     86.2387E-03
            2967            3531     83.6139E-03     83.0124E-03
            2967            3532     80.1329E-03     79.6753E-03
            2967            3549     86.0620E-03     86.2387E-03
            2967            3550     82.1831E-03     82.3844E-03
            2968            3532     80.1329E-03     79.6753E-03
            2968            3533     76.5072E-03     76.1658E-03
            2968            3550     82.1831E-03     82.3844E-03
            2968            3551     78.1998E-03     78.4140E-03
            2969            3533     76.5072E-03     76.1658E-03
            2969            3534     72.7800E-03     72.5158E-03
            2969            3551     78.1998E-03     78.4140E-03
            2969            3552     74.1535E-03     74.3914E-03
            2970            3534     72.7800E-03     72.5158E-03
            2970            3535     68.9852E-03     68.7777E-03
            2970            3552     74.1535E-03     74.3914E-03
            2970            3553     70.0829E-03     70.3269E-03
            2971            3535     68.9852E-03     68.7777E-03
            2971            3536     65.1478E-03     64.9670E-03
            2971            3553     70.0829E-03     70.3269E-03
            2971            3554     66.0031E-03     66.2521E-03
            2972            3536     65.1478E-03     64.9670E-03
            2972            3537     61.2940E-03     61.1173E-03
            2972            3554     66.0031E-03     66.2521E-03
            2972            3555     61.9273E-03     62.1668E-03
            2973            3537     61.2940E-03     61.1173E-03
            2973            3538     57.4399E-03     57.2381E-03
            2973            3555     61.9273E-03     62.1668E-03
            2973            3556     57.8625E-03     58.0915E-03
            2974            3538     57.4399E-03     57.2381E-03
            2974            3539     53.6281E-03     53.3640E-03
            2974            3556     57.8625E-03     58.0915E-03
            2974            3557     53.8097E-03     54.0277E-03
            2975            3539     53.6281E-03     53.3640E-03
            2975            3540     49.8704E-03     49.5087E-03
            2975            3557     53.8097E-03     54.0277E-03
            2975            3558     49.7660E-03     50.0167E-03
            2976            3540     49.8704E-03     49.5087E-03
            2976            3541     46.2749E-03     45.7834E-03
            2976            3558     49.7660E-03     50.0167E-03
            2976            3559     45.7186E-03     46.1019E-03
            2977            3541     46.2749E-03     45.7834E-03
            2977            3542     42.7956E-03     42.2242E-03
            2977            3559     45.7186E-03     46.1019E-03
            2977            3560     41.6015E-03     42.4556E-03
            2978            3542     42.7956E-03     42.2242E-03
            2978            3543     39.7075E-03     39.5275E-03
            2978            3560     41.6015E-03     42.4556E-03
            2978            3561     37.2422E-03     39.5175E-03
            2979            3543     39.7075E-03     39.5275E-03
            2979            3544     36.0676E-03     37.9116E-03
            2979            3561     37.2422E-03     39.5175E-03
            2979            3562     32.4331E-03     36.1305E-03
            2980             424     30.2398E-03     31.0554E-03
            2980             425     30.6226E-03     35.1632E-03
            2980            3544     36.0676E-03     37.9116E-03
            2980            3562     32.4331E-03     36.1305E-03
            2981             641     103.946E-03     105.777E-03
            2981             642     99.6020E-03     100.438E-03
            2981            3545     98.2893E-03     98.8902E-03
            2981            3563     101.806E-03     103.536E-03
            2982            3545     98.2893E-03     98.8902E-03
            2982            3546     96.0684E-03     96.4223E-03
            2982            3563     101.806E-03     103.536E-03
            2982            3564     99.0672E-03     100.587E-03
            2983            3546     96.0684E-03     96.4223E-03
            2983            3547     93.1406E-03     93.3676E-03
            2983            3564     99.0672E-03     100.587E-03
            2983            3565     95.7527E-03     97.0091E-03
            2984            3547     93.1406E-03     93.3676E-03
            2984            3548     89.7523E-03     89.9405E-03
            2984            3565     95.7527E-03     97.0091E-03
            2984            3566     91.9786E-03     93.0484E-03
            2985            3548     89.7523E-03     89.9405E-03
            2985            3549     86.0620E-03     86.2387E-03
            2985            3566     91.9786E-03     93.0484E-03
            2985            3567     87.9353E-03     88.8880E-03
            2986            3549     86.0620E-03     86.2387E-03
            2986            3550     82.1831E-03     82.3844E-03
            2986            3567     87.9353E-03     88.8880E-03
            2986            3568     83.7483E-03     84.6063E-03
            2987            3550     82.1831E-03     82.3844E-03
            2987            3551     78.1998E-03     78.4140E-03
            2987            3568     83.7483E-03     84.6063E-03
            2987            3569     79.4821E-03     80.2935E-03
            2988            3551     78.1998E-03     78.4140E-03
            2988            3552     74.1535E-03     74.3914E-03
            2988            3569     79.4821E-03     80.2935E-03
            2988            3570     75.2000E-03     75.9669E-03
            2989            3552     74.1535E-03     74.3914E-03
            2989            3553     70.0829E-03     70.3269E-03
            2989            3570     75.2000E-03     75.9669E-03
            2989            3571     70.9153E-03     71.6607E-03
            2990            3553     70.0829E-03     70.3269E-03
            2990            3554     66.0031E-03     66.2521E-03
            2990            3571     70.9153E-03     71.6607E-03
            2990            3572     66.6480E-03     67.3729E-03
            2991            3554     66.0031E-03     66.2521E-03
            2991            3555     61.9273E-03     62.1668E-03
            2991            3572     66.6480E-03     67.3729E-03
            2991            3573     62.3965E-03     63.1178E-03
            2992            3555     61.9273E-03     62.1668E-03
            2992            3556     57.8625E-03     58.0915E-03
            2992            3573     62.3965E-03     63.1178E-03
            2992            3574     58.1566E-03     58.8905E-03
            2993            3556     57.8625E-03     58.0915E-03
            2993            3557     53.8097E-03     54.0277E-03
            2993            3574     58.1566E-03     58.8905E-03
            2993            3575     53.9064E-03     54.6977E-03
            2994            3557     53.8097E-03     54.0277E-03
            2994            3558     49.7660E-03     50.0167E-03
            2994            3575     53.9064E-03     54.6977E-03
            2994            3576     49.6223E-03     50.5635E-03
            2995            3558     49.7660E-03     50.0167E-03
            2995            3559     45.7186E-03     46.1019E-03
            2995            3576     49.6223E-03     50.5635E-03
            2995            3577     45.2242E-03     46.4774E-03
            2996            3559     45.7186E-03     46.1019E-03
            2996            3560     41.6015E-03     42.4556E-03
            2996            3577     45.2242E-03     46.4774E-03
            2996            3578     40.6470E-03     42.6359E-03
            2997            3560     41.6015E-03     42.4556E-03
            2997            3561     37.2422E-03     39.5175E-03
            2997            3578     40.6470E-03     42.6359E-03
            2997            3579     35.7968E-03     38.5898E-03
            2998            3561     37.2422E-03     39.5175E-03
            2998            3562     32.4331E-03     36.1305E-03
            2998            3579     35.7968E-03     38.5898E-03
            2998            3580     31.2064E-03     33.6966E-03
            2999             423     28.6197E-03     28.4853E-03
            2999             424     30.2398E-03     31.0554E-03
            2999            3562     32.4331E-03     36.1305E-03
            2999            3580     31.2064E-03     33.6966E-03
            3000             640     108.103E-03     110.165E-03
            3000             641     103.946E-03     105.777E-03
            3000            3563     101.806E-03     103.536E-03
            3000            3581     104.905E-03     107.247E-03
            3001            3563     101.806E-03     103.536E-03
            3001            3564     99.0672E-03     100.587E-03
            3001            3581     104.905E-03     107.247E-03
            3001            3582     101.510E-03     103.710E-03
            3002            3564     99.0672E-03     100.587E-03
            3002            3565     95.7527E-03     97.0091E-03
            3002            3582     101.510E-03     103.710E-03
            3002            3583     97.6401E-03     99.6559E-03
            3003            3565     95.7527E-03     97.0091E-03
            3003            3566     91.9786E-03     93.0484E-03
            3003            3583     97.6401E-03     99.6559E-03
            3003            3584     93.4720E-03     95.2763E-03
            3004            3566     91.9786E-03     93.0484E-03
            3004            3567     87.9353E-03     88.8880E-03
            3004            3584     93.4720E-03     95.2763E-03
            3004            3585     89.1207E-03     90.7367E-03
            3005            3567     87.9353E-03     88.8880E-03
            3005            3568     83.7483E-03     84.6063E-03
            3005            3585     89.1207E-03     90.7367E-03
            3005            3586     84.6758E-03     86.1636E-03
            3006            3568     83.7483E-03     84.6063E-03
            3006            3569     79.4821E-03     80.2935E-03
            3006            3586     84.6758E-03     86.1636E-03
            3006            3587     80.2226E-03     81.5985E-03
            3007            3569     79.4821E-03     80.2935E-03
            3007            3570     75.2000E-03     75.9669E-03
            3007            3587     80.2226E-03     81.5985E-03
            3007            3588     75.7713E-03     77.0776E-03
            3008            3570     75.2000E-03     75.9669E-03
            3008            3571     70.9153E-03     71.6607E-03
            3008            3588     75.7713E-03     77.0776E-03
            3008            3589     71.3521E-03     72.6038E-03
            3009            3571     70.9153E-03     71.6607E-03
            3009            3572     66.6480E-03     67.3729E-03
            3009            3589     71.3521E-03     72.6038E-03
            3009            3590     66.9605E-03     68.1865E-03
            3010            3572     66.6480E-03     67.3729E-03
            3010            3573     62.3965E-03     63.1178E-03
            3010            3590     66.9605E-03     68.1865E-03
            3010            3591     62.5954E-03     63.8191E-03
            3011            3573     62.3965E-03     63.1178E-03
            3011            3574     58.1566E-03     58.8905E-03
            3011            3591     62.5954E-03     63.8191E-03
            3011            3592     58.2438E-03     59.5050E-03
            3012            3574     58.1566E-03     58.8905E-03
            3012            3575     53.9064E-03     54.6977E-03
            3012            3592     58.2438E-03     59.5050E-03
            3012            3593     53.8770E-03     55.2446E-03
            3013            3575     53.9064E-03     54.6977E-03
            3013            3576     49.6223E-03     50.5635E-03
            3013            3593     53.8770E-03     55.2446E-03
            3013            3594     49.4459E-03     51.0081E-03
            3014            3576     49.6223E-03     50.5635E-03
            3014            3577     45.2242E-03     46.4774E-03
            3014            3594     49.4459E-03     51.0081E-03
            3014            3595     44.8873E-03     46.8429E-03
            3015            3577     45.2242E-03     46.4774E-03
            3015            3578     40.6470E-03     42.6359E-03
            3015            3595     44.8873E-03     46.8429E-03
            3015            3596     40.1212E-03     42.5598E-03
            3016            3578     40.6470E-03     42.6359E-03
            3016            3579     35.7968E-03     38.5898E-03
            3016            3596     40.1212E-03     42.5598E-03
            3016            3597     35.2625E-03     37.8859E-03
            3017            3579     35.7968E-03     38.5898E-03
            3017            3580     31.2064E-03     33.6966E-03
            3017            3597     35.2625E-03     37.8859E-03
            3017            3598     30.4224E-03     33.3346E-03
            3018             422     27.7741E-03     27.8911E-03
            3018             423     28.6197E-03     28.4853E-03
            3018            3580     31.2064E-03     33.6966E-03
            3018            3598     30.4224E-03     33.3346E-03
            3019             639     111.715E-03     113.939E-03
            3019             640     108.103E-03     110.165E-03
            3019            3581     104.905E-03     107.247E-03
            3019            3599     107.637E-03     110.167E-03
            3020            3581     104.905E-03     107.247E-03
            3020            3582     101.510E-03     103.710E-03
            3020            3599     107.637E-03     110.167E-03
            3020            3600     103.295E-03     105.935E-03
            3021            3582     101.510E-03     103.710E-03
            3021            3583     97.6401E-03     99.6559E-03
            3021            3600     103.295E-03     105.935E-03
            3021            3601     98.8110E-03     101.334E-03
            3022            3583     97.6401E-03     99.6559E-03
            3022            3584     93.4720E-03     95.2763E-03
            3022            3601     98.8110E-03     101.334E-03
            3022            3602     94.2037E-03     96.5460E-03
            3023            3584     93.4720E-03     95.2763E-03
            3023            3585     89.1207E-03     90.7367E-03
            3023            3602     94.2037E-03     96.5460E-03
            3023            3603     89.5497E-03     91.7311E-03
            3024            3585     89.1207E-03     90.7367E-03
            3024            3586     84.6758E-03     86.1636E-03
            3024            3603     89.5497E-03     91.7311E-03
            3024            3604     84.9383E-03     86.9591E-03
            3025            3586     84.6758E-03     86.1636E-03
            3025            3587     80.2226E-03     81.5985E-03
            3025            3604     84.9383E-03     86.9591E-03
            3025            3605     80.3518E-03     82.2557E-03
            3026            3587     80.2226E-03     81.5985E-03
            3026            3588     75.7713E-03     77.0776E-03
            3026            3605     80.3518E-03     82.2557E-03
            3026            3606     75.8213E-03     77.6312E-03
            3027            3588     75.7713E-03     77.0776E-03
            3027            3589     71.3521E-03     72.6038E-03
            3027            3606     75.8213E-03     77.6312E-03
            3027            3607     71.3322E-03     73.0819E-03
            3028            3589     71.3521E-03     72.6038E-03
            3028            3590     66.9605E-03     68.1865E-03
            3028            3607     71.3322E-03     73.0819E-03
            3028            3608     66.8864E-03     68.6032E-03
            3029            3590     66.9605E-03     68.1865E-03
            3029            3591     62.5954E-03     63.8191E-03
            3029            3608     66.8864E-03     68.6032E-03
            3029            3609     62.4761E-03     64.1944E-03
            3030            3591     62.5954E-03     63.8191E-03
            3030            3592     58.2438E-03     59.5050E-03
            3030            3609     62.4761E-03     64.1944E-03
            3030            3610     58.0819E-03     59.8500E-03
            3031            3592     58.2438E-03     59.5050E-03
            3031            3593     53.8770E-03     55.2446E-03
            3031            3610     58.0819E-03     59.8500E-03
            3031            3611     53.6931E-03     55.5696E-03
            3032            3593     53.8770E-03     55.2446E-03
            3032            3594     49.4459E-03     51.0081E-03
            3032            3611     53.6931E-03     55.5696E-03
            3032            3612     49.2491E-03     51.3392E-03
            3033            3594     49.4459E-03     51.0081E-03
            3033            3595     44.8873E-03     46.8429E-03
            3033            3612     49.2491E-03     51.3392E-03
            3033            3613     44.6988E-03     47.0772E-03
            3034            3595     44.8873E-03     46.8429E-03
            3034            3596     40.1212E-03     42.5598E-03
            3034            3613     44.6988E-03     47.0772E-03
            3034            3614     40.0046E-03     42.6403E-03
            3035            3596     40.1212E-03     42.5598E-03
            3035            3597     35.2625E-03     37.8859E-03
            3035            3614     40.0046E-03     42.6403E-03
            3035            3615     35.1164E-03     38.0450E-03
            3036            3597     35.2625E-03     37.8859E-03
            3036            3598     30.4224E-03     33.3346E-03
            3036            3615     35.1164E-03     38.0450E-03
            3036            3616     30.4112E-03     33.2712E-03
            3037             421     27.5183E-03     27.1522E-03
            3037             422     27.7741E-03     27.8911E-03
            3037            3598     30.4224E-03     33.3346E-03
            3037            3616     30.4112E-03     33.2712E-03
            3038             638     114.994E-03     117.268E-03
            3038             639     111.715E-03     113.939E-03
            3038            3599     107.637E-03     110.167E-03
            3038            3617     109.677E-03     112.423E-03
            3039            3599     107.637E-03     110.167E-03
            3039            3600     103.295E-03     105.935E-03
            3039            3617     109.677E-03     112.423E-03
            3039            3618     104.400E-03     107.278E-03
            3040            3600     103.295E-03     105.935E-03
            3040            3601     98.8110E-03     101.334E-03
            3040            3618     104.400E-03     107.278E-03
            3040            3619     99.1896E-03     102.025E-03
            3041            3601     98.8110E-03     101.334E-03
            3041            3602     94.2037E-03     96.5460E-03
            3041            3619     99.1896E-03     102.025E-03
            3041            3620     94.1143E-03     96.8733E-03
            3042            3602     94.2037E-03     96.5460E-03
            3042            3603     89.5497E-03     91.7311E-03
            3042            3620     94.1143E-03     96.8733E-03
            3042            3621     89.2660E-03     91.8743E-03
            3043            3603     89.5497E-03     91.7311E-03
            3043            3604     84.9383E-03     86.9591E-03
            3043            3621     89.2660E-03     91.8743E-03
            3043            3622     84.5274E-03     87.0044E-03
            3044            3604     84.9383E-03     86.9591E-03
            3044            3605     80.3518E-03     82.2557E-03
            3044            3622     84.5274E-03     87.0044E-03
            3044            3623     79.9062E-03     82.2690E-03
            3045            3605     80.3518E-03     82.2557E-03
            3045            3606     75.8213E-03     77.6312E-03
            3045            3623     79.9062E-03     82.2690E-03
            3045            3624     75.3565E-03     77.6321E-03
            3046            3606     75.8213E-03     77.6312E-03
            3046            3607     71.3322E-03     73.0819E-03
            3046            3624     75.3565E-03     77.6321E-03
            3046            3625     70.8696E-03     73.0873E-03
            3047            3607     71.3322E-03     73.0819E-03
            3047            3608     66.8864E-03     68.6032E-03
            3047            3625     70.8696E-03     73.0873E-03
            3047            3626     66.4322E-03     68.6181E-03
            3048            3608     66.8864E-03     68.6032E-03
            3048            3609     62.4761E-03     64.1944E-03
            3048            3626     66.4322E-03     68.6181E-03
            3048            3627     62.0330E-03     64.2216E-03
            3049            3609     62.4761E-03     64.1944E-03
            3049            3610     58.0819E-03     59.8500E-03
            3049            3627     62.0330E-03     64.2216E-03
            3049            3628     57.6754E-03     59.9035E-03
            3050            3610     58.0819E-03     59.8500E-03
            3050            3611     53.6931E-03     55.5696E-03
            3050            3628     57.6754E-03     59.9035E-03
            3050            3629     53.3293E-03     55.6539E-03
            3051            3611     53.6931E-03     55.5696E-03
            3051            3612     49.2491E-03     51.3392E-03
            3051            3629     53.3293E-03     55.6539E-03
            3051            3630     49.0121E-03     51.4959E-03
            3052            3612     49.2491E-03     51.3392E-03
            3052            3613     44.6988E-03     47.0772E-03
            3052            3630     49.0121E-03     51.4959E-03
            3052            3631     44.6331E-03     47.3148E-03
            3053            3613     44.6988E-03     47.0772E-03
            3053            3614     40.0046E-03     42.6403E-03
            3053            3631     44.6331E-03     47.3148E-03
            3053            3632     40.1214E-03     43.0349E-03
            3054            3614     40.0046E-03     42.6403E-03
            3054            3615     35.1164E-03     38.0450E-03
            3054            3632     40.1214E-03     43.0349E-03
            3054            3633     35.4831E-03     38.5310E-03
            3055            3615     35.1164E-03     38.0450E-03
            3055            3616     30.4112E-03     33.2712E-03
            3055            3633     35.4831E-03     38.5310E-03
            3055            3634     30.6982E-03     33.7967E-03
            3056             420     27.5259E-03     27.3851E-03
            3056             421     27.5183E-03     27.1522E-03
            3056            3616     30.4112E-03     33.2712E-03
            3056            3634     30.6982E-03     33.7967E-03
            3057             637     117.615E-03     120.239E-03
            3057             638     114.994E-03     117.268E-03
            3057            3617     109.677E-03     112.423E-03
            3057            3635     111.017E-03     113.849E-03
            3058            3617     109.677E-03     112.423E-03
            3058            3618     104.400E-03     107.278E-03
            3058            3635     111.017E-03     113.849E-03
            3058            3636     104.575E-03     107.550E-03
            3059            3618     104.400E-03     107.278E-03
            3059            3619     99.1896E-03     102.025E-03
            3059            3636     104.575E-03     107.550E-03
            3059            3637     98.5960E-03     101.702E-03
            3060            3619     99.1896E-03     102.025E-03
            3060            3620     94.1143E-03     96.8733E-03
            3060            3637     98.5960E-03     101.702E-03
            3060            3638     93.2854E-03     96.3171E-03
            3061            3620     94.1143E-03     96.8733E-03
            3061            3621     89.2660E-03     91.8743E-03
            3061            3638     93.2854E-03     96.3171E-03
            3061            3639     88.2874E-03     91.2282E-03
            3062            3621     89.2660E-03     91.8743E-03
            3062            3622     84.5274E-03     87.0044E-03
            3062            3639     88.2874E-03     91.2282E-03
            3062            3640     83.5471E-03     86.3945E-03
            3063            3622     84.5274E-03     87.0044E-03
            3063            3623     79.9062E-03     82.2690E-03
            3063            3640     83.5471E-03     86.3945E-03
            3063            3641     78.9520E-03     81.7120E-03
            3064            3623     79.9062E-03     82.2690E-03
            3064            3624     75.3565E-03     77.6321E-03
            3064            3641     78.9520E-03     81.7120E-03
            3064            3642     74.4556E-03     77.1567E-03
            3065            3624     75.3565E-03     77.6321E-03
            3065            3625     70.8696E-03     73.0873E-03
            3065            3642     74.4556E-03     77.1567E-03
            3065            3643     70.0271E-03     72.6825E-03
            3066            3625     70.8696E-03     73.0873E-03
            3066            3626     66.4322E-03     68.6181E-03
            3066            3643     70.0271E-03     72.6825E-03
            3066            3644     65.6480E-03     68.2829E-03
            3067            3626     66.4322E-03     68.6181E-03
            3067            3627     62.0330E-03     64.2216E-03
            3067            3644     65.6480E-03     68.2829E-03
            3067            3645     61.3178E-03     63.9498E-03
            3068            3627     62.0330E-03     64.2216E-03
            3068            3628     57.6754E-03     59.9035E-03
            3068            3645     61.3178E-03     63.9498E-03
            3068            3646     57.0318E-03     59.6886E-03
            3069            3628     57.6754E-03     59.9035E-03
            3069            3629     53.3293E-03     55.6539E-03
            3069            3646     57.0318E-03     59.6886E-03
            3069            3647     52.8176E-03     55.5318E-03
            3070            3629     53.3293E-03     55.6539E-03
            3070            3630     49.0121E-03     51.4959E-03
            3070            3647     52.8176E-03     55.5318E-03
            3070            3648     48.6540E-03     51.4547E-03
            3071            3630     49.0121E-03     51.4959E-03
            3071            3631     44.6331E-03     47.3148E-03
            3071            3648     48.6540E-03     51.4547E-03
            3071            3649     44.6168E-03     47.5704E-03
            3072            3631     44.6331E-03     47.3148E-03
            3072            3632     40.1214E-03     43.0349E-03
            3072            3649     44.6168E-03     47.5704E-03
            3072            3650     40.5164E-03     43.6420E-03
            3073            3632     40.1214E-03     43.0349E-03
            3073            3633     35.4831E-03     38.5310E-03
            3073            3650     40.5164E-03     43.6420E-03
            3073            3651     36.1788E-03     39.4071E-03
            3074            3633     35.4831E-03     38.5310E-03
            3074            3634     30.6982E-03     33.7967E-03
            3074            3651     36.1788E-03     39.4071E-03
            3074            3652     31.5670E-03     34.8631E-03
            3075             419     28.2822E-03     28.0726E-03
            3075             420     27.5259E-03     27.3851E-03
            3075            3634     30.6982E-03     33.7967E-03
            3075            3652     31.5670E-03     34.8631E-03
            3076             636     119.765E-03     122.165E-03
            3076             637     117.615E-03     120.239E-03
            3076            3635     111.017E-03     113.849E-03
            3076            3653     111.071E-03     113.850E-03
            3077            3635     111.017E-03     113.849E-03
            3077            3636     104.575E-03     107.550E-03
            3077            3653     111.071E-03     113.850E-03
            3077            3654     103.349E-03     106.551E-03
            3078            3636     104.575E-03     107.550E-03
            3078            3637     98.5960E-03     101.702E-03
            3078            3654     103.349E-03     106.551E-03
            3078            3655     97.1926E-03     100.425E-03
            3079            3637     98.5960E-03     101.702E-03
            3079            3638     93.2854E-03     96.3171E-03
            3079            3655     97.1926E-03     100.425E-03
            3079            3656     91.7339E-03     94.9511E-03
            3080            3638     93.2854E-03     96.3171E-03
            3080            3639     88.2874E-03     91.2282E-03
            3080            3656     91.7339E-03     94.9511E-03
            3080            3657     86.7799E-03     89.9695E-03
            3081            3639     88.2874E-03     91.2282E-03
            3081            3640     83.5471E-03     86.3945E-03
            3081            3657     86.7799E-03     89.9695E-03
            3081            3658     82.1171E-03     85.2577E-03
            3082            3640     83.5471E-03     86.3945E-03
            3082            3641     78.9520E-03     81.7120E-03
            3082            3658     82.1171E-03     85.2577E-03
            3082            3659     77.6203E-03     80.7389E-03
            3083            3641     78.9520E-03     81.7120E-03
            3083            3642     74.4556E-03     77.1567E-03
            3083            3659     77.6203E-03     80.7389E-03
            3083            3660     73.2319E-03     76.3232E-03
            3084            3642     74.4556E-03     77.1567E-03
            3084            3643     70.0271E-03     72.6825E-03
            3084            3660     73.2319E-03     76.3232E-03
            3084            3661     68.9042E-03     71.9861E-03
            3085            3643     70.0271E-03     72.6825E-03
            3085            3644     65.6480E-03     68.2829E-03
            3085            3661     68.9042E-03     71.9861E-03
            3085            3662     64.6264E-03     67.6983E-03
            3086            3644     65.6480E-03     68.2829E-03
            3086            3645     61.3178E-03     63.9498E-03
            3086            3662     64.6264E-03     67.6983E-03
            3086            3663     60.3955E-03     63.4663E-03
            3087            3645     61.3178E-03     63.9498E-03
            3087            3646     57.0318E-03     59.6886E-03
            3087            3663     60.3955E-03     63.4663E-03
            3087            3664     56.2261E-03     59.3000E-03
            3088            3646     57.0318E-03     59.6886E-03
            3088            3647     52.8176E-03     55.5318E-03
            3088            3664     56.2261E-03     59.3000E-03
            3088            3665     52.1472E-03     55.2275E-03
            3089            3647     52.8176E-03     55.5318E-03
            3089            3648     48.6540E-03     51.4547E-03
            3089            3665     52.1472E-03     55.2275E-03
            3089            3666     48.2155E-03     51.3235E-03
            3090            3648     48.6540E-03     51.4547E-03
            3090            3649     44.6168E-03     47.5704E-03
            3090            3666     48.2155E-03     51.3235E-03
            3090            3667     44.4588E-03     47.6010E-03
            3091            3649     44.6168E-03     47.5704E-03
            3091            3650     40.5164E-03     43.6420E-03
            3091            3667     44.4588E-03     47.6010E-03
            3091            3668     41.0747E-03     44.3400E-03
            3092            3650     40.5164E-03     43.6420E-03
            3092            3651     36.1788E-03     39.4071E-03
            3092            3668     41.0747E-03     44.3400E-03
            3092            3669     37.4456E-03     40.9313E-03
            3093            3651     36.1788E-03     39.4071E-03
            3093            3652     31.5670E-03     34.8631E-03
            3093            3669     37.4456E-03     40.9313E-03
            3093            3670     33.0638E-03     36.4902E-03
            3094             418     29.6017E-03     29.5604E-03
            3094             419     28.2822E-03     28.0726E-03
            3094            3652     31.5670E-03     34.8631E-03
            3094            3670     33.0638E-03     36.4902E-03
            3095             635     119.743E-03     122.038E-03
            3095             636     119.765E-03     122.165E-03
            3095            3653     111.071E-03     113.850E-03
            3095            3671     108.754E-03     111.873E-03
            3096            3653     111.071E-03     113.850E-03
            3096            3654     103.349E-03     106.551E-03
            3096            3671     108.754E-03     111.873E-03
            3096            3672     101.194E-03     104.416E-03
            3097            3654     103.349E-03     106.551E-03
            3097            3655     97.1926E-03     100.425E-03
            3097            3672     101.194E-03     104.416E-03
            3097            3673     95.0437E-03     98.2966E-03
            3098            3655     97.1926E-03     100.425E-03
            3098            3656     91.7339E-03     94.9511E-03
            3098            3673     95.0437E-03     98.2966E-03
            3098            3674     89.7237E-03     93.0441E-03
            3099            3656     91.7339E-03     94.9511E-03
            3099            3657     86.7799E-03     89.9695E-03
            3099            3674     89.7237E-03     93.0441E-03
            3099            3675     84.9331E-03     88.2841E-03
            3100            3657     86.7799E-03     89.9695E-03
            3100            3658     82.1171E-03     85.2577E-03
            3100            3675     84.9331E-03     88.2841E-03
            3100            3676     80.4104E-03     83.8201E-03
            3101            3658     82.1171E-03     85.2577E-03
            3101            3659     77.6203E-03     80.7389E-03
            3101            3676     80.4104E-03     83.8201E-03
            3101            3677     76.0709E-03     79.5151E-03
            3102            3659     77.6203E-03     80.7389E-03
            3102            3660     73.2319E-03     76.3232E-03
            3102            3677     76.0709E-03     79.5151E-03
            3102            3678     71.8168E-03     75.3025E-03
            3103            3660     73.2319E-03     76.3232E-03
            3103            3661     68.9042E-03     71.9861E-03
            3103            3678     71.8168E-03     75.3025E-03
            3103            3679     67.6248E-03     71.1333E-03
            3104            3661     68.9042E-03     71.9861E-03
            3104            3662     64.6264E-03     67.6983E-03
            3104            3679     67.6248E-03     71.1333E-03
            3104            3680     63.4736E-03     66.9994E-03
            3105            3662     64.6264E-03     67.6983E-03
            3105            3663     60.3955E-03     63.4663E-03
            3105            3680     63.4736E-03     66.9994E-03
            3105            3681     59.3654E-03     62.8917E-03
            3106            3663     60.3955E-03     63.4663E-03
            3106            3664     56.2261E-03     59.3000E-03
            3106            3681     59.3654E-03     62.8917E-03
            3106            3682     55.3322E-03     58.8422E-03
            3107            3664     56.2261E-03     59.3000E-03
            3107            3665     52.1472E-03     55.2275E-03
            3107            3682     55.3322E-03     58.8422E-03
            3107            3683     51.3976E-03     54.8749E-03
            3108            3665     52.1472E-03     55.2275E-03
            3108            3666     48.2155E-03     51.3235E-03
            3108            3683     51.3976E-03     54.8749E-03
            3108            3684     47.6706E-03     51.0851E-03
            3109            3666     48.2155E-03     51.3235E-03
            3109            3667     44.4588E-03     47.6010E-03
            3109            3684     47.6706E-03     51.0851E-03
            3109            3685     44.2199E-03     47.5652E-03
            3110            3667     44.4588E-03     47.6010E-03
            3110            3668     41.0747E-03     44.3400E-03
            3110            3685     44.2199E-03     47.5652E-03
            3110            3686     41.2745E-03     44.5453E-03
            3111            3668     41.0747E-03     44.3400E-03
            3111            3669     37.4456E-03     40.9313E-03
            3111            3686     41.2745E-03     44.5453E-03
            3111            3687     39.2123E-03     42.5972E-03
            3112            3669     37.4456E-03     40.9313E-03
            3112            3670     33.0638E-03     36.4902E-03
            3112            3687     39.2123E-03     42.5972E-03
            3112            3688     35.8669E-03     39.7311E-03
            3113             417     32.3532E-03     32.3531E-03
            3113             418     29.6017E-03     29.5604E-03
            3113            3670     33.0638E-03     36.4902E-03
            3113            3688     35.8669E-03     39.7311E-03
            3114             634     115.475E-03     118.657E-03
            3114             635     119.743E-03     122.038E-03
            3114            3671     108.754E-03     111.873E-03
            3114            3689     105.467E-03     108.442E-03
            3115            3671     108.754E-03     111.873E-03
            3115            3672     101.194E-03     104.416E-03
            3115            3689     105.467E-03     108.442E-03
            3115            3690     98.4706E-03     101.452E-03
            3116            3672     101.194E-03     104.416E-03
            3116            3673     95.0437E-03     98.2966E-03
            3116            3690     98.4706E-03     101.452E-03
            3116            3691     92.5929E-03     95.7348E-03
            3117            3673     95.0437E-03     98.2966E-03
            3117            3674     89.7237E-03     93.0441E-03
            3117            3691     92.5929E-03     95.7348E-03
            3117            3692     87.5767E-03     90.8944E-03
            3118            3674     89.7237E-03     93.0441E-03
            3118            3675     84.9331E-03     88.2841E-03
            3118            3692     87.5767E-03     90.8944E-03
            3118            3693     82.9573E-03     86.4658E-03
            3119            3675     84.9331E-03     88.2841E-03
            3119            3676     80.4104E-03     83.8201E-03
            3119            3693     82.9573E-03     86.4658E-03
            3119            3694     78.6331E-03     82.2987E-03
            3120            3676     80.4104E-03     83.8201E-03
            3120            3677     76.0709E-03     79.5151E-03
            3120            3694     78.6331E-03     82.2987E-03
            3120            3695     74.4456E-03     78.2463E-03
            3121            3677     76.0709E-03     79.5151E-03
            3121            3678     71.8168E-03     75.3025E-03
            3121            3695     74.4456E-03     78.2463E-03
            3121            3696     70.3538E-03     74.2527E-03
            3122            3678     71.8168E-03     75.3025E-03
            3122            3679     67.6248E-03     71.1333E-03
            3122            3696     70.3538E-03     74.2527E-03
            3122            3697     66.3086E-03     70.2802E-03
            3123            3679     67.6248E-03     71.1333E-03
            3123            3680     63.4736E-03     66.9994E-03
            3123            3697     66.3086E-03     70.2802E-03
            3123            3698     62.3000E-03     66.3124E-03
            3124            3680     63.4736E-03     66.9994E-03
            3124            3681     59.3654E-03     62.8917E-03
            3124            3698     62.3000E-03     66.3124E-03
            3124            3699     58.3401E-03     62.3633E-03
            3125            3681     59.3654E-03     62.8917E-03
            3125            3682     55.3322E-03     58.8422E-03
            3125            3699     58.3401E-03     62.3633E-03
            3125            3700     54.4372E-03     58.4362E-03
            3126            3682     55.3322E-03     58.8422E-03
            3126            3683     51.3976E-03     54.8749E-03
            3126            3700     54.4372E-03     58.4362E-03
            3126            3701     50.6768E-03     54.6027E-03
            3127            3683     51.3976E-03     54.8749E-03
            3127            3684     47.6706E-03     51.0851E-03
            3127            3701     50.6768E-03     54.6027E-03
            3127            3702     47.0795E-03     50.8812E-03
            3128            3684     47.6706E-03     51.0851E-03
            3128            3685     44.2199E-03     47.5652E-03
            3128            3702     47.0795E-03     50.8812E-03
            3128            3703     43.9129E-03     47.5079E-03
            3129            3685     44.2199E-03     47.5652E-03
            3129            3686     41.2745E-03     44.5453E-03
            3129            3703     43.9129E-03     47.5079E-03
            3129            3704     41.1817E-03     44.5015E-03
            3130            3686     41.2745E-03     44.5453E-03
            3130            3687     39.2123E-03     42.5972E-03
            3130            3704     41.1817E-03     44.5015E-03
            3130            3705     39.9974E-03     42.9353E-03
            3131            3687     39.2123E-03     42.5972E-03
            3131            3688     35.8669E-03     39.7311E-03
            3131            3705     39.9974E-03     42.9353E-03
            3131            3706     40.2304E-03     43.0839E-03
            3132             416     37.8976E-03     38.2418E-03
            3132             417     32.3532E-03     32.3531E-03
            3132            3688     35.8669E-03     39.7311E-03
            3132            3706     40.2304E-03     43.0839E-03
            3133             633     120.996E-03     121.121E-03
            3133             634     115.475E-03     118.657E-03
            3133            3689     105.467E-03     108.442E-03
            3133            3707     115.541E-03     115.644E-03
            3134            3689     105.467E-03     108.442E-03
            3134            3690     98.4706E-03     101.452E-03
            3134            3707     115.541E-03     115.644E-03
            3134            3708     110.362E-03     110.900E-03
            3135            3690     98.4706E-03     101.452E-03
            3135            3691     92.5929E-03     95.7348E-03
            3135            3708     110.362E-03     110.900E-03
            3135            3709     105.672E-03     106.512E-03
            3136            3691     92.5929E-03     95.7348E-03
            3136            3692     87.5767E-03     90.8944E-03
            3136            3709     105.672E-03     106.512E-03
            3136            3710     100.983E-03     102.201E-03
            3137            3692     87.5767E-03     90.8944E-03
            3137            3693     82.9573E-03     86.4658E-03
            3137            3710     100.983E-03     102.201E-03
            3137            3711     96.4395E-03     97.8691E-03
            3138            3693     82.9573E-03     86.4658E-03
            3138            3694     78.6331E-03     82.2987E-03
            3138            3711     96.4395E-03     97.8691E-03
            3138            3712     91.8645E-03     93.5020E-03
            3139            3694     78.6331E-03     82.2987E-03
            3139            3695     74.4456E-03     78.2463E-03
            3139            3712     91.8645E-03     93.5020E-03
            3139            3713     87.3228E-03     89.0621E-03
            3140            3695     74.4456E-03     78.2463E-03
            3140            3696     70.3538E-03     74.2527E-03
            3140            3713     87.3228E-03     89.0621E-03
            3140            3714     82.7441E-03     84.5811E-03
            3141            3696     70.3538E-03     74.2527E-03
            3141            3697     66.3086E-03     70.2802E-03
            3141            3714     82.7441E-03     84.5811E-03
            3141            3715     78.1618E-03     80.0375E-03
            3142            3697     66.3086E-03     70.2802E-03
            3142            3698     62.3000E-03     66.3124E-03
            3142            3715     78.1618E-03     80.0375E-03
            3142            3716     73.5550E-03     75.4692E-03
            3143            3698     62.3000E-03     66.3124E-03
            3143            3699     58.3401E-03     62.3633E-03
            3143            3716     73.5550E-03     75.4692E-03
            3143            3717     68.9537E-03     70.8703E-03
            3144            3699     58.3401E-03     62.3633E-03
            3144            3700     54.4372E-03     58.4362E-03
            3144            3717     68.9537E-03     70.8703E-03
            3144            3718     64.3757E-03     66.2822E-03
            3145            3700     54.4372E-03     58.4362E-03
            3145            3701     50.6768E-03     54.6027E-03
            3145            3718     64.3757E-03     66.2822E-03
            3145            3719     59.8648E-03     61.7132E-03
            3146            3701     50.6768E-03     54.6027E-03
            3146            3702     47.0795E-03     50.8812E-03
            3146            3719     59.8648E-03     61.7132E-03
            3146            3720     55.4969E-03     57.2306E-03
            3147            3702     47.0795E-03     50.8812E-03
            3147            3703     43.9129E-03     47.5079E-03
            3147            3720     55.4969E-03     57.2306E-03
            3147            3721     51.3917E-03     52.8994E-03
            3148            3703     43.9129E-03     47.5079E-03
            3148            3704     41.1817E-03     44.5015E-03
            3148            3721     51.3917E-03     52.8994E-03
            3148            3722     47.7711E-03     48.8772E-03
            3149            3704     41.1817E-03     44.5015E-03
            3149            3705     39.9974E-03     42.9353E-03
            3149            3722     47.7711E-03     48.8772E-03
            3149            3723     45.1369E-03     45.6659E-03
            3150            3705     39.9974E-03     42.9353E-03
            3150            3706     40.2304E-03     43.0839E-03
            3150            3723     45.1369E-03     45.6659E-03
            3150            3724     45.2553E-03     44.7689E-03
            3151             415     38.7543E-03     42.2210E-03
            3151             416     37.8976E-03     38.2418E-03
            3151            3706     40.2304E-03     43.0839E-03
            3151            3724     45.2553E-03     44.7689E-03
            3152             632     132.438E-03     131.375E-03
            3152             633     120.996E-03     121.121E-03
            3152            3707     115.541E-03     115.644E-03
            3152            3725     129.691E-03     128.763E-03
            3153            3707     115.541E-03     115.644E-03
            3153            3708     110.362E-03     110.900E-03
            3153            3725     129.691E-03     128.763E-03
            3153            3726     126.061E-03     125.291E-03
            3154            3708     110.362E-03     110.900E-03
            3154            3709     105.672E-03     106.512E-03
            3154            3726     126.061E-03     125.291E-03
            3154            3727     121.665E-03     121.159E-03
            3155            3709     105.672E-03     106.512E-03
            3155            3710     100.983E-03     102.201E-03
            3155            3727     121.665E-03     121.159E-03
            3155            3728     116.925E-03     116.608E-03
            3156            3710     100.983E-03     102.201E-03
            3156            3711     96.4395E-03     97.8691E-03
            3156            3728     116.925E-03     116.608E-03
            3156            3729     111.918E-03     111.724E-03
            3157            3711     96.4395E-03     97.8691E-03
            3157            3712     91.8645E-03     93.5020E-03
            3157            3729     111.918E-03     111.724E-03
            3157            3730     106.764E-03     106.665E-03
            3158            3712     91.8645E-03     93.5020E-03
            3158            3713     87.3228E-03     89.0621E-03
            3158            3730     106.764E-03     106.665E-03
            3158            3731     101.526E-03     101.458E-03
            3159            3713     87.3228E-03     89.0621E-03
            3159            3714     82.7441E-03     84.5811E-03
            3159            3731     101.526E-03     101.458E-03
            3159            3732     96.2152E-03     96.1724E-03
            3160            3714     82.7441E-03     84.5811E-03
            3160            3715     78.1618E-03     80.0375E-03
            3160            3732     96.2152E-03     96.1724E-03
            3160            3733     90.8669E-03     90.8217E-03
            3161            3715     78.1618E-03     80.0375E-03
            3161            3716     73.5550E-03     75.4692E-03
            3161            3733     90.8669E-03     90.8217E-03
            3161            3734     85.4838E-03     85.4369E-03
            3162            3716     73.5550E-03     75.4692E-03
            3162            3717     68.9537E-03     70.8703E-03
            3162            3734     85.4838E-03     85.4369E-03
            3162            3735     80.0897E-03     80.0326E-03
            3163            3717     68.9537E-03     70.8703E-03
            3163            3718     64.3757E-03     66.2822E-03
            3163            3735     80.0897E-03     80.0326E-03
            3163            3736     74.6905E-03     74.6184E-03
            3164            3718     64.3757E-03     66.2822E-03
            3164            3719     59.8648E-03     61.7132E-03
            3164            3736     74.6905E-03     74.6184E-03
            3164            3737     69.3313E-03     69.2289E-03
            3165            3719     59.8648E-03     61.7132E-03
            3165            3720     55.4969E-03     57.2306E-03
            3165            3737     69.3313E-03     69.2289E-03
            3165            3738     63.9940E-03     63.8308E-03
            3166            3720     55.4969E-03     57.2306E-03
            3166            3721     51.3917E-03     52.8994E-03
            3166            3738     63.9940E-03     63.8308E-03
            3166            3739     58.8338E-03     58.5676E-03
            3167            3721     51.3917E-03     52.8994E-03
            3167            3722     47.7711E-03     48.8772E-03
            3167            3739     58.8338E-03     58.5676E-03
            3167            3740     53.7324E-03     53.3634E-03
            3168            3722     47.7711E-03     48.8772E-03
            3168            3723     45.1369E-03     45.6659E-03
            3168            3740     53.7324E-03     53.3634E-03
            3168            3741     49.2286E-03     49.0460E-03
            3169            3723     45.1369E-03     45.6659E-03
            3169            3724     45.2553E-03     44.7689E-03
            3169            3741     49.2286E-03     49.0460E-03
            3169            3742     43.9734E-03     45.8318E-03
            3170             414     36.2361E-03     40.3580E-03
            3170             415     38.7543E-03     42.2210E-03
            3170            3724     45.2553E-03     44.7689E-03
            3170            3742     43.9734E-03     45.8318E-03
            3171             631     137.894E-03     139.726E-03
            3171             632     132.438E-03     131.375E-03
            3171            3725     129.691E-03     128.763E-03
            3171            3743     134.367E-03     135.845E-03
            3172            3725     129.691E-03     128.763E-03
            3172            3726     126.061E-03     125.291E-03
            3172            3743     134.367E-03     135.845E-03
            3172            3744     129.823E-03     131.035E-03
            3173            3726     126.061E-03     125.291E-03
            3173            3727     121.665E-03     121.159E-03
            3173            3744     129.823E-03     131.035E-03
            3173            3745     124.704E-03     125.693E-03
            3174            3727     121.665E-03     121.159E-03
            3174            3728     116.925E-03     116.608E-03
            3174            3745     124.704E-03     125.693E-03
            3174            3746     119.241E-03     120.126E-03
            3175            3728     116.925E-03     116.608E-03
            3175            3729     111.918E-03     111.724E-03
            3175            3746     119.241E-03     120.126E-03
            3175            3747     113.638E-03     114.488E-03
            3176            3729     111.918E-03     111.724E-03
            3176            3730     106.764E-03     106.665E-03
            3176            3747     113.638E-03     114.488E-03
            3176            3748     108.016E-03     108.832E-03
            3177            3730     106.764E-03     106.665E-03
            3177            3731     101.526E-03     101.458E-03
            3177            3748     108.016E-03     108.832E-03
            3177            3749     102.380E-03     103.191E-03
            3178            3731     101.526E-03     101.458E-03
            3178            3732     96.2152E-03     96.1724E-03
            3178            3749     102.380E-03     103.191E-03
            3178            3750     96.7690E-03     97.5622E-03
            3179            3732     96.2152E-03     96.1724E-03
            3179            3733     90.8669E-03     90.8217E-03
            3179            3750     96.7690E-03     97.5622E-03
            3179            3751     91.1730E-03     91.9557E-03
            3180            3733     90.8669E-03     90.8217E-03
            3180            3734     85.4838E-03     85.4369E-03
            3180            3751     91.1730E-03     91.9557E-03
            3180            3752     85.6030E-03     86.3666E-03
            3181            3734     85.4838E-03     85.4369E-03
            3181            3735     80.0897E-03     80.0326E-03
            3181            3752     85.6030E-03     86.3666E-03
            3181            3753     80.0607E-03     80.8020E-03
            3182            3735     80.0897E-03     80.0326E-03
            3182            3736     74.6905E-03     74.6184E-03
            3182            3753     80.0607E-03     80.8020E-03
            3182            3754     74.5471E-03     75.2648E-03
            3183            3736     74.6905E-03     74.6184E-03
            3183            3737     69.3313E-03     69.2289E-03
            3183            3754     74.5471E-03     75.2648E-03
            3183            3755     69.0731E-03     69.7649E-03
            3184            3737     69.3313E-03     69.2289E-03
            3184            3738     63.9940E-03     63.8308E-03
            3184            3755     69.0731E-03     69.7649E-03
            3184            3756     63.6242E-03     64.3296E-03
            3185            3738     63.9940E-03     63.8308E-03
            3185            3739     58.8338E-03     58.5676E-03
            3185            3756     63.6242E-03     64.3296E-03
            3185            3757     58.1622E-03     58.9591E-03
            3186            3739     58.8338E-03     58.5676E-03
            3186            3740     53.7324E-03     53.3634E-03
            3186            3757     58.1622E-03     58.9591E-03
            3186            3758     52.6173E-03     53.8079E-03
            3187            3740     53.7324E-03     53.3634E-03
            3187            3741     49.2286E-03     49.0460E-03
            3187            3758     52.6173E-03     53.8079E-03
            3187            3759     46.6842E-03     49.3515E-03
            3188            3741     49.2286E-03     49.0460E-03
            3188            3742     43.9734E-03     45.8318E-03
            3188            3759     46.6842E-03     49.3515E-03
            3188            3760     39.4268E-03     44.0882E-03
            3189             413     35.2081E-03     35.7542E-03
            3189             414     36.2361E-03     40.3580E-03
            3189            3742     43.9734E-03     45.8318E-03
            3189            3760     39.4268E-03     44.0882E-03
            3190             630     142.604E-03     145.665E-03
            3190             631     137.894E-03     139.726E-03
            3190            3743     134.367E-03     135.845E-03
            3190            3761     137.776E-03     140.827E-03
            3191            3743     134.367E-03     135.845E-03
            3191            3744     129.823E-03     131.035E-03
            3191            3761     137.776E-03     140.827E-03
            3191            3762     132.311E-03     134.981E-03
            3192            3744     129.823E-03     131.035E-03
            3192            3745     124.704E-03     125.693E-03
            3192            3762     132.311E-03     134.981E-03
            3192            3763     126.475E-03     128.744E-03
            3193            3745     124.704E-03     125.693E-03
            3193            3746     119.241E-03     120.126E-03
            3193            3763     126.475E-03     128.744E-03
            3193            3764     120.457E-03     122.504E-03
            3194            3746     119.241E-03     120.126E-03
            3194            3747     113.638E-03     114.488E-03
            3194            3764     120.457E-03     122.504E-03
            3194            3765     114.520E-03     116.378E-03
            3195            3747     113.638E-03     114.488E-03
            3195            3748     108.016E-03     108.832E-03
            3195            3765     114.520E-03     116.378E-03
            3195            3766     108.596E-03     110.357E-03
            3196            3748     108.016E-03     108.832E-03
            3196            3749     102.380E-03     103.191E-03
            3196            3766     108.596E-03     110.357E-03
            3196            3767     102.750E-03     104.441E-03
            3197            3749     102.380E-03     103.191E-03
            3197            3750     96.7690E-03     97.5622E-03
            3197            3767     102.750E-03     104.441E-03
            3197            3768     96.9478E-03     98.6024E-03
            3198            3750     96.7690E-03     97.5622E-03
            3198            3751     91.1730E-03     91.9557E-03
            3198            3768     96.9478E-03     98.6024E-03
            3198            3769     91.2020E-03     92.8264E-03
            3199            3751     91.1730E-03     91.9557E-03
            3199            3752     85.6030E-03     86.3666E-03
            3199            3769     91.2020E-03     92.8264E-03
            3199            3770     85.5039E-03     87.1045E-03
            3200            3752     85.6030E-03     86.3666E-03
            3200            3753     80.0607E-03     80.8020E-03
            3200            3770     85.5039E-03     87.1045E-03
            3200            3771     79.8474E-03     81.4249E-03
            3201            3753     80.0607E-03     80.8020E-03
            3201            3754     74.5471E-03     75.2648E-03
            3201            3771     79.8474E-03     81.4249E-03
            3201            3772     74.2457E-03     75.8063E-03
            3202            3754     74.5471E-03     75.2648E-03
            3202            3755     69.0731E-03     69.7649E-03
            3202            3772     74.2457E-03     75.8063E-03
            3202            3773     68.6617E-03     70.2344E-03
            3203            3755     69.0731E-03     69.7649E-03
            3203            3756     63.6242E-03     64.3296E-03
            3203            3773     68.6617E-03     70.2344E-03
            3203            3774     63.1301E-03     64.7949E-03
            3204            3756     63.6242E-03     64.3296E-03
            3204            3757     58.1622E-03     58.9591E-03
            3204            3774     63.1301E-03     64.7949E-03
            3204            3775     57.4945E-03     59.4200E-03
            3205            3757     58.1622E-03     58.9591E-03
            3205            3758     52.6173E-03     53.8079E-03
            3205            3775     57.4945E-03     59.4200E-03
            3205            3776     51.6254E-03     54.2711E-03
            3206            3758     52.6173E-03     53.8079E-03
            3206            3759     46.6842E-03     49.3515E-03
            3206            3776     51.6254E-03     54.2711E-03
            3206            3777     45.0881E-03     48.7885E-03
            3207            3759     46.6842E-03     49.3515E-03
            3207            3760     39.4268E-03     44.0882E-03
            3207            3777     45.0881E-03     48.7885E-03
            3207            3778     38.0963E-03     41.7778E-03
            3208             412     33.5556E-03     33.2560E-03
            3208             413     35.2081E-03     35.7542E-03
            3208            3760     39.4268E-03     44.0882E-03
            3208            3778     38.0963E-03     41.7778E-03
            3209             629     146.139E-03     149.998E-03
            3209             630     142.604E-03     145.665E-03
            3209            3761     137.776E-03     140.827E-03
            3209            3779     139.913E-03     143.693E-03
            3210            3761     137.776E-03     140.827E-03
            3210            3762     132.311E-03     134.981E-03
            3210            3779     139.913E-03     143.693E-03
            3210            3780     133.322E-03     136.813E-03
            3211            3762     132.311E-03     134.981E-03
            3211            3763     126.475E-03     128.744E-03
            3211            3780     133.322E-03     136.813E-03
            3211            3781     126.717E-03     130.012E-03
            3212            3763     126.475E-03     128.744E-03
            3212            3764     120.457E-03     122.504E-03
            3212            3781     126.717E-03     130.012E-03
            3212            3782     120.516E-03     123.485E-03
            3213            3764     120.457E-03     122.504E-03
            3213            3765     114.520E-03     116.378E-03
            3213            3782     120.516E-03     123.485E-03
            3213            3783     114.387E-03     117.163E-03
            3214            3765     114.520E-03     116.378E-03
            3214            3766     108.596E-03     110.357E-03
            3214            3783     114.387E-03     117.163E-03
            3214            3784     108.406E-03     111.043E-03
            3215            3766     108.596E-03     110.357E-03
            3215            3767     102.750E-03     104.441E-03
            3215            3784     108.406E-03     111.043E-03
            3215            3785     102.487E-03     105.045E-03
            3216            3767     102.750E-03     104.441E-03
            3216            3768     96.9478E-03     98.6024E-03
            3216            3785     102.487E-03     105.045E-03
            3216            3786     96.6382E-03     99.1481E-03
            3217            3768     96.9478E-03     98.6024E-03
            3217            3769     91.2020E-03     92.8264E-03
            3217            3786     96.6382E-03     99.1481E-03
            3217            3787     90.8387E-03     93.3200E-03
            3218            3769     91.2020E-03     92.8264E-03
            3218            3770     85.5039E-03     87.1045E-03
            3218            3787     90.8387E-03     93.3200E-03
            3218            3788     85.0855E-03     87.5441E-03
            3219            3770     85.5039E-03     87.1045E-03
            3219            3771     79.8474E-03     81.4249E-03
            3219            3788     85.0855E-03     87.5441E-03
            3219            3789     79.3820E-03     81.8243E-03
            3220            3771     79.8474E-03     81.4249E-03
            3220            3772     74.2457E-03     75.8063E-03
            3220            3789     79.3820E-03     81.8243E-03
            3220            3790     73.7114E-03     76.1478E-03
            3221            3772     74.2457E-03     75.8063E-03
            3221            3773     68.6617E-03     70.2344E-03
            3221            3790     73.7114E-03     76.1478E-03
            3221            3791     68.1069E-03     70.5791E-03
            3222            3773     68.6617E-03     70.2344E-03
            3222            3774     63.1301E-03     64.7949E-03
            3222            3791     68.1069E-03     70.5791E-03
            3222            3792     62.4926E-03     65.0730E-03
            3223            3774     63.1301E-03     64.7949E-03
            3223            3775     57.4945E-03     59.4200E-03
            3223            3792     62.4926E-03     65.0730E-03
            3223            3793     56.9466E-03     59.8553E-03
            3224            3775     57.4945E-03     59.4200E-03
            3224            3776     51.6254E-03     54.2711E-03
            3224            3793     56.9466E-03     59.8553E-03
            3224            3794     51.1090E-03     54.5940E-03
            3225            3776     51.6254E-03     54.2711E-03
            3225            3777     45.0881E-03     48.7885E-03
            3225            3794     51.1090E-03     54.5940E-03
            3225            3795     44.7923E-03     48.5650E-03
            3226            3777     45.0881E-03     48.7885E-03
            3226            3778     38.0963E-03     41.7778E-03
            3226            3795     44.7923E-03     48.5650E-03
            3226            3796     37.7768E-03     42.0842E-03
            3227             411     33.3537E-03     33.2678E-03
            3227             412     33.5556E-03     33.2560E-03
            3227            3778     38.0963E-03     41.7778E-03
            3227            3796     37.7768E-03     42.0842E-03
            3228             628     148.852E-03     152.318E-03
            3228             629     146.139E-03     149.998E-03
            3228            3779     139.913E-03     143.693E-03
            3228            3797     140.278E-03     144.202E-03
            3229            3779     139.913E-03     143.693E-03
            3229            3780     133.322E-03     136.813E-03
            3229            3797     140.278E-03     144.202E-03
            3229            3798     132.340E-03     136.470E-03
            3230            3780     133.322E-03     136.813E-03
            3230            3781     126.717E-03     130.012E-03
            3230            3798     132.340E-03     136.470E-03
            3230            3799     125.676E-03     129.560E-03
            3231            3781     126.717E-03     130.012E-03
            3231            3782     120.516E-03     123.485E-03
            3231            3799     125.676E-03     129.560E-03
            3231            3800     119.366E-03     123.056E-03
            3232            3782     120.516E-03     123.485E-03
            3232            3783     114.387E-03     117.163E-03
            3232            3800     119.366E-03     123.056E-03
            3232            3801     113.349E-03     116.883E-03
            3233            3783     114.387E-03     117.163E-03
            3233            3784     108.406E-03     111.043E-03
            3233            3801     113.349E-03     116.883E-03
            3233            3802     107.445E-03     110.881E-03
            3234            3784     108.406E-03     111.043E-03
            3234            3785     102.487E-03     105.045E-03
            3234            3802     107.445E-03     110.881E-03
            3234            3803     101.615E-03     105.000E-03
            3235            3785     102.487E-03     105.045E-03
            3235            3786     96.6382E-03     99.1481E-03
            3235            3803     101.615E-03     105.000E-03
            3235            3804     95.8266E-03     99.1855E-03
            3236            3786     96.6382E-03     99.1481E-03
            3236            3787     90.8387E-03     93.3200E-03
            3236            3804     95.8266E-03     99.1855E-03
            3236            3805     90.0701E-03     93.4146E-03
            3237            3787     90.8387E-03     93.3200E-03
            3237            3788     85.0855E-03     87.5441E-03
            3237            3805     90.0701E-03     93.4146E-03
            3237            3806     84.3417E-03     87.6781E-03
            3238            3788     85.0855E-03     87.5441E-03
            3238            3789     79.3820E-03     81.8243E-03
            3238            3806     84.3417E-03     87.6781E-03
            3238            3807     78.6414E-03     81.9685E-03
            3239            3789     79.3820E-03     81.8243E-03
            3239            3790     73.7114E-03     76.1478E-03
            3239            3807     78.6414E-03     81.9685E-03
            3239            3808     72.9809E-03     76.3109E-03
            3240            3790     73.7114E-03     76.1478E-03
            3240            3791     68.1069E-03     70.5791E-03
            3240            3808     72.9809E-03     76.3109E-03
            3240            3809     67.3590E-03     70.7081E-03
            3241            3791     68.1069E-03     70.5791E-03
            3241            3792     62.4926E-03     65.0730E-03
            3241            3809     67.3590E-03     70.7081E-03
            3241            3810     61.8297E-03     65.2656E-03
            3242            3792     62.4926E-03     65.0730E-03
            3242            3793     56.9466E-03     59.8553E-03
            3242            3810     61.8297E-03     65.2656E-03
            3242            3811     56.3402E-03     59.9625E-03
            3243            3793     56.9466E-03     59.8553E-03
            3243            3794     51.1090E-03     54.5940E-03
            3243            3811     56.3402E-03     59.9625E-03
            3243            3812     51.1376E-03     55.0097E-03
            3244            3794     51.1090E-03     54.5940E-03
            3244            3795     44.7923E-03     48.5650E-03
            3244            3812     51.1376E-03     55.0097E-03
            3244            3813     45.4432E-03     49.8515E-03
            3245            3795     44.7923E-03     48.5650E-03
            3245            3796     37.7768E-03     42.0842E-03
            3245            3813     45.4432E-03     49.8515E-03
            3245            3814     38.8466E-03     43.2984E-03
            3246             410     34.1768E-03     33.9285E-03
            3246             411     33.3537E-03     33.2678E-03
            3246            3796     37.7768E-03     42.0842E-03
            3246            3814     38.8466E-03     43.2984E-03
            3247             627     148.765E-03     152.061E-03
            3247             628     148.852E-03     152.318E-03
            3247            3797     140.278E-03     144.202E-03
            3247            3815     137.726E-03     141.950E-03
            3248            3797     140.278E-03     144.202E-03
            3248            3798     132.340E-03     136.470E-03
            3248            3815     137.726E-03     141.950E-03
            3248            3816     129.994E-03     134.291E-03
            3249            3798     132.340E-03     136.470E-03
            3249            3799     125.676E-03     129.560E-03
            3249            3816     129.994E-03     134.291E-03
            3249            3817     123.395E-03     127.617E-03
            3250            3799     125.676E-03     129.560E-03
            3250            3800     119.366E-03     123.056E-03
            3250            3817     123.395E-03     127.617E-03
            3250            3818     117.335E-03     121.535E-03
            3251            3800     119.366E-03     123.056E-03
            3251            3801     113.349E-03     116.883E-03
            3251            3818     117.335E-03     121.535E-03
            3251            3819     111.558E-03     115.730E-03
            3252            3801     113.349E-03     116.883E-03
            3252            3802     107.445E-03     110.881E-03
            3252            3819     111.558E-03     115.730E-03
            3252            3820     105.873E-03     110.051E-03
            3253            3802     107.445E-03     110.881E-03
            3253            3803     101.615E-03     105.000E-03
            3253            3820     105.873E-03     110.051E-03
            3253            3821     100.236E-03     104.425E-03
            3254            3803     101.615E-03     105.000E-03
            3254            3804     95.8266E-03     99.1855E-03
            3254            3821     100.236E-03     104.425E-03
            3254            3822     94.6032E-03     98.8071E-03
            3255            3804     95.8266E-03     99.1855E-03
            3255            3805     90.0701E-03     93.4146E-03
            3255            3822     94.6032E-03     98.8071E-03
            3255            3823     88.9685E-03     93.1877E-03
            3256            3805     90.0701E-03     93.4146E-03
            3256            3806     84.3417E-03     87.6781E-03
            3256            3823     88.9685E-03     93.1877E-03
            3256            3824     83.3324E-03     87.5600E-03
            3257            3806     84.3417E-03     87.6781E-03
            3257            3807     78.6414E-03     81.9685E-03
            3257            3824     83.3324E-03     87.5600E-03
            3257            3825     77.6965E-03     81.9318E-03
            3258            3807     78.6414E-03     81.9685E-03
            3258            3808     72.9809E-03     76.3109E-03
            3258            3825     77.6965E-03     81.9318E-03
            3258            3826     72.0877E-03     76.3206E-03
            3259            3808     72.9809E-03     76.3109E-03
            3259            3809     67.3590E-03     70.7081E-03
            3259            3826     72.0877E-03     76.3206E-03
            3259            3827     66.5188E-03     70.7516E-03
            3260            3809     67.3590E-03     70.7081E-03
            3260            3810     61.8297E-03     65.2656E-03
            3260            3827     66.5188E-03     70.7516E-03
            3260            3828     61.0698E-03     65.3051E-03
            3261            3810     61.8297E-03     65.2656E-03
            3261            3811     56.3402E-03     59.9625E-03
            3261            3828     61.0698E-03     65.3051E-03
            3261            3829     55.8179E-03     60.0333E-03
            3262            3811     56.3402E-03     59.9625E-03
            3262            3812     51.1376E-03     55.0097E-03
            3262            3829     55.8179E-03     60.0333E-03
            3262            3830     50.9510E-03     55.2065E-03
            3263            3812     51.1376E-03     55.0097E-03
            3263            3813     45.4432E-03     49.8515E-03
            3263            3830     50.9510E-03     55.2065E-03
            3263            3831     47.0249E-03     51.4652E-03
            3264            3813     45.4432E-03     49.8515E-03
            3264            3814     38.8466E-03     43.2984E-03
            3264            3831     47.0249E-03     51.4652E-03
            3264            3832     41.6000E-03     46.6507E-03
            3265             409     36.8221E-03     36.7916E-03
            3265             410     34.1768E-03     33.9285E-03
            3265            3814     38.8466E-03     43.2984E-03
            3265            3832     41.6000E-03     46.6507E-03
            3266             626     143.847E-03     147.714E-03
            3266             627     148.765E-03     152.061E-03
            3266            3815     137.726E-03     141.950E-03
            3266            3833     133.777E-03     137.701E-03
            3267            3815     137.726E-03     141.950E-03
            3267            3816     129.994E-03     134.291E-03
            3267            3833     133.777E-03     137.701E-03
            3267            3834     126.673E-03     130.762E-03
            3268            3816     129.994E-03     134.291E-03
            3268            3817     123.395E-03     127.617E-03
            3268            3834     126.673E-03     130.762E-03
            3268            3835     120.390E-03     124.782E-03
            3269            3817     123.395E-03     127.617E-03
            3269            3818     117.335E-03     121.535E-03
            3269            3835     120.390E-03     124.782E-03
            3269            3836     114.753E-03     119.364E-03
            3270            3818     117.335E-03     121.535E-03
            3270            3819     111.558E-03     115.730E-03
            3270            3836     114.753E-03     119.364E-03
            3270            3837     109.276E-03     114.070E-03
            3271            3819     111.558E-03     115.730E-03
            3271            3820     105.873E-03     110.051E-03
            3271            3837     109.276E-03     114.070E-03
            3271            3838     103.908E-03     108.828E-03
            3272            3820     105.873E-03     110.051E-03
            3272            3821     100.236E-03     104.425E-03
            3272            3838     103.908E-03     108.828E-03
            3272            3839     98.5280E-03     103.531E-03
            3273            3821     100.236E-03     104.425E-03
            3273            3822     94.6032E-03     98.8071E-03
            3273            3839     98.5280E-03     103.531E-03
            3273            3840     93.1215E-03     98.1845E-03
            3274            3822     94.6032E-03     98.8071E-03
            3274            3823     88.9685E-03     93.1877E-03
            3274            3840     93.1215E-03     98.1845E-03
            3274            3841     87.6713E-03     92.7726E-03
            3275            3823     88.9685E-03     93.1877E-03
            3275            3824     83.3324E-03     87.5600E-03
            3275            3841     87.6713E-03     92.7726E-03
            3275            3842     82.1761E-03     87.3114E-03
            3276            3824     83.3324E-03     87.5600E-03
            3276            3825     77.6965E-03     81.9318E-03
            3276            3842     82.1761E-03     87.3114E-03
            3276            3843     76.6611E-03     81.8170E-03
            3277            3825     77.6965E-03     81.9318E-03
            3277            3826     72.0877E-03     76.3206E-03
            3277            3843     76.6611E-03     81.8170E-03
            3277            3844     71.1295E-03     76.2961E-03
            3278            3826     72.0877E-03     76.3206E-03
            3278            3827     66.5188E-03     70.7516E-03
            3278            3844     71.1295E-03     76.2961E-03
            3278            3845     65.6690E-03     70.8177E-03
            3279            3827     66.5188E-03     70.7516E-03
            3279            3828     61.0698E-03     65.3051E-03
            3279            3845     65.6690E-03     70.8177E-03
            3279            3846     60.2910E-03     65.3642E-03
            3280            3828     61.0698E-03     65.3051E-03
            3280            3829     55.8179E-03     60.0333E-03
            3280            3846     60.2910E-03     65.3642E-03
            3280            3847     55.2819E-03     60.2002E-03
            3281            3829     55.8179E-03     60.0333E-03
            3281            3830     50.9510E-03     55.2065E-03
            3281            3847     55.2819E-03     60.2002E-03
            3281            3848     50.6669E-03     55.3079E-03
            3282            3830     50.9510E-03     55.2065E-03
            3282            3831     47.0249E-03     51.4652E-03
            3282            3848     50.6669E-03     55.3079E-03
            3282            3849     47.7168E-03     51.8909E-03
            3283            3831     47.0249E-03     51.4652E-03
            3283            3832     41.6000E-03     46.6507E-03
            3283            3849     47.7168E-03     51.8909E-03
            3283            3850     46.3991E-03     50.4639E-03
            3284             408     42.9566E-03     43.3150E-03
            3284             409     36.8221E-03     36.7916E-03
            3284            3832     41.6000E-03     46.6507E-03
            3284            3850     46.3991E-03     50.4639E-03
            3285              28     188.676E-03     189.618E-03
            3285             584     182.392E-03     182.352E-03
            3285             626     143.847E-03     147.714E-03
            3285            3833     133.777E-03     137.701E-03
            3286             584     182.392E-03     182.352E-03
            3286             585     177.425E-03     176.627E-03
            3286            3833     133.777E-03     137.701E-03
            3286            3834     126.673E-03     130.762E-03
            3287             585     177.425E-03     176.627E-03
            3287             586     172.991E-03     171.229E-03
            3287            3834     126.673E-03     130.762E-03
            3287            3835     120.390E-03     124.782E-03
            3288             586     172.991E-03     171.229E-03
            3288             587     168.596E-03     166.331E-03
            3288            3835     120.390E-03     124.782E-03
            3288            3836     114.753E-03     119.364E-03
            3289             587     168.596E-03     166.331E-03
            3289             588     164.539E-03     161.427E-03
            3289            3836     114.753E-03     119.364E-03
            3289            3837     109.276E-03     114.070E-03
            3290             588     164.539E-03     161.427E-03
            3290             589     160.393E-03     156.763E-03
            3290            3837     109.276E-03     114.070E-03
            3290            3838     103.908E-03     108.828E-03
            3291             589     160.393E-03     156.763E-03
            3291             590     156.384E-03     152.104E-03
            3291            3838     103.908E-03     108.828E-03
            3291            3839     98.5280E-03     103.531E-03
            3292             590     156.384E-03     152.104E-03
            3292             591     152.318E-03     147.604E-03
            3292            3839     98.5280E-03     103.531E-03
            3292            3840     93.1215E-03     98.1845E-03
            3293             591     152.318E-03     147.604E-03
            3293             592     148.300E-03     143.178E-03
            3293            3840     93.1215E-03     98.1845E-03
            3293            3841     87.6713E-03     92.7726E-03
            3294             592     148.300E-03     143.178E-03
            3294             593     144.268E-03     138.901E-03
            3294            3841     87.6713E-03     92.7726E-03
            3294            3842     82.1761E-03     87.3114E-03
            3295             593     144.268E-03     138.901E-03
            3295             594     140.270E-03     134.756E-03
            3295            3842     82.1761E-03     87.3114E-03
            3295            3843     76.6611E-03     81.8170E-03
            3296             594     140.270E-03     134.756E-03
            3296             595     136.300E-03     130.784E-03
            3296            3843     76.6611E-03     81.8170E-03
            3296            3844     71.1295E-03     76.2961E-03
            3297             595     136.300E-03     130.784E-03
            3297             596     132.406E-03     127.000E-03
            3297            3844     71.1295E-03     76.2961E-03
            3297            3845     65.6690E-03     70.8177E-03
            3298             596     132.406E-03     127.000E-03
            3298             597     128.608E-03     123.426E-03
            3298            3845     65.6690E-03     70.8177E-03
            3298            3846     60.2910E-03     65.3642E-03
            3299             597     128.608E-03     123.426E-03
            3299             598     125.119E-03     120.273E-03
            3299            3846     60.2910E-03     65.3642E-03
            3299            3847     55.2819E-03     60.2002E-03
            3300             598     125.119E-03     120.273E-03
            3300             599     121.697E-03     117.065E-03
            3300            3847     55.2819E-03     60.2002E-03
            3300            3848     50.6669E-03     55.3079E-03
            3301             599     121.697E-03     117.065E-03
            3301             600     120.694E-03     117.138E-03
            3301            3848     50.6669E-03     55.3079E-03
            3301            3849     47.7168E-03     51.8909E-03
            3302             600     120.694E-03     117.138E-03
            3302             601     117.793E-03     111.147E-03
            3302            3849     47.7168E-03     51.8909E-03
            3302            3850     46.3991E-03     50.4639E-03
            3303              22     75.2394E-03     85.8800E-03
            3303             408     42.9566E-03     43.3150E-03
            3303             601     117.793E-03     111.147E-03
            3303            3850     46.3991E-03     50.4639E-03
            3304              30     69.0526E-03     79.5885E-03
            3304             673     34.9984E-03     64.3020E-03
            3304             720     31.4266E-03     31.1780E-03
            3304            3851     33.3477E-03     39.7391E-03
            3305             673     34.9984E-03     64.3020E-03
            3305             674     24.5597E-03     50.4334E-03
            3305            3851     33.3477E-03     39.7391E-03
            3305            3852     36.8788E-03     44.1119E-03
            3306             674     24.5597E-03     50.4334E-03
            3306             675     28.8841E-03     53.3700E-03
            3306            3852     36.8788E-03     44.1119E-03
            3306            3853     42.9876E-03     50.5837E-03
            3307             675     28.8841E-03     53.3700E-03
            3307             676     36.2199E-03     60.0364E-03
            3307            3853     42.9876E-03     50.5837E-03
            3307            3854     50.3958E-03     58.1876E-03
            3308             676     36.2199E-03     60.0364E-03
            3308             677     45.0036E-03     67.8903E-03
            3308            3854     50.3958E-03     58.1876E-03
            3308            3855     58.1074E-03     65.8706E-03
            3309             677     45.0036E-03     67.8903E-03
            3309             678     54.0015E-03     76.0069E-03
            3309            3855     58.1074E-03     65.8706E-03
            3309            3856     66.0257E-03     73.7108E-03
            3310             678     54.0015E-03     76.0069E-03
            3310             679     63.0844E-03     84.1150E-03
            3310            3856     66.0257E-03     73.7108E-03
            3310            3857     73.9381E-03     81.5435E-03
            3311             679     63.0844E-03     84.1150E-03
            3311             680     72.1426E-03     92.2244E-03
            3311            3857     73.9381E-03     81.5435E-03
            3311            3858     81.8678E-03     89.3733E-03
            3312             680     72.1426E-03     92.2244E-03
            3312             681     81.1723E-03     100.276E-03
            3312            3858     81.8678E-03     89.3733E-03
            3312            3859     89.7580E-03     97.1782E-03
            3313             681     81.1723E-03     100.276E-03
            3313             682     90.1689E-03     108.290E-03
            3313            3859     89.7580E-03     97.1782E-03
            3313            3860     97.6233E-03     104.949E-03
            3314             682     90.1689E-03     108.290E-03
            3314             683     99.0970E-03     116.245E-03
            3314            3860     97.6233E-03     104.949E-03
            3314            3861     105.441E-03     112.686E-03
            3315             683     99.0970E-03     116.245E-03
            3315             684     107.984E-03     124.125E-03
            3315            3861     105.441E-03     112.686E-03
            3315            3862     113.211E-03     120.359E-03
            3316             684     107.984E-03     124.125E-03
            3316             685     116.733E-03     131.907E-03
            3316            3862     113.211E-03     120.359E-03
            3316            3863     120.918E-03     127.981E-03
            3317             685     116.733E-03     131.907E-03
            3317             686     125.435E-03     139.547E-03
            3317            3863     120.918E-03     127.981E-03
            3317            3864     128.555E-03     135.498E-03
            3318             686     125.435E-03     139.547E-03
            3318             687     133.913E-03     147.026E-03
            3318            3864     128.555E-03     135.498E-03
            3318            3865     136.164E-03     142.972E-03
            3319             687     133.913E-03     147.026E-03
            3319             688     142.477E-03     154.313E-03
            3319            3865     136.164E-03     142.972E-03
            3319            3866     143.748E-03     150.374E-03
            3320             688     142.477E-03     154.313E-03
            3320             689     150.848E-03     161.533E-03
            3320            3866     143.748E-03     150.374E-03
            3320            3867     151.723E-03     158.077E-03
            3321             689     150.848E-03     161.533E-03
            3321             690     160.205E-03     169.238E-03
            3321            3867     151.723E-03     158.077E-03
            3321            3868     160.222E-03     166.404E-03
            3322              31     170.288E-03     178.447E-03
            3322             690     160.205E-03     169.238E-03
            3322             691     171.872E-03     177.752E-03
            3322            3868     160.222E-03     166.404E-03
            3323             719     27.3526E-03     27.0459E-03
            3323             720     31.4266E-03     31.1780E-03
            3323            3851     33.3477E-03     39.7391E-03
            3323            3869     31.0057E-03     36.3868E-03
            3324            3851     33.3477E-03     39.7391E-03
            3324            3852     36.8788E-03     44.1119E-03
            3324            3869     31.0057E-03     36.3868E-03
            3324            3870     37.6206E-03     43.0281E-03
            3325            3852     36.8788E-03     44.1119E-03
            3325            3853     42.9876E-03     50.5837E-03
            3325            3870     37.6206E-03     43.0281E-03
            3325            3871     44.1127E-03     49.7273E-03
            3326            3853     42.9876E-03     50.5837E-03
            3326            3854     50.3958E-03     58.1876E-03
            3326            3871     44.1127E-03     49.7273E-03
            3326            3872     51.7493E-03     57.1396E-03
            3327            3854     50.3958E-03     58.1876E-03
            3327            3855     58.1074E-03     65.8706E-03
            3327            3872     51.7493E-03     57.1396E-03
            3327            3873     59.5575E-03     64.8448E-03
            3328            3855     58.1074E-03     65.8706E-03
            3328            3856     66.0257E-03     73.7108E-03
            3328            3873     59.5575E-03     64.8448E-03
            3328            3874     67.4370E-03     72.7081E-03
            3329            3856     66.0257E-03     73.7108E-03
            3329            3857     73.9381E-03     81.5435E-03
            3329            3874     67.4370E-03     72.7081E-03
            3329            3875     75.3515E-03     80.5952E-03
            3330            3857     73.9381E-03     81.5435E-03
            3330            3858     81.8678E-03     89.3733E-03
            3330            3875     75.3515E-03     80.5952E-03
            3330            3876     83.2702E-03     88.4925E-03
            3331            3858     81.8678E-03     89.3733E-03
            3331            3859     89.7580E-03     97.1782E-03
            3331            3876     83.2702E-03     88.4925E-03
            3331            3877     91.2037E-03     96.3846E-03
            3332            3859     89.7580E-03     97.1782E-03
            3332            3860     97.6233E-03     104.949E-03
            3332            3877     91.2037E-03     96.3846E-03
            3332            3878     99.1374E-03     104.280E-03
            3333            3860     97.6233E-03     104.949E-03
            3333            3861     105.441E-03     112.686E-03
            3333            3878     99.1374E-03     104.280E-03
            3333            3879     107.082E-03     112.173E-03
            3334            3861     105.441E-03     112.686E-03
            3334            3862     113.211E-03     120.359E-03
            3334            3879     107.082E-03     112.173E-03
            3334            3880     115.031E-03     120.081E-03
            3335            3862     113.211E-03     120.359E-03
            3335            3863     120.918E-03     127.981E-03
            3335            3880     115.031E-03     120.081E-03
            3335            3881     122.991E-03     127.992E-03
            3336            3863     120.918E-03     127.981E-03
            3336            3864     128.555E-03     135.498E-03
            3336            3881     122.991E-03     127.992E-03
            3336            3882     130.971E-03     135.944E-03
            3337            3864     128.555E-03     135.498E-03
            3337            3865     136.164E-03     142.972E-03
            3337            3882     130.971E-03     135.944E-03
            3337            3883     138.979E-03     143.962E-03
            3338            3865     136.164E-03     142.972E-03
            3338            3866     143.748E-03     150.374E-03
            3338            3883     138.979E-03     143.962E-03
            3338            3884     147.101E-03     152.151E-03
            3339            3866     143.748E-03     150.374E-03
            3339            3867     151.723E-03     158.077E-03
            3339            3884     147.101E-03     152.151E-03
            3339            3885     155.537E-03     160.775E-03
            3340            3867     151.723E-03     158.077E-03
            3340            3868     160.222E-03     166.404E-03
            3340            3885     155.537E-03     160.775E-03
            3340            3886     164.701E-03     170.134E-03
            3341             691     171.872E-03     177.752E-03
            3341             692     177.305E-03     181.865E-03
            3341            3868     160.222E-03     166.404E-03
            3341            3886     164.701E-03     170.134E-03
            3342             718     27.4365E-03     26.2584E-03
            3342             719     27.3526E-03     27.0459E-03
            3342            3869     31.0057E-03     36.3868E-03
            3342            3887     30.6904E-03     34.4380E-03
            3343            3869     31.0057E-03     36.3868E-03
            3343            3870     37.6206E-03     43.0281E-03
            3343            3887     30.6904E-03     34.4380E-03
            3343            3888     38.1219E-03     42.4335E-03
            3344            3870     37.6206E-03     43.0281E-03
            3344            3871     44.1127E-03     49.7273E-03
            3344            3888     38.1219E-03     42.4335E-03
            3344            3889     45.9046E-03     49.3493E-03
            3345            3871     44.1127E-03     49.7273E-03
            3345            3872     51.7493E-03     57.1396E-03
            3345            3889     45.9046E-03     49.3493E-03
            3345            3890     53.5326E-03     56.4685E-03
            3346            3872     51.7493E-03     57.1396E-03
            3346            3873     59.5575E-03     64.8448E-03
            3346            3890     53.5326E-03     56.4685E-03
            3346            3891     61.3216E-03     64.1842E-03
            3347            3873     59.5575E-03     64.8448E-03
            3347            3874     67.4370E-03     72.7081E-03
            3347            3891     61.3216E-03     64.1842E-03
            3347            3892     69.0867E-03     71.9645E-03
            3348            3874     67.4370E-03     72.7081E-03
            3348            3875     75.3515E-03     80.5952E-03
            3348            3892     69.0867E-03     71.9645E-03
            3348            3893     76.9188E-03     79.8289E-03
            3349            3875     75.3515E-03     80.5952E-03
            3349            3876     83.2702E-03     88.4925E-03
            3349            3893     76.9188E-03     79.8289E-03
            3349            3894     84.7728E-03     87.7073E-03
            3350            3876     83.2702E-03     88.4925E-03
            3350            3877     91.2037E-03     96.3846E-03
            3350            3894     84.7728E-03     87.7073E-03
            3350            3895     92.6591E-03     95.6094E-03
            3351            3877     91.2037E-03     96.3846E-03
            3351            3878     99.1374E-03     104.280E-03
            3351            3895     92.6591E-03     95.6094E-03
            3351            3896     100.576E-03     103.527E-03
            3352            3878     99.1374E-03     104.280E-03
            3352            3879     107.082E-03     112.173E-03
            3352            3896     100.576E-03     103.527E-03
            3352            3897     108.521E-03     111.475E-03
            3353            3879     107.082E-03     112.173E-03
            3353            3880     115.031E-03     120.081E-03
            3353            3897     108.521E-03     111.475E-03
            3353            3898     116.507E-03     119.454E-03
            3354            3880     115.031E-03     120.081E-03
            3354            3881     122.991E-03     127.992E-03
            3354            3898     116.507E-03     119.454E-03
            3354            3899     124.536E-03     127.495E-03
            3355            3881     122.991E-03     127.992E-03
            3355            3882     130.971E-03     135.944E-03
            3355            3899     124.536E-03     127.495E-03
            3355            3900     132.637E-03     135.623E-03
            3356            3882     130.971E-03     135.944E-03
            3356            3883     138.979E-03     143.962E-03
            3356            3900     132.637E-03     135.623E-03
            3356            3901     140.807E-03     143.888E-03
            3357            3883     138.979E-03     143.962E-03
            3357            3884     147.101E-03     152.151E-03
            3357            3901     140.807E-03     143.888E-03
            3357            3902     149.163E-03     152.431E-03
            3358            3884     147.101E-03     152.151E-03
            3358            3885     155.537E-03     160.775E-03
            3358            3902     149.163E-03     152.431E-03
            3358            3903     157.608E-03     161.267E-03
            3359            3885     155.537E-03     160.775E-03
            3359            3886     164.701E-03     170.134E-03
            3359            3903     157.608E-03     161.267E-03
            3359            3904     167.062E-03     170.804E-03
            3360             692     177.305E-03     181.865E-03
            3360             693     176.364E-03     180.223E-03
            3360            3886     164.701E-03     170.134E-03
            3360            3904     167.062E-03     170.804E-03
            3361             717     29.7984E-03     30.0548E-03
            3361             718     27.4365E-03     26.2584E-03
            3361            3887     30.6904E-03     34.4380E-03
            3361            3905     32.2503E-03     36.3637E-03
            3362            3887     30.6904E-03     34.4380E-03
            3362            3888     38.1219E-03     42.4335E-03
            3362            3905     32.2503E-03     36.3637E-03
            3362            3906     40.0103E-03     42.4451E-03
            3363            3888     38.1219E-03     42.4335E-03
            3363            3889     45.9046E-03     49.3493E-03
            3363            3906     40.0103E-03     42.4451E-03
            3363            3907     48.1382E-03     48.9653E-03
            3364            3889     45.9046E-03     49.3493E-03
            3364            3890     53.5326E-03     56.4685E-03
            3364            3907     48.1382E-03     48.9653E-03
            3364            3908     55.7458E-03     56.2494E-03
            3365            3890     53.5326E-03     56.4685E-03
            3365            3891     61.3216E-03     64.1842E-03
            3365            3908     55.7458E-03     56.2494E-03
            3365            3909     63.2653E-03     63.7677E-03
            3366            3891     61.3216E-03     64.1842E-03
            3366            3892     69.0867E-03     71.9645E-03
            3366            3909     63.2653E-03     63.7677E-03
            3366            3910     70.9080E-03     71.4571E-03
            3367            3892     69.0867E-03     71.9645E-03
            3367            3893     76.9188E-03     79.8289E-03
            3367            3910     70.9080E-03     71.4571E-03
            3367            3911     78.5786E-03     79.2010E-03
            3368            3893     76.9188E-03     79.8289E-03
            3368            3894     84.7728E-03     87.7073E-03
            3368            3911     78.5786E-03     79.2010E-03
            3368            3912     86.3161E-03     86.9947E-03
            3369            3894     84.7728E-03     87.7073E-03
            3369            3895     92.6591E-03     95.6094E-03
            3369            3912     86.3161E-03     86.9947E-03
            3369            3913     94.0838E-03     94.8123E-03
            3370            3895     92.6591E-03     95.6094E-03
            3370            3896     100.576E-03     103.527E-03
            3370            3913     94.0838E-03     94.8123E-03
            3370            3914     101.880E-03     102.657E-03
            3371            3896     100.576E-03     103.527E-03
            3371            3897     108.521E-03     111.475E-03
            3371            3914     101.880E-03     102.657E-03
            3371            3915     109.704E-03     110.517E-03
            3372            3897     108.521E-03     111.475E-03
            3372            3898     116.507E-03     119.454E-03
            3372            3915     109.704E-03     110.517E-03
            3372            3916     117.546E-03     118.407E-03
            3373            3898     116.507E-03     119.454E-03
            3373            3899     124.536E-03     127.495E-03
            3373            3916     117.546E-03     118.407E-03
            3373            3917     125.432E-03     126.327E-03
            3374            3899     124.536E-03     127.495E-03
            3374            3900     132.637E-03     135.623E-03
            3374            3917     125.432E-03     126.327E-03
            3374            3918     133.345E-03     134.309E-03
            3375            3900     132.637E-03     135.623E-03
            3375            3901     140.807E-03     143.888E-03
            3375            3918     133.345E-03     134.309E-03
            3375            3919     141.353E-03     142.380E-03
            3376            3901     140.807E-03     143.888E-03
            3376            3902     149.163E-03     152.431E-03
            3376            3919     141.353E-03     142.380E-03
            3376            3920     149.348E-03     150.549E-03
            3377            3902     149.163E-03     152.431E-03
            3377            3903     157.608E-03     161.267E-03
            3377            3920     149.348E-03     150.549E-03
            3377            3921     157.503E-03     158.874E-03
            3378            3903     157.608E-03     161.267E-03
            3378            3904     167.062E-03     170.804E-03
            3378            3921     157.503E-03     158.874E-03
            3378            3922     165.215E-03     167.055E-03
            3379             693     176.364E-03     180.223E-03
            3379             694     171.497E-03     174.108E-03
            3379            3904     167.062E-03     170.804E-03
            3379            3922     165.215E-03     167.055E-03
            3380             716     30.9784E-03     35.8314E-03
            3380             717     29.7984E-03     30.0548E-03
            3380            3905     32.2503E-03     36.3637E-03
            3380            3923     36.4247E-03     38.4961E-03
            3381            3905     32.2503E-03     36.3637E-03
            3381            3906     40.0103E-03     42.4451E-03
            3381            3923     36.4247E-03     38.4961E-03
            3381            3924     43.7899E-03     42.6987E-03
            3382            3906     40.0103E-03     42.4451E-03
            3382            3907     48.1382E-03     48.9653E-03
            3382            3924     43.7899E-03     42.6987E-03
            3382            3925     50.7843E-03     49.0881E-03
            3383            3907     48.1382E-03     48.9653E-03
            3383            3908     55.7458E-03     56.2494E-03
            3383            3925     50.7843E-03     49.0881E-03
            3383            3926     58.0425E-03     56.2933E-03
            3384            3908     55.7458E-03     56.2494E-03
            3384            3909     63.2653E-03     63.7677E-03
            3384            3926     58.0425E-03     56.2933E-03
            3384            3927     65.3479E-03     63.6309E-03
            3385            3909     63.2653E-03     63.7677E-03
            3385            3910     70.9080E-03     71.4571E-03
            3385            3927     65.3479E-03     63.6309E-03
            3385            3928     72.7967E-03     71.1327E-03
            3386            3910     70.9080E-03     71.4571E-03
            3386            3911     78.5786E-03     79.2010E-03
            3386            3928     72.7967E-03     71.1327E-03
            3386            3929     80.3328E-03     78.7222E-03
            3387            3911     78.5786E-03     79.2010E-03
            3387            3912     86.3161E-03     86.9947E-03
            3387            3929     80.3328E-03     78.7222E-03
            3387            3930     87.9087E-03     86.3644E-03
            3388            3912     86.3161E-03     86.9947E-03
            3388            3913     94.0838E-03     94.8123E-03
            3388            3930     87.9087E-03     86.3644E-03
            3388            3931     95.5113E-03     94.0416E-03
            3389            3913     94.0838E-03     94.8123E-03
            3389            3914     101.880E-03     102.657E-03
            3389            3931     95.5113E-03     94.0416E-03
            3389            3932     103.112E-03     101.718E-03
            3390            3914     101.880E-03     102.657E-03
            3390            3915     109.704E-03     110.517E-03
            3390            3932     103.112E-03     101.718E-03
            3390            3933     110.691E-03     109.385E-03
            3391            3915     109.704E-03     110.517E-03
            3391            3916     117.546E-03     118.407E-03
            3391            3933     110.691E-03     109.385E-03
            3391            3934     118.247E-03     117.015E-03
            3392            3916     117.546E-03     118.407E-03
            3392            3917     125.432E-03     126.327E-03
            3392            3934     118.247E-03     117.015E-03
            3392            3935     125.739E-03     124.599E-03
            3393            3917     125.432E-03     126.327E-03
            3393            3918     133.345E-03     134.309E-03
            3393            3935     125.739E-03     124.599E-03
            3393            3936     133.201E-03     132.097E-03
            3394            3918     133.345E-03     134.309E-03
            3394            3919     141.353E-03     142.380E-03
            3394            3936     133.201E-03     132.097E-03
            3394            3937     140.534E-03     139.498E-03
            3395            3919     141.353E-03     142.380E-03
            3395            3920     149.348E-03     150.549E-03
            3395            3937     140.534E-03     139.498E-03
            3395            3938     147.758E-03     146.659E-03
            3396            3920     149.348E-03     150.549E-03
            3396            3921     157.503E-03     158.874E-03
            3396            3938     147.758E-03     146.659E-03
            3396            3939     154.622E-03     153.473E-03
            3397            3921     157.503E-03     158.874E-03
            3397            3922     165.215E-03     167.055E-03
            3397            3939     154.622E-03     153.473E-03
            3397            3940     160.487E-03     159.396E-03
            3398             694     171.497E-03     174.108E-03
            3398             695     164.970E-03     163.782E-03
            3398            3922     165.215E-03     167.055E-03
            3398            3940     160.487E-03     159.396E-03
            3399             715     24.8082E-03     28.0341E-03
            3399             716     30.9784E-03     35.8314E-03
            3399            3923     36.4247E-03     38.4961E-03
            3399            3941     32.1838E-03     32.6647E-03
            3400            3923     36.4247E-03     38.4961E-03
            3400            3924     43.7899E-03     42.6987E-03
            3400            3941     32.1838E-03     32.6647E-03
            3400            3942     38.5074E-03     38.3048E-03
            3401            3924     43.7899E-03     42.6987E-03
            3401            3925     50.7843E-03     49.0881E-03
            3401            3942     38.5074E-03     38.3048E-03
            3401            3943     45.0376E-03     44.8166E-03
            3402            3925     50.7843E-03     49.0881E-03
            3402            3926     58.0425E-03     56.2933E-03
            3402            3943     45.0376E-03     44.8166E-03
            3402            3944     51.8519E-03     51.7002E-03
            3403            3926     58.0425E-03     56.2933E-03
            3403            3927     65.3479E-03     63.6309E-03
            3403            3944     51.8519E-03     51.7002E-03
            3403            3945     58.8511E-03     58.7175E-03
            3404            3927     65.3479E-03     63.6309E-03
            3404            3928     72.7967E-03     71.1327E-03
            3404            3945     58.8511E-03     58.7175E-03
            3404            3946     65.9144E-03     65.7890E-03
            3405            3928     72.7967E-03     71.1327E-03
            3405            3929     80.3328E-03     78.7222E-03
            3405            3946     65.9144E-03     65.7890E-03
            3405            3947     73.0373E-03     72.9377E-03
            3406            3929     80.3328E-03     78.7222E-03
            3406            3930     87.9087E-03     86.3644E-03
            3406            3947     73.0373E-03     72.9377E-03
            3406            3948     80.1835E-03     80.1086E-03
            3407            3930     87.9087E-03     86.3644E-03
            3407            3931     95.5113E-03     94.0416E-03
            3407            3948     80.1835E-03     80.1086E-03
            3407            3949     87.3327E-03     87.3071E-03
            3408            3931     95.5113E-03     94.0416E-03
            3408            3932     103.112E-03     101.718E-03
            3408            3949     87.3327E-03     87.3071E-03
            3408            3950     94.4787E-03     94.4902E-03
            3409            3932     103.112E-03     101.718E-03
            3409            3933     110.691E-03     109.385E-03
            3409            3950     94.4787E-03     94.4902E-03
            3409            3951     101.596E-03     101.673E-03
            3410            3933     110.691E-03     109.385E-03
            3410            3934     118.247E-03     117.015E-03
            3410            3951     101.596E-03     101.673E-03
            3410            3952     108.686E-03     108.799E-03
            3411            3934     118.247E-03     117.015E-03
            3411            3935     125.739E-03     124.599E-03
            3411            3952     108.686E-03     108.799E-03
            3411            3953     115.718E-03     115.899E-03
            3412            3935     125.739E-03     124.599E-03
            3412            3936     133.201E-03     132.097E-03
            3412            3953     115.718E-03     115.899E-03
            3412            3954     122.693E-03     122.884E-03
            3413            3936     133.201E-03     132.097E-03
            3413            3937     140.534E-03     139.498E-03
            3413            3954     122.693E-03     122.884E-03
            3413            3955     129.560E-03     129.771E-03
            3414            3937     140.534E-03     139.498E-03
            3414            3938     147.758E-03     146.659E-03
            3414            3955     129.560E-03     129.771E-03
            3414            3956     136.299E-03     136.443E-03
            3415            3938     147.758E-03     146.659E-03
            3415            3939     154.622E-03     153.473E-03
            3415            3956     136.299E-03     136.443E-03
            3415            3957     142.703E-03     142.737E-03
            3416            3939     154.622E-03     153.473E-03
            3416            3940     160.487E-03     159.396E-03
            3416            3957     142.703E-03     142.737E-03
            3416            3958     148.732E-03     148.480E-03
            3417             695     164.970E-03     163.782E-03
            3417             696     153.820E-03     153.345E-03
            3417            3940     160.487E-03     159.396E-03
            3417            3958     148.732E-03     148.480E-03
            3418              33     22.0151E-03     22.4608E-03
            3418             714     26.7863E-03     29.2282E-03
            3418             715     24.8082E-03     28.0341E-03
            3418            3941     32.1838E-03     32.6647E-03
            3419             713     30.6204E-03     33.7379E-03
            3419             714     26.7863E-03     29.2282E-03
            3419            3941     32.1838E-03     32.6647E-03
            3419            3942     38.5074E-03     38.3048E-03
            3420             712     35.8864E-03     39.3802E-03
            3420             713     30.6204E-03     33.7379E-03
            3420            3942     38.5074E-03     38.3048E-03
            3420            3943     45.0376E-03     44.8166E-03
            3421             711     41.6210E-03     45.3539E-03
            3421             712     35.8864E-03     39.3802E-03
            3421            3943     45.0376E-03     44.8166E-03
            3421            3944     51.8519E-03     51.7002E-03
            3422             710     47.6031E-03     51.4875E-03
            3422             711     41.6210E-03     45.3539E-03
            3422            3944     51.8519E-03     51.7002E-03
            3422            3945     58.8511E-03     58.7175E-03
            3423             709     53.7275E-03     57.6944E-03
            3423             710     47.6031E-03     51.4875E-03
            3423            3945     58.8511E-03     58.7175E-03
            3423            3946     65.9144E-03     65.7890E-03
            3424             708     59.9239E-03     63.9333E-03
            3424             709     53.7275E-03     57.6944E-03
            3424            3946     65.9144E-03     65.7890E-03
            3424            3947     73.0373E-03     72.9377E-03
            3425             707     66.1602E-03     70.1766E-03
            3425             708     59.9239E-03     63.9333E-03
            3425            3947     73.0373E-03     72.9377E-03
            3425            3948     80.1835E-03     80.1086E-03
            3426             706     72.4069E-03     76.4158E-03
            3426             707     66.1602E-03     70.1766E-03
            3426            3948     80.1835E-03     80.1086E-03
            3426            3949     87.3327E-03     87.3071E-03
            3427             705     78.6611E-03     82.6365E-03
            3427             706     72.4069E-03     76.4158E-03
            3427            3949     87.3327E-03     87.3071E-03
            3427            3950     94.4787E-03     94.4902E-03
            3428             704     84.9066E-03     88.8449E-03
            3428             705     78.6611E-03     82.6365E-03
            3428            3950     94.4787E-03     94.4902E-03
            3428            3951     101.596E-03     101.673E-03
            3429             703     91.1721E-03     95.0339E-03
            3429             704     84.9066E-03     88.8449E-03
            3429            3951     101.596E-03     101.673E-03
            3429            3952     108.686E-03     108.799E-03
            3430             702     97.4456E-03     101.232E-03
            3430             703     91.1721E-03     95.0339E-03
            3430            3952     108.686E-03     108.799E-03
            3430            3953     115.718E-03     115.899E-03
            3431             701     103.812E-03     107.453E-03
            3431             702     97.4456E-03     101.232E-03
            3431            3953     115.718E-03     115.899E-03
            3431            3954     122.693E-03     122.884E-03
            3432             700     110.263E-03     113.783E-03
            3432             701     103.812E-03     107.453E-03
            3432            3954     122.693E-03     122.884E-03
            3432            3955     129.560E-03     129.771E-03
            3433             699     117.013E-03     120.308E-03
            3433             700     110.263E-03     113.783E-03
            3433            3955     129.560E-03     129.771E-03
            3433            3956     136.299E-03     136.443E-03
            3434             698     124.059E-03     127.261E-03
            3434             699     117.013E-03     120.308E-03
            3434            3956     136.299E-03     136.443E-03
            3434            3957     142.703E-03     142.737E-03
            3435             697     132.015E-03     135.086E-03
            3435             698     124.059E-03     127.261E-03
            3435            3957     142.703E-03     142.737E-03
            3435            3958     148.732E-03     148.480E-03
            3436              32     140.977E-03     144.433E-03
            3436             696     153.820E-03     153.345E-03
            3436             697     132.015E-03     135.086E-03
            3436            3958     148.732E-03     148.480E-03
            3437              23     7.29160E-03     8.86398E-03
            3437             455     6.44752E-03     7.24238E-03
            3437             531     13.8134E-03     14.6343E-03
            3437            3959     12.9326E-03     13.4937E-03
            3438              17     5.22135E-03     4.87575E-03
            3438             455     6.44752E-03     7.24238E-03
            3438             672     9.81574E-03     9.32562E-03
            3438            3959     12.9326E-03     13.4937E-03
            3439             530     13.3413E-03     11.8985E-03
            3439             531     13.8134E-03     14.6343E-03
            3439            3959     12.9326E-03     13.4937E-03
            3439            3960     14.5038E-03     14.0319E-03
            3440             671     10.4113E-03     10.2203E-03
            3440             672     9.81574E-03     9.32562E-03
            3440            3959     12.9326E-03     13.4937E-03
            3440            3960     14.5038E-03     14.0319E-03
            3441             529     14.1307E-03     13.7247E-03
            3441             530     13.3413E-03     11.8985E-03
            3441            3960     14.5038E-03     14.0319E-03
            3441            3961     16.7238E-03     16.2885E-03
            3442             670     12.3651E-03     12.1336E-03
            3442             671     10.4113E-03     10.2203E-03
            3442            3960     14.5038E-03     14.0319E-03
            3442            3961     16.7238E-03     16.2885E-03
            3443             528     17.5720E-03     17.1899E-03
            3443             529     14.1307E-03     13.7247E-03
            3443            3961     16.7238E-03     16.2885E-03
            3443            3962     18.9957E-03     18.7488E-03
            3444             669     14.3060E-03     14.2983E-03
            3444             670     12.3651E-03     12.1336E-03
            3444            3961     16.7238E-03     16.2885E-03
            3444            3962     18.9957E-03     18.7488E-03
            3445             527     21.2703E-03     21.9998E-03
            3445             528     17.5720E-03     17.1899E-03
            3445            3962     18.9957E-03     18.7488E-03
            3445            3963     21.3364E-03     21.4311E-03
            3446             668     16.0904E-03     16.2371E-03
            3446             669     14.3060E-03     14.2983E-03
            3446            3962     18.9957E-03     18.7488E-03
            3446            3963     21.3364E-03     21.4311E-03
            3447             526     27.0585E-03     26.0531E-03
            3447             527     21.2703E-03     21.9998E-03
            3447            3963     21.3364E-03     21.4311E-03
            3447            3964     23.9134E-03     23.8341E-03
            3448             667     16.9131E-03     17.7247E-03
            3448             668     16.0904E-03     16.2371E-03
            3448            3963     21.3364E-03     21.4311E-03
            3448            3964     23.9134E-03     23.8341E-03
            3449             525     31.6310E-03     32.4079E-03
            3449             526     27.0585E-03     26.0531E-03
            3449            3964     23.9134E-03     23.8341E-03
            3449            3965     24.8547E-03     26.8081E-03
            3450             666     16.4999E-03     18.7481E-03
            3450             667     16.9131E-03     17.7247E-03
            3450            3964     23.9134E-03     23.8341E-03
            3450            3965     24.8547E-03     26.8081E-03
            3451             524     28.0782E-03     30.2388E-03
            3451             525     31.6310E-03     32.4079E-03
            3451            3965     24.8547E-03     26.8081E-03
            3451            3966     26.3300E-03     27.5428E-03
            3452             665     23.4284E-03     23.7103E-03
            3452             666     16.4999E-03     18.7481E-03
            3452            3965     24.8547E-03     26.8081E-03
            3452            3966     26.3300E-03     27.5428E-03
            3453             523     26.2408E-03     24.5308E-03
            3453             524     28.0782E-03     30.2388E-03
            3453            3966     26.3300E-03     27.5428E-03
            3453            3967     29.6021E-03     28.5204E-03
            3454             664     30.9624E-03     29.5952E-03
            3454             665     23.4284E-03     23.7103E-03
            3454            3966     26.3300E-03     27.5428E-03
            3454            3967     29.6021E-03     28.5204E-03
            3455             522     29.9816E-03     28.9352E-03
            3455             523     26.2408E-03     24.5308E-03
            3455            3967     29.6021E-03     28.5204E-03
            3455            3968     33.1050E-03     32.9612E-03
            3456             663     32.4783E-03     32.4906E-03
            3456             664     30.9624E-03     29.5952E-03
            3456            3967     29.6021E-03     28.5204E-03
            3456            3968     33.1050E-03     32.9612E-03
            3457             521     34.1262E-03     33.7288E-03
            3457             522     29.9816E-03     28.9352E-03
            3457            3968     33.1050E-03     32.9612E-03
            3457            3969     37.1791E-03     37.2035E-03
            3458             662     35.2673E-03     35.6994E-03
            3458             663     32.4783E-03     32.4906E-03
            3458            3968     33.1050E-03     32.9612E-03
            3458            3969     37.1791E-03     37.2035E-03
            3459             520     38.8393E-03     38.5764E-03
            3459             521     34.1262E-03     33.7288E-03
            3459            3969     37.1791E-03     37.2035E-03
            3459            3970     40.8647E-03     41.1161E-03
            3460             661     38.2210E-03     38.8214E-03
            3460             662     35.2673E-03     35.6994E-03
            3460            3969     37.1791E-03     37.2035E-03
            3460            3970     40.8647E-03     41.1161E-03
            3461             519     43.4035E-03     43.7023E-03
            3461             520     38.8393E-03     38.5764E-03
            3461            3970     40.8647E-03     41.1161E-03
            3461            3971     44.3575E-03     44.8505E-03
            3462             660     40.9975E-03     41.6879E-03
            3462             661     38.2210E-03     38.8214E-03
            3462            3970     40.8647E-03     41.1161E-03
            3462            3971     44.3575E-03     44.8505E-03
            3463             518     48.6457E-03     48.1617E-03
            3463             519     43.4035E-03     43.7023E-03
            3463            3971     44.3575E-03     44.8505E-03
            3463            3972     47.8936E-03     48.4516E-03
            3464             659     43.4233E-03     44.3763E-03
            3464             660     40.9975E-03     41.6879E-03
            3464            3971     44.3575E-03     44.8505E-03
            3464            3972     47.8936E-03     48.4516E-03
            3465             517     52.7290E-03     54.5413E-03
            3465             518     48.6457E-03     48.1617E-03
            3465            3972     47.8936E-03     48.4516E-03
            3465            3973     51.1611E-03     52.1975E-03
            3466             658     45.6192E-03     46.5374E-03
            3466             659     43.4233E-03     44.3763E-03
            3466            3972     47.8936E-03     48.4516E-03
            3466            3973     51.1611E-03     52.1975E-03
            3467             516     60.2337E-03     58.6803E-03
            3467             517     52.7290E-03     54.5413E-03
            3467            3973     51.1611E-03     52.1975E-03
            3467            3974     54.6351E-03     54.9869E-03
            3468             657     46.4680E-03     47.7197E-03
            3468             658     45.6192E-03     46.5374E-03
            3468            3973     51.1611E-03     52.1975E-03
            3468            3974     54.6351E-03     54.9869E-03
            3469             515     65.6593E-03     65.8462E-03
            3469             516     60.2337E-03     58.6803E-03
            3469            3974     54.6351E-03     54.9869E-03
            3469            3975     55.5470E-03     57.6692E-03
            3470             656     44.9495E-03     47.4562E-03
            3470             657     46.4680E-03     47.7197E-03
            3470            3974     54.6351E-03     54.9869E-03
            3470            3975     55.5470E-03     57.6692E-03
            3471             514     58.9402E-03     62.7894E-03
            3471             515     65.6593E-03     65.8462E-03
            3471            3975     55.5470E-03     57.6692E-03
            3471            3976     55.6871E-03     56.7925E-03
            3472             655     51.5775E-03     51.6967E-03
            3472             656     44.9495E-03     47.4562E-03
            3472            3975     55.5470E-03     57.6692E-03
            3472            3976     55.6871E-03     56.7925E-03
            3473             513     56.8945E-03     53.7942E-03
            3473             514     58.9402E-03     62.7894E-03
            3473            3976     55.6871E-03     56.7925E-03
            3473            3977     59.0048E-03     57.4090E-03
            3474             654     60.4694E-03     58.9911E-03
            3474             655     51.5775E-03     51.6967E-03
            3474            3976     55.6871E-03     56.7925E-03
            3474            3977     59.0048E-03     57.4090E-03
            3475             512     61.2093E-03     59.5914E-03
            3475             513     56.8945E-03     53.7942E-03
            3475            3977     59.0048E-03     57.4090E-03
            3475            3978     63.5916E-03     63.7892E-03
            3476             653     63.2218E-03     63.5843E-03
            3476             654     60.4694E-03     58.9911E-03
            3476            3977     59.0048E-03     57.4090E-03
            3476            3978     63.5916E-03     63.7892E-03
            3477             511     65.3220E-03     65.4174E-03
            3477             512     61.2093E-03     59.5914E-03
            3477            3978     63.5916E-03     63.7892E-03
            3477            3979     68.4206E-03     69.0066E-03
            3478             652     66.7435E-03     67.8280E-03
            3478             653     63.2218E-03     63.5843E-03
            3478            3978     63.5916E-03     63.7892E-03
            3478            3979     68.4206E-03     69.0066E-03
            3479             510     70.6944E-03     70.3275E-03
            3479             511     65.3220E-03     65.4174E-03
            3479            3979     68.4206E-03     69.0066E-03
            3479            3980     72.7618E-03     73.5148E-03
            3480             651     70.3678E-03     71.5991E-03
            3480             652     66.7435E-03     67.8280E-03
            3480            3979     68.4206E-03     69.0066E-03
            3480            3980     72.7618E-03     73.5148E-03
            3481             509     75.8116E-03     75.8367E-03
            3481             510     70.6944E-03     70.3275E-03
            3481            3980     72.7618E-03     73.5148E-03
            3481            3981     76.8949E-03     77.8234E-03
            3482             650     73.5999E-03     75.0063E-03
            3482             651     70.3678E-03     71.5991E-03
            3482            3980     72.7618E-03     73.5148E-03
            3482            3981     76.8949E-03     77.8234E-03
            3483             508     80.7446E-03     81.4237E-03
            3483             509     75.8116E-03     75.8367E-03
            3483            3981     76.8949E-03     77.8234E-03
            3483            3982     80.7752E-03     81.9705E-03
            3484             649     76.6348E-03     78.0925E-03
            3484             650     73.5999E-03     75.0063E-03
            3484            3981     76.8949E-03     77.8234E-03
            3484            3982     80.7752E-03     81.9705E-03
            3485             507     86.6778E-03     85.9858E-03
            3485             508     80.7446E-03     81.4237E-03
            3485            3982     80.7752E-03     81.9705E-03
            3485            3983     84.7112E-03     85.9010E-03
            3486             648     79.1675E-03     80.9362E-03
            3486             649     76.6348E-03     78.0925E-03
            3486            3982     80.7752E-03     81.9705E-03
            3486            3983     84.7112E-03     85.9010E-03
            3487             506     90.7276E-03     93.4951E-03
            3487             507     86.6778E-03     85.9858E-03
            3487            3983     84.7112E-03     85.9010E-03
            3487            3984     88.2394E-03     90.0539E-03
            3488             647     81.3775E-03     83.0093E-03
            3488             648     79.1675E-03     80.9362E-03
            3488            3983     84.7112E-03     85.9010E-03
            3488            3984     88.2394E-03     90.0539E-03
            3489             505     99.8702E-03     97.4791E-03
            3489             506     90.7276E-03     93.4951E-03
            3489            3984     88.2394E-03     90.0539E-03
            3489            3985     92.0037E-03     92.7008E-03
            3490             646     81.8389E-03     83.5789E-03
            3490             647     81.3775E-03     83.0093E-03
            3490            3984     88.2394E-03     90.0539E-03
            3490            3985     92.0037E-03     92.7008E-03
            3491             504     106.070E-03     105.427E-03
            3491             505     99.8702E-03     97.4791E-03
            3491            3985     92.0037E-03     92.7008E-03
            3491            3986     92.3542E-03     94.6419E-03
            3492             645     78.9765E-03     81.8000E-03
            3492             646     81.8389E-03     83.5789E-03
            3492            3985     92.0037E-03     92.7008E-03
            3492            3986     92.3542E-03     94.6419E-03
            3493             503     96.7578E-03     103.098E-03
            3493             504     106.070E-03     105.427E-03
            3493            3986     92.3542E-03     94.6419E-03
            3493            3987     91.3158E-03     92.7487E-03
            3494             644     85.1460E-03     85.1854E-03
            3494             645     78.9765E-03     81.8000E-03
            3494            3986     92.3542E-03     94.6419E-03
            3494            3987     91.3158E-03     92.7487E-03
            3495             502     95.3828E-03     91.1967E-03
            3495             503     96.7578E-03     103.098E-03
            3495            3987     91.3158E-03     92.7487E-03
            3495            3988     95.2516E-03     93.4907E-03
            3496             643     95.3835E-03     93.9526E-03
            3496             644     85.1460E-03     85.1854E-03
            3496            3987     91.3158E-03     92.7487E-03
            3496            3988     95.2516E-03     93.4907E-03
            3497             501     99.8966E-03     97.4519E-03
            3497             502     95.3828E-03     91.1967E-03
            3497            3988     95.2516E-03     93.4907E-03
            3497            3989     100.983E-03     101.535E-03
            3498             642     99.6020E-03     100.438E-03
            3498             643     95.3835E-03     93.9526E-03
            3498            3988     95.2516E-03     93.4907E-03
            3498            3989     100.983E-03     101.535E-03
            3499             500     103.453E-03     104.310E-03
            3499             501     99.8966E-03     97.4519E-03
            3499            3989     100.983E-03     101.535E-03
            3499            3990     106.409E-03     107.703E-03
            3500             641     103.946E-03     105.777E-03
            3500             642     99.6020E-03     100.438E-03
            3500            3989     100.983E-03     101.535E-03
            3500            3990     106.409E-03     107.703E-03
            3501             499     109.630E-03     109.057E-03
            3501             500     103.453E-03     104.310E-03
            3501            3990     106.409E-03     107.703E-03
            3501            3991     111.288E-03     112.639E-03
            3502             640     108.103E-03     110.165E-03
            3502             641     103.946E-03     105.777E-03
            3502            3990     106.409E-03     107.703E-03
            3502            3991     111.288E-03     112.639E-03
            3503             498     114.998E-03     115.233E-03
            3503             499     109.630E-03     109.057E-03
            3503            3991     111.288E-03     112.639E-03
            3503            3992     115.821E-03     117.390E-03
            3504             639     111.715E-03     113.939E-03
            3504             640     108.103E-03     110.165E-03
            3504            3991     111.288E-03     112.639E-03
            3504            3992     115.821E-03     117.390E-03
            3505             497     120.323E-03     121.253E-03
            3505             498     114.998E-03     115.233E-03
            3505            3992     115.821E-03     117.390E-03
            3505            3993     120.045E-03     121.896E-03
            3506             638     114.994E-03     117.268E-03
            3506             639     111.715E-03     113.939E-03
            3506            3992     115.821E-03     117.390E-03
            3506            3993     120.045E-03     121.896E-03
            3507             496     126.885E-03     125.944E-03
            3507             497     120.323E-03     121.253E-03
            3507            3993     120.045E-03     121.896E-03
            3507            3994     124.296E-03     126.094E-03
            3508             637     117.615E-03     120.239E-03
            3508             638     114.994E-03     117.268E-03
            3508            3993     120.045E-03     121.896E-03
            3508            3994     124.296E-03     126.094E-03
            3509             495     130.920E-03     134.588E-03
            3509             496     126.885E-03     125.944E-03
            3509            3994     124.296E-03     126.094E-03
            3509            3995     127.995E-03     130.573E-03
            3510             636     119.765E-03     122.165E-03
            3510             637     117.615E-03     120.239E-03
            3510            3994     124.296E-03     126.094E-03
            3510            3995     127.995E-03     130.573E-03
            3511             494     141.781E-03     138.439E-03
            3511             495     130.920E-03     134.588E-03
            3511            3995     127.995E-03     130.573E-03
            3511            3996     131.942E-03     132.979E-03
            3512             635     119.743E-03     122.038E-03
            3512             636     119.765E-03     122.165E-03
            3512            3995     127.995E-03     130.573E-03
            3512            3996     131.942E-03     132.979E-03
            3513             493     148.834E-03     147.261E-03
            3513             494     141.781E-03     138.439E-03
            3513            3996     131.942E-03     132.979E-03
            3513            3997     131.630E-03     134.082E-03
            3514             634     115.475E-03     118.657E-03
            3514             635     119.743E-03     122.038E-03
            3514            3996     131.942E-03     132.979E-03
            3514            3997     131.630E-03     134.082E-03
            3515             492     136.438E-03     145.634E-03
            3515             493     148.834E-03     147.261E-03
            3515            3997     131.630E-03     134.082E-03
            3515            3998     129.128E-03     131.160E-03
            3516             633     120.996E-03     121.121E-03
            3516             634     115.475E-03     118.657E-03
            3516            3997     131.630E-03     134.082E-03
            3516            3998     129.128E-03     131.160E-03
            3517             491     135.527E-03     130.823E-03
            3517             492     136.438E-03     145.634E-03
            3517            3998     129.128E-03     131.160E-03
            3517            3999     133.735E-03     132.199E-03
            3518             632     132.438E-03     131.375E-03
            3518             633     120.996E-03     121.121E-03
            3518            3998     129.128E-03     131.160E-03
            3518            3999     133.735E-03     132.199E-03
            3519             490     141.343E-03     138.158E-03
            3519             491     135.527E-03     130.823E-03
            3519            3999     133.735E-03     132.199E-03
            3519            4000     140.927E-03     142.173E-03
            3520             631     137.894E-03     139.726E-03
            3520             632     132.438E-03     131.375E-03
            3520            3999     133.735E-03     132.199E-03
            3520            4000     140.927E-03     142.173E-03
            3521             489     144.592E-03     147.486E-03
            3521             490     141.343E-03     138.158E-03
            3521            4000     140.927E-03     142.173E-03
            3521            4001     146.786E-03     149.537E-03
            3522             630     142.604E-03     145.665E-03
            3522             631     137.894E-03     139.726E-03
            3522            4000     140.927E-03     142.173E-03
            3522            4001     146.786E-03     149.537E-03
            3523             488     153.396E-03     151.208E-03
            3523             489     144.592E-03     147.486E-03
            3523            4001     146.786E-03     149.537E-03
            3523            4002     152.229E-03     154.596E-03
            3524             629     146.139E-03     149.998E-03
            3524             630     142.604E-03     145.665E-03
            3524            4001     146.786E-03     149.537E-03
            3524            4002     152.229E-03     154.596E-03
            3525             487     157.241E-03     161.908E-03
            3525             488     153.396E-03     151.208E-03
            3525            4002     152.229E-03     154.596E-03
            3525            4003     156.373E-03     159.862E-03
            3526             628     148.852E-03     152.318E-03
            3526             629     146.139E-03     149.998E-03
            3526            4002     152.229E-03     154.596E-03
            3526            4003     156.373E-03     159.862E-03
            3527             486     169.750E-03     165.609E-03
            3527             487     157.241E-03     161.908E-03
            3527            4003     156.373E-03     159.862E-03
            3527            4004     160.736E-03     162.268E-03
            3528             627     148.765E-03     152.061E-03
            3528             628     148.852E-03     152.318E-03
            3528            4003     156.373E-03     159.862E-03
            3528            4004     160.736E-03     162.268E-03
            3529             485     177.551E-03     175.452E-03
            3529             486     169.750E-03     165.609E-03
            3529            4004     160.736E-03     162.268E-03
            3529            4005     160.156E-03     162.931E-03
            3530             626     143.847E-03     147.714E-03
            3530             627     148.765E-03     152.061E-03
            3530            4004     160.736E-03     162.268E-03
            3530            4005     160.156E-03     162.931E-03
            3531              25     201.783E-03     210.198E-03
            3531             485     177.551E-03     175.452E-03
            3531             558     194.774E-03     199.623E-03
            3531            4005     160.156E-03     162.931E-03
            3532              28     188.676E-03     189.618E-03
            3532             558     194.774E-03     199.623E-03
            3532             626     143.847E-03     147.714E-03
            3532            4005     160.156E-03     162.931E-03
            3533              31     170.288E-03     178.447E-03
            3533             691     171.872E-03     177.752E-03
            3533             721     189.167E-03     200.112E-03
            3533            4006     190.908E-03     195.136E-03
            3534               8     206.030E-03     227.592E-03
            3534             189     210.722E-03     208.975E-03
            3534             721     189.167E-03     200.112E-03
            3534            4006     190.908E-03     195.136E-03
            3535             691     171.872E-03     177.752E-03
            3535             692     177.305E-03     181.865E-03
            3535            4006     190.908E-03     195.136E-03
            3535            4007     190.756E-03     192.716E-03
            3536             188     200.638E-03     194.300E-03
            3536             189     210.722E-03     208.975E-03
            3536            4006     190.908E-03     195.136E-03
            3536            4007     190.756E-03     192.716E-03
            3537             692     177.305E-03     181.865E-03
            3537             693     176.364E-03     180.223E-03
            3537            4007     190.756E-03     192.716E-03
            3537            4008     183.779E-03     188.264E-03
            3538             187     182.509E-03     190.011E-03
            3538             188     200.638E-03     194.300E-03
            3538            4007     190.756E-03     192.716E-03
            3538            4008     183.779E-03     188.264E-03
            3539             693     176.364E-03     180.223E-03
            3539             694     171.497E-03     174.108E-03
            3539            4008     183.779E-03     188.264E-03
            3539            4009     176.407E-03     178.085E-03
            3540             186     178.804E-03     173.291E-03
            3540             187     182.509E-03     190.011E-03
            3540            4008     183.779E-03     188.264E-03
            3540            4009     176.407E-03     178.085E-03
            3541             694     171.497E-03     174.108E-03
            3541             695     164.970E-03     163.782E-03
            3541            4009     176.407E-03     178.085E-03
            3541            4010     166.549E-03     165.142E-03
            3542             185     168.373E-03     163.800E-03
            3542             186     178.804E-03     173.291E-03
            3542            4009     176.407E-03     178.085E-03
            3542            4010     166.549E-03     165.142E-03
            3543             695     164.970E-03     163.782E-03
            3543             696     153.820E-03     153.345E-03
            3543            4010     166.549E-03     165.142E-03
            3543            4011     157.215E-03     157.140E-03
            3544             184     158.078E-03     161.591E-03
            3544             185     168.373E-03     163.800E-03
            3544            4010     166.549E-03     165.142E-03
            3544            4011     157.215E-03     157.140E-03
            3545              32     140.977E-03     144.433E-03
            3545             696     153.820E-03     153.345E-03
            3545             722     154.923E-03     160.483E-03
            3545            4011     157.215E-03     157.140E-03
            3546              10     167.059E-03     178.004E-03
            3546             184     158.078E-03     161.591E-03
            3546             722     154.923E-03     160.483E-03
            3546            4011     157.215E-03     157.140E-03
            3547               5     44.8595E-03     49.4229E-03
            3547             103     48.4063E-03     46.2994E-03
            3547             542     55.7358E-03     53.7125E-03
            3547            4012     47.2475E-03     44.7212E-03
            3548             102     48.7973E-03     49.0651E-03
            3548             103     48.4063E-03     46.2994E-03
            3548            4012     47.2475E-03     44.7212E-03
            3548            4013     48.1953E-03     48.5660E-03
            3549             101     46.3696E-03     48.9047E-03
            3549             102     48.7973E-03     49.0651E-03
            3549            4013     48.1953E-03     48.5660E-03
            3549            4014     46.3198E-03     48.5315E-03
            3550             100     47.9658E-03     47.6094E-03
            3550             101     46.3696E-03     48.9047E-03
            3550            4014     46.3198E-03     48.5315E-03
            3550            4015     47.3238E-03     46.9579E-03
            3551              99     47.7617E-03     47.6024E-03
            3551             100     47.9658E-03     47.6094E-03
            3551            4015     47.3238E-03     46.9579E-03
            3551            4016     46.8151E-03     46.8353E-03
            3552              98     47.5451E-03     45.6744E-03
            3552              99     47.7617E-03     47.6024E-03
            3552            4016     46.8151E-03     46.8353E-03
            3552            4017     46.0895E-03     44.3861E-03
            3553              97     46.1907E-03     45.9481E-03
            3553              98     47.5451E-03     45.6744E-03
            3553            4017     46.0895E-03     44.3861E-03
            3553            4018     44.6580E-03     44.5318E-03
            3554              96     43.0603E-03     44.9028E-03
            3554              97     46.1907E-03     45.9481E-03
            3554            4018     44.6580E-03     44.5318E-03
            3554            4019     41.9842E-03     43.1760E-03
            3555              95     44.8747E-03     43.1825E-03
            3555              96     43.0603E-03     44.9028E-03
            3555            4019     41.9842E-03     43.1760E-03
            3555            4020     43.6861E-03     41.3107E-03
            3556              94     44.8233E-03     45.5947E-03
            3556              95     44.8747E-03     43.1825E-03
            3556            4020     43.6861E-03     41.3107E-03
            3556            4021     44.2414E-03     44.3359E-03
            3557              93     42.2667E-03     45.4413E-03
            3557              94     44.8233E-03     45.5947E-03
            3557            4021     44.2414E-03     44.3359E-03
            3557            4022     42.2834E-03     44.1615E-03
            3558              92     43.2624E-03     44.1613E-03
            3558              93     42.2667E-03     45.4413E-03
            3558            4022     42.2834E-03     44.1615E-03
            3558            4023     43.0699E-03     42.7628E-03
            3559              91     42.9997E-03     43.5624E-03
            3559              92     43.2624E-03     44.1613E-03
            3559            4023     43.0699E-03     42.7628E-03
            3559            4024     42.5638E-03     42.5516E-03
            3560              90     42.7418E-03     42.1247E-03
            3560              91     42.9997E-03     43.5624E-03
            3560            4024     42.5638E-03     42.5516E-03
            3560            4025     41.9653E-03     41.4957E-03
            3561              89     42.5007E-03     40.8414E-03
            3561              90     42.7418E-03     42.1247E-03
            3561            4025     41.9653E-03     41.4957E-03
            3561            4026     41.4243E-03     40.5564E-03
            3562              88     42.0503E-03     40.1252E-03
            3562              89     42.5007E-03     40.8414E-03
            3562            4026     41.4243E-03     40.5564E-03
            3562            4027     40.7657E-03     39.7880E-03
            3563              87     41.3930E-03     38.8531E-03
            3563              88     42.0503E-03     40.1252E-03
            3563            4027     40.7657E-03     39.7880E-03
            3563            4028     40.0707E-03     38.1956E-03
            3564              86     40.0952E-03     39.2362E-03
            3564              87     41.3930E-03     38.8531E-03
            3564            4028     40.0707E-03     38.1956E-03
            3564            4029     38.8587E-03     38.6169E-03
            3565              85     37.9764E-03     38.7849E-03
            3565              86     40.0952E-03     39.2362E-03
            3565            4029     38.8587E-03     38.6169E-03
            3565            4030     37.2736E-03     37.6519E-03
            3566              84     39.2868E-03     37.9747E-03
            3566              85     37.9764E-03     38.7849E-03
            3566            4030     37.2736E-03     37.6519E-03
            3566            4031     38.3979E-03     36.5646E-03
            3567              83     39.1080E-03     39.6427E-03
            3567              84     39.2868E-03     37.9747E-03
            3567            4031     38.3979E-03     36.5646E-03
            3567            4032     38.6642E-03     38.7363E-03
            3568              82     37.1471E-03     39.3629E-03
            3568              83     39.1080E-03     39.6427E-03
            3568            4032     38.6642E-03     38.7363E-03
            3568            4033     37.2120E-03     38.4006E-03
            3569              81     37.7340E-03     38.3294E-03
            3569              82     37.1471E-03     39.3629E-03
            3569            4033     37.2120E-03     38.4006E-03
            3569            4034     37.6437E-03     37.4065E-03
            3570              80     37.4402E-03     37.7838E-03
            3570              81     37.7340E-03     38.3294E-03
            3570            4034     37.6437E-03     37.4065E-03
            3570            4035     37.1969E-03     37.2434E-03
            3571              79     37.1874E-03     36.7065E-03
            3571              80     37.4402E-03     37.7838E-03
            3571            4035     37.1969E-03     37.2434E-03
            3571            4036     36.7313E-03     36.5098E-03
            3572              78     37.0006E-03     35.8050E-03
            3572              79     37.1874E-03     36.7065E-03
            3572            4036     36.7313E-03     36.5098E-03
            3572            4037     36.3744E-03     35.8750E-03
            3573              77     36.7174E-03     35.2699E-03
            3573              78     37.0006E-03     35.8050E-03
            3573            4037     36.3744E-03     35.8750E-03
            3573            4038     36.0076E-03     35.2919E-03
            3574              76     36.1924E-03     34.5175E-03
            3574              77     36.7174E-03     35.2699E-03
            3574            4038     36.0076E-03     35.2919E-03
            3574            4039     35.5723E-03     34.3931E-03
            3575              75     35.4107E-03     34.7211E-03
            3575              76     36.1924E-03     34.5175E-03
            3575            4039     35.5723E-03     34.3931E-03
            3575            4040     34.9044E-03     34.6671E-03
            3576              74     33.8468E-03     33.9890E-03
            3576              75     35.4107E-03     34.7211E-03
            3576            4040     34.9044E-03     34.6671E-03
            3576            4041     33.6901E-03     33.5531E-03
            3577              73     34.1249E-03     33.2248E-03
            3577              74     33.8468E-03     33.9890E-03
            3577            4041     33.6901E-03     33.5531E-03
            3577            4042     33.9230E-03     32.6885E-03
            3578              72     33.9312E-03     34.1837E-03
            3578              73     34.1249E-03     33.2248E-03
            3578            4042     33.9230E-03     32.6885E-03
            3578            4043     34.0108E-03     34.0608E-03
            3579              71     32.7127E-03     33.8494E-03
            3579              72     33.9312E-03     34.1837E-03
            3579            4043     34.0108E-03     34.0608E-03
            3579            4044     33.1168E-03     33.7253E-03
            3580              70     33.0395E-03     33.1470E-03
            3580              71     32.7127E-03     33.8494E-03
            3580            4044     33.1168E-03     33.7253E-03
            3580            4045     33.3181E-03     33.1680E-03
            3581              69     32.8828E-03     32.7606E-03
            3581              70     33.0395E-03     33.1470E-03
            3581            4045     33.3181E-03     33.1680E-03
            3581            4046     33.0203E-03     33.0642E-03
            3582              68     32.7331E-03     32.2192E-03
            3582              69     32.8828E-03     32.7606E-03
            3582            4046     33.0203E-03     33.0642E-03
            3582            4047     32.7768E-03     32.6489E-03
            3583              67     32.6690E-03     31.8982E-03
            3583              68     32.7331E-03     32.2192E-03
            3583            4047     32.7768E-03     32.6489E-03
            3583            4048     32.7340E-03     32.3167E-03
            3584              66     32.4404E-03     31.6120E-03
            3584              67     32.6690E-03     31.8982E-03
            3584            4048     32.7340E-03     32.3167E-03
            3584            4049     32.5896E-03     31.9737E-03
            3585              65     32.0903E-03     31.5911E-03
            3585              66     32.4404E-03     31.6120E-03
            3585            4049     32.5896E-03     31.9737E-03
            3585            4050     32.3189E-03     31.9693E-03
            3586              64     30.7630E-03     30.5108E-03
            3586              65     32.0903E-03     31.5911E-03
            3586            4050     32.3189E-03     31.9693E-03
            3586            4051     31.1323E-03     30.8010E-03
            3587              63     30.1574E-03     29.5884E-03
            3587              64     30.7630E-03     30.5108E-03
            3587            4051     31.1323E-03     30.8010E-03
            3587            4052     30.7003E-03     30.0170E-03
            3588              62     30.0847E-03     29.9901E-03
            3588              63     30.1574E-03     29.5884E-03
            3588            4052     30.7003E-03     30.0170E-03
            3588            4053     30.7303E-03     30.6967E-03
            3589              61     29.6186E-03     29.7983E-03
            3589              62     30.0847E-03     29.9901E-03
            3589            4053     30.7303E-03     30.6967E-03
            3589            4054     30.3267E-03     30.4970E-03
            3590              60     29.7959E-03     29.5431E-03
            3590              61     29.6186E-03     29.7983E-03
            3590            4054     30.3267E-03     30.4970E-03
            3590            4055     30.4454E-03     30.2431E-03
            3591              59     29.6937E-03     29.5594E-03
            3591              60     29.7959E-03     29.5431E-03
            3591            4055     30.4454E-03     30.2431E-03
            3591            4056     30.3505E-03     30.3015E-03
            3592              58     29.7498E-03     29.4982E-03
            3592              59     29.6937E-03     29.5594E-03
            3592            4056     30.3505E-03     30.3015E-03
            3592            4057     30.4824E-03     30.2546E-03
            3593              57     29.6986E-03     29.3322E-03
            3593              58     29.7498E-03     29.4982E-03
            3593            4057     30.4824E-03     30.2546E-03
            3593            4058     30.4201E-03     29.9986E-03
            3594               2     15.1454E-03     15.0083E-03
            3594              57     29.6986E-03     29.3322E-03
            3594             470     15.4430E-03     15.2802E-03
            3594            4058     30.4201E-03     29.9986E-03
            3595             542     55.7358E-03     53.7125E-03
            3595             543     90.1665E-03     89.9797E-03
            3595            4012     47.2475E-03     44.7212E-03
            3595            4059     78.0738E-03     73.7959E-03
            3596            4012     47.2475E-03     44.7212E-03
            3596            4013     48.1953E-03     48.5660E-03
            3596            4059     78.0738E-03     73.7959E-03
            3596            4060     80.3253E-03     76.0669E-03
            3597            4013     48.1953E-03     48.5660E-03
            3597            4014     46.3198E-03     48.5315E-03
            3597            4060     80.3253E-03     76.0669E-03
            3597            4061     73.4734E-03     76.1787E-03
            3598            4014     46.3198E-03     48.5315E-03
            3598            4015     47.3238E-03     46.9579E-03
            3598            4061     73.4734E-03     76.1787E-03
            3598            4062     73.3804E-03     71.2005E-03
            3599            4015     47.3238E-03     46.9579E-03
            3599            4016     46.8151E-03     46.8353E-03
            3599            4062     73.3804E-03     71.2005E-03
            3599            4063     69.5461E-03     71.6041E-03
            3600            4016     46.8151E-03     46.8353E-03
            3600            4017     46.0895E-03     44.3861E-03
            3600            4063     69.5461E-03     71.6041E-03
            3600            4064     69.0345E-03     67.1745E-03
            3601            4017     46.0895E-03     44.3861E-03
            3601            4018     44.6580E-03     44.5318E-03
            3601            4064     69.0345E-03     67.1745E-03
            3601            4065     64.7143E-03     63.6543E-03
            3602            4018     44.6580E-03     44.5318E-03
            3602            4019     41.9842E-03     43.1760E-03
            3602            4065     64.7143E-03     63.6543E-03
            3602            4066     58.7810E-03     65.8945E-03
            3603            4019     41.9842E-03     43.1760E-03
            3603            4020     43.6861E-03     41.3107E-03
            3603            4066     58.7810E-03     65.8945E-03
            3603            4067     67.8427E-03     63.9107E-03
            3604            4020     43.6861E-03     41.3107E-03
            3604            4021     44.2414E-03     44.3359E-03
            3604            4067     67.8427E-03     63.9107E-03
            3604            4068     69.3527E-03     64.7691E-03
            3605            4021     44.2414E-03     44.3359E-03
            3605            4022     42.2834E-03     44.1615E-03
            3605            4068     69.3527E-03     64.7691E-03
            3605            4069     62.8508E-03     64.1388E-03
            3606            4022     42.2834E-03     44.1615E-03
            3606            4023     43.0699E-03     42.7628E-03
            3606            4069     62.8508E-03     64.1388E-03
            3606            4070     62.4956E-03     59.7213E-03
            3607            4023     43.0699E-03     42.7628E-03
            3607            4024     42.5638E-03     42.5516E-03
            3607            4070     62.4956E-03     59.7213E-03
            3607            4071     59.8883E-03     58.8497E-03
            3608            4024     42.5638E-03     42.5516E-03
            3608            4025     41.9653E-03     41.4957E-03
            3608            4071     59.8883E-03     58.8497E-03
            3608            4072     57.5149E-03     57.2288E-03
            3609            4025     41.9653E-03     41.4957E-03
            3609            4026     41.4243E-03     40.5564E-03
            3609            4072     57.5149E-03     57.2288E-03
            3609            4073     55.6932E-03     55.4530E-03
            3610            4026     41.4243E-03     40.5564E-03
            3610            4027     40.7657E-03     39.7880E-03
            3610            4073     55.6932E-03     55.4530E-03
            3610            4074     53.0796E-03     55.0102E-03
            3611            4027     40.7657E-03     39.7880E-03
            3611            4028     40.0707E-03     38.1956E-03
            3611            4074     53.0796E-03     55.0102E-03
            3611            4075     52.6515E-03     51.8411E-03
            3612            4028     40.0707E-03     38.1956E-03
            3612            4029     38.8587E-03     38.6169E-03
            3612            4075     52.6515E-03     51.8411E-03
            3612            4076     49.7305E-03     49.7529E-03
            3613            4029     38.8587E-03     38.6169E-03
            3613            4030     37.2736E-03     37.6519E-03
            3613            4076     49.7305E-03     49.7529E-03
            3613            4077     46.4062E-03     51.0458E-03
            3614            4030     37.2736E-03     37.6519E-03
            3614            4031     38.3979E-03     36.5646E-03
            3614            4077     46.4062E-03     51.0458E-03
            3614            4078     52.5983E-03     49.6023E-03
            3615            4031     38.3979E-03     36.5646E-03
            3615            4032     38.6642E-03     38.7363E-03
            3615            4078     52.5983E-03     49.6023E-03
            3615            4079     53.2591E-03     49.9966E-03
            3616            4032     38.6642E-03     38.7363E-03
            3616            4033     37.2120E-03     38.4006E-03
            3616            4079     53.2591E-03     49.9966E-03
            3616            4080     48.4404E-03     49.1264E-03
            3617            4033     37.2120E-03     38.4006E-03
            3617            4034     37.6437E-03     37.4065E-03
            3617            4080     48.4404E-03     49.1264E-03
            3617            4081     47.8921E-03     45.9820E-03
            3618            4034     37.6437E-03     37.4065E-03
            3618            4035     37.1969E-03     37.2434E-03
            3618            4081     47.8921E-03     45.9820E-03
            3618            4082     45.8487E-03     45.2152E-03
            3619            4035     37.1969E-03     37.2434E-03
            3619            4036     36.7313E-03     36.5098E-03
            3619            4082     45.8487E-03     45.2152E-03
            3619            4083     43.9410E-03     43.9364E-03
            3620            4036     36.7313E-03     36.5098E-03
            3620            4037     36.3744E-03     35.8750E-03
            3620            4083     43.9410E-03     43.9364E-03
            3620            4084     42.4197E-03     42.6231E-03
            3621            4037     36.3744E-03     35.8750E-03
            3621            4038     36.0076E-03     35.2919E-03
            3621            4084     42.4197E-03     42.6231E-03
            3621            4085     40.5957E-03     41.8634E-03
            3622            4038     36.0076E-03     35.2919E-03
            3622            4039     35.5723E-03     34.3931E-03
            3622            4085     40.5957E-03     41.8634E-03
            3622            4086     39.6661E-03     39.7387E-03
            3623            4039     35.5723E-03     34.3931E-03
            3623            4040     34.9044E-03     34.6671E-03
            3623            4086     39.6661E-03     39.7387E-03
            3623            4087     37.9810E-03     38.3413E-03
            3624            4040     34.9044E-03     34.6671E-03
            3624            4041     33.6901E-03     33.5531E-03
            3624            4087     37.9810E-03     38.3413E-03
            3624            4088     36.4443E-03     38.4689E-03
            3625            4041     33.6901E-03     33.5531E-03
            3625            4042     33.9230E-03     32.6885E-03
            3625            4088     36.4443E-03     38.4689E-03
            3625            4089     39.5816E-03     37.5727E-03
            3626            4042     33.9230E-03     32.6885E-03
            3626            4043     34.0108E-03     34.0608E-03
            3626            4089     39.5816E-03     37.5727E-03
            3626            4090     39.6229E-03     37.7181E-03
            3627            4043     34.0108E-03     34.0608E-03
            3627            4044     33.1168E-03     33.7253E-03
            3627            4090     39.6229E-03     37.7181E-03
            3627            4091     36.6374E-03     36.9505E-03
            3628            4044     33.1168E-03     33.7253E-03
            3628            4045     33.3181E-03     33.1680E-03
            3628            4091     36.6374E-03     36.9505E-03
            3628            4092     36.0807E-03     35.2811E-03
            3629            4045     33.3181E-03     33.1680E-03
            3629            4046     33.0203E-03     33.0642E-03
            3629            4092     36.0807E-03     35.2811E-03
            3629            4093     34.7819E-03     34.7507E-03
            3630            4046     33.0203E-03     33.0642E-03
            3630            4047     32.7768E-03     32.6489E-03
            3630            4093     34.7819E-03     34.7507E-03
            3630            4094     33.5192E-03     33.9276E-03
            3631            4047     32.7768E-03     32.6489E-03
            3631            4048     32.7340E-03     32.3167E-03
            3631            4094     33.5192E-03     33.9276E-03
            3631            4095     32.5455E-03     33.0870E-03
            3632            4048     32.7340E-03     32.3167E-03
            3632            4049     32.5896E-03     31.9737E-03
            3632            4095     32.5455E-03     33.0870E-03
            3632            4096     31.6690E-03     32.0076E-03
            3633            4049     32.5896E-03     31.9737E-03
            3633            4050     32.3189E-03     31.9693E-03
            3633            4096     31.6690E-03     32.0076E-03
            3633            4097     30.9580E-03     31.2080E-03
            3634            4050     32.3189E-03     31.9693E-03
            3634            4051     31.1323E-03     30.8010E-03
            3634            4097     30.9580E-03     31.2080E-03
            3634            4098     30.3129E-03     30.4979E-03
            3635            4051     31.1323E-03     30.8010E-03
            3635            4052     30.7003E-03     30.0170E-03
            3635            4098     30.3129E-03     30.4979E-03
            3635            4099     30.9177E-03     29.9407E-03
            3636            4052     30.7003E-03     30.0170E-03
            3636            4053     30.7303E-03     30.6967E-03
            3636            4099     30.9177E-03     29.9407E-03
            3636            4100     30.7150E-03     30.0995E-03
            3637            4053     30.7303E-03     30.6967E-03
            3637            4054     30.3267E-03     30.4970E-03
            3637            4100     30.7150E-03     30.0995E-03
            3637            4101     29.5231E-03     29.7934E-03
            3638            4054     30.3267E-03     30.4970E-03
            3638            4055     30.4454E-03     30.2431E-03
            3638            4101     29.5231E-03     29.7934E-03
            3638            4102     29.2904E-03     29.3124E-03
            3639            4055     30.4454E-03     30.2431E-03
            3639            4056     30.3505E-03     30.3015E-03
            3639            4102     29.2904E-03     29.3124E-03
            3639            4103     28.8927E-03     29.1007E-03
            3640            4056     30.3505E-03     30.3015E-03
            3640            4057     30.4824E-03     30.2546E-03
            3640            4103     28.8927E-03     29.1007E-03
            3640            4104     28.7900E-03     28.7759E-03
            3641            4057     30.4824E-03     30.2546E-03
            3641            4058     30.4201E-03     29.9986E-03
            3641            4104     28.7900E-03     28.7759E-03
            3641            4105     28.7340E-03     28.4237E-03
            3642             469     14.6181E-03     14.4534E-03
            3642             470     15.4430E-03     15.2802E-03
            3642            4058     30.4201E-03     29.9986E-03
            3642            4105     28.7340E-03     28.4237E-03
            3643             543     90.1665E-03     89.9797E-03
            3643             544     127.673E-03     135.143E-03
            3643            4059     78.0738E-03     73.7959E-03
            3643            4106     115.874E-03     110.777E-03
            3644            4059     78.0738E-03     73.7959E-03
            3644            4060     80.3253E-03     76.0669E-03
            3644            4106     115.874E-03     110.777E-03
            3644            4107     116.637E-03     107.032E-03
            3645            4060     80.3253E-03     76.0669E-03
            3645            4061     73.4734E-03     76.1787E-03
            3645            4107     116.637E-03     107.032E-03
            3645            4108     101.640E-03     106.922E-03
            3646            4061     73.4734E-03     76.1787E-03
            3646            4062     73.3804E-03     71.2005E-03
            3646            4108     101.640E-03     106.922E-03
            3646            4109     101.408E-03     97.1168E-03
            3647            4062     73.3804E-03     71.2005E-03
            3647            4063     69.5461E-03     71.6041E-03
            3647            4109     101.408E-03     97.1168E-03
            3647            4110     95.4937E-03     99.7250E-03
            3648            4063     69.5461E-03     71.6041E-03
            3648            4064     69.0345E-03     67.1745E-03
            3648            4110     95.4937E-03     99.7250E-03
            3648            4111     98.7085E-03     95.1500E-03
            3649            4064     69.0345E-03     67.1745E-03
            3649            4065     64.7143E-03     63.6543E-03
            3649            4111     98.7085E-03     95.1500E-03
            3649            4112     93.5856E-03     92.5518E-03
            3650            4065     64.7143E-03     63.6543E-03
            3650            4066     58.7810E-03     65.8945E-03
            3650            4112     93.5856E-03     92.5518E-03
            3650            4113     82.7922E-03     102.163E-03
            3651            4066     58.7810E-03     65.8945E-03
            3651            4067     67.8427E-03     63.9107E-03
            3651            4113     82.7922E-03     102.163E-03
            3651            4114     99.0487E-03     95.3470E-03
            3652            4067     67.8427E-03     63.9107E-03
            3652            4068     69.3527E-03     64.7691E-03
            3652            4114     99.0487E-03     95.3470E-03
            3652            4115     99.2239E-03     91.0981E-03
            3653            4068     69.3527E-03     64.7691E-03
            3653            4069     62.8508E-03     64.1388E-03
            3653            4115     99.2239E-03     91.0981E-03
            3653            4116     85.0102E-03     90.0882E-03
            3654            4069     62.8508E-03     64.1388E-03
            3654            4070     62.4956E-03     59.7213E-03
            3654            4116     85.0102E-03     90.0882E-03
            3654            4117     83.4657E-03     81.1527E-03
            3655            4070     62.4956E-03     59.7213E-03
            3655            4071     59.8883E-03     58.8497E-03
            3655            4117     83.4657E-03     81.1527E-03
            3655            4118     78.6088E-03     78.9970E-03
            3656            4071     59.8883E-03     58.8497E-03
            3656            4072     57.5149E-03     57.2288E-03
            3656            4118     78.6088E-03     78.9970E-03
            3656            4119     74.8318E-03     75.8945E-03
            3657            4072     57.5149E-03     57.2288E-03
            3657            4073     55.6932E-03     55.4530E-03
            3657            4119     74.8318E-03     75.8945E-03
            3657            4120     72.9743E-03     72.5502E-03
            3658            4073     55.6932E-03     55.4530E-03
            3658            4074     53.0796E-03     55.0102E-03
            3658            4120     72.9743E-03     72.5502E-03
            3658            4121     69.3107E-03     73.6024E-03
            3659            4074     53.0796E-03     55.0102E-03
            3659            4075     52.6515E-03     51.8411E-03
            3659            4121     69.3107E-03     73.6024E-03
            3659            4122     72.0422E-03     70.4874E-03
            3660            4075     52.6515E-03     51.8411E-03
            3660            4076     49.7305E-03     49.7529E-03
            3660            4122     72.0422E-03     70.4874E-03
            3660            4123     68.3673E-03     69.1241E-03
            3661            4076     49.7305E-03     49.7529E-03
            3661            4077     46.4062E-03     51.0458E-03
            3661            4123     68.3673E-03     69.1241E-03
            3661            4124     61.1343E-03     74.8129E-03
            3662            4077     46.4062E-03     51.0458E-03
            3662            4078     52.5983E-03     49.6023E-03
            3662            4124     61.1343E-03     74.8129E-03
            3662            4125     72.0816E-03     69.1916E-03
            3663            4078     52.5983E-03     49.6023E-03
            3663            4079     53.2591E-03     49.9966E-03
            3663            4125     72.0816E-03     69.1916E-03
            3663            4126     71.6923E-03     65.7859E-03
            3664            4079     53.2591E-03     49.9966E-03
            3664            4080     48.4404E-03     49.1264E-03
            3664            4126     71.6923E-03     65.7859E-03
            3664            4127     61.1896E-03     64.6012E-03
            3665            4080     48.4404E-03     49.1264E-03
            3665            4081     47.8921E-03     45.9820E-03
            3665            4127     61.1896E-03     64.6012E-03
            3665            4128     59.6131E-03     57.9236E-03
            3666            4081     47.8921E-03     45.9820E-03
            3666            4082     45.8487E-03     45.2152E-03
            3666            4128     59.6131E-03     57.9236E-03
            3666            4129     55.7453E-03     55.8615E-03
            3667            4082     45.8487E-03     45.2152E-03
            3667            4083     43.9410E-03     43.9364E-03
            3667            4129     55.7453E-03     55.8615E-03
            3667            4130     52.4596E-03     53.1674E-03
            3668            4083     43.9410E-03     43.9364E-03
            3668            4084     42.4197E-03     42.6231E-03
            3668            4130     52.4596E-03     53.1674E-03
            3668            4131     50.4928E-03     50.4750E-03
            3669            4084     42.4197E-03     42.6231E-03
            3669            4085     40.5957E-03     41.8634E-03
            3669            4131     50.4928E-03     50.4750E-03
            3669            4132     47.5801E-03     50.2375E-03
            3670            4085     40.5957E-03     41.8634E-03
            3670            4086     39.6661E-03     39.7387E-03
            3670            4132     47.5801E-03     50.2375E-03
            3670            4133     47.8134E-03     47.9458E-03
            3671            4086     39.6661E-03     39.7387E-03
            3671            4087     37.9810E-03     38.3413E-03
            3671            4133     47.8134E-03     47.9458E-03
            3671            4134     45.2512E-03     46.4709E-03
            3672            4087     37.9810E-03     38.3413E-03
            3672            4088     36.4443E-03     38.4689E-03
            3672            4134     45.2512E-03     46.4709E-03
            3672            4135     41.6144E-03     49.0100E-03
            3673            4088     36.4443E-03     38.4689E-03
            3673            4089     39.5816E-03     37.5727E-03
            3673            4135     41.6144E-03     49.0100E-03
            3673            4136     47.6598E-03     45.6225E-03
            3674            4089     39.5816E-03     37.5727E-03
            3674            4090     39.6229E-03     37.7181E-03
            3674            4136     47.6598E-03     45.6225E-03
            3674            4137     46.8844E-03     43.2305E-03
            3675            4090     39.6229E-03     37.7181E-03
            3675            4091     36.6374E-03     36.9505E-03
            3675            4137     46.8844E-03     43.2305E-03
            3675            4138     40.3058E-03     42.0448E-03
            3676            4091     36.6374E-03     36.9505E-03
            3676            4092     36.0807E-03     35.2811E-03
            3676            4138     40.3058E-03     42.0448E-03
            3676            4139     38.9131E-03     37.9143E-03
            3677            4092     36.0807E-03     35.2811E-03
            3677            4093     34.7819E-03     34.7507E-03
            3677            4139     38.9131E-03     37.9143E-03
            3677            4140     36.4292E-03     36.3275E-03
            3678            4093     34.7819E-03     34.7507E-03
            3678            4094     33.5192E-03     33.9276E-03
            3678            4140     36.4292E-03     36.3275E-03
            3678            4141     34.1095E-03     34.4548E-03
            3679            4094     33.5192E-03     33.9276E-03
            3679            4095     32.5455E-03     33.0870E-03
            3679            4141     34.1095E-03     34.4548E-03
            3679            4142     32.3242E-03     33.2684E-03
            3680            4095     32.5455E-03     33.0870E-03
            3680            4096     31.6690E-03     32.0076E-03
            3680            4142     32.3242E-03     33.2684E-03
            3680            4143     30.9534E-03     32.0420E-03
            3681            4096     31.6690E-03     32.0076E-03
            3681            4097     30.9580E-03     31.2080E-03
            3681            4143     30.9534E-03     32.0420E-03
            3681            4144     29.4847E-03     30.6760E-03
            3682            4097     30.9580E-03     31.2080E-03
            3682            4098     30.3129E-03     30.4979E-03
            3682            4144     29.4847E-03     30.6760E-03
            3682            4145     28.4049E-03     30.5957E-03
            3683            4098     30.3129E-03     30.4979E-03
            3683            4099     30.9177E-03     29.9407E-03
            3683            4145     28.4049E-03     30.5957E-03
            3683            4146     30.1371E-03     29.1883E-03
            3684            4099     30.9177E-03     29.9407E-03
            3684            4100     30.7150E-03     30.0995E-03
            3684            4146     30.1371E-03     29.1883E-03
            3684            4147     29.5289E-03     28.1520E-03
            3685            4100     30.7150E-03     30.0995E-03
            3685            4101     29.5231E-03     29.7934E-03
            3685            4147     29.5289E-03     28.1520E-03
            3685            4148     27.0018E-03     27.5901E-03
            3686            4101     29.5231E-03     29.7934E-03
            3686            4102     29.2904E-03     29.3124E-03
            3686            4148     27.0018E-03     27.5901E-03
            3686            4149     26.4758E-03     26.2121E-03
            3687            4102     29.2904E-03     29.3124E-03
            3687            4103     28.8927E-03     29.1007E-03
            3687            4149     26.4758E-03     26.2121E-03
            3687            4150     25.6018E-03     25.8091E-03
            3688            4103     28.8927E-03     29.1007E-03
            3688            4104     28.7900E-03     28.7759E-03
            3688            4150     25.6018E-03     25.8091E-03
            3688            4151     24.9607E-03     25.4167E-03
            3689            4104     28.7900E-03     28.7759E-03
            3689            4105     28.7340E-03     28.4237E-03
            3689            4151     24.9607E-03     25.4167E-03
            3689            4152     24.6670E-03     24.9192E-03
            3690             468     12.4822E-03     12.6142E-03
            3690             469     14.6181E-03     14.4534E-03
            3690            4105     28.7340E-03     28.4237E-03
            3690            4152     24.6670E-03     24.9192E-03
            3691             544     127.673E-03     135.143E-03
            3691             545     159.250E-03     175.706E-03
            3691            4106     115.874E-03     110.777E-03
            3691            4153     147.639E-03     145.850E-03
            3692            4106     115.874E-03     110.777E-03
            3692            4107     116.637E-03     107.032E-03
            3692            4153     147.639E-03     145.850E-03
            3692            4154     144.776E-03     137.166E-03
            3693            4107     116.637E-03     107.032E-03
            3693            4108     101.640E-03     106.922E-03
            3693            4154     144.776E-03     137.166E-03
            3693            4155     122.548E-03     135.667E-03
            3694            4108     101.640E-03     106.922E-03
            3694            4109     101.408E-03     97.1168E-03
            3694            4155     122.548E-03     135.667E-03
            3694            4156     123.466E-03     121.090E-03
            3695            4109     101.408E-03     97.1168E-03
            3695            4110     95.4937E-03     99.7250E-03
            3695            4156     123.466E-03     121.090E-03
            3695            4157     114.386E-03     124.083E-03
            3696            4110     95.4937E-03     99.7250E-03
            3696            4111     98.7085E-03     95.1500E-03
            3696            4157     114.386E-03     124.083E-03
            3696            4158     121.620E-03     119.030E-03
            3697            4111     98.7085E-03     95.1500E-03
            3697            4112     93.5856E-03     92.5518E-03
            3697            4158     121.620E-03     119.030E-03
            3697            4159     120.118E-03     119.744E-03
            3698            4112     93.5856E-03     92.5518E-03
            3698            4113     82.7922E-03     102.163E-03
            3698            4159     120.118E-03     119.744E-03
            3698            4160     105.502E-03     135.774E-03
            3699            4113     82.7922E-03     102.163E-03
            3699            4114     99.0487E-03     95.3470E-03
            3699            4160     105.502E-03     135.774E-03
            3699            4161     125.476E-03     124.551E-03
            3700            4114     99.0487E-03     95.3470E-03
            3700            4115     99.2239E-03     91.0981E-03
            3700            4161     125.476E-03     124.551E-03
            3700            4162     123.254E-03     116.829E-03
            3701            4115     99.2239E-03     91.0981E-03
            3701            4116     85.0102E-03     90.0882E-03
            3701            4162     123.254E-03     116.829E-03
            3701            4163     103.094E-03     114.779E-03
            3702            4116     85.0102E-03     90.0882E-03
            3702            4117     83.4657E-03     81.1527E-03
            3702            4163     103.094E-03     114.779E-03
            3702            4164     101.812E-03     102.493E-03
            3703            4117     83.4657E-03     81.1527E-03
            3703            4118     78.6088E-03     78.9970E-03
            3703            4164     101.812E-03     102.493E-03
            3703            4165     94.7100E-03     99.3614E-03
            3704            4118     78.6088E-03     78.9970E-03
            3704            4119     74.8318E-03     75.8945E-03
            3704            4165     94.7100E-03     99.3614E-03
            3704            4166     89.6645E-03     94.4308E-03
            3705            4119     74.8318E-03     75.8945E-03
            3705            4120     72.9743E-03     72.5502E-03
            3705            4166     89.6645E-03     94.4308E-03
            3705            4167     87.5180E-03     88.8275E-03
            3706            4120     72.9743E-03     72.5502E-03
            3706            4121     69.3107E-03     73.6024E-03
            3706            4167     87.5180E-03     88.8275E-03
            3706            4168     82.0517E-03     89.3094E-03
            3707            4121     69.3107E-03     73.6024E-03
            3707            4122     72.0422E-03     70.4874E-03
            3707            4168     82.0517E-03     89.3094E-03
            3707            4169     87.7873E-03     86.2184E-03
            3708            4122     72.0422E-03     70.4874E-03
            3708            4123     68.3673E-03     69.1241E-03
            3708            4169     87.7873E-03     86.2184E-03
            3708            4170     86.6019E-03     87.4507E-03
            3709            4123     68.3673E-03     69.1241E-03
            3709            4124     61.1343E-03     74.8129E-03
            3709            4170     86.6019E-03     87.4507E-03
            3709            4171     76.1675E-03     97.5308E-03
            3710            4124     61.1343E-03     74.8129E-03
            3710            4125     72.0816E-03     69.1916E-03
            3710            4171     76.1675E-03     97.5308E-03
            3710            4172     89.2741E-03     88.5143E-03
            3711            4125     72.0816E-03     69.1916E-03
            3711            4126     71.6923E-03     65.7859E-03
            3711            4172     89.2741E-03     88.5143E-03
            3711            4173     87.3340E-03     82.5816E-03
            3712            4126     71.6923E-03     65.7859E-03
            3712            4127     61.1896E-03     64.6012E-03
            3712            4173     87.3340E-03     82.5816E-03
            3712            4174     72.2303E-03     80.3943E-03
            3713            4127     61.1896E-03     64.6012E-03
            3713            4128     59.6131E-03     57.9236E-03
            3713            4174     72.2303E-03     80.3943E-03
            3713            4175     70.4475E-03     70.7437E-03
            3714            4128     59.6131E-03     57.9236E-03
            3714            4129     55.7453E-03     55.8615E-03
            3714            4175     70.4475E-03     70.7437E-03
            3714            4176     64.5866E-03     67.4899E-03
            3715            4129     55.7453E-03     55.8615E-03
            3715            4130     52.4596E-03     53.1674E-03
            3715            4176     64.5866E-03     67.4899E-03
            3715            4177     60.0087E-03     63.0013E-03
            3716            4130     52.4596E-03     53.1674E-03
            3716            4131     50.4928E-03     50.4750E-03
            3716            4177     60.0087E-03     63.0013E-03
            3716            4178     57.4784E-03     58.3243E-03
            3717            4131     50.4928E-03     50.4750E-03
            3717            4132     47.5801E-03     50.2375E-03
            3717            4178     57.4784E-03     58.3243E-03
            3717            4179     53.2176E-03     57.2176E-03
            3718            4132     47.5801E-03     50.2375E-03
            3718            4133     47.8134E-03     47.9458E-03
            3718            4179     53.2176E-03     57.2176E-03
            3718            4180     55.0850E-03     54.8671E-03
            3719            4133     47.8134E-03     47.9458E-03
            3719            4134     45.2512E-03     46.4709E-03
            3719            4180     55.0850E-03     54.8671E-03
            3719            4181     54.0488E-03     54.9594E-03
            3720            4134     45.2512E-03     46.4709E-03
            3720            4135     41.6144E-03     49.0100E-03
            3720            4181     54.0488E-03     54.9594E-03
            3720            4182     48.1132E-03     60.3529E-03
            3721            4135     41.6144E-03     49.0100E-03
            3721            4136     47.6598E-03     45.6225E-03
            3721            4182     48.1132E-03     60.3529E-03
            3721            4183     55.4685E-03     54.9249E-03
            3722            4136     47.6598E-03     45.6225E-03
            3722            4137     46.8844E-03     43.2305E-03
            3722            4183     55.4685E-03     54.9249E-03
            3722            4184     53.7557E-03     50.6484E-03
            3723            4137     46.8844E-03     43.2305E-03
            3723            4138     40.3058E-03     42.0448E-03
            3723            4184     53.7557E-03     50.6484E-03
            3723            4185     43.6703E-03     48.2728E-03
            3724            4138     40.3058E-03     42.0448E-03
            3724            4139     38.9131E-03     37.9143E-03
            3724            4185     43.6703E-03     48.2728E-03
            3724            4186     41.5155E-03     41.3413E-03
            3725            4139     38.9131E-03     37.9143E-03
            3725            4140     36.4292E-03     36.3275E-03
            3725            4186     41.5155E-03     41.3413E-03
            3725            4187     37.2058E-03     38.3578E-03
            3726            4140     36.4292E-03     36.3275E-03
            3726            4141     34.1095E-03     34.4548E-03
            3726            4187     37.2058E-03     38.3578E-03
            3726            4188     33.8693E-03     34.6078E-03
            3727            4141     34.1095E-03     34.4548E-03
            3727            4142     32.3242E-03     33.2684E-03
            3727            4188     33.8693E-03     34.6078E-03
            3727            4189     31.2926E-03     32.2220E-03
            3728            4142     32.3242E-03     33.2684E-03
            3728            4143     30.9534E-03     32.0420E-03
            3728            4189     31.2926E-03     32.2220E-03
            3728            4190     30.1290E-03     30.9288E-03
            3729            4143     30.9534E-03     32.0420E-03
            3729            4144     29.4847E-03     30.6760E-03
            3729            4190     30.1290E-03     30.9288E-03
            3729            4191     29.4228E-03     30.2117E-03
            3730            4144     29.4847E-03     30.6760E-03
            3730            4145     28.4049E-03     30.5957E-03
            3730            4191     29.4228E-03     30.2117E-03
            3730            4192     27.0423E-03     31.3892E-03
            3731            4145     28.4049E-03     30.5957E-03
            3731            4146     30.1371E-03     29.1883E-03
            3731            4192     27.0423E-03     31.3892E-03
            3731            4193     29.1662E-03     29.0422E-03
            3732            4146     30.1371E-03     29.1883E-03
            3732            4147     29.5289E-03     28.1520E-03
            3732            4193     29.1662E-03     29.0422E-03
            3732            4194     27.9624E-03     26.3553E-03
            3733            4147     29.5289E-03     28.1520E-03
            3733            4148     27.0018E-03     27.5901E-03
            3733            4194     27.9624E-03     26.3553E-03
            3733            4195     22.9310E-03     24.3197E-03
            3734            4148     27.0018E-03     27.5901E-03
            3734            4149     26.4758E-03     26.2121E-03
            3734            4195     22.9310E-03     24.3197E-03
            3734            4196     21.5373E-03     21.0008E-03
            3735            4149     26.4758E-03     26.2121E-03
            3735            4150     25.6018E-03     25.8091E-03
            3735            4196     21.5373E-03     21.0008E-03
            3735            4197     20.1233E-03     19.8501E-03
            3736            4150     25.6018E-03     25.8091E-03
            3736            4151     24.9607E-03     25.4167E-03
            3736            4197     20.1233E-03     19.8501E-03
            3736            4198     19.7543E-03     19.8743E-03
            3737            4151     24.9607E-03     25.4167E-03
            3737            4152     24.6670E-03     24.9192E-03
            3737            4198     19.7543E-03     19.8743E-03
            3737            4199     19.8380E-03     20.2538E-03
            3738             467     9.98771E-03     10.3061E-03
            3738             468     12.4822E-03     12.6142E-03
            3738            4152     24.6670E-03     24.9192E-03
            3738            4199     19.8380E-03     20.2538E-03
            3739             545     159.250E-03     175.706E-03
            3739             546     189.356E-03     204.382E-03
            3739            4153     147.639E-03     145.850E-03
            3739            4200     173.291E-03     170.901E-03
            3740            4153     147.639E-03     145.850E-03
            3740            4154     144.776E-03     137.166E-03
            3740            4200     173.291E-03     170.901E-03
            3740            4201     165.141E-03     158.833E-03
            3741            4154     144.776E-03     137.166E-03
            3741            4155     122.548E-03     135.667E-03
            3741            4201     165.141E-03     158.833E-03
            3741            4202     143.189E-03     155.004E-03
            3742            4155     122.548E-03     135.667E-03
            3742            4156     123.466E-03     121.090E-03
            3742            4202     143.189E-03     155.004E-03
            3742            4203     142.628E-03     139.799E-03
            3743            4156     123.466E-03     121.090E-03
            3743            4157     114.386E-03     124.083E-03
            3743            4203     142.628E-03     139.799E-03
            3743            4204     131.176E-03     139.643E-03
            3744            4157     114.386E-03     124.083E-03
            3744            4158     121.620E-03     119.030E-03
            3744            4204     131.176E-03     139.643E-03
            3744            4205     135.236E-03     131.701E-03
            3745            4158     121.620E-03     119.030E-03
            3745            4159     120.118E-03     119.744E-03
            3745            4205     135.236E-03     131.701E-03
            3745            4206     134.397E-03     130.704E-03
            3746            4159     120.118E-03     119.744E-03
            3746            4160     105.502E-03     135.774E-03
            3746            4206     134.397E-03     130.704E-03
            3746            4207     126.996E-03     151.128E-03
            3747            4160     105.502E-03     135.774E-03
            3747            4161     125.476E-03     124.551E-03
            3747            4207     126.996E-03     151.128E-03
            3747            4208     146.585E-03     144.744E-03
            3748            4161     125.476E-03     124.551E-03
            3748            4162     123.254E-03     116.829E-03
            3748            4208     146.585E-03     144.744E-03
            3748            4209     139.839E-03     134.411E-03
            3749            4162     123.254E-03     116.829E-03
            3749            4163     103.094E-03     114.779E-03
            3749            4209     139.839E-03     134.411E-03
            3749            4210     120.667E-03     130.348E-03
            3750            4163     103.094E-03     114.779E-03
            3750            4164     101.812E-03     102.493E-03
            3750            4210     120.667E-03     130.348E-03
            3750            4211     118.438E-03     118.105E-03
            3751            4164     101.812E-03     102.493E-03
            3751            4165     94.7100E-03     99.3614E-03
            3751            4211     118.438E-03     118.105E-03
            3751            4212     110.279E-03     113.895E-03
            3752            4165     94.7100E-03     99.3614E-03
            3752            4166     89.6645E-03     94.4308E-03
            3752            4212     110.279E-03     113.895E-03
            3752            4213     104.438E-03     107.555E-03
            3753            4166     89.6645E-03     94.4308E-03
            3753            4167     87.5180E-03     88.8275E-03
            3753            4213     104.438E-03     107.555E-03
            3753            4214     100.302E-03     100.714E-03
            3754            4167     87.5180E-03     88.8275E-03
            3754            4168     82.0517E-03     89.3094E-03
            3754            4214     100.302E-03     100.714E-03
            3754            4215     93.1578E-03     98.2038E-03
            3755            4168     82.0517E-03     89.3094E-03
            3755            4169     87.7873E-03     86.2184E-03
            3755            4215     93.1578E-03     98.2038E-03
            3755            4216     95.6376E-03     92.9209E-03
            3756            4169     87.7873E-03     86.2184E-03
            3756            4170     86.6019E-03     87.4507E-03
            3756            4216     95.6376E-03     92.9209E-03
            3756            4217     95.1784E-03     92.2640E-03
            3757            4170     86.6019E-03     87.4507E-03
            3757            4171     76.1675E-03     97.5308E-03
            3757            4217     95.1784E-03     92.2640E-03
            3757            4218     90.5640E-03     107.334E-03
            3758            4171     76.1675E-03     97.5308E-03
            3758            4172     89.2741E-03     88.5143E-03
            3758            4218     90.5640E-03     107.334E-03
            3758            4219     104.208E-03     103.146E-03
            3759            4172     89.2741E-03     88.5143E-03
            3759            4173     87.3340E-03     82.5816E-03
            3759            4219     104.208E-03     103.146E-03
            3759            4220     98.6516E-03     94.6813E-03
            3760            4173     87.3340E-03     82.5816E-03
            3760            4174     72.2303E-03     80.3943E-03
            3760            4220     98.6516E-03     94.6813E-03
            3760            4221     83.6696E-03     90.5977E-03
            3761            4174     72.2303E-03     80.3943E-03
            3761            4175     70.4475E-03     70.7437E-03
            3761            4221     83.6696E-03     90.5977E-03
            3761            4222     80.8157E-03     80.4761E-03
            3762            4175     70.4475E-03     70.7437E-03
            3762            4176     64.5866E-03     67.4899E-03
            3762            4222     80.8157E-03     80.4761E-03
            3762            4223     73.7477E-03     76.1485E-03
            3763            4176     64.5866E-03     67.4899E-03
            3763            4177     60.0087E-03     63.0013E-03
            3763            4223     73.7477E-03     76.1485E-03
            3763            4224     68.3215E-03     70.2461E-03
            3764            4177     60.0087E-03     63.0013E-03
            3764            4178     57.4784E-03     58.3243E-03
            3764            4224     68.3215E-03     70.2461E-03
            3764            4225     63.9807E-03     64.3005E-03
            3765            4178     57.4784E-03     58.3243E-03
            3765            4179     53.2176E-03     57.2176E-03
            3765            4225     63.9807E-03     64.3005E-03
            3765            4226     58.2001E-03     60.7141E-03
            3766            4179     53.2176E-03     57.2176E-03
            3766            4180     55.0850E-03     54.8671E-03
            3766            4226     58.2001E-03     60.7141E-03
            3766            4227     57.7793E-03     56.2845E-03
            3767            4180     55.0850E-03     54.8671E-03
            3767            4181     54.0488E-03     54.9594E-03
            3767            4227     57.7793E-03     56.2845E-03
            3767            4228     56.9129E-03     54.7700E-03
            3768            4181     54.0488E-03     54.9594E-03
            3768            4182     48.1132E-03     60.3529E-03
            3768            4228     56.9129E-03     54.7700E-03
            3768            4229     55.3841E-03     65.0835E-03
            3769            4182     48.1132E-03     60.3529E-03
            3769            4183     55.4685E-03     54.9249E-03
            3769            4229     55.3841E-03     65.0835E-03
            3769            4230     64.0764E-03     63.7493E-03
            3770            4183     55.4685E-03     54.9249E-03
            3770            4184     53.7557E-03     50.6484E-03
            3770            4230     64.0764E-03     63.7493E-03
            3770            4231     59.4761E-03     56.8647E-03
            3771            4184     53.7557E-03     50.6484E-03
            3771            4185     43.6703E-03     48.2728E-03
            3771            4231     59.4761E-03     56.8647E-03
            3771            4232     48.4197E-03     52.6246E-03
            3772            4185     43.6703E-03     48.2728E-03
            3772            4186     41.5155E-03     41.3413E-03
            3772            4232     48.4197E-03     52.6246E-03
            3772            4233     44.9057E-03     44.5377E-03
            3773            4186     41.5155E-03     41.3413E-03
            3773            4187     37.2058E-03     38.3578E-03
            3773            4233     44.9057E-03     44.5377E-03
            3773            4234     38.9807E-03     40.1556E-03
            3774            4187     37.2058E-03     38.3578E-03
            3774            4188     33.8693E-03     34.6078E-03
            3774            4234     38.9807E-03     40.1556E-03
            3774            4235     34.3171E-03     34.7026E-03
            3775            4188     33.8693E-03     34.6078E-03
            3775            4189     31.2926E-03     32.2220E-03
            3775            4235     34.3171E-03     34.7026E-03
            3775            4236     29.9593E-03     30.2359E-03
            3776            4189     31.2926E-03     32.2220E-03
            3776            4190     30.1290E-03     30.9288E-03
            3776            4236     29.9593E-03     30.2359E-03
            3776            4237     27.3680E-03     26.8200E-03
            3777            4190     30.1290E-03     30.9288E-03
            3777            4191     29.4228E-03     30.2117E-03
            3777            4237     27.3680E-03     26.8200E-03
            3777            4238     26.4818E-03     25.2002E-03
            3778            4191     29.4228E-03     30.2117E-03
            3778            4192     27.0423E-03     31.3892E-03
            3778            4238     26.4818E-03     25.2002E-03
            3778            4239     27.1446E-03     30.8687E-03
            3779            4192     27.0423E-03     31.3892E-03
            3779            4193     29.1662E-03     29.0422E-03
            3779            4239     27.1446E-03     30.8687E-03
            3779            4240     30.7196E-03     30.9811E-03
            3780            4193     29.1662E-03     29.0422E-03
            3780            4194     27.9624E-03     26.3553E-03
            3780            4240     30.7196E-03     30.9811E-03
            3780            4241     26.7811E-03     25.2099E-03
            3781            4194     27.9624E-03     26.3553E-03
            3781            4195     22.9310E-03     24.3197E-03
            3781            4241     26.7811E-03     25.2099E-03
            3781            4242     19.3224E-03     20.8820E-03
            3782            4195     22.9310E-03     24.3197E-03
            3782            4196     21.5373E-03     21.0008E-03
            3782            4242     19.3224E-03     20.8820E-03
            3782            4243     15.7178E-03     15.3484E-03
            3783            4196     21.5373E-03     21.0008E-03
            3783            4197     20.1233E-03     19.8501E-03
            3783            4243     15.7178E-03     15.3484E-03
            3783            4244     12.5724E-03     12.0878E-03
            3784            4197     20.1233E-03     19.8501E-03
            3784            4198     19.7543E-03     19.8743E-03
            3784            4244     12.5724E-03     12.0878E-03
            3784            4245     12.4896E-03     11.2740E-03
            3785            4198     19.7543E-03     19.8743E-03
            3785            4199     19.8380E-03     20.2538E-03
            3785            4245     12.4896E-03     11.2740E-03
            3785            4246     14.2413E-03     14.6510E-03
            3786             466     7.81315E-03     8.72390E-03
            3786             467     9.98771E-03     10.3061E-03
            3786            4199     19.8380E-03     20.2538E-03
            3786            4246     14.2413E-03     14.6510E-03
            3787              25     201.783E-03     210.198E-03
            3787             485     177.551E-03     175.452E-03
            3787             546     189.356E-03     204.382E-03
            3787            4200     173.291E-03     170.901E-03
            3788             485     177.551E-03     175.452E-03
            3788             486     169.750E-03     165.609E-03
            3788            4200     173.291E-03     170.901E-03
            3788            4201     165.141E-03     158.833E-03
            3789             486     169.750E-03     165.609E-03
            3789             487     157.241E-03     161.908E-03
            3789            4201     165.141E-03     158.833E-03
            3789            4202     143.189E-03     155.004E-03
            3790             487     157.241E-03     161.908E-03
            3790             488     153.396E-03     151.208E-03
            3790            4202     143.189E-03     155.004E-03
            3790            4203     142.628E-03     139.799E-03
            3791             488     153.396E-03     151.208E-03
            3791             489     144.592E-03     147.486E-03
            3791            4203     142.628E-03     139.799E-03
            3791            4204     131.176E-03     139.643E-03
            3792             489     144.592E-03     147.486E-03
            3792             490     141.343E-03     138.158E-03
            3792            4204     131.176E-03     139.643E-03
            3792            4205     135.236E-03     131.701E-03
            3793             490     141.343E-03     138.158E-03
            3793             491     135.527E-03     130.823E-03
            3793            4205     135.236E-03     131.701E-03
            3793            4206     134.397E-03     130.704E-03
            3794             491     135.527E-03     130.823E-03
            3794             492     136.438E-03     145.634E-03
            3794            4206     134.397E-03     130.704E-03
            3794            4207     126.996E-03     151.128E-03
            3795             492     136.438E-03     145.634E-03
            3795             493     148.834E-03     147.261E-03
            3795            4207     126.996E-03     151.128E-03
            3795            4208     146.585E-03     144.744E-03
            3796             493     148.834E-03     147.261E-03
            3796             494     141.781E-03     138.439E-03
            3796            4208     146.585E-03     144.744E-03
            3796            4209     139.839E-03     134.411E-03
            3797             494     141.781E-03     138.439E-03
            3797             495     130.920E-03     134.588E-03
            3797            4209     139.839E-03     134.411E-03
            3797            4210     120.667E-03     130.348E-03
            3798             495     130.920E-03     134.588E-03
            3798             496     126.885E-03     125.944E-03
            3798            4210     120.667E-03     130.348E-03
            3798            4211     118.438E-03     118.105E-03
            3799             496     126.885E-03     125.944E-03
            3799             497     120.323E-03     121.253E-03
            3799            4211     118.438E-03     118.105E-03
            3799            4212     110.279E-03     113.895E-03
            3800             497     120.323E-03     121.253E-03
            3800             498     114.998E-03     115.233E-03
            3800            4212     110.279E-03     113.895E-03
            3800            4213     104.438E-03     107.555E-03
            3801             498     114.998E-03     115.233E-03
            3801             499     109.630E-03     109.057E-03
            3801            4213     104.438E-03     107.555E-03
            3801            4214     100.302E-03     100.714E-03
            3802             499     109.630E-03     109.057E-03
            3802             500     103.453E-03     104.310E-03
            3802            4214     100.302E-03     100.714E-03
            3802            4215     93.1578E-03     98.2038E-03
            3803             500     103.453E-03     104.310E-03
            3803             501     99.8966E-03     97.4519E-03
            3803            4215     93.1578E-03     98.2038E-03
            3803            4216     95.6376E-03     92.9209E-03
            3804             501     99.8966E-03     97.4519E-03
            3804             502     95.3828E-03     91.1967E-03
            3804            4216     95.6376E-03     92.9209E-03
            3804            4217     95.1784E-03     92.2640E-03
            3805             502     95.3828E-03     91.1967E-03
            3805             503     96.7578E-03     103.098E-03
            3805            4217     95.1784E-03     92.2640E-03
            3805            4218     90.5640E-03     107.334E-03
            3806             503     96.7578E-03     103.098E-03
            3806             504     106.070E-03     105.427E-03
            3806            4218     90.5640E-03     107.334E-03
            3806            4219     104.208E-03     103.146E-03
            3807             504     106.070E-03     105.427E-03
            3807             505     99.8702E-03     97.4791E-03
            3807            4219     104.208E-03     103.146E-03
            3807            4220     98.6516E-03     94.6813E-03
            3808             505     99.8702E-03     97.4791E-03
            3808             506     90.7276E-03     93.4951E-03
            3808            4220     98.6516E-03     94.6813E-03
            3808            4221     83.6696E-03     90.5977E-03
            3809             506     90.7276E-03     93.4951E-03
            3809             507     86.6778E-03     85.9858E-03
            3809            4221     83.6696E-03     90.5977E-03
            3809            4222     80.8157E-03     80.4761E-03
            3810             507     86.6778E-03     85.9858E-03
            3810             508     80.7446E-03     81.4237E-03
            3810            4222     80.8157E-03     80.4761E-03
            3810            4223     73.7477E-03     76.1485E-03
            3811             508     80.7446E-03     81.4237E-03
            3811             509     75.8116E-03     75.8367E-03
            3811            4223     73.7477E-03     76.1485E-03
            3811            4224     68.3215E-03     70.2461E-03
            3812             509     75.8116E-03     75.8367E-03
            3812             510     70.6944E-03     70.3275E-03
            3812            4224     68.3215E-03     70.2461E-03
            3812            4225     63.9807E-03     64.3005E-03
            3813             510     70.6944E-03     70.3275E-03
            3813             511     65.3220E-03     65.4174E-03
            3813            4225     63.9807E-03     64.3005E-03
            3813            4226     58.2001E-03     60.7141E-03
            3814             511     65.3220E-03     65.4174E-03
            3814             512     61.2093E-03     59.5914E-03
            3814            4226     58.2001E-03     60.7141E-03
            3814            4227     57.7793E-03     56.2845E-03
            3815             512     61.2093E-03     59.5914E-03
            3815             513     56.8945E-03     53.7942E-03
            3815            4227     57.7793E-03     56.2845E-03
            3815            4228     56.9129E-03     54.7700E-03
            3816             513     56.8945E-03     53.7942E-03
            3816             514     58.9402E-03     62.7894E-03
            3816            4228     56.9129E-03     54.7700E-03
            3816            4229     55.3841E-03     65.0835E-03
            3817             514     58.9402E-03     62.7894E-03
            3817             515     65.6593E-03     65.8462E-03
            3817            4229     55.3841E-03     65.0835E-03
            3817            4230     64.0764E-03     63.7493E-03
            3818             515     65.6593E-03     65.8462E-03
            3818             516     60.2337E-03     58.6803E-03
            3818            4230     64.0764E-03     63.7493E-03
            3818            4231     59.4761E-03     56.8647E-03
            3819             516     60.2337E-03     58.6803E-03
            3819             517     52.7290E-03     54.5413E-03
            3819            4231     59.4761E-03     56.8647E-03
            3819            4232     48.4197E-03     52.6246E-03
            3820             517     52.7290E-03     54.5413E-03
            3820             518     48.6457E-03     48.1617E-03
            3820            4232     48.4197E-03     52.6246E-03
            3820            4233     44.9057E-03     44.5377E-03
            3821             518     48.6457E-03     48.1617E-03
            3821             519     43.4035E-03     43.7023E-03
            3821            4233     44.9057E-03     44.5377E-03
            3821            4234     38.9807E-03     40.1556E-03
            3822             519     43.4035E-03     43.7023E-03
            3822             520     38.8393E-03     38.5764E-03
            3822            4234     38.9807E-03     40.1556E-03
            3822            4235     34.3171E-03     34.7026E-03
            3823             520     38.8393E-03     38.5764E-03
            3823             521     34.1262E-03     33.7288E-03
            3823            4235     34.3171E-03     34.7026E-03
            3823            4236     29.9593E-03     30.2359E-03
            3824             521     34.1262E-03     33.7288E-03
            3824             522     29.9816E-03     28.9352E-03
            3824            4236     29.9593E-03     30.2359E-03
            3824            4237     27.3680E-03     26.8200E-03
            3825             522     29.9816E-03     28.9352E-03
            3825             523     26.2408E-03     24.5308E-03
            3825            4237     27.3680E-03     26.8200E-03
            3825            4238     26.4818E-03     25.2002E-03
            3826             523     26.2408E-03     24.5308E-03
            3826             524     28.0782E-03     30.2388E-03
            3826            4238     26.4818E-03     25.2002E-03
            3826            4239     27.1446E-03     30.8687E-03
            3827             524     28.0782E-03     30.2388E-03
            3827             525     31.6310E-03     32.4079E-03
            3827            4239     27.1446E-03     30.8687E-03
            3827            4240     30.7196E-03     30.9811E-03
            3828             525     31.6310E-03     32.4079E-03
            3828             526     27.0585E-03     26.0531E-03
            3828            4240     30.7196E-03     30.9811E-03
            3828            4241     26.7811E-03     25.2099E-03
            3829             526     27.0585E-03     26.0531E-03
            3829             527     21.2703E-03     21.9998E-03
            3829            4241     26.7811E-03     25.2099E-03
            3829            4242     19.3224E-03     20.8820E-03
            3830             527     21.2703E-03     21.9998E-03
            3830             528     17.5720E-03     17.1899E-03
            3830            4242     19.3224E-03     20.8820E-03
            3830            4243     15.7178E-03     15.3484E-03
            3831             528     17.5720E-03     17.1899E-03
            3831             529     14.1307E-03     13.7247E-03
            3831            4243     15.7178E-03     15.3484E-03
            3831            4244     12.5724E-03     12.0878E-03
            3832             529     14.1307E-03     13.7247E-03
            3832             530     13.3413E-03     11.8985E-03
            3832            4244     12.5724E-03     12.0878E-03
            3832            4245     12.4896E-03     11.2740E-03
            3833             530     13.3413E-03     11.8985E-03
            3833             531     13.8134E-03     14.6343E-03
            3833            4245     12.4896E-03     11.2740E-03
            3833            4246     14.2413E-03     14.6510E-03
            3834              23     7.29160E-03     8.86398E-03
            3834             466     7.81315E-03     8.72390E-03
            3834             531     13.8134E-03     14.6343E-03
            3834            4246     14.2413E-03     14.6510E-03
            3947              21     166.854E-03     162.955E-03
            3947             460     180.474E-03     180.629E-03
            3947             748     167.745E-03     170.326E-03
            3947            4331     177.556E-03     180.691E-03
            3948               6     192.040E-03     199.390E-03
            3948             172     184.566E-03     186.615E-03
            3948             460     180.474E-03     180.629E-03
            3948            4331     177.556E-03     180.691E-03
            3949             747     167.680E-03     172.983E-03
            3949             748     167.745E-03     170.326E-03
            3949            4331     177.556E-03     180.691E-03
            3949            4332     176.022E-03     181.436E-03
            3950             171     182.748E-03     191.432E-03
            3950             172     184.566E-03     186.615E-03
            3950            4331     177.556E-03     180.691E-03
            3950            4332     176.022E-03     181.436E-03
            3951             746     178.537E-03     175.841E-03
            3951             747     167.680E-03     172.983E-03
            3951            4332     176.022E-03     181.436E-03
            3951            4333     183.317E-03     180.807E-03
            3952             170     189.404E-03     181.920E-03
            3952             171     182.748E-03     191.432E-03
            3952            4332     176.022E-03     181.436E-03
            3952            4333     183.317E-03     180.807E-03
            3953             745     184.149E-03     185.566E-03
            3953             746     178.537E-03     175.841E-03
            3953            4333     183.317E-03     180.807E-03
            3953            4334     191.264E-03     193.408E-03
            3954             169     193.976E-03     193.889E-03
            3954             170     189.404E-03     181.920E-03
            3954            4333     183.317E-03     180.807E-03
            3954            4334     191.264E-03     193.408E-03
            3955             744     184.425E-03     189.429E-03
            3955             745     184.149E-03     185.566E-03
            3955            4334     191.264E-03     193.408E-03
            3955            4335     196.923E-03     199.796E-03
            3956             168     203.646E-03     201.828E-03
            3956             169     193.976E-03     193.889E-03
            3956            4334     191.264E-03     193.408E-03
            3956            4335     196.923E-03     199.796E-03
            3957             743     177.569E-03     186.571E-03
            3957             744     184.425E-03     189.429E-03
            3957            4335     196.923E-03     199.796E-03
            3957            4336     195.800E-03     201.341E-03
            3958             167     213.594E-03     210.653E-03
            3958             168     203.646E-03     201.828E-03
            3958            4335     196.923E-03     199.796E-03
            3958            4336     195.800E-03     201.341E-03
            3959              31     170.288E-03     178.447E-03
            3959             721     189.167E-03     200.112E-03
            3959             743     177.569E-03     186.571E-03
            3959            4336     195.800E-03     201.341E-03
            3960               8     206.030E-03     227.592E-03
            3960             167     213.594E-03     210.653E-03
            3960             721     189.167E-03     200.112E-03
            3960            4336     195.800E-03     201.341E-03
            3961              12     20.2979E-03     20.1553E-03
            3961             196     18.8876E-03     18.7359E-03
            3961             245     39.8453E-03     39.7017E-03
            3961            4337     37.1467E-03     37.0721E-03
            3962             244     40.2164E-03     39.9146E-03
            3962             245     39.8453E-03     39.7017E-03
            3962            4337     37.1467E-03     37.0721E-03
            3962            4338     37.7529E-03     37.4250E-03
            3963             243     40.1018E-03     39.5063E-03
            3963             244     40.2164E-03     39.9146E-03
            3963            4338     37.7529E-03     37.4250E-03
            3963            4339     37.6107E-03     37.2049E-03
            3964             242     41.5826E-03     41.0497E-03
            3964             243     40.1018E-03     39.5063E-03
            3964            4339     37.6107E-03     37.2049E-03
            3964            4340     38.7258E-03     38.5183E-03
            3965             241     43.7681E-03     42.9768E-03
            3965             242     41.5826E-03     41.0497E-03
            3965            4340     38.7258E-03     38.5183E-03
            3965            4341     40.7163E-03     40.1693E-03
            3966             240     44.0044E-03     43.0392E-03
            3966             241     43.7681E-03     42.9768E-03
            3966            4341     40.7163E-03     40.1693E-03
            3966            4342     41.2536E-03     40.6428E-03
            3967             239     44.0169E-03     43.1680E-03
            3967             240     44.0044E-03     43.0392E-03
            3967            4342     41.2536E-03     40.6428E-03
            3967            4343     41.7872E-03     41.3343E-03
            3968             238     44.0611E-03     43.2508E-03
            3968             239     44.0169E-03     43.1680E-03
            3968            4343     41.7872E-03     41.3343E-03
            3968            4344     42.5550E-03     42.2422E-03
            3969             237     43.9954E-03     43.5859E-03
            3969             238     44.0611E-03     43.2508E-03
            3969            4344     42.5550E-03     42.2422E-03
            3969            4345     43.3503E-03     43.3730E-03
            3970             236     44.0148E-03     44.0950E-03
            3970             237     43.9954E-03     43.5859E-03
            3970            4345     43.3503E-03     43.3730E-03
            3970            4346     44.5313E-03     44.5334E-03
            3971             235     44.1130E-03     44.3804E-03
            3971             236     44.0148E-03     44.0950E-03
            3971            4346     44.5313E-03     44.5334E-03
            3971            4347     45.7235E-03     45.3730E-03
            3972             234     43.6942E-03     44.9091E-03
            3972             235     44.1130E-03     44.3804E-03
            3972            4347     45.7235E-03     45.3730E-03
            3972            4348     46.0838E-03     47.3949E-03
            3973             233     44.7991E-03     45.2033E-03
            3973             234     43.6942E-03     44.9091E-03
            3973            4348     46.0838E-03     47.3949E-03
            3973            4349     49.0420E-03     48.0420E-03
            3974             232     45.0146E-03     43.7686E-03
            3974             233     44.7991E-03     45.2033E-03
            3974            4349     49.0420E-03     48.0420E-03
            3974            4350     49.0107E-03     47.5168E-03
            3975             231     45.1410E-03     44.7545E-03
            3975             232     45.0146E-03     43.7686E-03
            3975            4350     49.0107E-03     47.5168E-03
            3975            4351     46.4390E-03     47.8448E-03
            3976             230     46.7519E-03     46.1491E-03
            3976             231     45.1410E-03     44.7545E-03
            3976            4351     46.4390E-03     47.8448E-03
            3976            4352     48.3573E-03     47.4147E-03
            3977             229     47.4454E-03     45.7009E-03
            3977             230     46.7519E-03     46.1491E-03
            3977            4352     48.3573E-03     47.4147E-03
            3977            4353     50.3063E-03     48.9512E-03
            3978             228     47.8579E-03     46.2842E-03
            3978             229     47.4454E-03     45.7009E-03
            3978            4353     50.3063E-03     48.9512E-03
            3978            4354     51.7642E-03     51.3345E-03
            3979             227     47.7281E-03     46.7945E-03
            3979             228     47.8579E-03     46.2842E-03
            3979            4354     51.7642E-03     51.3345E-03
            3979            4355     53.4344E-03     53.2334E-03
            3980             226     47.7243E-03     47.5892E-03
            3980             227     47.7281E-03     46.7945E-03
            3980            4355     53.4344E-03     53.2334E-03
            3980            4356     55.3696E-03     55.3503E-03
            3981             225     47.6342E-03     48.0769E-03
            3981             226     47.7243E-03     47.5892E-03
            3981            4356     55.3696E-03     55.3503E-03
            3981            4357     57.0156E-03     56.6073E-03
            3982             224     46.6898E-03     48.8288E-03
            3982             225     47.6342E-03     48.0769E-03
            3982            4357     57.0156E-03     56.6073E-03
            3982            4358     57.0128E-03     59.6145E-03
            3983             223     48.2742E-03     49.1458E-03
            3983             224     46.6898E-03     48.8288E-03
            3983            4358     57.0128E-03     59.6145E-03
            3983            4359     61.3159E-03     59.7796E-03
            3984             222     48.4654E-03     46.8909E-03
            3984             223     48.2742E-03     49.1458E-03
            3984            4359     61.3159E-03     59.7796E-03
            3984            4360     60.5960E-03     58.3394E-03
            3985             221     48.2575E-03     48.3479E-03
            3985             222     48.4654E-03     46.8909E-03
            3985            4360     60.5960E-03     58.3394E-03
            3985            4361     55.7272E-03     59.1646E-03
            3986             220     50.6885E-03     50.0592E-03
            3986             221     48.2575E-03     48.3479E-03
            3986            4361     55.7272E-03     59.1646E-03
            3986            4362     59.6899E-03     58.1128E-03
            3987             219     51.8822E-03     49.2323E-03
            3987             220     50.6885E-03     50.0592E-03
            3987            4362     59.6899E-03     58.1128E-03
            3987            4363     63.0516E-03     60.6133E-03
            3988             218     52.5388E-03     50.3468E-03
            3988             219     51.8822E-03     49.2323E-03
            3988            4363     63.0516E-03     60.6133E-03
            3988            4364     64.5440E-03     64.4868E-03
            3989             217     52.4114E-03     51.2056E-03
            3989             218     52.5388E-03     50.3468E-03
            3989            4364     64.5440E-03     64.4868E-03
            3989            4365     67.0590E-03     66.7013E-03
            3990             216     52.4069E-03     52.3787E-03
            3990             217     52.4114E-03     51.2056E-03
            3990            4365     67.0590E-03     66.7013E-03
            3990            4366     69.5231E-03     69.4873E-03
            3991             215     52.2215E-03     53.0184E-03
            3991             216     52.4069E-03     52.3787E-03
            3991            4366     69.5231E-03     69.4873E-03
            3991            4367     71.3321E-03     70.8669E-03
            3992             214     50.7438E-03     53.9313E-03
            3992             215     52.2215E-03     53.0184E-03
            3992            4367     71.3321E-03     70.8669E-03
            3992            4368     70.7570E-03     74.6052E-03
            3993             213     52.8942E-03     54.1339E-03
            3993             214     50.7438E-03     53.9313E-03
            3993            4368     70.7570E-03     74.6052E-03
            3993            4369     76.2989E-03     74.0211E-03
            3994             212     52.9848E-03     50.9777E-03
            3994             213     52.8942E-03     54.1339E-03
            3994            4369     76.2989E-03     74.0211E-03
            3994            4370     74.6595E-03     71.5485E-03
            3995               9     42.7633E-03     42.3817E-03
            3995             212     52.9848E-03     50.9777E-03
            3995             749     63.4307E-03     67.0138E-03
            3995            4370     74.6595E-03     71.5485E-03
            3996             196     18.8876E-03     18.7359E-03
            3996             197     16.3199E-03     16.1985E-03
            3996            4337     37.1467E-03     37.0721E-03
            3996            4371     31.9863E-03     32.0369E-03
            3997            4337     37.1467E-03     37.0721E-03
            3997            4338     37.7529E-03     37.4250E-03
            3997            4371     31.9863E-03     32.0369E-03
            3997            4372     33.0657E-03     32.4358E-03
            3998            4338     37.7529E-03     37.4250E-03
            3998            4339     37.6107E-03     37.2049E-03
            3998            4372     33.0657E-03     32.4358E-03
            3998            4373     33.2597E-03     33.0479E-03
            3999            4339     37.6107E-03     37.2049E-03
            3999            4340     38.7258E-03     38.5183E-03
            3999            4373     33.2597E-03     33.0479E-03
            3999            4374     33.5040E-03     33.9983E-03
            4000            4340     38.7258E-03     38.5183E-03
            4000            4341     40.7163E-03     40.1693E-03
            4000            4374     33.5040E-03     33.9983E-03
            4000            4375     34.7923E-03     34.9218E-03
            4001            4341     40.7163E-03     40.1693E-03
            4001            4342     41.2536E-03     40.6428E-03
            4001            4375     34.7923E-03     34.9218E-03
            4001            4376     35.8872E-03     36.4529E-03
            4002            4342     41.2536E-03     40.6428E-03
            4002            4343     41.7872E-03     41.3343E-03
            4002            4376     35.8872E-03     36.4529E-03
            4002            4377     37.8084E-03     38.3788E-03
            4003            4343     41.7872E-03     41.3343E-03
            4003            4344     42.5550E-03     42.2422E-03
            4003            4377     37.8084E-03     38.3788E-03
            4003            4378     40.0480E-03     40.4177E-03
            4004            4344     42.5550E-03     42.2422E-03
            4004            4345     43.3503E-03     43.3730E-03
            4004            4378     40.0480E-03     40.4177E-03
            4004            4379     42.3900E-03     42.7540E-03
            4005            4345     43.3503E-03     43.3730E-03
            4005            4346     44.5313E-03     44.5334E-03
            4005            4379     42.3900E-03     42.7540E-03
            4005            4380     45.4140E-03     45.1289E-03
            4006            4346     44.5313E-03     44.5334E-03
            4006            4347     45.7235E-03     45.3730E-03
            4006            4380     45.4140E-03     45.1289E-03
            4006            4381     48.4685E-03     47.2319E-03
            4007            4347     45.7235E-03     45.3730E-03
            4007            4348     46.0838E-03     47.3949E-03
            4007            4381     48.4685E-03     47.2319E-03
            4007            4382     50.2848E-03     51.8661E-03
            4008            4348     46.0838E-03     47.3949E-03
            4008            4349     49.0420E-03     48.0420E-03
            4008            4382     50.2848E-03     51.8661E-03
            4008            4383     57.1438E-03     53.5007E-03
            4009            4349     49.0420E-03     48.0420E-03
            4009            4350     49.0107E-03     47.5168E-03
            4009            4383     57.1438E-03     53.5007E-03
            4009            4384     57.3474E-03     55.3381E-03
            4010            4350     49.0107E-03     47.5168E-03
            4010            4351     46.4390E-03     47.8448E-03
            4010            4384     57.3474E-03     55.3381E-03
            4010            4385     50.1721E-03     55.2672E-03
            4011            4351     46.4390E-03     47.8448E-03
            4011            4352     48.3573E-03     47.4147E-03
            4011            4385     50.1721E-03     55.2672E-03
            4011            4386     53.0813E-03     52.1850E-03
            4012            4352     48.3573E-03     47.4147E-03
            4012            4353     50.3063E-03     48.9512E-03
            4012            4386     53.0813E-03     52.1850E-03
            4012            4387     57.2029E-03     56.6427E-03
            4013            4353     50.3063E-03     48.9512E-03
            4013            4354     51.7642E-03     51.3345E-03
            4013            4387     57.2029E-03     56.6427E-03
            4013            4388     59.6560E-03     61.0802E-03
            4014            4354     51.7642E-03     51.3345E-03
            4014            4355     53.4344E-03     53.2334E-03
            4014            4388     59.6560E-03     61.0802E-03
            4014            4389     63.7317E-03     63.9364E-03
            4015            4355     53.4344E-03     53.2334E-03
            4015            4356     55.3696E-03     55.3503E-03
            4015            4389     63.7317E-03     63.9364E-03
            4015            4390     67.9964E-03     67.4859E-03
            4016            4356     55.3696E-03     55.3503E-03
            4016            4357     57.0156E-03     56.6073E-03
            4016            4390     67.9964E-03     67.4859E-03
            4016            4391     71.9993E-03     70.0961E-03
            4017            4357     57.0156E-03     56.6073E-03
            4017            4358     57.0128E-03     59.6145E-03
            4017            4391     71.9993E-03     70.0961E-03
            4017            4392     73.7521E-03     76.6751E-03
            4018            4358     57.0128E-03     59.6145E-03
            4018            4359     61.3159E-03     59.7796E-03
            4018            4392     73.7521E-03     76.6751E-03
            4018            4393     83.4215E-03     77.7527E-03
            4019            4359     61.3159E-03     59.7796E-03
            4019            4360     60.5960E-03     58.3394E-03
            4019            4393     83.4215E-03     77.7527E-03
            4019            4394     82.1977E-03     78.8694E-03
            4020            4360     60.5960E-03     58.3394E-03
            4020            4361     55.7272E-03     59.1646E-03
            4020            4394     82.1977E-03     78.8694E-03
            4020            4395     70.3013E-03     79.9991E-03
            4021            4361     55.7272E-03     59.1646E-03
            4021            4362     59.6899E-03     58.1128E-03
            4021            4395     70.3013E-03     79.9991E-03
            4021            4396     77.4575E-03     75.4226E-03
            4022            4362     59.6899E-03     58.1128E-03
            4022            4363     63.0516E-03     60.6133E-03
            4022            4396     77.4575E-03     75.4226E-03
            4022            4397     83.8816E-03     81.5900E-03
            4023            4363     63.0516E-03     60.6133E-03
            4023            4364     64.5440E-03     64.4868E-03
            4023            4397     83.8816E-03     81.5900E-03
            4023            4398     85.1191E-03     87.7760E-03
            4024            4364     64.5440E-03     64.4868E-03
            4024            4365     67.0590E-03     66.7013E-03
            4024            4398     85.1191E-03     87.7760E-03
            4024            4399     90.4295E-03     90.1430E-03
            4025            4365     67.0590E-03     66.7013E-03
            4025            4366     69.5231E-03     69.4873E-03
            4025            4399     90.4295E-03     90.1430E-03
            4025            4400     95.3565E-03     94.3759E-03
            4026            4366     69.5231E-03     69.4873E-03
            4026            4367     71.3321E-03     70.8669E-03
            4026            4400     95.3565E-03     94.3759E-03
            4026            4401     99.7545E-03     97.1086E-03
            4027            4367     71.3321E-03     70.8669E-03
            4027            4368     70.7570E-03     74.6052E-03
            4027            4401     99.7545E-03     97.1086E-03
            4027            4402     101.056E-03     105.341E-03
            4028            4368     70.7570E-03     74.6052E-03
            4028            4369     76.2989E-03     74.0211E-03
            4028            4402     101.056E-03     105.341E-03
            4028            4403     113.309E-03     105.550E-03
            4029            4369     76.2989E-03     74.0211E-03
            4029            4370     74.6595E-03     71.5485E-03
            4029            4403     113.309E-03     105.550E-03
            4029            4404     110.410E-03     105.779E-03
            4030             749     63.4307E-03     67.0138E-03
            4030             750     95.3252E-03     104.922E-03
            4030            4370     74.6595E-03     71.5485E-03
            4030            4404     110.410E-03     105.779E-03
            4031             197     16.3199E-03     16.1985E-03
            4031             198     12.5301E-03     12.4255E-03
            4031            4371     31.9863E-03     32.0369E-03
            4031            4405     24.4773E-03     25.1873E-03
            4032            4371     31.9863E-03     32.0369E-03
            4032            4372     33.0657E-03     32.4358E-03
            4032            4405     24.4773E-03     25.1873E-03
            4032            4406     26.5556E-03     25.8886E-03
            4033            4372     33.0657E-03     32.4358E-03
            4033            4373     33.2597E-03     33.0479E-03
            4033            4406     26.5556E-03     25.8886E-03
            4033            4407     27.3758E-03     27.3396E-03
            4034            4373     33.2597E-03     33.0479E-03
            4034            4374     33.5040E-03     33.9983E-03
            4034            4407     27.3758E-03     27.3396E-03
            4034            4408     26.6963E-03     28.5194E-03
            4035            4374     33.5040E-03     33.9983E-03
            4035            4375     34.7923E-03     34.9218E-03
            4035            4408     26.6963E-03     28.5194E-03
            4035            4409     28.0574E-03     29.1471E-03
            4036            4375     34.7923E-03     34.9218E-03
            4036            4376     35.8872E-03     36.4529E-03
            4036            4409     28.0574E-03     29.1471E-03
            4036            4410     30.2171E-03     31.8307E-03
            4037            4376     35.8872E-03     36.4529E-03
            4037            4377     37.8084E-03     38.3788E-03
            4037            4410     30.2171E-03     31.8307E-03
            4037            4411     33.3819E-03     34.4242E-03
            4038            4377     37.8084E-03     38.3788E-03
            4038            4378     40.0480E-03     40.4177E-03
            4038            4411     33.3819E-03     34.4242E-03
            4038            4412     37.1662E-03     37.3490E-03
            4039            4378     40.0480E-03     40.4177E-03
            4039            4379     42.3900E-03     42.7540E-03
            4039            4412     37.1662E-03     37.3490E-03
            4039            4413     40.8336E-03     41.4768E-03
            4040            4379     42.3900E-03     42.7540E-03
            4040            4380     45.4140E-03     45.1289E-03
            4040            4413     40.8336E-03     41.4768E-03
            4040            4414     45.8896E-03     45.7915E-03
            4041            4380     45.4140E-03     45.1289E-03
            4041            4381     48.4685E-03     47.2319E-03
            4041            4414     45.8896E-03     45.7915E-03
            4041            4415     50.9526E-03     49.8177E-03
            4042            4381     48.4685E-03     47.2319E-03
            4042            4382     50.2848E-03     51.8661E-03
            4042            4415     50.9526E-03     49.8177E-03
            4042            4416     54.1323E-03     57.8126E-03
            4043            4382     50.2848E-03     51.8661E-03
            4043            4383     57.1438E-03     53.5007E-03
            4043            4416     54.1323E-03     57.8126E-03
            4043            4417     65.7160E-03     60.0055E-03
            4044            4383     57.1438E-03     53.5007E-03
            4044            4384     57.3474E-03     55.3381E-03
            4044            4417     65.7160E-03     60.0055E-03
            4044            4418     66.9833E-03     65.1207E-03
            4045            4384     57.3474E-03     55.3381E-03
            4045            4385     50.1721E-03     55.2672E-03
            4045            4418     66.9833E-03     65.1207E-03
            4045            4419     56.2044E-03     67.7846E-03
            4046            4385     50.1721E-03     55.2672E-03
            4046            4386     53.0813E-03     52.1850E-03
            4046            4419     56.2044E-03     67.7846E-03
            4046            4420     61.6822E-03     61.3172E-03
            4047            4386     53.0813E-03     52.1850E-03
            4047            4387     57.2029E-03     56.6427E-03
            4047            4420     61.6822E-03     61.3172E-03
            4047            4421     67.0426E-03     66.0885E-03
            4048            4387     57.2029E-03     56.6427E-03
            4048            4388     59.6560E-03     61.0802E-03
            4048            4421     67.0426E-03     66.0885E-03
            4048            4422     68.1829E-03     70.8512E-03
            4049            4388     59.6560E-03     61.0802E-03
            4049            4389     63.7317E-03     63.9364E-03
            4049            4422     68.1829E-03     70.8512E-03
            4049            4423     73.4291E-03     73.7484E-03
            4050            4389     63.7317E-03     63.9364E-03
            4050            4390     67.9964E-03     67.4859E-03
            4050            4423     73.4291E-03     73.7484E-03
            4050            4424     79.2280E-03     79.1324E-03
            4051            4390     67.9964E-03     67.4859E-03
            4051            4391     71.9993E-03     70.0961E-03
            4051            4424     79.2280E-03     79.1324E-03
            4051            4425     85.0606E-03     83.2852E-03
            4052            4391     71.9993E-03     70.0961E-03
            4052            4392     73.7521E-03     76.6751E-03
            4052            4425     85.0606E-03     83.2852E-03
            4052            4426     88.3180E-03     93.9487E-03
            4053            4392     73.7521E-03     76.6751E-03
            4053            4393     83.4215E-03     77.7527E-03
            4053            4426     88.3180E-03     93.9487E-03
            4053            4427     104.684E-03     95.7178E-03
            4054            4393     83.4215E-03     77.7527E-03
            4054            4394     82.1977E-03     78.8694E-03
            4054            4427     104.684E-03     95.7178E-03
            4054            4428     104.791E-03     101.559E-03
            4055            4394     82.1977E-03     78.8694E-03
            4055            4395     70.3013E-03     79.9991E-03
            4055            4428     104.791E-03     101.559E-03
            4055            4429     87.8385E-03     107.998E-03
            4056            4395     70.3013E-03     79.9991E-03
            4056            4396     77.4575E-03     75.4226E-03
            4056            4429     87.8385E-03     107.998E-03
            4056            4430     99.7230E-03     98.2386E-03
            4057            4396     77.4575E-03     75.4226E-03
            4057            4397     83.8816E-03     81.5900E-03
            4057            4430     99.7230E-03     98.2386E-03
            4057            4431     107.049E-03     103.295E-03
            4058            4397     83.8816E-03     81.5900E-03
            4058            4398     85.1191E-03     87.7760E-03
            4058            4431     107.049E-03     103.295E-03
            4058            4432     104.559E-03     109.327E-03
            4059            4398     85.1191E-03     87.7760E-03
            4059            4399     90.4295E-03     90.1430E-03
            4059            4432     104.559E-03     109.327E-03
            4059            4433     110.705E-03     110.642E-03
            4060            4399     90.4295E-03     90.1430E-03
            4060            4400     95.3565E-03     94.3759E-03
            4060            4433     110.705E-03     110.642E-03
            4060            4434     116.933E-03     116.756E-03
            4061            4400     95.3565E-03     94.3759E-03
            4061            4401     99.7545E-03     97.1086E-03
            4061            4434     116.933E-03     116.756E-03
            4061            4435     123.219E-03     120.905E-03
            4062            4401     99.7545E-03     97.1086E-03
            4062            4402     101.056E-03     105.341E-03
            4062            4435     123.219E-03     120.905E-03
            4062            4436     126.251E-03     134.126E-03
            4063            4402     101.056E-03     105.341E-03
            4063            4403     113.309E-03     105.550E-03
            4063            4436     126.251E-03     134.126E-03
            4063            4437     147.379E-03     135.235E-03
            4064            4403     113.309E-03     105.550E-03
            4064            4404     110.410E-03     105.779E-03
            4064            4437     147.379E-03     135.235E-03
            4064            4438     146.099E-03     141.637E-03
            4065             750     95.3252E-03     104.922E-03
            4065             751     125.900E-03     143.740E-03
            4065            4404     110.410E-03     105.779E-03
            4065            4438     146.099E-03     141.637E-03
            4066             198     12.5301E-03     12.4255E-03
            4066             199     8.11803E-03     7.86139E-03
            4066            4405     24.4773E-03     25.1873E-03
            4066            4439     15.3666E-03     16.8982E-03
            4067            4405     24.4773E-03     25.1873E-03
            4067            4406     26.5556E-03     25.8886E-03
            4067            4439     15.3666E-03     16.8982E-03
            4067            4440     19.4077E-03     18.0132E-03
            4068            4406     26.5556E-03     25.8886E-03
            4068            4407     27.3758E-03     27.3396E-03
            4068            4440     19.4077E-03     18.0132E-03
            4068            4441     21.1765E-03     21.2452E-03
            4069            4407     27.3758E-03     27.3396E-03
            4069            4408     26.6963E-03     28.5194E-03
            4069            4441     21.1765E-03     21.2452E-03
            4069            4442     20.3435E-03     23.9521E-03
            4070            4408     26.6963E-03     28.5194E-03
            4070            4409     28.0574E-03     29.1471E-03
            4070            4442     20.3435E-03     23.9521E-03
            4070            4443     22.8676E-03     23.7195E-03
            4071            4409     28.0574E-03     29.1471E-03
            4071            4410     30.2171E-03     31.8307E-03
            4071            4443     22.8676E-03     23.7195E-03
            4071            4444     25.0289E-03     26.3846E-03
            4072            4410     30.2171E-03     31.8307E-03
            4072            4411     33.3819E-03     34.4242E-03
            4072            4444     25.0289E-03     26.3846E-03
            4072            4445     28.9289E-03     29.9285E-03
            4073            4411     33.3819E-03     34.4242E-03
            4073            4412     37.1662E-03     37.3490E-03
            4073            4445     28.9289E-03     29.9285E-03
            4073            4446     34.3996E-03     34.9252E-03
            4074            4412     37.1662E-03     37.3490E-03
            4074            4413     40.8336E-03     41.4768E-03
            4074            4446     34.3996E-03     34.9252E-03
            4074            4447     39.6353E-03     41.3975E-03
            4075            4413     40.8336E-03     41.4768E-03
            4075            4414     45.8896E-03     45.7915E-03
            4075            4447     39.6353E-03     41.3975E-03
            4075            4448     46.6968E-03     48.1030E-03
            4076            4414     45.8896E-03     45.7915E-03
            4076            4415     50.9526E-03     49.8177E-03
            4076            4448     46.6968E-03     48.1030E-03
            4076            4449     54.1115E-03     53.9058E-03
            4077            4415     50.9526E-03     49.8177E-03
            4077            4416     54.1323E-03     57.8126E-03
            4077            4449     54.1115E-03     53.9058E-03
            4077            4450     58.2594E-03     65.0428E-03
            4078            4416     54.1323E-03     57.8126E-03
            4078            4417     65.7160E-03     60.0055E-03
            4078            4450     58.2594E-03     65.0428E-03
            4078            4451     73.8064E-03     68.6671E-03
            4079            4417     65.7160E-03     60.0055E-03
            4079            4418     66.9833E-03     65.1207E-03
            4079            4451     73.8064E-03     68.6671E-03
            4079            4452     76.2461E-03     75.6191E-03
            4080            4418     66.9833E-03     65.1207E-03
            4080            4419     56.2044E-03     67.7846E-03
            4080            4452     76.2461E-03     75.6191E-03
            4080            4453     63.1140E-03     80.3333E-03
            4081            4419     56.2044E-03     67.7846E-03
            4081            4420     61.6822E-03     61.3172E-03
            4081            4453     63.1140E-03     80.3333E-03
            4081            4454     70.4068E-03     70.3086E-03
            4082            4420     61.6822E-03     61.3172E-03
            4082            4421     67.0426E-03     66.0885E-03
            4082            4454     70.4068E-03     70.3086E-03
            4082            4455     74.1462E-03     73.4346E-03
            4083            4421     67.0426E-03     66.0885E-03
            4083            4422     68.1829E-03     70.8512E-03
            4083            4455     74.1462E-03     73.4346E-03
            4083            4456     74.0428E-03     78.7669E-03
            4084            4422     68.1829E-03     70.8512E-03
            4084            4423     73.4291E-03     73.7484E-03
            4084            4456     74.0428E-03     78.7669E-03
            4084            4457     80.8649E-03     82.9253E-03
            4085            4423     73.4291E-03     73.7484E-03
            4085            4424     79.2280E-03     79.1324E-03
            4085            4457     80.8649E-03     82.9253E-03
            4085            4458     87.8036E-03     91.0017E-03
            4086            4424     79.2280E-03     79.1324E-03
            4086            4425     85.0606E-03     83.2852E-03
            4086            4458     87.8036E-03     91.0017E-03
            4086            4459     96.0839E-03     96.3996E-03
            4087            4425     85.0606E-03     83.2852E-03
            4087            4426     88.3180E-03     93.9487E-03
            4087            4459     96.0839E-03     96.3996E-03
            4087            4460     99.7906E-03     110.583E-03
            4088            4426     88.3180E-03     93.9487E-03
            4088            4427     104.684E-03     95.7178E-03
            4088            4460     99.7906E-03     110.583E-03
            4088            4461     121.500E-03     113.872E-03
            4089            4427     104.684E-03     95.7178E-03
            4089            4428     104.791E-03     101.559E-03
            4089            4461     121.500E-03     113.872E-03
            4089            4462     123.878E-03     122.705E-03
            4090            4428     104.791E-03     101.559E-03
            4090            4429     87.8385E-03     107.998E-03
            4090            4462     123.878E-03     122.705E-03
            4090            4463     103.869E-03     133.205E-03
            4091            4429     87.8385E-03     107.998E-03
            4091            4430     99.7230E-03     98.2386E-03
            4091            4463     103.869E-03     133.205E-03
            4091            4464     118.736E-03     118.141E-03
            4092            4430     99.7230E-03     98.2386E-03
            4092            4431     107.049E-03     103.295E-03
            4092            4464     118.736E-03     118.141E-03
            4092            4465     123.122E-03     120.182E-03
            4093            4431     107.049E-03     103.295E-03
            4093            4432     104.559E-03     109.327E-03
            4093            4465     123.122E-03     120.182E-03
            4093            4466     117.787E-03     126.518E-03
            4094            4432     104.559E-03     109.327E-03
            4094            4433     110.705E-03     110.642E-03
            4094            4466     117.787E-03     126.518E-03
            4094            4467     125.793E-03     128.605E-03
            4095            4433     110.705E-03     110.642E-03
            4095            4434     116.933E-03     116.756E-03
            4095            4467     125.793E-03     128.605E-03
            4095            4468     132.816E-03     137.788E-03
            4096            4434     116.933E-03     116.756E-03
            4096            4435     123.219E-03     120.905E-03
            4096            4468     132.816E-03     137.788E-03
            4096            4469     141.819E-03     142.789E-03
            4097            4435     123.219E-03     120.905E-03
            4097            4436     126.251E-03     134.126E-03
            4097            4469     141.819E-03     142.789E-03
            4097            4470     144.922E-03     160.003E-03
            4098            4436     126.251E-03     134.126E-03
            4098            4437     147.379E-03     135.235E-03
            4098            4470     144.922E-03     160.003E-03
            4098            4471     172.943E-03     162.803E-03
            4099            4437     147.379E-03     135.235E-03
            4099            4438     146.099E-03     141.637E-03
            4099            4471     172.943E-03     162.803E-03
            4099            4472     175.060E-03     173.381E-03
            4100             751     125.900E-03     143.740E-03
            4100             752     150.187E-03     175.350E-03
            4100            4438     146.099E-03     141.637E-03
            4100            4472     175.060E-03     173.381E-03
            4101             199     8.11803E-03     7.86139E-03
            4101             200     5.31735E-03     6.47180E-03
            4101            4439     15.3666E-03     16.8982E-03
            4101            4473     9.31916E-03     12.6400E-03
            4102            4439     15.3666E-03     16.8982E-03
            4102            4440     19.4077E-03     18.0132E-03
            4102            4473     9.31916E-03     12.6400E-03
            4102            4474     16.0178E-03     14.0629E-03
            4103            4440     19.4077E-03     18.0132E-03
            4103            4441     21.1765E-03     21.2452E-03
            4103            4474     16.0178E-03     14.0629E-03
            4103            4475     21.9879E-03     22.0864E-03
            4104            4441     21.1765E-03     21.2452E-03
            4104            4442     20.3435E-03     23.9521E-03
            4104            4475     21.9879E-03     22.0864E-03
            4104            4476     17.5675E-03     21.0303E-03
            4105            4442     20.3435E-03     23.9521E-03
            4105            4443     22.8676E-03     23.7195E-03
            4105            4476     17.5675E-03     21.0303E-03
            4105            4477     15.5024E-03     15.1079E-03
            4106            4443     22.8676E-03     23.7195E-03
            4106            4444     25.0289E-03     26.3846E-03
            4106            4477     15.5024E-03     15.1079E-03
            4106            4478     20.0946E-03     20.5866E-03
            4107            4444     25.0289E-03     26.3846E-03
            4107            4445     28.9289E-03     29.9285E-03
            4107            4478     20.0946E-03     20.5866E-03
            4107            4479     27.1445E-03     27.4127E-03
            4108            4445     28.9289E-03     29.9285E-03
            4108            4446     34.3996E-03     34.9252E-03
            4108            4479     27.1445E-03     27.4127E-03
            4108            4480     34.6258E-03     35.1570E-03
            4109            4446     34.3996E-03     34.9252E-03
            4109            4447     39.6353E-03     41.3975E-03
            4109            4480     34.6258E-03     35.1570E-03
            4109            4481     42.0367E-03     43.0619E-03
            4110            4447     39.6353E-03     41.3975E-03
            4110            4448     46.6968E-03     48.1030E-03
            4110            4481     42.0367E-03     43.0619E-03
            4110            4482     49.9742E-03     51.3956E-03
            4111            4448     46.6968E-03     48.1030E-03
            4111            4449     54.1115E-03     53.9058E-03
            4111            4482     49.9742E-03     51.3956E-03
            4111            4483     59.0179E-03     58.2552E-03
            4112            4449     54.1115E-03     53.9058E-03
            4112            4450     58.2594E-03     65.0428E-03
            4112            4483     59.0179E-03     58.2552E-03
            4112            4484     64.4649E-03     70.1587E-03
            4113            4450     58.2594E-03     65.0428E-03
            4113            4451     73.8064E-03     68.6671E-03
            4113            4484     64.4649E-03     70.1587E-03
            4113            4485     80.6106E-03     76.5239E-03
            4114            4451     73.8064E-03     68.6671E-03
            4114            4452     76.2461E-03     75.6191E-03
            4114            4485     80.6106E-03     76.5239E-03
            4114            4486     87.5245E-03     86.4713E-03
            4115            4452     76.2461E-03     75.6191E-03
            4115            4453     63.1140E-03     80.3333E-03
            4115            4486     87.5245E-03     86.4713E-03
            4115            4487     71.4208E-03     85.0640E-03
            4116            4453     63.1140E-03     80.3333E-03
            4116            4454     70.4068E-03     70.3086E-03
            4116            4487     71.4208E-03     85.0640E-03
            4116            4488     71.2783E-03     69.1325E-03
            4117            4454     70.4068E-03     70.3086E-03
            4117            4455     74.1462E-03     73.4346E-03
            4117            4488     71.2783E-03     69.1325E-03
            4117            4489     76.2193E-03     74.6550E-03
            4118            4455     74.1462E-03     73.4346E-03
            4118            4456     74.0428E-03     78.7669E-03
            4118            4489     76.2193E-03     74.6550E-03
            4118            4490     79.6360E-03     83.1925E-03
            4119            4456     74.0428E-03     78.7669E-03
            4119            4457     80.8649E-03     82.9253E-03
            4119            4490     79.6360E-03     83.1925E-03
            4119            4491     88.8431E-03     89.8368E-03
            4120            4457     80.8649E-03     82.9253E-03
            4120            4458     87.8036E-03     91.0017E-03
            4120            4491     88.8431E-03     89.8368E-03
            4120            4492     96.7522E-03     99.7122E-03
            4121            4458     87.8036E-03     91.0017E-03
            4121            4459     96.0839E-03     96.3996E-03
            4121            4492     96.7522E-03     99.7122E-03
            4121            4493     106.981E-03     106.287E-03
            4122            4459     96.0839E-03     96.3996E-03
            4122            4460     99.7906E-03     110.583E-03
            4122            4493     106.981E-03     106.287E-03
            4122            4494     111.835E-03     120.798E-03
            4123            4460     99.7906E-03     110.583E-03
            4123            4461     121.500E-03     113.872E-03
            4123            4494     111.835E-03     120.798E-03
            4123            4495     133.232E-03     127.079E-03
            4124            4461     121.500E-03     113.872E-03
            4124            4462     123.878E-03     122.705E-03
            4124            4495     133.232E-03     127.079E-03
            4124            4496     141.417E-03     139.253E-03
            4125            4462     123.878E-03     122.705E-03
            4125            4463     103.869E-03     133.205E-03
            4125            4496     141.417E-03     139.253E-03
            4125            4497     119.871E-03     143.113E-03
            4126            4463     103.869E-03     133.205E-03
            4126            4464     118.736E-03     118.141E-03
            4126            4497     119.871E-03     143.113E-03
            4126            4498     125.298E-03     121.954E-03
            4127            4464     118.736E-03     118.141E-03
            4127            4465     123.122E-03     120.182E-03
            4127            4498     125.298E-03     121.954E-03
            4127            4499     129.749E-03     126.202E-03
            4128            4465     123.122E-03     120.182E-03
            4128            4466     117.787E-03     126.518E-03
            4128            4499     129.749E-03     126.202E-03
            4128            4500     128.997E-03     135.776E-03
            4129            4466     117.787E-03     126.518E-03
            4129            4467     125.793E-03     128.605E-03
            4129            4500     128.997E-03     135.776E-03
            4129            4501     139.708E-03     140.844E-03
            4130            4467     125.793E-03     128.605E-03
            4130            4468     132.816E-03     137.788E-03
            4130            4501     139.708E-03     140.844E-03
            4130            4502     147.450E-03     151.992E-03
            4131            4468     132.816E-03     137.788E-03
            4131            4469     141.819E-03     142.789E-03
            4131            4502     147.450E-03     151.992E-03
            4131            4503     158.701E-03     158.068E-03
            4132            4469     141.819E-03     142.789E-03
            4132            4470     144.922E-03     160.003E-03
            4132            4503     158.701E-03     158.068E-03
            4132            4504     162.722E-03     175.139E-03
            4133            4470     144.922E-03     160.003E-03
            4133            4471     172.943E-03     162.803E-03
            4133            4504     162.722E-03     175.139E-03
            4133            4505     189.436E-03     181.119E-03
            4134            4471     172.943E-03     162.803E-03
            4134            4472     175.060E-03     173.381E-03
            4134            4505     189.436E-03     181.119E-03
            4134            4506     198.754E-03     195.408E-03
            4135             752     150.187E-03     175.350E-03
            4135             753     172.895E-03     194.369E-03
            4135            4472     175.060E-03     173.381E-03
            4135            4506     198.754E-03     195.408E-03
            4136              13     3.42577E-03     6.13065E-03
            4136             200     5.31735E-03     6.47180E-03
            4136             787     5.83832E-03     10.2411E-03
            4136            4473     9.31916E-03     12.6400E-03
            4137             786     13.2371E-03     12.3797E-03
            4137             787     5.83832E-03     10.2411E-03
            4137            4473     9.31916E-03     12.6400E-03
            4137            4474     16.0178E-03     14.0629E-03
            4138             785     22.7449E-03     23.5896E-03
            4138             786     13.2371E-03     12.3797E-03
            4138            4474     16.0178E-03     14.0629E-03
            4138            4475     21.9879E-03     22.0864E-03
            4139             784     18.0018E-03     20.2545E-03
            4139             785     22.7449E-03     23.5896E-03
            4139            4475     21.9879E-03     22.0864E-03
            4139            4476     17.5675E-03     21.0303E-03
            4140             783     14.0288E-03     13.2089E-03
            4140             784     18.0018E-03     20.2545E-03
            4140            4476     17.5675E-03     21.0303E-03
            4140            4477     15.5024E-03     15.1079E-03
            4141             782     21.8969E-03     21.7786E-03
            4141             783     14.0288E-03     13.2089E-03
            4141            4477     15.5024E-03     15.1079E-03
            4141            4478     20.0946E-03     20.5866E-03
            4142             781     30.5325E-03     30.0050E-03
            4142             782     21.8969E-03     21.7786E-03
            4142            4478     20.0946E-03     20.5866E-03
            4142            4479     27.1445E-03     27.4127E-03
            4143             780     38.0080E-03     38.0065E-03
            4143             781     30.5325E-03     30.0050E-03
            4143            4479     27.1445E-03     27.4127E-03
            4143            4480     34.6258E-03     35.1570E-03
            4144             779     45.6272E-03     45.4284E-03
            4144             780     38.0080E-03     38.0065E-03
            4144            4480     34.6258E-03     35.1570E-03
            4144            4481     42.0367E-03     43.0619E-03
            4145             778     52.6602E-03     53.1968E-03
            4145             779     45.6272E-03     45.4284E-03
            4145            4481     42.0367E-03     43.0619E-03
            4145            4482     49.9742E-03     51.3956E-03
            4146             777     60.7343E-03     59.9504E-03
            4146             778     52.6602E-03     53.1968E-03
            4146            4482     49.9742E-03     51.3956E-03
            4146            4483     59.0179E-03     58.2552E-03
            4147             776     67.0496E-03     69.4643E-03
            4147             777     60.7343E-03     59.9504E-03
            4147            4483     59.0179E-03     58.2552E-03
            4147            4484     64.4649E-03     70.1587E-03
            4148             775     78.4739E-03     76.2573E-03
            4148             776     67.0496E-03     69.4643E-03
            4148            4484     64.4649E-03     70.1587E-03
            4148            4485     80.6106E-03     76.5239E-03
            4149             774     87.2798E-03     87.0328E-03
            4149             775     78.4739E-03     76.2573E-03
            4149            4485     80.6106E-03     76.5239E-03
            4149            4486     87.5245E-03     86.4713E-03
            4150             773     74.6681E-03     80.0930E-03
            4150             774     87.2798E-03     87.0328E-03
            4150            4486     87.5245E-03     86.4713E-03
            4150            4487     71.4208E-03     85.0640E-03
            4151             772     68.9657E-03     65.7951E-03
            4151             773     74.6681E-03     80.0930E-03
            4151            4487     71.4208E-03     85.0640E-03
            4151            4488     71.2783E-03     69.1325E-03
            4152             771     77.7564E-03     76.0512E-03
            4152             772     68.9657E-03     65.7951E-03
            4152            4488     71.2783E-03     69.1325E-03
            4152            4489     76.2193E-03     74.6550E-03
            4153             770     85.4644E-03     86.1745E-03
            4153             771     77.7564E-03     76.0512E-03
            4153            4489     76.2193E-03     74.6550E-03
            4153            4490     79.6360E-03     83.1925E-03
            4154             769     94.4427E-03     93.9640E-03
            4154             770     85.4644E-03     86.1745E-03
            4154            4490     79.6360E-03     83.1925E-03
            4154            4491     88.8431E-03     89.8368E-03
            4155             768     102.112E-03     102.993E-03
            4155             769     94.4427E-03     93.9640E-03
            4155            4491     88.8431E-03     89.8368E-03
            4155            4492     96.7522E-03     99.7122E-03
            4156             767     111.129E-03     109.953E-03
            4156             768     102.112E-03     102.993E-03
            4156            4492     96.7522E-03     99.7122E-03
            4156            4493     106.981E-03     106.287E-03
            4157             766     117.477E-03     120.943E-03
            4157             767     111.129E-03     109.953E-03
            4157            4493     106.981E-03     106.287E-03
            4157            4494     111.835E-03     120.798E-03
            4158             765     131.135E-03     127.519E-03
            4158             766     117.477E-03     120.943E-03
            4158            4494     111.835E-03     120.798E-03
            4158            4495     133.232E-03     127.079E-03
            4159             764     140.931E-03     139.467E-03
            4159             765     131.135E-03     127.519E-03
            4159            4495     133.232E-03     127.079E-03
            4159            4496     141.417E-03     139.253E-03
            4160             763     125.987E-03     135.087E-03
            4160             764     140.931E-03     139.467E-03
            4160            4496     141.417E-03     139.253E-03
            4160            4497     119.871E-03     143.113E-03
            4161             762     122.318E-03     117.806E-03
            4161             763     125.987E-03     135.087E-03
            4161            4497     119.871E-03     143.113E-03
            4161            4498     125.298E-03     121.954E-03
            4162             761     131.190E-03     128.094E-03
            4162             762     122.318E-03     117.806E-03
            4162            4498     125.298E-03     121.954E-03
            4162            4499     129.749E-03     126.202E-03
            4163             760     137.752E-03     139.511E-03
            4163             761     131.190E-03     128.094E-03
            4163            4499     129.749E-03     126.202E-03
            4163            4500     128.997E-03     135.776E-03
            4164             759     147.744E-03     146.873E-03
            4164             760     137.752E-03     139.511E-03
            4164            4500     128.997E-03     135.776E-03
            4164            4501     139.708E-03     140.844E-03
            4165             758     155.464E-03     156.828E-03
            4165             759     147.744E-03     146.873E-03
            4165            4501     139.708E-03     140.844E-03
            4165            4502     147.450E-03     151.992E-03
            4166             757     165.240E-03     163.637E-03
            4166             758     155.464E-03     156.828E-03
            4166            4502     147.450E-03     151.992E-03
            4166            4503     158.701E-03     158.068E-03
            4167             756     171.309E-03     175.951E-03
            4167             757     165.240E-03     163.637E-03
            4167            4503     158.701E-03     158.068E-03
            4167            4504     162.722E-03     175.139E-03
            4168             755     187.111E-03     182.040E-03
            4168             756     171.309E-03     175.951E-03
            4168            4504     162.722E-03     175.139E-03
            4168            4505     189.436E-03     181.119E-03
            4169             754     197.693E-03     195.001E-03
            4169             755     187.111E-03     182.040E-03
            4169            4505     189.436E-03     181.119E-03
            4169            4506     198.754E-03     195.408E-03
            4170              34     181.409E-03     192.624E-03
            4170             753     172.895E-03     194.369E-03
            4170             754     197.693E-03     195.001E-03
            4170            4506     198.754E-03     195.408E-03
            4171              34     181.409E-03     192.624E-03
            4171             754     197.693E-03     195.001E-03
            4171             788     166.482E-03     172.023E-03
            4171            4507     171.837E-03     174.623E-03
            4172              35     149.949E-03     153.349E-03
            4172             788     166.482E-03     172.023E-03
            4172             789     148.591E-03     152.473E-03
            4172            4507     171.837E-03     174.623E-03
            4173             754     197.693E-03     195.001E-03
            4173             755     187.111E-03     182.040E-03
            4173            4507     171.837E-03     174.623E-03
            4173            4508     171.284E-03     172.055E-03
            4174             789     148.591E-03     152.473E-03
            4174             790     153.984E-03     156.492E-03
            4174            4507     171.837E-03     174.623E-03
            4174            4508     171.284E-03     172.055E-03
            4175             755     187.111E-03     182.040E-03
            4175             756     171.309E-03     175.951E-03
            4175            4508     171.284E-03     172.055E-03
            4175            4509     164.911E-03     167.849E-03
            4176             790     153.984E-03     156.492E-03
            4176             791     153.244E-03     155.940E-03
            4176            4508     171.284E-03     172.055E-03
            4176            4509     164.911E-03     167.849E-03
            4177             756     171.309E-03     175.951E-03
            4177             757     165.240E-03     163.637E-03
            4177            4509     164.911E-03     167.849E-03
            4177            4510     159.083E-03     161.012E-03
            4178             791     153.244E-03     155.940E-03
            4178             792     149.485E-03     152.626E-03
            4178            4509     164.911E-03     167.849E-03
            4178            4510     159.083E-03     161.012E-03
            4179             757     165.240E-03     163.637E-03
            4179             758     155.464E-03     156.828E-03
            4179            4510     159.083E-03     161.012E-03
            4179            4511     152.356E-03     154.594E-03
            4180             792     149.485E-03     152.626E-03
            4180             793     145.188E-03     147.878E-03
            4180            4510     159.083E-03     161.012E-03
            4180            4511     152.356E-03     154.594E-03
            4181             758     155.464E-03     156.828E-03
            4181             759     147.744E-03     146.873E-03
            4181            4511     152.356E-03     154.594E-03
            4181            4512     145.773E-03     147.483E-03
            4182             793     145.188E-03     147.878E-03
            4182             794     139.878E-03     142.664E-03
            4182            4511     152.356E-03     154.594E-03
            4182            4512     145.773E-03     147.483E-03
            4183             759     147.744E-03     146.873E-03
            4183             760     137.752E-03     139.511E-03
            4183            4512     145.773E-03     147.483E-03
            4183            4513     138.198E-03     140.049E-03
            4184             794     139.878E-03     142.664E-03
            4184             795     134.071E-03     136.283E-03
            4184            4512     145.773E-03     147.483E-03
            4184            4513     138.198E-03     140.049E-03
            4185             760     137.752E-03     139.511E-03
            4185             761     131.190E-03     128.094E-03
            4185            4513     138.198E-03     140.049E-03
            4185            4514     129.873E-03     130.549E-03
            4186             795     134.071E-03     136.283E-03
            4186             796     127.546E-03     128.526E-03
            4186            4513     138.198E-03     140.049E-03
            4186            4514     129.873E-03     130.549E-03
            4187             761     131.190E-03     128.094E-03
            4187             762     122.318E-03     117.806E-03
            4187            4514     129.873E-03     130.549E-03
            4187            4515     120.849E-03     118.732E-03
            4188             796     127.546E-03     128.526E-03
            4188             797     120.629E-03     118.767E-03
            4188            4514     129.873E-03     130.549E-03
            4188            4515     120.849E-03     118.732E-03
            4189             762     122.318E-03     117.806E-03
            4189             763     125.987E-03     135.087E-03
            4189            4515     120.849E-03     118.732E-03
            4189            4516     117.074E-03     119.114E-03
            4190             797     120.629E-03     118.767E-03
            4190             798     107.975E-03     108.039E-03
            4190            4515     120.849E-03     118.732E-03
            4190            4516     117.074E-03     119.114E-03
            4191             763     125.987E-03     135.087E-03
            4191             764     140.931E-03     139.467E-03
            4191            4516     117.074E-03     119.114E-03
            4191            4517     120.325E-03     122.883E-03
            4192             798     107.975E-03     108.039E-03
            4192             799     101.613E-03     104.980E-03
            4192            4516     117.074E-03     119.114E-03
            4192            4517     120.325E-03     122.883E-03
            4193             764     140.931E-03     139.467E-03
            4193             765     131.135E-03     127.519E-03
            4193            4517     120.325E-03     122.883E-03
            4193            4518     118.553E-03     119.044E-03
            4194             799     101.613E-03     104.980E-03
            4194             800     104.945E-03     106.793E-03
            4194            4517     120.325E-03     122.883E-03
            4194            4518     118.553E-03     119.044E-03
            4195             765     131.135E-03     127.519E-03
            4195             766     117.477E-03     120.943E-03
            4195            4518     118.553E-03     119.044E-03
            4195            4519     112.169E-03     114.239E-03
            4196             800     104.945E-03     106.793E-03
            4196             801     103.323E-03     105.169E-03
            4196            4518     118.553E-03     119.044E-03
            4196            4519     112.169E-03     114.239E-03
            4197             766     117.477E-03     120.943E-03
            4197             767     111.129E-03     109.953E-03
            4197            4519     112.169E-03     114.239E-03
            4197            4520     106.349E-03     107.628E-03
            4198             801     103.323E-03     105.169E-03
            4198             802     99.3956E-03     101.518E-03
            4198            4519     112.169E-03     114.239E-03
            4198            4520     106.349E-03     107.628E-03
            4199             767     111.129E-03     109.953E-03
            4199             768     102.112E-03     102.993E-03
            4199            4520     106.349E-03     107.628E-03
            4199            4521     99.9499E-03     101.397E-03
            4200             802     99.3956E-03     101.518E-03
            4200             803     95.1354E-03     96.9109E-03
            4200            4520     106.349E-03     107.628E-03
            4200            4521     99.9499E-03     101.397E-03
            4201             768     102.112E-03     102.993E-03
            4201             769     94.4427E-03     93.9640E-03
            4201            4521     99.9499E-03     101.397E-03
            4201            4522     93.6491E-03     94.7170E-03
            4202             803     95.1354E-03     96.9109E-03
            4202             804     90.2182E-03     92.0055E-03
            4202            4521     99.9499E-03     101.397E-03
            4202            4522     93.6491E-03     94.7170E-03
            4203             769     94.4427E-03     93.9640E-03
            4203             770     85.4644E-03     86.1745E-03
            4203            4522     93.6491E-03     94.7170E-03
            4203            4523     86.6812E-03     87.7093E-03
            4204             804     90.2182E-03     92.0055E-03
            4204             805     85.0153E-03     86.4060E-03
            4204            4522     93.6491E-03     94.7170E-03
            4204            4523     86.6812E-03     87.7093E-03
            4205             770     85.4644E-03     86.1745E-03
            4205             771     77.7564E-03     76.0512E-03
            4205            4523     86.6812E-03     87.7093E-03
            4205            4524     79.0560E-03     79.4468E-03
            4206             805     85.0153E-03     86.4060E-03
            4206             806     79.7125E-03     80.1066E-03
            4206            4523     86.6812E-03     87.7093E-03
            4206            4524     79.0560E-03     79.4468E-03
            4207             771     77.7564E-03     76.0512E-03
            4207             772     68.9657E-03     65.7951E-03
            4207            4524     79.0560E-03     79.4468E-03
            4207            4525     71.6881E-03     69.5792E-03
            4208             806     79.7125E-03     80.1066E-03
            4208             807     74.9233E-03     72.8082E-03
            4208            4524     79.0560E-03     79.4468E-03
            4208            4525     71.6881E-03     69.5792E-03
            4209             772     68.9657E-03     65.7951E-03
            4209             773     74.6681E-03     80.0930E-03
            4209            4525     71.6881E-03     69.5792E-03
            4209            4526     69.3030E-03     70.5639E-03
            4210             807     74.9233E-03     72.8082E-03
            4210             808     63.7381E-03     63.7189E-03
            4210            4525     71.6881E-03     69.5792E-03
            4210            4526     69.3030E-03     70.5639E-03
            4211             773     74.6681E-03     80.0930E-03
            4211             774     87.2798E-03     87.0328E-03
            4211            4526     69.3030E-03     70.5639E-03
            4211            4527     71.2993E-03     73.6647E-03
            4212             808     63.7381E-03     63.7189E-03
            4212             809     56.4517E-03     59.2973E-03
            4212            4526     69.3030E-03     70.5639E-03
            4212            4527     71.2993E-03     73.6647E-03
            4213             774     87.2798E-03     87.0328E-03
            4213             775     78.4739E-03     76.2573E-03
            4213            4527     71.2993E-03     73.6647E-03
            4213            4528     68.5203E-03     68.7151E-03
            4214             809     56.4517E-03     59.2973E-03
            4214             810     57.8699E-03     59.0267E-03
            4214            4527     71.2993E-03     73.6647E-03
            4214            4528     68.5203E-03     68.7151E-03
            4215             775     78.4739E-03     76.2573E-03
            4215             776     67.0496E-03     69.4643E-03
            4215            4528     68.5203E-03     68.7151E-03
            4215            4529     62.2359E-03     63.4631E-03
            4216             810     57.8699E-03     59.0267E-03
            4216             811     55.3937E-03     56.3716E-03
            4216            4528     68.5203E-03     68.7151E-03
            4216            4529     62.2359E-03     63.4631E-03
            4217             776     67.0496E-03     69.4643E-03
            4217             777     60.7343E-03     59.9504E-03
            4217            4529     62.2359E-03     63.4631E-03
            4217            4530     56.5644E-03     57.2019E-03
            4218             811     55.3937E-03     56.3716E-03
            4218             812     51.2966E-03     52.4016E-03
            4218            4529     62.2359E-03     63.4631E-03
            4218            4530     56.5644E-03     57.2019E-03
            4219             777     60.7343E-03     59.9504E-03
            4219             778     52.6602E-03     53.1968E-03
            4219            4530     56.5644E-03     57.2019E-03
            4219            4531     50.6630E-03     51.3450E-03
            4220             812     51.2966E-03     52.4016E-03
            4220             813     47.1222E-03     47.9529E-03
            4220            4530     56.5644E-03     57.2019E-03
            4220            4531     50.6630E-03     51.3450E-03
            4221             778     52.6602E-03     53.1968E-03
            4221             779     45.6272E-03     45.4284E-03
            4221            4531     50.6630E-03     51.3450E-03
            4221            4532     44.9358E-03     45.3386E-03
            4222             813     47.1222E-03     47.9529E-03
            4222             814     42.6111E-03     43.4400E-03
            4222            4531     50.6630E-03     51.3450E-03
            4222            4532     44.9358E-03     45.3386E-03
            4223             779     45.6272E-03     45.4284E-03
            4223             780     38.0080E-03     38.0065E-03
            4223            4532     44.9358E-03     45.3386E-03
            4223            4533     38.9366E-03     39.2461E-03
            4224             814     42.6111E-03     43.4400E-03
            4224             815     38.1100E-03     38.7272E-03
            4224            4532     44.9358E-03     45.3386E-03
            4224            4533     38.9366E-03     39.2461E-03
            4225             780     38.0080E-03     38.0065E-03
            4225             781     30.5325E-03     30.0050E-03
            4225            4533     38.9366E-03     39.2461E-03
            4225            4534     32.7813E-03     32.8132E-03
            4226             815     38.1100E-03     38.7272E-03
            4226             816     33.4288E-03     33.9510E-03
            4226            4533     38.9366E-03     39.2461E-03
            4226            4534     32.7813E-03     32.8132E-03
            4227             781     30.5325E-03     30.0050E-03
            4227             782     21.8969E-03     21.7786E-03
            4227            4534     32.7813E-03     32.8132E-03
            4227            4535     26.2587E-03     26.1450E-03
            4228             816     33.4288E-03     33.9510E-03
            4228             817     29.4647E-03     29.1697E-03
            4228            4534     32.7813E-03     32.8132E-03
            4228            4535     26.2587E-03     26.1450E-03
            4229             782     21.8969E-03     21.7786E-03
            4229             783     14.0288E-03     13.2089E-03
            4229            4535     26.2587E-03     26.1450E-03
            4229            4536     20.9721E-03     19.4423E-03
            4230             817     29.4647E-03     29.1697E-03
            4230             818     26.8393E-03     24.4410E-03
            4230            4535     26.2587E-03     26.1450E-03
            4230            4536     20.9721E-03     19.4423E-03
            4231             783     14.0288E-03     13.2089E-03
            4231             784     18.0018E-03     20.2545E-03
            4231            4536     20.9721E-03     19.4423E-03
            4231            4537     19.0723E-03     19.7529E-03
            4232             818     26.8393E-03     24.4410E-03
            4232             819     20.1280E-03     19.7029E-03
            4232            4536     20.9721E-03     19.4423E-03
            4232            4537     19.0723E-03     19.7529E-03
            4233             784     18.0018E-03     20.2545E-03
            4233             785     22.7449E-03     23.5896E-03
            4233            4537     19.0723E-03     19.7529E-03
            4233            4538     17.8513E-03     19.6670E-03
            4234             819     20.1280E-03     19.7029E-03
            4234             820     15.5081E-03     17.4884E-03
            4234            4537     19.0723E-03     19.7529E-03
            4234            4538     17.8513E-03     19.6670E-03
            4235             785     22.7449E-03     23.5896E-03
            4235             786     13.2371E-03     12.3797E-03
            4235            4538     17.8513E-03     19.6670E-03
            4235            4539     12.8920E-03     13.2464E-03
            4236             820     15.5081E-03     17.4884E-03
            4236             821     16.5598E-03     16.7717E-03
            4236            4538     17.8513E-03     19.6670E-03
            4236            4539     12.8920E-03     13.2464E-03
            4237             786     13.2371E-03     12.3797E-03
            4237             787     5.83832E-03     10.2411E-03
            4237            4539     12.8920E-03     13.2464E-03
            4237            4540     8.94790E-03     10.1932E-03
            4238             821     16.5598E-03     16.7717E-03
            4238             822     15.6221E-03     14.0347E-03
            4238            4539     12.8920E-03     13.2464E-03
            4238            4540     8.94790E-03     10.1932E-03
            4239              13     3.42577E-03     6.13065E-03
            4239             787     5.83832E-03     10.2411E-03
            4239             823     4.77812E-03     5.36179E-03
            4239            4540     8.94790E-03     10.1932E-03
            4240              36     7.63258E-03     6.40903E-03
            4240             822     15.6221E-03     14.0347E-03
            4240             823     4.77812E-03     5.36179E-03
            4240            4540     8.94790E-03     10.1932E-03
            4241              22     75.2394E-03     85.8800E-03
            4241             407     32.5348E-03     49.6707E-03
            4241             602     99.7164E-03     113.736E-03
            4241            4541     44.5244E-03     56.2011E-03
            4242             406     25.6828E-03     27.3169E-03
            4242             407     32.5348E-03     49.6707E-03
            4242            4541     44.5244E-03     56.2011E-03
            4242            4542     41.8345E-03     36.5038E-03
            4243             405     23.4508E-03     19.8775E-03
            4243             406     25.6828E-03     27.3169E-03
            4243            4542     41.8345E-03     36.5038E-03
            4243            4543     36.3518E-03     37.9407E-03
            4244             404     27.8210E-03     15.6845E-03
            4244             405     23.4508E-03     19.8775E-03
            4244            4543     36.3518E-03     37.9407E-03
            4244            4544     35.3190E-03     35.4289E-03
            4245             403     36.0325E-03     15.8466E-03
            4245             404     27.8210E-03     15.6845E-03
            4245            4544     35.3190E-03     35.4289E-03
            4245            4545     33.3926E-03     35.0653E-03
            4246             402     45.1594E-03     20.3292E-03
            4246             403     36.0325E-03     15.8466E-03
            4246            4545     33.3926E-03     35.0653E-03
            4246            4546     35.8736E-03     38.7959E-03
            4247             401     54.2559E-03     29.5768E-03
            4247             402     45.1594E-03     20.3292E-03
            4247            4546     35.8736E-03     38.7959E-03
            4247            4547     44.1739E-03     47.3652E-03
            4248             400     63.3901E-03     40.2275E-03
            4248             401     54.2559E-03     29.5768E-03
            4248            4547     44.1739E-03     47.3652E-03
            4248            4548     54.4107E-03     57.3443E-03
            4249             399     72.5007E-03     51.0645E-03
            4249             400     63.3901E-03     40.2275E-03
            4249            4548     54.4107E-03     57.3443E-03
            4249            4549     64.6853E-03     67.5273E-03
            4250             398     81.6147E-03     61.9313E-03
            4250             399     72.5007E-03     51.0645E-03
            4250            4549     64.6853E-03     67.5273E-03
            4250            4550     74.9818E-03     77.7583E-03
            4251             397     90.6875E-03     72.8172E-03
            4251             398     81.6147E-03     61.9313E-03
            4251            4550     74.9818E-03     77.7583E-03
            4251            4551     85.2631E-03     88.0342E-03
            4252             396     99.7747E-03     83.6553E-03
            4252             397     90.6875E-03     72.8172E-03
            4252            4551     85.2631E-03     88.0342E-03
            4252            4552     95.5858E-03     98.2849E-03
            4253             395     108.791E-03     94.5146E-03
            4253             396     99.7747E-03     83.6553E-03
            4253            4552     95.5858E-03     98.2849E-03
            4253            4553     105.840E-03     108.616E-03
            4254             394     117.899E-03     105.272E-03
            4254             395     108.791E-03     94.5146E-03
            4254            4553     105.840E-03     108.616E-03
            4254            4554     116.220E-03     118.832E-03
            4255             393     126.910E-03     116.145E-03
            4255             394     117.899E-03     105.272E-03
            4255            4554     116.220E-03     118.832E-03
            4255            4555     126.412E-03     129.251E-03
            4256             392     136.233E-03     126.921E-03
            4256             393     126.910E-03     116.145E-03
            4256            4555     126.412E-03     129.251E-03
            4256            4556     136.897E-03     139.399E-03
            4257             391     145.559E-03     138.140E-03
            4257             392     136.233E-03     126.921E-03
            4257            4556     136.897E-03     139.399E-03
            4257            4557     147.026E-03     149.922E-03
            4258             390     155.624E-03     149.650E-03
            4258             391     145.559E-03     138.140E-03
            4258            4557     147.026E-03     149.922E-03
            4258            4558     157.516E-03     160.040E-03
            4259              21     166.854E-03     162.955E-03
            4259             390     155.624E-03     149.650E-03
            4259             748     167.745E-03     170.326E-03
            4259            4558     157.516E-03     160.040E-03
            4260             602     99.7164E-03     113.736E-03
            4260             603     103.375E-03     120.670E-03
            4260            4541     44.5244E-03     56.2011E-03
            4260            4559     50.7343E-03     61.9165E-03
            4261            4541     44.5244E-03     56.2011E-03
            4261            4542     41.8345E-03     36.5038E-03
            4261            4559     50.7343E-03     61.9165E-03
            4261            4560     44.7874E-03     33.3257E-03
            4262            4542     41.8345E-03     36.5038E-03
            4262            4543     36.3518E-03     37.9407E-03
            4262            4560     44.7874E-03     33.3257E-03
            4262            4561     42.0512E-03     34.7807E-03
            4263            4543     36.3518E-03     37.9407E-03
            4263            4544     35.3190E-03     35.4289E-03
            4263            4561     42.0512E-03     34.7807E-03
            4263            4562     41.0555E-03     40.7352E-03
            4264            4544     35.3190E-03     35.4289E-03
            4264            4545     33.3926E-03     35.0653E-03
            4264            4562     41.0555E-03     40.7352E-03
            4264            4563     39.0821E-03     48.8993E-03
            4265            4545     33.3926E-03     35.0653E-03
            4265            4546     35.8736E-03     38.7959E-03
            4265            4563     39.0821E-03     48.8993E-03
            4265            4564     41.3659E-03     57.6767E-03
            4266            4546     35.8736E-03     38.7959E-03
            4266            4547     44.1739E-03     47.3652E-03
            4266            4564     41.3659E-03     57.6767E-03
            4266            4565     49.5236E-03     66.7204E-03
            4267            4547     44.1739E-03     47.3652E-03
            4267            4548     54.4107E-03     57.3443E-03
            4267            4565     49.5236E-03     66.7204E-03
            4267            4566     59.6485E-03     75.8606E-03
            4268            4548     54.4107E-03     57.3443E-03
            4268            4549     64.6853E-03     67.5273E-03
            4268            4566     59.6485E-03     75.8606E-03
            4268            4567     69.8203E-03     85.0804E-03
            4269            4549     64.6853E-03     67.5273E-03
            4269            4550     74.9818E-03     77.7583E-03
            4269            4567     69.8203E-03     85.0804E-03
            4269            4568     80.0207E-03     94.3154E-03
            4270            4550     74.9818E-03     77.7583E-03
            4270            4551     85.2631E-03     88.0342E-03
            4270            4568     80.0207E-03     94.3154E-03
            4270            4569     90.1886E-03     103.560E-03
            4271            4551     85.2631E-03     88.0342E-03
            4271            4552     95.5858E-03     98.2849E-03
            4271            4569     90.1886E-03     103.560E-03
            4271            4570     100.366E-03     112.779E-03
            4272            4552     95.5858E-03     98.2849E-03
            4272            4553     105.840E-03     108.616E-03
            4272            4570     100.366E-03     112.779E-03
            4272            4571     110.451E-03     121.980E-03
            4273            4553     105.840E-03     108.616E-03
            4273            4554     116.220E-03     118.832E-03
            4273            4571     110.451E-03     121.980E-03
            4273            4572     120.570E-03     131.095E-03
            4274            4554     116.220E-03     118.832E-03
            4274            4555     126.412E-03     129.251E-03
            4274            4572     120.570E-03     131.095E-03
            4274            4573     130.476E-03     140.186E-03
            4275            4555     126.412E-03     129.251E-03
            4275            4556     136.897E-03     139.399E-03
            4275            4573     130.476E-03     140.186E-03
            4275            4574     140.506E-03     149.036E-03
            4276            4556     136.897E-03     139.399E-03
            4276            4557     147.026E-03     149.922E-03
            4276            4574     140.506E-03     149.036E-03
            4276            4575     150.051E-03     157.829E-03
            4277            4557     147.026E-03     149.922E-03
            4277            4558     157.516E-03     160.040E-03
            4277            4575     150.051E-03     157.829E-03
            4277            4576     159.556E-03     166.006E-03
            4278             747     167.680E-03     172.983E-03
            4278             748     167.745E-03     170.326E-03
            4278            4558     157.516E-03     160.040E-03
            4278            4576     159.556E-03     166.006E-03
            4279             603     103.375E-03     120.670E-03
            4279             604     110.341E-03     124.695E-03
            4279            4559     50.7343E-03     61.9165E-03
            4279            4577     49.2948E-03     66.3452E-03
            4280            4559     50.7343E-03     61.9165E-03
            4280            4560     44.7874E-03     33.3257E-03
            4280            4577     49.2948E-03     66.3452E-03
            4280            4578     34.7927E-03     29.9029E-03
            4281            4560     44.7874E-03     33.3257E-03
            4281            4561     42.0512E-03     34.7807E-03
            4281            4578     34.7927E-03     29.9029E-03
            4281            4579     46.1275E-03     27.0158E-03
            4282            4561     42.0512E-03     34.7807E-03
            4282            4562     41.0555E-03     40.7352E-03
            4282            4579     46.1275E-03     27.0158E-03
            4282            4580     54.7481E-03     33.0845E-03
            4283            4562     41.0555E-03     40.7352E-03
            4283            4563     39.0821E-03     48.8993E-03
            4283            4580     54.7481E-03     33.0845E-03
            4283            4581     63.1788E-03     41.7016E-03
            4284            4563     39.0821E-03     48.8993E-03
            4284            4564     41.3659E-03     57.6767E-03
            4284            4581     63.1788E-03     41.7016E-03
            4284            4582     71.5428E-03     51.0183E-03
            4285            4564     41.3659E-03     57.6767E-03
            4285            4565     49.5236E-03     66.7204E-03
            4285            4582     71.5428E-03     51.0183E-03
            4285            4583     79.9587E-03     60.6030E-03
            4286            4565     49.5236E-03     66.7204E-03
            4286            4566     59.6485E-03     75.8606E-03
            4286            4583     79.9587E-03     60.6030E-03
            4286            4584     88.4692E-03     70.3775E-03
            4287            4566     59.6485E-03     75.8606E-03
            4287            4567     69.8203E-03     85.0804E-03
            4287            4584     88.4692E-03     70.3775E-03
            4287            4585     97.0092E-03     80.2451E-03
            4288            4567     69.8203E-03     85.0804E-03
            4288            4568     80.0207E-03     94.3154E-03
            4288            4585     97.0092E-03     80.2451E-03
            4288            4586     105.567E-03     90.1471E-03
            4289            4568     80.0207E-03     94.3154E-03
            4289            4569     90.1886E-03     103.560E-03
            4289            4586     105.567E-03     90.1471E-03
            4289            4587     114.118E-03     100.070E-03
            4290            4569     90.1886E-03     103.560E-03
            4290            4570     100.366E-03     112.779E-03
            4290            4587     114.118E-03     100.070E-03
            4290            4588     122.637E-03     109.970E-03
            4291            4570     100.366E-03     112.779E-03
            4291            4571     110.451E-03     121.980E-03
            4291            4588     122.637E-03     109.970E-03
            4291            4589     131.140E-03     119.856E-03
            4292            4571     110.451E-03     121.980E-03
            4292            4572     120.570E-03     131.095E-03
            4292            4589     131.140E-03     119.856E-03
            4292            4590     139.561E-03     129.680E-03
            4293            4572     120.570E-03     131.095E-03
            4293            4573     130.476E-03     140.186E-03
            4293            4590     139.561E-03     129.680E-03
            4293            4591     147.996E-03     139.456E-03
            4294            4573     130.476E-03     140.186E-03
            4294            4574     140.506E-03     149.036E-03
            4294            4591     147.996E-03     139.456E-03
            4294            4592     156.240E-03     149.137E-03
            4295            4574     140.506E-03     149.036E-03
            4295            4575     150.051E-03     157.829E-03
            4295            4592     156.240E-03     149.137E-03
            4295            4593     164.552E-03     158.641E-03
            4296            4575     150.051E-03     157.829E-03
            4296            4576     159.556E-03     166.006E-03
            4296            4593     164.552E-03     158.641E-03
            4296            4594     172.266E-03     167.703E-03
            4297             746     178.537E-03     175.841E-03
            4297             747     167.680E-03     172.983E-03
            4297            4576     159.556E-03     166.006E-03
            4297            4594     172.266E-03     167.703E-03
            4298             604     110.341E-03     124.695E-03
            4298             605     105.414E-03     93.0083E-03
            4298            4577     49.2948E-03     66.3452E-03
            4298            4595     54.1239E-03     46.4261E-03
            4299            4577     49.2948E-03     66.3452E-03
            4299            4578     34.7927E-03     29.9029E-03
            4299            4595     54.1239E-03     46.4261E-03
            4299            4596     30.1901E-03     27.9672E-03
            4300            4578     34.7927E-03     29.9029E-03
            4300            4579     46.1275E-03     27.0158E-03
            4300            4596     30.1901E-03     27.9672E-03
            4300            4597     35.8529E-03     30.2913E-03
            4301            4579     46.1275E-03     27.0158E-03
            4301            4580     54.7481E-03     33.0845E-03
            4301            4597     35.8529E-03     30.2913E-03
            4301            4598     44.5296E-03     38.8191E-03
            4302            4580     54.7481E-03     33.0845E-03
            4302            4581     63.1788E-03     41.7016E-03
            4302            4598     44.5296E-03     38.8191E-03
            4302            4599     53.5834E-03     48.3155E-03
            4303            4581     63.1788E-03     41.7016E-03
            4303            4582     71.5428E-03     51.0183E-03
            4303            4599     53.5834E-03     48.3155E-03
            4303            4600     62.5996E-03     57.7619E-03
            4304            4582     71.5428E-03     51.0183E-03
            4304            4583     79.9587E-03     60.6030E-03
            4304            4600     62.5996E-03     57.7619E-03
            4304            4601     71.6418E-03     67.2543E-03
            4305            4583     79.9587E-03     60.6030E-03
            4305            4584     88.4692E-03     70.3775E-03
            4305            4601     71.6418E-03     67.2543E-03
            4305            4602     80.7503E-03     76.8133E-03
            4306            4584     88.4692E-03     70.3775E-03
            4306            4585     97.0092E-03     80.2451E-03
            4306            4602     80.7503E-03     76.8133E-03
            4306            4603     89.8828E-03     86.3863E-03
            4307            4585     97.0092E-03     80.2451E-03
            4307            4586     105.567E-03     90.1471E-03
            4307            4603     89.8828E-03     86.3863E-03
            4307            4604     99.0357E-03     95.9883E-03
            4308            4586     105.567E-03     90.1471E-03
            4308            4587     114.118E-03     100.070E-03
            4308            4604     99.0357E-03     95.9883E-03
            4308            4605     108.200E-03     105.603E-03
            4309            4587     114.118E-03     100.070E-03
            4309            4588     122.637E-03     109.970E-03
            4309            4605     108.200E-03     105.603E-03
            4309            4606     117.384E-03     115.238E-03
            4310            4588     122.637E-03     109.970E-03
            4310            4589     131.140E-03     119.856E-03
            4310            4606     117.384E-03     115.238E-03
            4310            4607     126.584E-03     124.896E-03
            4311            4589     131.140E-03     119.856E-03
            4311            4590     139.561E-03     129.680E-03
            4311            4607     126.584E-03     124.896E-03
            4311            4608     135.837E-03     134.597E-03
            4312            4590     139.561E-03     129.680E-03
            4312            4591     147.996E-03     139.456E-03
            4312            4608     135.837E-03     134.597E-03
            4312            4609     145.122E-03     144.381E-03
            4313            4591     147.996E-03     139.456E-03
            4313            4592     156.240E-03     149.137E-03
            4313            4609     145.122E-03     144.381E-03
            4313            4610     154.563E-03     154.308E-03
            4314            4592     156.240E-03     149.137E-03
            4314            4593     164.552E-03     158.641E-03
            4314            4610     154.563E-03     154.308E-03
            4314            4611     164.002E-03     164.439E-03
            4315            4593     164.552E-03     158.641E-03
            4315            4594     172.266E-03     167.703E-03
            4315            4611     164.002E-03     164.439E-03
            4315            4612     174.097E-03     175.058E-03
            4316             745     184.149E-03     185.566E-03
            4316             746     178.537E-03     175.841E-03
            4316            4594     172.266E-03     167.703E-03
            4316            4612     174.097E-03     175.058E-03
            4317             605     105.414E-03     93.0083E-03
            4317             606     100.615E-03     87.0137E-03
            4317            4595     54.1239E-03     46.4261E-03
            4317            4613     53.6401E-03     49.7208E-03
            4318            4595     54.1239E-03     46.4261E-03
            4318            4596     30.1901E-03     27.9672E-03
            4318            4613     53.6401E-03     49.7208E-03
            4318            4614     26.4361E-03     36.8939E-03
            4319            4596     30.1901E-03     27.9672E-03
            4319            4597     35.8529E-03     30.2913E-03
            4319            4614     26.4361E-03     36.8939E-03
            4319            4615     25.6251E-03     38.3978E-03
            4320            4597     35.8529E-03     30.2913E-03
            4320            4598     44.5296E-03     38.8191E-03
            4320            4615     25.6251E-03     38.3978E-03
            4320            4616     34.9456E-03     46.7309E-03
            4321            4598     44.5296E-03     38.8191E-03
            4321            4599     53.5834E-03     48.3155E-03
            4321            4616     34.9456E-03     46.7309E-03
            4321            4617     44.4196E-03     55.8710E-03
            4322            4599     53.5834E-03     48.3155E-03
            4322            4600     62.5996E-03     57.7619E-03
            4322            4617     44.4196E-03     55.8710E-03
            4322            4618     54.0793E-03     65.1520E-03
            4323            4600     62.5996E-03     57.7619E-03
            4323            4601     71.6418E-03     67.2543E-03
            4323            4618     54.0793E-03     65.1520E-03
            4323            4619     63.7552E-03     74.4296E-03
            4324            4601     71.6418E-03     67.2543E-03
            4324            4602     80.7503E-03     76.8133E-03
            4324            4619     63.7552E-03     74.4296E-03
            4324            4620     73.4083E-03     83.6190E-03
            4325            4602     80.7503E-03     76.8133E-03
            4325            4603     89.8828E-03     86.3863E-03
            4325            4620     73.4083E-03     83.6190E-03
            4325            4621     83.0568E-03     92.8028E-03
            4326            4603     89.8828E-03     86.3863E-03
            4326            4604     99.0357E-03     95.9883E-03
            4326            4621     83.0568E-03     92.8028E-03
            4326            4622     92.7049E-03     101.975E-03
            4327            4604     99.0357E-03     95.9883E-03
            4327            4605     108.200E-03     105.603E-03
            4327            4622     92.7049E-03     101.975E-03
            4327            4623     102.357E-03     111.151E-03
            4328            4605     108.200E-03     105.603E-03
            4328            4606     117.384E-03     115.238E-03
            4328            4623     102.357E-03     111.151E-03
            4328            4624     112.024E-03     120.344E-03
            4329            4606     117.384E-03     115.238E-03
            4329            4607     126.584E-03     124.896E-03
            4329            4624     112.024E-03     120.344E-03
            4329            4625     121.704E-03     129.547E-03
            4330            4607     126.584E-03     124.896E-03
            4330            4608     135.837E-03     134.597E-03
            4330            4625     121.704E-03     129.547E-03
            4330            4626     131.424E-03     138.796E-03
            4331            4608     135.837E-03     134.597E-03
            4331            4609     145.122E-03     144.381E-03
            4331            4626     131.424E-03     138.796E-03
            4331            4627     141.159E-03     148.096E-03
            4332            4609     145.122E-03     144.381E-03
            4332            4610     154.563E-03     154.308E-03
            4332            4627     141.159E-03     148.096E-03
            4332            4628     151.009E-03     157.518E-03
            4333            4610     154.563E-03     154.308E-03
            4333            4611     164.002E-03     164.439E-03
            4333            4628     151.009E-03     157.518E-03
            4333            4629     160.939E-03     167.258E-03
            4334            4611     164.002E-03     164.439E-03
            4334            4612     174.097E-03     175.058E-03
            4334            4629     160.939E-03     167.258E-03
            4334            4630     171.414E-03     177.505E-03
            4335             744     184.425E-03     189.429E-03
            4335             745     184.149E-03     185.566E-03
            4335            4612     174.097E-03     175.058E-03
            4335            4630     171.414E-03     177.505E-03
            4336             606     100.615E-03     87.0137E-03
            4336             607     101.910E-03     111.899E-03
            4336            4613     53.6401E-03     49.7208E-03
            4336            4631     43.7978E-03     73.1876E-03
            4337            4613     53.6401E-03     49.7208E-03
            4337            4614     26.4361E-03     36.8939E-03
            4337            4631     43.7978E-03     73.1876E-03
            4337            4632     17.1431E-03     49.5395E-03
            4338            4614     26.4361E-03     36.8939E-03
            4338            4615     25.6251E-03     38.3978E-03
            4338            4632     17.1431E-03     49.5395E-03
            4338            4633     18.1376E-03     49.5539E-03
            4339            4615     25.6251E-03     38.3978E-03
            4339            4616     34.9456E-03     46.7309E-03
            4339            4633     18.1376E-03     49.5539E-03
            4339            4634     26.5421E-03     56.1869E-03
            4340            4616     34.9456E-03     46.7309E-03
            4340            4617     44.4196E-03     55.8710E-03
            4340            4634     26.5421E-03     56.1869E-03
            4340            4635     36.2657E-03     64.5889E-03
            4341            4617     44.4196E-03     55.8710E-03
            4341            4618     54.0793E-03     65.1520E-03
            4341            4635     36.2657E-03     64.5889E-03
            4341            4636     46.2960E-03     73.3867E-03
            4342            4618     54.0793E-03     65.1520E-03
            4342            4619     63.7552E-03     74.4296E-03
            4342            4636     46.2960E-03     73.3867E-03
            4342            4637     56.4042E-03     82.1535E-03
            4343            4619     63.7552E-03     74.4296E-03
            4343            4620     73.4083E-03     83.6190E-03
            4343            4637     56.4042E-03     82.1535E-03
            4343            4638     66.4577E-03     90.8626E-03
            4344            4620     73.4083E-03     83.6190E-03
            4344            4621     83.0568E-03     92.8028E-03
            4344            4638     66.4577E-03     90.8626E-03
            4344            4639     76.5055E-03     99.5229E-03
            4345            4621     83.0568E-03     92.8028E-03
            4345            4622     92.7049E-03     101.975E-03
            4345            4639     76.5055E-03     99.5229E-03
            4345            4640     86.5224E-03     108.153E-03
            4346            4622     92.7049E-03     101.975E-03
            4346            4623     102.357E-03     111.151E-03
            4346            4640     86.5224E-03     108.153E-03
            4346            4641     96.5323E-03     116.759E-03
            4347            4623     102.357E-03     111.151E-03
            4347            4624     112.024E-03     120.344E-03
            4347            4641     96.5323E-03     116.759E-03
            4347            4642     106.501E-03     125.325E-03
            4348            4624     112.024E-03     120.344E-03
            4348            4625     121.704E-03     129.547E-03
            4348            4642     106.501E-03     125.325E-03
            4348            4643     116.449E-03     133.862E-03
            4349            4625     121.704E-03     129.547E-03
            4349            4626     131.424E-03     138.796E-03
            4349            4643     116.449E-03     133.862E-03
            4349            4644     126.305E-03     142.316E-03
            4350            4626     131.424E-03     138.796E-03
            4350            4627     141.159E-03     148.096E-03
            4350            4644     126.305E-03     142.316E-03
            4350            4645     136.148E-03     150.711E-03
            4351            4627     141.159E-03     148.096E-03
            4351            4628     151.009E-03     157.518E-03
            4351            4645     136.148E-03     150.711E-03
            4351            4646     145.804E-03     158.995E-03
            4352            4628     151.009E-03     157.518E-03
            4352            4629     160.939E-03     167.258E-03
            4352            4646     145.804E-03     158.995E-03
            4352            4647     155.704E-03     167.329E-03
            4353            4629     160.939E-03     167.258E-03
            4353            4630     171.414E-03     177.505E-03
            4353            4647     155.704E-03     167.329E-03
            4353            4648     165.612E-03     175.870E-03
            4354             743     177.569E-03     186.571E-03
            4354             744     184.425E-03     189.429E-03
            4354            4630     171.414E-03     177.505E-03
            4354            4648     165.612E-03     175.870E-03
            4355              30     69.0526E-03     79.5885E-03
            4355             607     101.910E-03     111.899E-03
            4355             673     34.9984E-03     64.3020E-03
            4355            4631     43.7978E-03     73.1876E-03
            4356             673     34.9984E-03     64.3020E-03
            4356             674     24.5597E-03     50.4334E-03
            4356            4631     43.7978E-03     73.1876E-03
            4356            4632     17.1431E-03     49.5395E-03
            4357             674     24.5597E-03     50.4334E-03
            4357             675     28.8841E-03     53.3700E-03
            4357            4632     17.1431E-03     49.5395E-03
            4357            4633     18.1376E-03     49.5539E-03
            4358             675     28.8841E-03     53.3700E-03
            4358             676     36.2199E-03     60.0364E-03
            4358            4633     18.1376E-03     49.5539E-03
            4358            4634     26.5421E-03     56.1869E-03
            4359             676     36.2199E-03     60.0364E-03
            4359             677     45.0036E-03     67.8903E-03
            4359            4634     26.5421E-03     56.1869E-03
            4359            4635     36.2657E-03     64.5889E-03
            4360             677     45.0036E-03     67.8903E-03
            4360             678     54.0015E-03     76.0069E-03
            4360            4635     36.2657E-03     64.5889E-03
            4360            4636     46.2960E-03     73.3867E-03
            4361             678     54.0015E-03     76.0069E-03
            4361             679     63.0844E-03     84.1150E-03
            4361            4636     46.2960E-03     73.3867E-03
            4361            4637     56.4042E-03     82.1535E-03
            4362             679     63.0844E-03     84.1150E-03
            4362             680     72.1426E-03     92.2244E-03
            4362            4637     56.4042E-03     82.1535E-03
            4362            4638     66.4577E-03     90.8626E-03
            4363             680     72.1426E-03     92.2244E-03
            4363             681     81.1723E-03     100.276E-03
            4363            4638     66.4577E-03     90.8626E-03
            4363            4639     76.5055E-03     99.5229E-03
            4364             681     81.1723E-03     100.276E-03
            4364             682     90.1689E-03     108.290E-03
            4364            4639     76.5055E-03     99.5229E-03
            4364            4640     86.5224E-03     108.153E-03
            4365             682     90.1689E-03     108.290E-03
            4365             683     99.0970E-03     116.245E-03
            4365            4640     86.5224E-03     108.153E-03
            4365            4641     96.5323E-03     116.759E-03
            4366             683     99.0970E-03     116.245E-03
            4366             684     107.984E-03     124.125E-03
            4366            4641     96.5323E-03     116.759E-03
            4366            4642     106.501E-03     125.325E-03
            4367             684     107.984E-03     124.125E-03
            4367             685     116.733E-03     131.907E-03
            4367            4642     106.501E-03     125.325E-03
            4367            4643     116.449E-03     133.862E-03
            4368             685     116.733E-03     131.907E-03
            4368             686     125.435E-03     139.547E-03
            4368            4643     116.449E-03     133.862E-03
            4368            4644     126.305E-03     142.316E-03
            4369             686     125.435E-03     139.547E-03
            4369             687     133.913E-03     147.026E-03
            4369            4644     126.305E-03     142.316E-03
            4369            4645     136.148E-03     150.711E-03
            4370             687     133.913E-03     147.026E-03
            4370             688     142.477E-03     154.313E-03
            4370            4645     136.148E-03     150.711E-03
            4370            4646     145.804E-03     158.995E-03
            4371             688     142.477E-03     154.313E-03
            4371             689     150.848E-03     161.533E-03
            4371            4646     145.804E-03     158.995E-03
            4371            4647     155.704E-03     167.329E-03
            4372             689     150.848E-03     161.533E-03
            4372             690     160.205E-03     169.238E-03
            4372            4647     155.704E-03     167.329E-03
            4372            4648     165.612E-03     175.870E-03
            4373              31     170.288E-03     178.447E-03
            4373             690     160.205E-03     169.238E-03
            4373             743     177.569E-03     186.571E-03
            4373            4648     165.612E-03     175.870E-03
            4374              35     149.949E-03     153.349E-03
            4374             789     148.591E-03     152.473E-03
            4374             824     138.600E-03     141.612E-03
            4374            4649     133.214E-03     137.007E-03
            4375             824     138.600E-03     141.612E-03
            4375             825     128.369E-03     131.489E-03
            4375            4649     133.214E-03     137.007E-03
            4375            4650     121.921E-03     125.751E-03
            4376             825     128.369E-03     131.489E-03
            4376             826     119.058E-03     122.269E-03
            4376            4650     121.921E-03     125.751E-03
            4376            4651     111.964E-03     116.022E-03
            4377             826     119.058E-03     122.269E-03
            4377             827     110.070E-03     113.495E-03
            4377            4651     111.964E-03     116.022E-03
            4377            4652     103.087E-03     107.351E-03
            4378             827     110.070E-03     113.495E-03
            4378             828     101.381E-03     104.925E-03
            4378            4652     103.087E-03     107.351E-03
            4378            4653     94.6319E-03     99.1032E-03
            4379             828     101.381E-03     104.925E-03
            4379             829     92.7848E-03     96.4717E-03
            4379            4653     94.6319E-03     99.1032E-03
            4379            4654     86.4991E-03     91.1369E-03
            4380             829     92.7848E-03     96.4717E-03
            4380             830     84.2825E-03     88.0452E-03
            4380            4654     86.4991E-03     91.1369E-03
            4380            4655     78.4829E-03     83.2491E-03
            4381             830     84.2825E-03     88.0452E-03
            4381             831     75.7923E-03     79.6331E-03
            4381            4655     78.4829E-03     83.2491E-03
            4381            4656     70.5445E-03     75.4116E-03
            4382             831     75.7923E-03     79.6331E-03
            4382             832     67.3235E-03     71.2041E-03
            4382            4656     70.5445E-03     75.4116E-03
            4382            4657     62.6194E-03     67.5551E-03
            4383             832     67.3235E-03     71.2041E-03
            4383             833     58.8434E-03     62.7617E-03
            4383            4657     62.6194E-03     67.5551E-03
            4383            4658     54.6993E-03     59.6828E-03
            4384             833     58.8434E-03     62.7617E-03
            4384             834     50.3659E-03     54.2940E-03
            4384            4658     54.6993E-03     59.6828E-03
            4384            4659     46.7631E-03     51.7629E-03
            4385             834     50.3659E-03     54.2940E-03
            4385             835     41.8762E-03     45.8014E-03
            4385            4659     46.7631E-03     51.7629E-03
            4385            4660     38.8222E-03     43.7975E-03
            4386             835     41.8762E-03     45.8014E-03
            4386             836     33.4003E-03     37.2771E-03
            4386            4660     38.8222E-03     43.7975E-03
            4386            4661     30.8538E-03     35.7453E-03
            4387             836     33.4003E-03     37.2771E-03
            4387             837     24.9246E-03     28.7095E-03
            4387            4661     30.8538E-03     35.7453E-03
            4387            4662     22.9086E-03     27.5937E-03
            4388             837     24.9246E-03     28.7095E-03
            4388             838     16.5699E-03     20.1256E-03
            4388            4662     22.9086E-03     27.5937E-03
            4388            4663     14.9995E-03     19.2599E-03
            4389             838     16.5699E-03     20.1256E-03
            4389             839     8.68539E-03     11.6494E-03
            4389            4663     14.9995E-03     19.2599E-03
            4389            4664     7.82584E-03     10.8593E-03
            4390             839     8.68539E-03     11.6494E-03
            4390             840     6.56183E-03     6.74384E-03
            4390            4664     7.82584E-03     10.8593E-03
            4390            4665     7.37888E-03     6.63616E-03
            4391             840     6.56183E-03     6.74384E-03
            4391             841     13.4045E-03     11.7561E-03
            4391            4665     7.37888E-03     6.63616E-03
            4391            4666     15.4435E-03     12.0831E-03
            4392              33     22.0151E-03     22.4608E-03
            4392             841     13.4045E-03     11.7561E-03
            4392             842     23.0836E-03     23.4402E-03
            4392            4666     15.4435E-03     12.0831E-03
            4393             789     148.591E-03     152.473E-03
            4393             790     153.984E-03     156.492E-03
            4393            4649     133.214E-03     137.007E-03
            4393            4667     137.647E-03     141.361E-03
            4394            4649     133.214E-03     137.007E-03
            4394            4650     121.921E-03     125.751E-03
            4394            4667     137.647E-03     141.361E-03
            4394            4668     125.630E-03     129.618E-03
            4395            4650     121.921E-03     125.751E-03
            4395            4651     111.964E-03     116.022E-03
            4395            4668     125.630E-03     129.618E-03
            4395            4669     115.394E-03     119.413E-03
            4396            4651     111.964E-03     116.022E-03
            4396            4652     103.087E-03     107.351E-03
            4396            4669     115.394E-03     119.413E-03
            4396            4670     106.083E-03     110.189E-03
            4397            4652     103.087E-03     107.351E-03
            4397            4653     94.6319E-03     99.1032E-03
            4397            4670     106.083E-03     110.189E-03
            4397            4671     97.3819E-03     101.497E-03
            4398            4653     94.6319E-03     99.1032E-03
            4398            4654     86.4991E-03     91.1369E-03
            4398            4671     97.3819E-03     101.497E-03
            4398            4672     88.9428E-03     93.0995E-03
            4399            4654     86.4991E-03     91.1369E-03
            4399            4655     78.4829E-03     83.2491E-03
            4399            4672     88.9428E-03     93.0995E-03
            4399            4673     80.6903E-03     84.8683E-03
            4400            4655     78.4829E-03     83.2491E-03
            4400            4656     70.5445E-03     75.4116E-03
            4400            4673     80.6903E-03     84.8683E-03
            4400            4674     72.5098E-03     76.7131E-03
            4401            4656     70.5445E-03     75.4116E-03
            4401            4657     62.6194E-03     67.5551E-03
            4401            4674     72.5098E-03     76.7131E-03
            4401            4675     64.3859E-03     68.6047E-03
            4402            4657     62.6194E-03     67.5551E-03
            4402            4658     54.6993E-03     59.6828E-03
            4402            4675     64.3859E-03     68.6047E-03
            4402            4676     56.2865E-03     60.5094E-03
            4403            4658     54.6993E-03     59.6828E-03
            4403            4659     46.7631E-03     51.7629E-03
            4403            4676     56.2865E-03     60.5094E-03
            4403            4677     48.2177E-03     52.4253E-03
            4404            4659     46.7631E-03     51.7629E-03
            4404            4660     38.8222E-03     43.7975E-03
            4404            4677     48.2177E-03     52.4253E-03
            4404            4678     40.1804E-03     44.3371E-03
            4405            4660     38.8222E-03     43.7975E-03
            4405            4661     30.8538E-03     35.7453E-03
            4405            4678     40.1804E-03     44.3371E-03
            4405            4679     32.2029E-03     36.2389E-03
            4406            4661     30.8538E-03     35.7453E-03
            4406            4662     22.9086E-03     27.5937E-03
            4406            4679     32.2029E-03     36.2389E-03
            4406            4680     24.3612E-03     28.1368E-03
            4407            4662     22.9086E-03     27.5937E-03
            4407            4663     14.9995E-03     19.2599E-03
            4407            4680     24.3612E-03     28.1368E-03
            4407            4681     16.8519E-03     20.0387E-03
            4408            4663     14.9995E-03     19.2599E-03
            4408            4664     7.82584E-03     10.8593E-03
            4408            4681     16.8519E-03     20.0387E-03
            4408            4682     11.1492E-03     12.4736E-03
            4409            4664     7.82584E-03     10.8593E-03
            4409            4665     7.37888E-03     6.63616E-03
            4409            4682     11.1492E-03     12.4736E-03
            4409            4683     10.6842E-03     8.52051E-03
            4410            4665     7.37888E-03     6.63616E-03
            4410            4666     15.4435E-03     12.0831E-03
            4410            4683     10.6842E-03     8.52051E-03
            4410            4684     15.4909E-03     10.9628E-03
            4411             842     23.0836E-03     23.4402E-03
            4411             843     19.6284E-03     19.6047E-03
            4411            4666     15.4435E-03     12.0831E-03
            4411            4684     15.4909E-03     10.9628E-03
            4412             790     153.984E-03     156.492E-03
            4412             791     153.244E-03     155.940E-03
            4412            4667     137.647E-03     141.361E-03
            4412            4685     140.348E-03     143.601E-03
            4413            4667     137.647E-03     141.361E-03
            4413            4668     125.630E-03     129.618E-03
            4413            4685     140.348E-03     143.601E-03
            4413            4686     128.354E-03     132.166E-03
            4414            4668     125.630E-03     129.618E-03
            4414            4669     115.394E-03     119.413E-03
            4414            4686     128.354E-03     132.166E-03
            4414            4687     118.166E-03     122.032E-03
            4415            4669     115.394E-03     119.413E-03
            4415            4670     106.083E-03     110.189E-03
            4415            4687     118.166E-03     122.032E-03
            4415            4688     108.725E-03     112.533E-03
            4416            4670     106.083E-03     110.189E-03
            4416            4671     97.3819E-03     101.497E-03
            4416            4688     108.725E-03     112.533E-03
            4416            4689     99.8051E-03     103.547E-03
            4417            4671     97.3819E-03     101.497E-03
            4417            4672     88.9428E-03     93.0995E-03
            4417            4689     99.8051E-03     103.547E-03
            4417            4690     91.1802E-03     94.8376E-03
            4418            4672     88.9428E-03     93.0995E-03
            4418            4673     80.6903E-03     84.8683E-03
            4418            4690     91.1802E-03     94.8376E-03
            4418            4691     82.7207E-03     86.3272E-03
            4419            4673     80.6903E-03     84.8683E-03
            4419            4674     72.5098E-03     76.7131E-03
            4419            4691     82.7207E-03     86.3272E-03
            4419            4692     74.3772E-03     77.9379E-03
            4420            4674     72.5098E-03     76.7131E-03
            4420            4675     64.3859E-03     68.6047E-03
            4420            4692     74.3772E-03     77.9379E-03
            4420            4693     66.1058E-03     69.6363E-03
            4421            4675     64.3859E-03     68.6047E-03
            4421            4676     56.2865E-03     60.5094E-03
            4421            4693     66.1058E-03     69.6363E-03
            4421            4694     57.9028E-03     61.4038E-03
            4422            4676     56.2865E-03     60.5094E-03
            4422            4677     48.2177E-03     52.4253E-03
            4422            4694     57.9028E-03     61.4038E-03
            4422            4695     49.7700E-03     53.2339E-03
            4423            4677     48.2177E-03     52.4253E-03
            4423            4678     40.1804E-03     44.3371E-03
            4423            4695     49.7700E-03     53.2339E-03
            4423            4696     41.7243E-03     45.1298E-03
            4424            4678     40.1804E-03     44.3371E-03
            4424            4679     32.2029E-03     36.2389E-03
            4424            4696     41.7243E-03     45.1298E-03
            4424            4697     33.8393E-03     37.1178E-03
            4425            4679     32.2029E-03     36.2389E-03
            4425            4680     24.3612E-03     28.1368E-03
            4425            4697     33.8393E-03     37.1178E-03
            4425            4698     26.2001E-03     29.2107E-03
            4426            4680     24.3612E-03     28.1368E-03
            4426            4681     16.8519E-03     20.0387E-03
            4426            4698     26.2001E-03     29.2107E-03
            4426            4699     19.2692E-03     21.6044E-03
            4427            4681     16.8519E-03     20.0387E-03
            4427            4682     11.1492E-03     12.4736E-03
            4427            4699     19.2692E-03     21.6044E-03
            4427            4700     14.0551E-03     14.7120E-03
            4428            4682     11.1492E-03     12.4736E-03
            4428            4683     10.6842E-03     8.52051E-03
            4428            4700     14.0551E-03     14.7120E-03
            4428            4701     12.4719E-03     10.4535E-03
            4429            4683     10.6842E-03     8.52051E-03
            4429            4684     15.4909E-03     10.9628E-03
            4429            4701     12.4719E-03     10.4535E-03
            4429            4702     15.2308E-03     11.3458E-03
            4430             843     19.6284E-03     19.6047E-03
            4430             844     18.5822E-03     18.2197E-03
            4430            4684     15.4909E-03     10.9628E-03
            4430            4702     15.2308E-03     11.3458E-03
            4431             791     153.244E-03     155.940E-03
            4431             792     149.485E-03     152.626E-03
            4431            4685     140.348E-03     143.601E-03
            4431            4703     139.678E-03     143.014E-03
            4432            4685     140.348E-03     143.601E-03
            4432            4686     128.354E-03     132.166E-03
            4432            4703     139.678E-03     143.014E-03
            4432            4704     129.595E-03     133.057E-03
            4433            4686     128.354E-03     132.166E-03
            4433            4687     118.166E-03     122.032E-03
            4433            4704     129.595E-03     133.057E-03
            4433            4705     119.759E-03     123.318E-03
            4434            4687     118.166E-03     122.032E-03
            4434            4688     108.725E-03     112.533E-03
            4434            4705     119.759E-03     123.318E-03
            4434            4706     110.575E-03     113.973E-03
            4435            4688     108.725E-03     112.533E-03
            4435            4689     99.8051E-03     103.547E-03
            4435            4706     110.575E-03     113.973E-03
            4435            4707     101.630E-03     104.882E-03
            4436            4689     99.8051E-03     103.547E-03
            4436            4690     91.1802E-03     94.8376E-03
            4436            4707     101.630E-03     104.882E-03
            4436            4708     92.9417E-03     96.0517E-03
            4437            4690     91.1802E-03     94.8376E-03
            4437            4691     82.7207E-03     86.3272E-03
            4437            4708     92.9417E-03     96.0517E-03
            4437            4709     84.3944E-03     87.3903E-03
            4438            4691     82.7207E-03     86.3272E-03
            4438            4692     74.3772E-03     77.9379E-03
            4438            4709     84.3944E-03     87.3903E-03
            4438            4710     75.9698E-03     78.8837E-03
            4439            4692     74.3772E-03     77.9379E-03
            4439            4693     66.1058E-03     69.6363E-03
            4439            4710     75.9698E-03     78.8837E-03
            4439            4711     67.6442E-03     70.4946E-03
            4440            4693     66.1058E-03     69.6363E-03
            4440            4694     57.9028E-03     61.4038E-03
            4440            4711     67.6442E-03     70.4946E-03
            4440            4712     59.4187E-03     62.2214E-03
            4441            4694     57.9028E-03     61.4038E-03
            4441            4695     49.7700E-03     53.2339E-03
            4441            4712     59.4187E-03     62.2214E-03
            4441            4713     51.3017E-03     54.0638E-03
            4442            4695     49.7700E-03     53.2339E-03
            4442            4696     41.7243E-03     45.1298E-03
            4442            4713     51.3017E-03     54.0638E-03
            4442            4714     43.3423E-03     46.0516E-03
            4443            4696     41.7243E-03     45.1298E-03
            4443            4697     33.8393E-03     37.1178E-03
            4443            4714     43.3423E-03     46.0516E-03
            4443            4715     35.5919E-03     38.2200E-03
            4444            4697     33.8393E-03     37.1178E-03
            4444            4698     26.2001E-03     29.2107E-03
            4444            4715     35.5919E-03     38.2200E-03
            4444            4716     28.2831E-03     30.6816E-03
            4445            4698     26.2001E-03     29.2107E-03
            4445            4699     19.2692E-03     21.6044E-03
            4445            4716     28.2831E-03     30.6816E-03
            4445            4717     21.7439E-03     23.5711E-03
            4446            4699     19.2692E-03     21.6044E-03
            4446            4700     14.0551E-03     14.7120E-03
            4446            4717     21.7439E-03     23.5711E-03
            4446            4718     16.8052E-03     17.4080E-03
            4447            4700     14.0551E-03     14.7120E-03
            4447            4701     12.4719E-03     10.4535E-03
            4447            4718     16.8052E-03     17.4080E-03
            4447            4719     14.9275E-03     13.4300E-03
            4448            4701     12.4719E-03     10.4535E-03
            4448            4702     15.2308E-03     11.3458E-03
            4448            4719     14.9275E-03     13.4300E-03
            4448            4720     16.6557E-03     13.1878E-03
            4449             844     18.5822E-03     18.2197E-03
            4449             845     18.9388E-03     18.6080E-03
            4449            4702     15.2308E-03     11.3458E-03
            4449            4720     16.6557E-03     13.1878E-03
            4450             792     149.485E-03     152.626E-03
            4450             793     145.188E-03     147.878E-03
            4450            4703     139.678E-03     143.014E-03
            4450            4721     137.203E-03     140.465E-03
            4451            4703     139.678E-03     143.014E-03
            4451            4704     129.595E-03     133.057E-03
            4451            4721     137.203E-03     140.465E-03
            4451            4722     128.820E-03     132.061E-03
            4452            4704     129.595E-03     133.057E-03
            4452            4705     119.759E-03     123.318E-03
            4452            4722     128.820E-03     132.061E-03
            4452            4723     120.135E-03     123.153E-03
            4453            4705     119.759E-03     123.318E-03
            4453            4706     110.575E-03     113.973E-03
            4453            4723     120.135E-03     123.153E-03
            4453            4724     111.306E-03     114.171E-03
            4454            4706     110.575E-03     113.973E-03
            4454            4707     101.630E-03     104.882E-03
            4454            4724     111.306E-03     114.171E-03
            4454            4725     102.646E-03     105.276E-03
            4455            4707     101.630E-03     104.882E-03
            4455            4708     92.9417E-03     96.0517E-03
            4455            4725     102.646E-03     105.276E-03
            4455            4726     94.0338E-03     96.5039E-03
            4456            4708     92.9417E-03     96.0517E-03
            4456            4709     84.3944E-03     87.3903E-03
            4456            4726     94.0338E-03     96.5039E-03
            4456            4727     85.5570E-03     87.8911E-03
            4457            4709     84.3944E-03     87.3903E-03
            4457            4710     75.9698E-03     78.8837E-03
            4457            4727     85.5570E-03     87.8911E-03
            4457            4728     77.1744E-03     79.4115E-03
            4458            4710     75.9698E-03     78.8837E-03
            4458            4711     67.6442E-03     70.4946E-03
            4458            4728     77.1744E-03     79.4115E-03
            4458            4729     68.9112E-03     71.0771E-03
            4459            4711     67.6442E-03     70.4946E-03
            4459            4712     59.4187E-03     62.2214E-03
            4459            4729     68.9112E-03     71.0771E-03
            4459            4730     60.7661E-03     62.8810E-03
            4460            4712     59.4187E-03     62.2214E-03
            4460            4713     51.3017E-03     54.0638E-03
            4460            4730     60.7661E-03     62.8810E-03
            4460            4731     52.7731E-03     54.8516E-03
            4461            4713     51.3017E-03     54.0638E-03
            4461            4714     43.3423E-03     46.0516E-03
            4461            4731     52.7731E-03     54.8516E-03
            4461            4732     44.9674E-03     47.0248E-03
            4462            4714     43.3423E-03     46.0516E-03
            4462            4715     35.5919E-03     38.2200E-03
            4462            4732     44.9674E-03     47.0248E-03
            4462            4733     37.4666E-03     39.4900E-03
            4463            4715     35.5919E-03     38.2200E-03
            4463            4716     28.2831E-03     30.6816E-03
            4463            4733     37.4666E-03     39.4900E-03
            4463            4734     30.4426E-03     32.3786E-03
            4464            4716     28.2831E-03     30.6816E-03
            4464            4717     21.7439E-03     23.5711E-03
            4464            4734     30.4426E-03     32.3786E-03
            4464            4735     24.3360E-03     25.9082E-03
            4465            4717     21.7439E-03     23.5711E-03
            4465            4718     16.8052E-03     17.4080E-03
            4465            4735     24.3360E-03     25.9082E-03
            4465            4736     19.8776E-03     20.4776E-03
            4466            4718     16.8052E-03     17.4080E-03
            4466            4719     14.9275E-03     13.4300E-03
            4466            4736     19.8776E-03     20.4776E-03
            4466            4737     17.9198E-03     16.8647E-03
            4467            4719     14.9275E-03     13.4300E-03
            4467            4720     16.6557E-03     13.1878E-03
            4467            4737     17.9198E-03     16.8647E-03
            4467            4738     18.7827E-03     15.9524E-03
            4468             845     18.9388E-03     18.6080E-03
            4468             846     20.3992E-03     19.7943E-03
            4468            4720     16.6557E-03     13.1878E-03
            4468            4738     18.7827E-03     15.9524E-03
            4469             793     145.188E-03     147.878E-03
            4469             794     139.878E-03     142.664E-03
            4469            4721     137.203E-03     140.465E-03
            4469            4739     133.757E-03     136.587E-03
            4470            4721     137.203E-03     140.465E-03
            4470            4722     128.820E-03     132.061E-03
            4470            4739     133.757E-03     136.587E-03
            4470            4740     126.757E-03     129.418E-03
            4471            4722     128.820E-03     132.061E-03
            4471            4723     120.135E-03     123.153E-03
            4471            4740     126.757E-03     129.418E-03
            4471            4741     119.050E-03     121.443E-03
            4472            4723     120.135E-03     123.153E-03
            4472            4724     111.306E-03     114.171E-03
            4472            4741     119.050E-03     121.443E-03
            4472            4742     110.971E-03     113.052E-03
            4473            4724     111.306E-03     114.171E-03
            4473            4725     102.646E-03     105.276E-03
            4473            4742     110.971E-03     113.052E-03
            4473            4743     102.668E-03     104.565E-03
            4474            4725     102.646E-03     105.276E-03
            4474            4726     94.0338E-03     96.5039E-03
            4474            4743     102.668E-03     104.565E-03
            4474            4744     94.3853E-03     96.1085E-03
            4475            4726     94.0338E-03     96.5039E-03
            4475            4727     85.5570E-03     87.8911E-03
            4475            4744     94.3853E-03     96.1085E-03
            4475            4745     86.1168E-03     87.7329E-03
            4476            4727     85.5570E-03     87.8911E-03
            4476            4728     77.1744E-03     79.4115E-03
            4476            4745     86.1168E-03     87.7329E-03
            4476            4746     77.9482E-03     79.4787E-03
            4477            4728     77.1744E-03     79.4115E-03
            4477            4729     68.9112E-03     71.0771E-03
            4477            4746     77.9482E-03     79.4787E-03
            4477            4747     69.8783E-03     71.3510E-03
            4478            4729     68.9112E-03     71.0771E-03
            4478            4730     60.7661E-03     62.8810E-03
            4478            4747     69.8783E-03     71.3510E-03
            4478            4748     61.9487E-03     63.3799E-03
            4479            4730     60.7661E-03     62.8810E-03
            4479            4731     52.7731E-03     54.8516E-03
            4479            4748     61.9487E-03     63.3799E-03
            4479            4749     54.1844E-03     55.5931E-03
            4480            4731     52.7731E-03     54.8516E-03
            4480            4732     44.9674E-03     47.0248E-03
            4480            4749     54.1844E-03     55.5931E-03
            4480            4750     46.6502E-03     48.0614E-03
            4481            4732     44.9674E-03     47.0248E-03
            4481            4733     37.4666E-03     39.4900E-03
            4481            4750     46.6502E-03     48.0614E-03
            4481            4751     39.4478E-03     40.8923E-03
            4482            4733     37.4666E-03     39.4900E-03
            4482            4734     30.4426E-03     32.3786E-03
            4482            4751     39.4478E-03     40.8923E-03
            4482            4752     32.7672E-03     34.2679E-03
            4483            4734     30.4426E-03     32.3786E-03
            4483            4735     24.3360E-03     25.9082E-03
            4483            4752     32.7672E-03     34.2679E-03
            4483            4753     27.0361E-03     28.4970E-03
            4484            4735     24.3360E-03     25.9082E-03
            4484            4736     19.8776E-03     20.4776E-03
            4484            4753     27.0361E-03     28.4970E-03
            4484            4754     22.9648E-03     23.8078E-03
            4485            4736     19.8776E-03     20.4776E-03
            4485            4737     17.9198E-03     16.8647E-03
            4485            4754     22.9648E-03     23.8078E-03
            4485            4755     21.0400E-03     20.5847E-03
            4486            4737     17.9198E-03     16.8647E-03
            4486            4738     18.7827E-03     15.9524E-03
            4486            4755     21.0400E-03     20.5847E-03
            4486            4756     21.4731E-03     19.4740E-03
            4487             846     20.3992E-03     19.7943E-03
            4487             847     22.3615E-03     22.3962E-03
            4487            4738     18.7827E-03     15.9524E-03
            4487            4756     21.4731E-03     19.4740E-03
            4488             794     139.878E-03     142.664E-03
            4488             795     134.071E-03     136.283E-03
            4488            4739     133.757E-03     136.587E-03
            4488            4757     129.381E-03     131.485E-03
            4489            4739     133.757E-03     136.587E-03
            4489            4740     126.757E-03     129.418E-03
            4489            4757     129.381E-03     131.485E-03
            4489            4758     123.591E-03     125.310E-03
            4490            4740     126.757E-03     129.418E-03
            4490            4741     119.050E-03     121.443E-03
            4490            4758     123.591E-03     125.310E-03
            4490            4759     116.827E-03     118.209E-03
            4491            4741     119.050E-03     121.443E-03
            4491            4742     110.971E-03     113.052E-03
            4491            4759     116.827E-03     118.209E-03
            4491            4760     109.457E-03     110.617E-03
            4492            4742     110.971E-03     113.052E-03
            4492            4743     102.668E-03     104.565E-03
            4492            4760     109.457E-03     110.617E-03
            4492            4761     101.782E-03     102.779E-03
            4493            4743     102.668E-03     104.565E-03
            4493            4744     94.3853E-03     96.1085E-03
            4493            4761     101.782E-03     102.779E-03
            4493            4762     93.9516E-03     94.8666E-03
            4494            4744     94.3853E-03     96.1085E-03
            4494            4745     86.1168E-03     87.7329E-03
            4494            4762     93.9516E-03     94.8666E-03
            4494            4763     86.1173E-03     86.9656E-03
            4495            4745     86.1168E-03     87.7329E-03
            4495            4746     77.9482E-03     79.4787E-03
            4495            4763     86.1173E-03     86.9656E-03
            4495            4764     78.3122E-03     79.1254E-03
            4496            4746     77.9482E-03     79.4787E-03
            4496            4747     69.8783E-03     71.3510E-03
            4496            4764     78.3122E-03     79.1254E-03
            4496            4765     70.6056E-03     71.3874E-03
            4497            4747     69.8783E-03     71.3510E-03
            4497            4748     61.9487E-03     63.3799E-03
            4497            4765     70.6056E-03     71.3874E-03
            4497            4766     63.0222E-03     63.7847E-03
            4498            4748     61.9487E-03     63.3799E-03
            4498            4749     54.1844E-03     55.5931E-03
            4498            4766     63.0222E-03     63.7847E-03
            4498            4767     55.6171E-03     56.3725E-03
            4499            4749     54.1844E-03     55.5931E-03
            4499            4750     46.6502E-03     48.0614E-03
            4499            4767     55.6171E-03     56.3725E-03
            4499            4768     48.4559E-03     49.2274E-03
            4500            4750     46.6502E-03     48.0614E-03
            4500            4751     39.4478E-03     40.8923E-03
            4500            4768     48.4559E-03     49.2274E-03
            4500            4769     41.6317E-03     42.4832E-03
            4501            4751     39.4478E-03     40.8923E-03
            4501            4752     32.7672E-03     34.2679E-03
            4501            4769     41.6317E-03     42.4832E-03
            4501            4770     35.3549E-03     36.3592E-03
            4502            4752     32.7672E-03     34.2679E-03
            4502            4753     27.0361E-03     28.4970E-03
            4502            4770     35.3549E-03     36.3592E-03
            4502            4771     29.8705E-03     31.1711E-03
            4503            4753     27.0361E-03     28.4970E-03
            4503            4754     22.9648E-03     23.8078E-03
            4503            4771     29.8705E-03     31.1711E-03
            4503            4772     25.8702E-03     27.3503E-03
            4504            4754     22.9648E-03     23.8078E-03
            4504            4755     21.0400E-03     20.5847E-03
            4504            4772     25.8702E-03     27.3503E-03
            4504            4773     24.2708E-03     24.7110E-03
            4505            4755     21.0400E-03     20.5847E-03
            4505            4756     21.4731E-03     19.4740E-03
            4505            4773     24.2708E-03     24.7110E-03
            4505            4774     24.4198E-03     23.1416E-03
            4506             847     22.3615E-03     22.3962E-03
            4506             848     24.8886E-03     24.6492E-03
            4506            4756     21.4731E-03     19.4740E-03
            4506            4774     24.4198E-03     23.1416E-03
            4507             795     134.071E-03     136.283E-03
            4507             796     127.546E-03     128.526E-03
            4507            4757     129.381E-03     131.485E-03
            4507            4775     124.232E-03     124.802E-03
            4508            4757     129.381E-03     131.485E-03
            4508            4758     123.591E-03     125.310E-03
            4508            4775     124.232E-03     124.802E-03
            4508            4776     119.378E-03     119.647E-03
            4509            4758     123.591E-03     125.310E-03
            4509            4759     116.827E-03     118.209E-03
            4509            4776     119.378E-03     119.647E-03
            4509            4777     113.528E-03     113.610E-03
            4510            4759     116.827E-03     118.209E-03
            4510            4760     109.457E-03     110.617E-03
            4510            4777     113.528E-03     113.610E-03
            4510            4778     106.979E-03     107.019E-03
            4511            4760     109.457E-03     110.617E-03
            4511            4761     101.782E-03     102.779E-03
            4511            4778     106.979E-03     107.019E-03
            4511            4779     100.049E-03     100.090E-03
            4512            4761     101.782E-03     102.779E-03
            4512            4762     93.9516E-03     94.8666E-03
            4512            4779     100.049E-03     100.090E-03
            4512            4780     92.9062E-03     92.9635E-03
            4513            4762     93.9516E-03     94.8666E-03
            4513            4763     86.1173E-03     86.9656E-03
            4513            4780     92.9062E-03     92.9635E-03
            4513            4781     85.6641E-03     85.7547E-03
            4514            4763     86.1173E-03     86.9656E-03
            4514            4764     78.3122E-03     79.1254E-03
            4514            4781     85.6641E-03     85.7547E-03
            4514            4782     78.4202E-03     78.5271E-03
            4515            4764     78.3122E-03     79.1254E-03
            4515            4765     70.6056E-03     71.3874E-03
            4515            4782     78.4202E-03     78.5271E-03
            4515            4783     71.2188E-03     71.3440E-03
            4516            4765     70.6056E-03     71.3874E-03
            4516            4766     63.0222E-03     63.7847E-03
            4516            4783     71.2188E-03     71.3440E-03
            4516            4784     64.1268E-03     64.2584E-03
            4517            4766     63.0222E-03     63.7847E-03
            4517            4767     55.6171E-03     56.3725E-03
            4517            4784     64.1268E-03     64.2584E-03
            4517            4785     57.1957E-03     57.3371E-03
            4518            4767     55.6171E-03     56.3725E-03
            4518            4768     48.4559E-03     49.2274E-03
            4518            4785     57.1957E-03     57.3371E-03
            4518            4786     50.5012E-03     50.6692E-03
            4519            4768     48.4559E-03     49.2274E-03
            4519            4769     41.6317E-03     42.4832E-03
            4519            4786     50.5012E-03     50.6692E-03
            4519            4787     44.1575E-03     44.3934E-03
            4520            4769     41.6317E-03     42.4832E-03
            4520            4770     35.3549E-03     36.3592E-03
            4520            4787     44.1575E-03     44.3934E-03
            4520            4788     38.2815E-03     38.7180E-03
            4521            4770     35.3549E-03     36.3592E-03
            4521            4771     29.8705E-03     31.1711E-03
            4521            4788     38.2815E-03     38.7180E-03
            4521            4789     33.1433E-03     33.9704E-03
            4522            4771     29.8705E-03     31.1711E-03
            4522            4772     25.8702E-03     27.3503E-03
            4522            4789     33.1433E-03     33.9704E-03
            4522            4790     28.9230E-03     30.6381E-03
            4523            4772     25.8702E-03     27.3503E-03
            4523            4773     24.2708E-03     24.7110E-03
            4523            4790     28.9230E-03     30.6381E-03
            4523            4791     26.5932E-03     29.0573E-03
            4524            4773     24.2708E-03     24.7110E-03
            4524            4774     24.4198E-03     23.1416E-03
            4524            4791     26.5932E-03     29.0573E-03
            4524            4792     27.3838E-03     28.0364E-03
            4525             848     24.8886E-03     24.6492E-03
            4525             849     28.2227E-03     29.2631E-03
            4525            4774     24.4198E-03     23.1416E-03
            4525            4792     27.3838E-03     28.0364E-03
            4526             796     127.546E-03     128.526E-03
            4526             797     120.629E-03     118.767E-03
            4526            4775     124.232E-03     124.802E-03
            4526            4793     118.176E-03     116.327E-03
            4527            4775     124.232E-03     124.802E-03
            4527            4776     119.378E-03     119.647E-03
            4527            4793     118.176E-03     116.327E-03
            4527            4794     114.268E-03     112.610E-03
            4528            4776     119.378E-03     119.647E-03
            4528            4777     113.528E-03     113.610E-03
            4528            4794     114.268E-03     112.610E-03
            4528            4795     109.335E-03     107.974E-03
            4529            4777     113.528E-03     113.610E-03
            4529            4778     106.979E-03     107.019E-03
            4529            4795     109.335E-03     107.974E-03
            4529            4796     103.796E-03     102.680E-03
            4530            4778     106.979E-03     107.019E-03
            4530            4779     100.049E-03     100.090E-03
            4530            4796     103.796E-03     102.680E-03
            4530            4797     97.7913E-03     96.8859E-03
            4531            4779     100.049E-03     100.090E-03
            4531            4780     92.9062E-03     92.9635E-03
            4531            4797     97.7913E-03     96.8859E-03
            4531            4798     91.5085E-03     90.7733E-03
            4532            4780     92.9062E-03     92.9635E-03
            4532            4781     85.6641E-03     85.7547E-03
            4532            4798     91.5085E-03     90.7733E-03
            4532            4799     85.0523E-03     84.4302E-03
            4533            4781     85.6641E-03     85.7547E-03
            4533            4782     78.4202E-03     78.5271E-03
            4533            4799     85.0523E-03     84.4302E-03
            4533            4800     78.5062E-03     77.9776E-03
            4534            4782     78.4202E-03     78.5271E-03
            4534            4783     71.2188E-03     71.3440E-03
            4534            4800     78.5062E-03     77.9776E-03
            4534            4801     71.9544E-03     71.4815E-03
            4535            4783     71.2188E-03     71.3440E-03
            4535            4784     64.1268E-03     64.2584E-03
            4535            4801     71.9544E-03     71.4815E-03
            4535            4802     65.4548E-03     65.0295E-03
            4536            4784     64.1268E-03     64.2584E-03
            4536            4785     57.1957E-03     57.3371E-03
            4536            4802     65.4548E-03     65.0295E-03
            4536            4803     59.0908E-03     58.6951E-03
            4537            4785     57.1957E-03     57.3371E-03
            4537            4786     50.5012E-03     50.6692E-03
            4537            4803     59.0908E-03     58.6951E-03
            4537            4804     52.9413E-03     52.5810E-03
            4538            4786     50.5012E-03     50.6692E-03
            4538            4787     44.1575E-03     44.3934E-03
            4538            4804     52.9413E-03     52.5810E-03
            4538            4805     47.1175E-03     46.8004E-03
            4539            4787     44.1575E-03     44.3934E-03
            4539            4788     38.2815E-03     38.7180E-03
            4539            4805     47.1175E-03     46.8004E-03
            4539            4806     41.7427E-03     41.5459E-03
            4540            4788     38.2815E-03     38.7180E-03
            4540            4789     33.1433E-03     33.9704E-03
            4540            4806     41.7427E-03     41.5459E-03
            4540            4807     36.9664E-03     37.0461E-03
            4541            4789     33.1433E-03     33.9704E-03
            4541            4790     28.9230E-03     30.6381E-03
            4541            4807     36.9664E-03     37.0461E-03
            4541            4808     32.8951E-03     33.6946E-03
            4542            4790     28.9230E-03     30.6381E-03
            4542            4791     26.5932E-03     29.0573E-03
            4542            4808     32.8951E-03     33.6946E-03
            4542            4809     29.4527E-03     32.1823E-03
            4543            4791     26.5932E-03     29.0573E-03
            4543            4792     27.3838E-03     28.0364E-03
            4543            4809     29.4527E-03     32.1823E-03
            4543            4810     27.7330E-03     32.9781E-03
            4544             849     28.2227E-03     29.2631E-03
            4544             850     29.4503E-03     35.1341E-03
            4544            4792     27.3838E-03     28.0364E-03
            4544            4810     27.7330E-03     32.9781E-03
            4545             797     120.629E-03     118.767E-03
            4545             798     107.975E-03     108.039E-03
            4545            4793     118.176E-03     116.327E-03
            4545            4811     101.702E-03     101.693E-03
            4546            4793     118.176E-03     116.327E-03
            4546            4794     114.268E-03     112.610E-03
            4546            4811     101.702E-03     101.693E-03
            4546            4812     95.7453E-03     96.1136E-03
            4547            4794     114.268E-03     112.610E-03
            4547            4795     109.335E-03     107.974E-03
            4547            4812     95.7453E-03     96.1136E-03
            4547            4813     90.1939E-03     90.8503E-03
            4548            4795     109.335E-03     107.974E-03
            4548            4796     103.796E-03     102.680E-03
            4548            4813     90.1939E-03     90.8503E-03
            4548            4814     84.5999E-03     85.6231E-03
            4549            4796     103.796E-03     102.680E-03
            4549            4797     97.7913E-03     96.8859E-03
            4549            4814     84.5999E-03     85.6231E-03
            4549            4815     79.0715E-03     80.3201E-03
            4550            4797     97.7913E-03     96.8859E-03
            4550            4798     91.5085E-03     90.7733E-03
            4550            4815     79.0715E-03     80.3201E-03
            4550            4816     73.4569E-03     74.9220E-03
            4551            4798     91.5085E-03     90.7733E-03
            4551            4799     85.0523E-03     84.4302E-03
            4551            4816     73.4569E-03     74.9220E-03
            4551            4817     67.8335E-03     69.4245E-03
            4552            4799     85.0523E-03     84.4302E-03
            4552            4800     78.5062E-03     77.9776E-03
            4552            4817     67.8335E-03     69.4245E-03
            4552            4818     62.1586E-03     63.8623E-03
            4553            4800     78.5062E-03     77.9776E-03
            4553            4801     71.9544E-03     71.4815E-03
            4553            4818     62.1586E-03     63.8623E-03
            4553            4819     56.4903E-03     58.2557E-03
            4554            4801     71.9544E-03     71.4815E-03
            4554            4802     65.4548E-03     65.0295E-03
            4554            4819     56.4903E-03     58.2557E-03
            4554            4820     50.8306E-03     52.6514E-03
            4555            4802     65.4548E-03     65.0295E-03
            4555            4803     59.0908E-03     58.6951E-03
            4555            4820     50.8306E-03     52.6514E-03
            4555            4821     45.2399E-03     47.0817E-03
            4556            4803     59.0908E-03     58.6951E-03
            4556            4804     52.9413E-03     52.5810E-03
            4556            4821     45.2399E-03     47.0817E-03
            4556            4822     39.7438E-03     41.5916E-03
            4557            4804     52.9413E-03     52.5810E-03
            4557            4805     47.1175E-03     46.8004E-03
            4557            4822     39.7438E-03     41.5916E-03
            4557            4823     34.4313E-03     36.2434E-03
            4558            4805     47.1175E-03     46.8004E-03
            4558            4806     41.7427E-03     41.5459E-03
            4558            4823     34.4313E-03     36.2434E-03
            4558            4824     29.3583E-03     31.0828E-03
            4559            4806     41.7427E-03     41.5459E-03
            4559            4807     36.9664E-03     37.0461E-03
            4559            4824     29.3583E-03     31.0828E-03
            4559            4825     24.7603E-03     26.2962E-03
            4560            4807     36.9664E-03     37.0461E-03
            4560            4808     32.8951E-03     33.6946E-03
            4560            4825     24.7603E-03     26.2962E-03
            4560            4826     21.1213E-03     22.0803E-03
            4561            4808     32.8951E-03     33.6946E-03
            4561            4809     29.4527E-03     32.1823E-03
            4561            4826     21.1213E-03     22.0803E-03
            4561            4827     19.6268E-03     20.1144E-03
            4562            4809     29.4527E-03     32.1823E-03
            4562            4810     27.7330E-03     32.9781E-03
            4562            4827     19.6268E-03     20.1144E-03
            4562            4828     20.3258E-03     23.2360E-03
            4563             850     29.4503E-03     35.1341E-03
            4563             851     24.1472E-03     27.9972E-03
            4563            4810     27.7330E-03     32.9781E-03
            4563            4828     20.3258E-03     23.2360E-03
            4564             798     107.975E-03     108.039E-03
            4564             799     101.613E-03     104.980E-03
            4564            4811     101.702E-03     101.693E-03
            4564            4829     89.7647E-03     93.0448E-03
            4565            4811     101.702E-03     101.693E-03
            4565            4812     95.7453E-03     96.1136E-03
            4565            4829     89.7647E-03     93.0448E-03
            4565            4830     81.4519E-03     84.7271E-03
            4566            4812     95.7453E-03     96.1136E-03
            4566            4813     90.1939E-03     90.8503E-03
            4566            4830     81.4519E-03     84.7271E-03
            4566            4831     74.3690E-03     77.7796E-03
            4567            4813     90.1939E-03     90.8503E-03
            4567            4814     84.5999E-03     85.6231E-03
            4567            4831     74.3690E-03     77.7796E-03
            4567            4832     68.2410E-03     71.7784E-03
            4568            4814     84.5999E-03     85.6231E-03
            4568            4815     79.0715E-03     80.3201E-03
            4568            4832     68.2410E-03     71.7784E-03
            4568            4833     62.5178E-03     66.1829E-03
            4569            4815     79.0715E-03     80.3201E-03
            4569            4816     73.4569E-03     74.9220E-03
            4569            4833     62.5178E-03     66.1829E-03
            4569            4834     57.0897E-03     60.8582E-03
            4570            4816     73.4569E-03     74.9220E-03
            4570            4817     67.8335E-03     69.4245E-03
            4570            4834     57.0897E-03     60.8582E-03
            4570            4835     51.7850E-03     55.6305E-03
            4571            4817     67.8335E-03     69.4245E-03
            4571            4818     62.1586E-03     63.8623E-03
            4571            4835     51.7850E-03     55.6305E-03
            4571            4836     46.5653E-03     50.4696E-03
            4572            4818     62.1586E-03     63.8623E-03
            4572            4819     56.4903E-03     58.2557E-03
            4572            4836     46.5653E-03     50.4696E-03
            4572            4837     41.3791E-03     45.3176E-03
            4573            4819     56.4903E-03     58.2557E-03
            4573            4820     50.8306E-03     52.6514E-03
            4573            4837     41.3791E-03     45.3176E-03
            4573            4838     36.2224E-03     40.1776E-03
            4574            4820     50.8306E-03     52.6514E-03
            4574            4821     45.2399E-03     47.0817E-03
            4574            4838     36.2224E-03     40.1776E-03
            4574            4839     31.0862E-03     35.0272E-03
            4575            4821     45.2399E-03     47.0817E-03
            4575            4822     39.7438E-03     41.5916E-03
            4575            4839     31.0862E-03     35.0272E-03
            4575            4840     25.9924E-03     29.8762E-03
            4576            4822     39.7438E-03     41.5916E-03
            4576            4823     34.4313E-03     36.2434E-03
            4576            4840     25.9924E-03     29.8762E-03
            4576            4841     20.9606E-03     24.7123E-03
            4577            4823     34.4313E-03     36.2434E-03
            4577            4824     29.3583E-03     31.0828E-03
            4577            4841     20.9606E-03     24.7123E-03
            4577            4842     16.0939E-03     19.5625E-03
            4578            4824     29.3583E-03     31.0828E-03
            4578            4825     24.7603E-03     26.2962E-03
            4578            4842     16.0939E-03     19.5625E-03
            4578            4843     11.6731E-03     14.5132E-03
            4579            4825     24.7603E-03     26.2962E-03
            4579            4826     21.1213E-03     22.0803E-03
            4579            4843     11.6731E-03     14.5132E-03
            4579            4844     8.63455E-03     9.97333E-03
            4580            4826     21.1213E-03     22.0803E-03
            4580            4827     19.6268E-03     20.1144E-03
            4580            4844     8.63455E-03     9.97333E-03
            4580            4845     9.33686E-03     8.30164E-03
            4581            4827     19.6268E-03     20.1144E-03
            4581            4828     20.3258E-03     23.2360E-03
            4581            4845     9.33686E-03     8.30164E-03
            4581            4846     13.9439E-03     11.3347E-03
            4582             851     24.1472E-03     27.9972E-03
            4582             852     17.4726E-03     17.4531E-03
            4582            4828     20.3258E-03     23.2360E-03
            4582            4846     13.9439E-03     11.3347E-03
            4583             799     101.613E-03     104.980E-03
            4583             800     104.945E-03     106.793E-03
            4583            4829     89.7647E-03     93.0448E-03
            4583            4847     92.5189E-03     95.3779E-03
            4584            4829     89.7647E-03     93.0448E-03
            4584            4830     81.4519E-03     84.7271E-03
            4584            4847     92.5189E-03     95.3779E-03
            4584            4848     83.7922E-03     86.9120E-03
            4585            4830     81.4519E-03     84.7271E-03
            4585            4831     74.3690E-03     77.7796E-03
            4585            4848     83.7922E-03     86.9120E-03
            4585            4849     76.6326E-03     79.7981E-03
            4586            4831     74.3690E-03     77.7796E-03
            4586            4832     68.2410E-03     71.7784E-03
            4586            4849     76.6326E-03     79.7981E-03
            4586            4850     70.2928E-03     73.5290E-03
            4587            4832     68.2410E-03     71.7784E-03
            4587            4833     62.5178E-03     66.1829E-03
            4587            4850     70.2928E-03     73.5290E-03
            4587            4851     64.4872E-03     67.7258E-03
            4588            4833     62.5178E-03     66.1829E-03
            4588            4834     57.0897E-03     60.8582E-03
            4588            4851     64.4872E-03     67.7258E-03
            4588            4852     58.9198E-03     62.1813E-03
            4589            4834     57.0897E-03     60.8582E-03
            4589            4835     51.7850E-03     55.6305E-03
            4589            4852     58.9198E-03     62.1813E-03
            4589            4853     53.5230E-03     56.7880E-03
            4590            4835     51.7850E-03     55.6305E-03
            4590            4836     46.5653E-03     50.4696E-03
            4590            4853     53.5230E-03     56.7880E-03
            4590            4854     48.2022E-03     51.4728E-03
            4591            4836     46.5653E-03     50.4696E-03
            4591            4837     41.3791E-03     45.3176E-03
            4591            4854     48.2022E-03     51.4728E-03
            4591            4855     42.9496E-03     46.2148E-03
            4592            4837     41.3791E-03     45.3176E-03
            4592            4838     36.2224E-03     40.1776E-03
            4592            4855     42.9496E-03     46.2148E-03
            4592            4856     37.7462E-03     40.9920E-03
            4593            4838     36.2224E-03     40.1776E-03
            4593            4839     31.0862E-03     35.0272E-03
            4593            4856     37.7462E-03     40.9920E-03
            4593            4857     32.6096E-03     35.8113E-03
            4594            4839     31.0862E-03     35.0272E-03
            4594            4840     25.9924E-03     29.8762E-03
            4594            4857     32.6096E-03     35.8113E-03
            4594            4858     27.5643E-03     30.6747E-03
            4595            4840     25.9924E-03     29.8762E-03
            4595            4841     20.9606E-03     24.7123E-03
            4595            4858     27.5643E-03     30.6747E-03
            4595            4859     22.6665E-03     25.5986E-03
            4596            4841     20.9606E-03     24.7123E-03
            4596            4842     16.0939E-03     19.5625E-03
            4596            4859     22.6665E-03     25.5986E-03
            4596            4860     18.0653E-03     20.6443E-03
            4597            4842     16.0939E-03     19.5625E-03
            4597            4843     11.6731E-03     14.5132E-03
            4597            4860     18.0653E-03     20.6443E-03
            4597            4861     14.0265E-03     15.9022E-03
            4598            4843     11.6731E-03     14.5132E-03
            4598            4844     8.63455E-03     9.97333E-03
            4598            4861     14.0265E-03     15.9022E-03
            4598            4862     11.4996E-03     11.9774E-03
            4599            4844     8.63455E-03     9.97333E-03
            4599            4845     9.33686E-03     8.30164E-03
            4599            4862     11.4996E-03     11.9774E-03
            4599            4863     11.5161E-03     10.0420E-03
            4600            4845     9.33686E-03     8.30164E-03
            4600            4846     13.9439E-03     11.3347E-03
            4600            4863     11.5161E-03     10.0420E-03
            4600            4864     13.5423E-03     10.7266E-03
            4601             852     17.4726E-03     17.4531E-03
            4601             853     15.1046E-03     14.8679E-03
            4601            4846     13.9439E-03     11.3347E-03
            4601            4864     13.5423E-03     10.7266E-03
            4602             800     104.945E-03     106.793E-03
            4602             801     103.323E-03     105.169E-03
            4602            4847     92.5189E-03     95.3779E-03
            4602            4865     93.9189E-03     96.2135E-03
            4603            4847     92.5189E-03     95.3779E-03
            4603            4848     83.7922E-03     86.9120E-03
            4603            4865     93.9189E-03     96.2135E-03
            4603            4866     85.4188E-03     88.2008E-03
            4604            4848     83.7922E-03     86.9120E-03
            4604            4849     76.6326E-03     79.7981E-03
            4604            4866     85.4188E-03     88.2008E-03
            4604            4867     78.4616E-03     81.3268E-03
            4605            4849     76.6326E-03     79.7981E-03
            4605            4850     70.2928E-03     73.5290E-03
            4605            4867     78.4616E-03     81.3268E-03
            4605            4868     72.1501E-03     74.9894E-03
            4606            4850     70.2928E-03     73.5290E-03
            4606            4851     64.4872E-03     67.7258E-03
            4606            4868     72.1501E-03     74.9894E-03
            4606            4869     66.2675E-03     69.0717E-03
            4607            4851     64.4872E-03     67.7258E-03
            4607            4852     58.9198E-03     62.1813E-03
            4607            4869     66.2675E-03     69.0717E-03
            4607            4870     60.6358E-03     63.3752E-03
            4608            4852     58.9198E-03     62.1813E-03
            4608            4853     53.5230E-03     56.7880E-03
            4608            4870     60.6358E-03     63.3752E-03
            4608            4871     55.1421E-03     57.8420E-03
            4609            4853     53.5230E-03     56.7880E-03
            4609            4854     48.2022E-03     51.4728E-03
            4609            4871     55.1421E-03     57.8420E-03
            4609            4872     49.7582E-03     52.4145E-03
            4610            4854     48.2022E-03     51.4728E-03
            4610            4855     42.9496E-03     46.2148E-03
            4610            4872     49.7582E-03     52.4145E-03
            4610            4873     44.4516E-03     47.0731E-03
            4611            4855     42.9496E-03     46.2148E-03
            4611            4856     37.7462E-03     40.9920E-03
            4611            4873     44.4516E-03     47.0731E-03
            4611            4874     39.2330E-03     41.8117E-03
            4612            4856     37.7462E-03     40.9920E-03
            4612            4857     32.6096E-03     35.8113E-03
            4612            4874     39.2330E-03     41.8117E-03
            4612            4875     34.1174E-03     36.6365E-03
            4613            4857     32.6096E-03     35.8113E-03
            4613            4858     27.5643E-03     30.6747E-03
            4613            4875     34.1174E-03     36.6365E-03
            4613            4876     29.1408E-03     31.5635E-03
            4614            4858     27.5643E-03     30.6747E-03
            4614            4859     22.6665E-03     25.5986E-03
            4614            4876     29.1408E-03     31.5635E-03
            4614            4877     24.3954E-03     26.6356E-03
            4615            4859     22.6665E-03     25.5986E-03
            4615            4860     18.0653E-03     20.6443E-03
            4615            4877     24.3954E-03     26.6356E-03
            4615            4878     19.9902E-03     21.8887E-03
            4616            4860     18.0653E-03     20.6443E-03
            4616            4861     14.0265E-03     15.9022E-03
            4616            4878     19.9902E-03     21.8887E-03
            4616            4879     16.2806E-03     17.5135E-03
            4617            4861     14.0265E-03     15.9022E-03
            4617            4862     11.4996E-03     11.9774E-03
            4617            4879     16.2806E-03     17.5135E-03
            4617            4880     13.7256E-03     13.7816E-03
            4618            4862     11.4996E-03     11.9774E-03
            4618            4863     11.5161E-03     10.0420E-03
            4618            4880     13.7256E-03     13.7816E-03
            4618            4881     12.7311E-03     11.3088E-03
            4619            4863     11.5161E-03     10.0420E-03
            4619            4864     13.5423E-03     10.7266E-03
            4619            4881     12.7311E-03     11.3088E-03
            4619            4882     13.5960E-03     11.0348E-03
            4620             853     15.1046E-03     14.8679E-03
            4620             854     14.6609E-03     14.1843E-03
            4620            4864     13.5423E-03     10.7266E-03
            4620            4882     13.5960E-03     11.0348E-03
            4621             801     103.323E-03     105.169E-03
            4621             802     99.3956E-03     101.518E-03
            4621            4865     93.9189E-03     96.2135E-03
            4621            4883     92.6822E-03     94.9677E-03
            4622            4865     93.9189E-03     96.2135E-03
            4622            4866     85.4188E-03     88.2008E-03
            4622            4883     92.6822E-03     94.9677E-03
            4622            4884     85.9546E-03     88.3439E-03
            4623            4866     85.4188E-03     88.2008E-03
            4623            4867     78.4616E-03     81.3268E-03
            4623            4884     85.9546E-03     88.3439E-03
            4623            4885     79.4596E-03     81.9468E-03
            4624            4867     78.4616E-03     81.3268E-03
            4624            4868     72.1501E-03     74.9894E-03
            4624            4885     79.4596E-03     81.9468E-03
            4624            4886     73.4722E-03     75.8616E-03
            4625            4868     72.1501E-03     74.9894E-03
            4625            4869     66.2675E-03     69.0717E-03
            4625            4886     73.4722E-03     75.8616E-03
            4625            4887     67.6612E-03     69.9493E-03
            4626            4869     66.2675E-03     69.0717E-03
            4626            4870     60.6358E-03     63.3752E-03
            4626            4887     67.6612E-03     69.9493E-03
            4626            4888     62.0326E-03     64.2264E-03
            4627            4870     60.6358E-03     63.3752E-03
            4627            4871     55.1421E-03     57.8420E-03
            4627            4888     62.0326E-03     64.2264E-03
            4627            4889     56.5197E-03     58.6286E-03
            4628            4871     55.1421E-03     57.8420E-03
            4628            4872     49.7582E-03     52.4145E-03
            4628            4889     56.5197E-03     58.6286E-03
            4628            4890     51.1094E-03     53.1568E-03
            4629            4872     49.7582E-03     52.4145E-03
            4629            4873     44.4516E-03     47.0731E-03
            4629            4890     51.1094E-03     53.1568E-03
            4629            4891     45.8007E-03     47.7921E-03
            4630            4873     44.4516E-03     47.0731E-03
            4630            4874     39.2330E-03     41.8117E-03
            4630            4891     45.8007E-03     47.7921E-03
            4630            4892     40.6026E-03     42.5446E-03
            4631            4874     39.2330E-03     41.8117E-03
            4631            4875     34.1174E-03     36.6365E-03
            4631            4892     40.6026E-03     42.5446E-03
            4631            4893     35.5401E-03     37.4258E-03
            4632            4875     34.1174E-03     36.6365E-03
            4632            4876     29.1408E-03     31.5635E-03
            4632            4893     35.5401E-03     37.4258E-03
            4632            4894     30.6676E-03     32.4724E-03
            4633            4876     29.1408E-03     31.5635E-03
            4633            4877     24.3954E-03     26.6356E-03
            4633            4894     30.6676E-03     32.4724E-03
            4633            4895     26.0514E-03     27.7236E-03
            4634            4877     24.3954E-03     26.6356E-03
            4634            4878     19.9902E-03     21.8887E-03
            4634            4895     26.0514E-03     27.7236E-03
            4634            4896     21.8700E-03     23.2654E-03
            4635            4878     19.9902E-03     21.8887E-03
            4635            4879     16.2806E-03     17.5135E-03
            4635            4896     21.8700E-03     23.2654E-03
            4635            4897     18.3204E-03     19.1832E-03
            4636            4879     16.2806E-03     17.5135E-03
            4636            4880     13.7256E-03     13.7816E-03
            4636            4897     18.3204E-03     19.1832E-03
            4636            4898     15.6952E-03     15.6777E-03
            4637            4880     13.7256E-03     13.7816E-03
            4637            4881     12.7311E-03     11.3088E-03
            4637            4898     15.6952E-03     15.6777E-03
            4637            4899     14.4326E-03     13.2070E-03
            4638            4881     12.7311E-03     11.3088E-03
            4638            4882     13.5960E-03     11.0348E-03
            4638            4899     14.4326E-03     13.2070E-03
            4638            4900     14.6806E-03     12.3788E-03
            4639             854     14.6609E-03     14.1843E-03
            4639             855     15.1286E-03     14.6270E-03
            4639            4882     13.5960E-03     11.0348E-03
            4639            4900     14.6806E-03     12.3788E-03
            4640             802     99.3956E-03     101.518E-03
            4640             803     95.1354E-03     96.9109E-03
            4640            4883     92.6822E-03     94.9677E-03
            4640            4901     90.1658E-03     92.3306E-03
            4641            4883     92.6822E-03     94.9677E-03
            4641            4884     85.9546E-03     88.3439E-03
            4641            4901     90.1658E-03     92.3306E-03
            4641            4902     85.0189E-03     87.1643E-03
            4642            4884     85.9546E-03     88.3439E-03
            4642            4885     79.4596E-03     81.9468E-03
            4642            4902     85.0189E-03     87.1643E-03
            4642            4903     79.6178E-03     81.5919E-03
            4643            4885     79.4596E-03     81.9468E-03
            4643            4886     73.4722E-03     75.8616E-03
            4643            4903     79.6178E-03     81.5919E-03
            4643            4904     74.0277E-03     75.8844E-03
            4644            4886     73.4722E-03     75.8616E-03
            4644            4887     67.6612E-03     69.9493E-03
            4644            4904     74.0277E-03     75.8844E-03
            4644            4905     68.4939E-03     70.1909E-03
            4645            4887     67.6612E-03     69.9493E-03
            4645            4888     62.0326E-03     64.2264E-03
            4645            4905     68.4939E-03     70.1909E-03
            4645            4906     62.9691E-03     64.5534E-03
            4646            4888     62.0326E-03     64.2264E-03
            4646            4889     56.5197E-03     58.6286E-03
            4646            4906     62.9691E-03     64.5534E-03
            4646            4907     57.5322E-03     59.0248E-03
            4647            4889     56.5197E-03     58.6286E-03
            4647            4890     51.1094E-03     53.1568E-03
            4647            4907     57.5322E-03     59.0248E-03
            4647            4908     52.1779E-03     53.6000E-03
            4648            4890     51.1094E-03     53.1568E-03
            4648            4891     45.8007E-03     47.7921E-03
            4648            4908     52.1779E-03     53.6000E-03
            4648            4909     46.9340E-03     48.3027E-03
            4649            4891     45.8007E-03     47.7921E-03
            4649            4892     40.6026E-03     42.5446E-03
            4649            4909     46.9340E-03     48.3027E-03
            4649            4910     41.8166E-03     43.1398E-03
            4650            4892     40.6026E-03     42.5446E-03
            4650            4893     35.5401E-03     37.4258E-03
            4650            4910     41.8166E-03     43.1398E-03
            4650            4911     36.8624E-03     38.1458E-03
            4651            4893     35.5401E-03     37.4258E-03
            4651            4894     30.6676E-03     32.4724E-03
            4651            4911     36.8624E-03     38.1458E-03
            4651            4912     32.1172E-03     33.3583E-03
            4652            4894     30.6676E-03     32.4724E-03
            4652            4895     26.0514E-03     27.7236E-03
            4652            4912     32.1172E-03     33.3583E-03
            4652            4913     27.6736E-03     28.8487E-03
            4653            4895     26.0514E-03     27.7236E-03
            4653            4896     21.8700E-03     23.2654E-03
            4653            4913     27.6736E-03     28.8487E-03
            4653            4914     23.6592E-03     24.7037E-03
            4654            4896     21.8700E-03     23.2654E-03
            4654            4897     18.3204E-03     19.1832E-03
            4654            4914     23.6592E-03     24.7037E-03
            4654            4915     20.2891E-03     20.9891E-03
            4655            4897     18.3204E-03     19.1832E-03
            4655            4898     15.6952E-03     15.6777E-03
            4655            4915     20.2891E-03     20.9891E-03
            4655            4916     17.8113E-03     17.8477E-03
            4656            4898     15.6952E-03     15.6777E-03
            4656            4899     14.4326E-03     13.2070E-03
            4656            4916     17.8113E-03     17.8477E-03
            4656            4917     16.4250E-03     15.5106E-03
            4657            4899     14.4326E-03     13.2070E-03
            4657            4900     14.6806E-03     12.3788E-03
            4657            4917     16.4250E-03     15.5106E-03
            4657            4918     16.2092E-03     14.2419E-03
            4658             855     15.1286E-03     14.6270E-03
            4658             856     16.2649E-03     15.5004E-03
            4658            4900     14.6806E-03     12.3788E-03
            4658            4918     16.2092E-03     14.2419E-03
            4659             803     95.1354E-03     96.9109E-03
            4659             804     90.2182E-03     92.0055E-03
            4659            4901     90.1658E-03     92.3306E-03
            4659            4919     87.0446E-03     88.8548E-03
            4660            4901     90.1658E-03     92.3306E-03
            4660            4902     85.0189E-03     87.1643E-03
            4660            4919     87.0446E-03     88.8548E-03
            4660            4920     83.2641E-03     84.9011E-03
            4661            4902     85.0189E-03     87.1643E-03
            4661            4903     79.6178E-03     81.5919E-03
            4661            4920     83.2641E-03     84.9011E-03
            4661            4921     78.7891E-03     80.1834E-03
            4662            4903     79.6178E-03     81.5919E-03
            4662            4904     74.0277E-03     75.8844E-03
            4662            4921     78.7891E-03     80.1834E-03
            4662            4922     73.8417E-03     75.0029E-03
            4663            4904     74.0277E-03     75.8844E-03
            4663            4905     68.4939E-03     70.1909E-03
            4663            4922     73.8417E-03     75.0029E-03
            4663            4923     68.6303E-03     69.6595E-03
            4664            4905     68.4939E-03     70.1909E-03
            4664            4906     62.9691E-03     64.5534E-03
            4664            4923     68.6303E-03     69.6595E-03
            4664            4924     63.3745E-03     64.2864E-03
            4665            4906     62.9691E-03     64.5534E-03
            4665            4907     57.5322E-03     59.0248E-03
            4665            4924     63.3745E-03     64.2864E-03
            4665            4925     58.1126E-03     58.9537E-03
            4666            4907     57.5322E-03     59.0248E-03
            4666            4908     52.1779E-03     53.6000E-03
            4666            4925     58.1126E-03     58.9537E-03
            4666            4926     52.9277E-03     53.7132E-03
            4667            4908     52.1779E-03     53.6000E-03
            4667            4909     46.9340E-03     48.3027E-03
            4667            4926     52.9277E-03     53.7132E-03
            4667            4927     47.8373E-03     48.5842E-03
            4668            4909     46.9340E-03     48.3027E-03
            4668            4910     41.8166E-03     43.1398E-03
            4668            4927     47.8373E-03     48.5842E-03
            4668            4928     42.8840E-03     43.6031E-03
            4669            4910     41.8166E-03     43.1398E-03
            4669            4911     36.8624E-03     38.1458E-03
            4669            4928     42.8840E-03     43.6031E-03
            4669            4929     38.0998E-03     38.8017E-03
            4670            4911     36.8624E-03     38.1458E-03
            4670            4912     32.1172E-03     33.3583E-03
            4670            4929     38.0998E-03     38.8017E-03
            4670            4930     33.5402E-03     34.2423E-03
            4671            4912     32.1172E-03     33.3583E-03
            4671            4913     27.6736E-03     28.8487E-03
            4671            4930     33.5402E-03     34.2423E-03
            4671            4931     29.2878E-03     30.0048E-03
            4672            4913     27.6736E-03     28.8487E-03
            4672            4914     23.6592E-03     24.7037E-03
            4672            4931     29.2878E-03     30.0048E-03
            4672            4932     25.4494E-03     26.1915E-03
            4673            4914     23.6592E-03     24.7037E-03
            4673            4915     20.2891E-03     20.9891E-03
            4673            4932     25.4494E-03     26.1915E-03
            4673            4933     22.2450E-03     22.9445E-03
            4674            4915     20.2891E-03     20.9891E-03
            4674            4916     17.8113E-03     17.8477E-03
            4674            4933     22.2450E-03     22.9445E-03
            4674            4934     19.9326E-03     20.2112E-03
            4675            4916     17.8113E-03     17.8477E-03
            4675            4917     16.4250E-03     15.5106E-03
            4675            4934     19.9326E-03     20.2112E-03
            4675            4935     18.5213E-03     18.0084E-03
            4676            4917     16.4250E-03     15.5106E-03
            4676            4918     16.2092E-03     14.2419E-03
            4676            4935     18.5213E-03     18.0084E-03
            4676            4936     18.0268E-03     16.6455E-03
            4677             856     16.2649E-03     15.5004E-03
            4677             857     17.6334E-03     17.3622E-03
            4677            4918     16.2092E-03     14.2419E-03
            4677            4936     18.0268E-03     16.6455E-03
            4678             804     90.2182E-03     92.0055E-03
            4678             805     85.0153E-03     86.4060E-03
            4678            4919     87.0446E-03     88.8548E-03
            4678            4937     83.4813E-03     84.6940E-03
            4679            4919     87.0446E-03     88.8548E-03
            4679            4920     83.2641E-03     84.9011E-03
            4679            4937     83.4813E-03     84.6940E-03
            4679            4938     80.9032E-03     81.7138E-03
            4680            4920     83.2641E-03     84.9011E-03
            4680            4921     78.7891E-03     80.1834E-03
            4680            4938     80.9032E-03     81.7138E-03
            4680            4939     77.1943E-03     77.7293E-03
            4681            4921     78.7891E-03     80.1834E-03
            4681            4922     73.8417E-03     75.0029E-03
            4681            4939     77.1943E-03     77.7293E-03
            4681            4940     72.8333E-03     73.1999E-03
            4682            4922     73.8417E-03     75.0029E-03
            4682            4923     68.6303E-03     69.6595E-03
            4682            4940     72.8333E-03     73.1999E-03
            4682            4941     68.1131E-03     68.3649E-03
            4683            4923     68.6303E-03     69.6595E-03
            4683            4924     63.3745E-03     64.2864E-03
            4683            4941     68.1131E-03     68.3649E-03
            4683            4942     63.2128E-03     63.4158E-03
            4684            4924     63.3745E-03     64.2864E-03
            4684            4925     58.1126E-03     58.9537E-03
            4684            4942     63.2128E-03     63.4158E-03
            4684            4943     58.2851E-03     58.4490E-03
            4685            4925     58.1126E-03     58.9537E-03
            4685            4926     52.9277E-03     53.7132E-03
            4685            4943     58.2851E-03     58.4490E-03
            4685            4944     53.3771E-03     53.5257E-03
            4686            4926     52.9277E-03     53.7132E-03
            4686            4927     47.8373E-03     48.5842E-03
            4686            4944     53.3771E-03     53.5257E-03
            4686            4945     48.5577E-03     48.6937E-03
            4687            4927     47.8373E-03     48.5842E-03
            4687            4928     42.8840E-03     43.6031E-03
            4687            4945     48.5577E-03     48.6937E-03
            4687            4946     43.8555E-03     43.9892E-03
            4688            4928     42.8840E-03     43.6031E-03
            4688            4929     38.0998E-03     38.8017E-03
            4688            4946     43.8555E-03     43.9892E-03
            4688            4947     39.3205E-03     39.4643E-03
            4689            4929     38.0998E-03     38.8017E-03
            4689            4930     33.5402E-03     34.2423E-03
            4689            4947     39.3205E-03     39.4643E-03
            4689            4948     35.0058E-03     35.1811E-03
            4690            4930     33.5402E-03     34.2423E-03
            4690            4931     29.2878E-03     30.0048E-03
            4690            4948     35.0058E-03     35.1811E-03
            4690            4949     30.9738E-03     31.2352E-03
            4691            4931     29.2878E-03     30.0048E-03
            4691            4932     25.4494E-03     26.1915E-03
            4691            4949     30.9738E-03     31.2352E-03
            4691            4950     27.3505E-03     27.7551E-03
            4692            4932     25.4494E-03     26.1915E-03
            4692            4933     22.2450E-03     22.9445E-03
            4692            4950     27.3505E-03     27.7551E-03
            4692            4951     24.2246E-03     24.8852E-03
            4693            4933     22.2450E-03     22.9445E-03
            4693            4934     19.9326E-03     20.2112E-03
            4693            4951     24.2246E-03     24.8852E-03
            4693            4952     21.8924E-03     22.7396E-03
            4694            4934     19.9326E-03     20.2112E-03
            4694            4935     18.5213E-03     18.0084E-03
            4694            4952     21.8924E-03     22.7396E-03
            4694            4953     20.6897E-03     20.8954E-03
            4695            4935     18.5213E-03     18.0084E-03
            4695            4936     18.0268E-03     16.6455E-03
            4695            4953     20.6897E-03     20.8954E-03
            4695            4954     20.0414E-03     19.1258E-03
            4696             857     17.6334E-03     17.3622E-03
            4696             858     19.3291E-03     18.8373E-03
            4696            4936     18.0268E-03     16.6455E-03
            4696            4954     20.0414E-03     19.1258E-03
            4697             805     85.0153E-03     86.4060E-03
            4697             806     79.7125E-03     80.1066E-03
            4697            4937     83.4813E-03     84.6940E-03
            4697            4955     79.7572E-03     79.6331E-03
            4698            4937     83.4813E-03     84.6940E-03
            4698            4938     80.9032E-03     81.7138E-03
            4698            4955     79.7572E-03     79.6331E-03
            4698            4956     77.8613E-03     77.4701E-03
            4699            4938     80.9032E-03     81.7138E-03
            4699            4939     77.1943E-03     77.7293E-03
            4699            4956     77.8613E-03     77.4701E-03
            4699            4957     74.8634E-03     74.3302E-03
            4700            4939     77.1943E-03     77.7293E-03
            4700            4940     72.8333E-03     73.1999E-03
            4700            4957     74.8634E-03     74.3302E-03
            4700            4958     71.1269E-03     70.5602E-03
            4701            4940     72.8333E-03     73.1999E-03
            4701            4941     68.1131E-03     68.3649E-03
            4701            4958     71.1269E-03     70.5602E-03
            4701            4959     66.9765E-03     66.4237E-03
            4702            4941     68.1131E-03     68.3649E-03
            4702            4942     63.2128E-03     63.4158E-03
            4702            4959     66.9765E-03     66.4237E-03
            4702            4960     62.6068E-03     62.0730E-03
            4703            4942     63.2128E-03     63.4158E-03
            4703            4943     58.2851E-03     58.4490E-03
            4703            4960     62.6068E-03     62.0730E-03
            4703            4961     58.1285E-03     57.6323E-03
            4704            4943     58.2851E-03     58.4490E-03
            4704            4944     53.3771E-03     53.5257E-03
            4704            4961     58.1285E-03     57.6323E-03
            4704            4962     53.6433E-03     53.1713E-03
            4705            4944     53.3771E-03     53.5257E-03
            4705            4945     48.5577E-03     48.6937E-03
            4705            4962     53.6433E-03     53.1713E-03
            4705            4963     49.1934E-03     48.7520E-03
            4706            4945     48.5577E-03     48.6937E-03
            4706            4946     43.8555E-03     43.9892E-03
            4706            4963     49.1934E-03     48.7520E-03
            4706            4964     44.8410E-03     44.4254E-03
            4707            4946     43.8555E-03     43.9892E-03
            4707            4947     39.3205E-03     39.4643E-03
            4707            4964     44.8410E-03     44.4254E-03
            4707            4965     40.6264E-03     40.2475E-03
            4708            4947     39.3205E-03     39.4643E-03
            4708            4948     35.0058E-03     35.1811E-03
            4708            4965     40.6264E-03     40.2475E-03
            4708            4966     36.6075E-03     36.2878E-03
            4709            4948     35.0058E-03     35.1811E-03
            4709            4949     30.9738E-03     31.2352E-03
            4709            4966     36.6075E-03     36.2878E-03
            4709            4967     32.8547E-03     32.6395E-03
            4710            4949     30.9738E-03     31.2352E-03
            4710            4950     27.3505E-03     27.7551E-03
            4710            4967     32.8547E-03     32.6395E-03
            4710            4968     29.4282E-03     29.4310E-03
            4711            4950     27.3505E-03     27.7551E-03
            4711            4951     24.2246E-03     24.8852E-03
            4711            4968     29.4282E-03     29.4310E-03
            4711            4969     26.4476E-03     26.8123E-03
            4712            4951     24.2246E-03     24.8852E-03
            4712            4952     21.8924E-03     22.7396E-03
            4712            4969     26.4476E-03     26.8123E-03
            4712            4970     23.9124E-03     25.0157E-03
            4713            4952     21.8924E-03     22.7396E-03
            4713            4953     20.6897E-03     20.8954E-03
            4713            4970     23.9124E-03     25.0157E-03
            4713            4971     22.2424E-03     24.0113E-03
            4714            4953     20.6897E-03     20.8954E-03
            4714            4954     20.0414E-03     19.1258E-03
            4714            4971     22.2424E-03     24.0113E-03
            4714            4972     22.0189E-03     22.6711E-03
            4715             858     19.3291E-03     18.8373E-03
            4715             859     21.5512E-03     22.0709E-03
            4715            4954     20.0414E-03     19.1258E-03
            4715            4972     22.0189E-03     22.6711E-03
            4716             806     79.7125E-03     80.1066E-03
            4716             807     74.9233E-03     72.8082E-03
            4716            4955     79.7572E-03     79.6331E-03
            4716            4973     75.4429E-03     73.3597E-03
            4717            4955     79.7572E-03     79.6331E-03
            4717            4956     77.8613E-03     77.4701E-03
            4717            4973     75.4429E-03     73.3597E-03
            4717            4974     74.1787E-03     72.2643E-03
            4718            4956     77.8613E-03     77.4701E-03
            4718            4957     74.8634E-03     74.3302E-03
            4718            4974     74.1787E-03     72.2643E-03
            4718            4975     71.8689E-03     70.1793E-03
            4719            4957     74.8634E-03     74.3302E-03
            4719            4958     71.1269E-03     70.5602E-03
            4719            4975     71.8689E-03     70.1793E-03
            4719            4976     68.8926E-03     67.3928E-03
            4720            4958     71.1269E-03     70.5602E-03
            4720            4959     66.9765E-03     66.4237E-03
            4720            4976     68.8926E-03     67.3928E-03
            4720            4977     65.4646E-03     64.1207E-03
            4721            4959     66.9765E-03     66.4237E-03
            4721            4960     62.6068E-03     62.0730E-03
            4721            4977     65.4646E-03     64.1207E-03
            4721            4978     61.7507E-03     60.5410E-03
            4722            4960     62.6068E-03     62.0730E-03
            4722            4961     58.1285E-03     57.6323E-03
            4722            4978     61.7507E-03     60.5410E-03
            4722            4979     57.8722E-03     56.7551E-03
            4723            4961     58.1285E-03     57.6323E-03
            4723            4962     53.6433E-03     53.1713E-03
            4723            4979     57.8722E-03     56.7551E-03
            4723            4980     53.9031E-03     52.8724E-03
            4724            4962     53.6433E-03     53.1713E-03
            4724            4963     49.1934E-03     48.7520E-03
            4724            4980     53.9031E-03     52.8724E-03
            4724            4981     49.9248E-03     48.9573E-03
            4725            4963     49.1934E-03     48.7520E-03
            4725            4964     44.8410E-03     44.4254E-03
            4725            4981     49.9248E-03     48.9573E-03
            4725            4982     45.9837E-03     45.0826E-03
            4726            4964     44.8410E-03     44.4254E-03
            4726            4965     40.6264E-03     40.2475E-03
            4726            4982     45.9837E-03     45.0826E-03
            4726            4983     42.1472E-03     41.3081E-03
            4727            4965     40.6264E-03     40.2475E-03
            4727            4966     36.6075E-03     36.2878E-03
            4727            4983     42.1472E-03     41.3081E-03
            4727            4984     38.4653E-03     37.7076E-03
            4728            4966     36.6075E-03     36.2878E-03
            4728            4967     32.8547E-03     32.6395E-03
            4728            4984     38.4653E-03     37.7076E-03
            4728            4985     35.0106E-03     34.3552E-03
            4729            4967     32.8547E-03     32.6395E-03
            4729            4968     29.4282E-03     29.4310E-03
            4729            4985     35.0106E-03     34.3552E-03
            4729            4986     31.8358E-03     31.3606E-03
            4730            4968     29.4282E-03     29.4310E-03
            4730            4969     26.4476E-03     26.8123E-03
            4730            4986     31.8358E-03     31.3606E-03
            4730            4987     29.0090E-03     28.8420E-03
            4731            4969     26.4476E-03     26.8123E-03
            4731            4970     23.9124E-03     25.0157E-03
            4731            4987     29.0090E-03     28.8420E-03
            4731            4988     26.5064E-03     26.9569E-03
            4732            4970     23.9124E-03     25.0157E-03
            4732            4971     22.2424E-03     24.0113E-03
            4732            4988     26.5064E-03     26.9569E-03
            4732            4989     24.1783E-03     26.0999E-03
            4733            4971     22.2424E-03     24.0113E-03
            4733            4972     22.0189E-03     22.6711E-03
            4733            4989     24.1783E-03     26.0999E-03
            4733            4990     22.4247E-03     26.1771E-03
            4734             859     21.5512E-03     22.0709E-03
            4734             860     22.0630E-03     26.2655E-03
            4734            4972     22.0189E-03     22.6711E-03
            4734            4990     22.4247E-03     26.1771E-03
            4735             807     74.9233E-03     72.8082E-03
            4735             808     63.7381E-03     63.7189E-03
            4735            4973     75.4429E-03     73.3597E-03
            4735            4991     60.1613E-03     60.0389E-03
            4736            4973     75.4429E-03     73.3597E-03
            4736            4974     74.1787E-03     72.2643E-03
            4736            4991     60.1613E-03     60.0389E-03
            4736            4992     56.8525E-03     56.9288E-03
            4737            4974     74.1787E-03     72.2643E-03
            4737            4975     71.8689E-03     70.1793E-03
            4737            4992     56.8525E-03     56.9288E-03
            4737            4993     53.8375E-03     54.0609E-03
            4738            4975     71.8689E-03     70.1793E-03
            4738            4976     68.8926E-03     67.3928E-03
            4738            4993     53.8375E-03     54.0609E-03
            4738            4994     50.8412E-03     51.2578E-03
            4739            4976     68.8926E-03     67.3928E-03
            4739            4977     65.4646E-03     64.1207E-03
            4739            4994     50.8412E-03     51.2578E-03
            4739            4995     47.8940E-03     48.4319E-03
            4740            4977     65.4646E-03     64.1207E-03
            4740            4978     61.7507E-03     60.5410E-03
            4740            4995     47.8940E-03     48.4319E-03
            4740            4996     44.9164E-03     45.5634E-03
            4741            4978     61.7507E-03     60.5410E-03
            4741            4979     57.8722E-03     56.7551E-03
            4741            4996     44.9164E-03     45.5634E-03
            4741            4997     41.9387E-03     42.6500E-03
            4742            4979     57.8722E-03     56.7551E-03
            4742            4980     53.9031E-03     52.8724E-03
            4742            4997     41.9387E-03     42.6500E-03
            4742            4998     38.9510E-03     39.7108E-03
            4743            4980     53.9031E-03     52.8724E-03
            4743            4981     49.9248E-03     48.9573E-03
            4743            4998     38.9510E-03     39.7108E-03
            4743            4999     35.9883E-03     36.7670E-03
            4744            4981     49.9248E-03     48.9573E-03
            4744            4982     45.9837E-03     45.0826E-03
            4744            4999     35.9883E-03     36.7670E-03
            4744            5000     33.0634E-03     33.8473E-03
            4745            4982     45.9837E-03     45.0826E-03
            4745            4983     42.1472E-03     41.3081E-03
            4745            5000     33.0634E-03     33.8473E-03
            4745            5001     30.2280E-03     30.9891E-03
            4746            4983     42.1472E-03     41.3081E-03
            4746            4984     38.4653E-03     37.7076E-03
            4746            5001     30.2280E-03     30.9891E-03
            4746            5002     27.5035E-03     28.2162E-03
            4747            4984     38.4653E-03     37.7076E-03
            4747            4985     35.0106E-03     34.3552E-03
            4747            5002     27.5035E-03     28.2162E-03
            4747            5003     24.9769E-03     25.6038E-03
            4748            4985     35.0106E-03     34.3552E-03
            4748            4986     31.8358E-03     31.3606E-03
            4748            5003     24.9769E-03     25.6038E-03
            4748            5004     22.6859E-03     23.1684E-03
            4749            4986     31.8358E-03     31.3606E-03
            4749            4987     29.0090E-03     28.8420E-03
            4749            5004     22.6859E-03     23.1684E-03
            4749            5005     20.7830E-03     21.1038E-03
            4750            4987     29.0090E-03     28.8420E-03
            4750            4988     26.5064E-03     26.9569E-03
            4750            5005     20.7830E-03     21.1038E-03
            4750            5006     19.3280E-03     19.4343E-03
            4751            4988     26.5064E-03     26.9569E-03
            4751            4989     24.1783E-03     26.0999E-03
            4751            5006     19.3280E-03     19.4343E-03
            4751            5007     18.5197E-03     18.7829E-03
            4752            4989     24.1783E-03     26.0999E-03
            4752            4990     22.4247E-03     26.1771E-03
            4752            5007     18.5197E-03     18.7829E-03
            4752            5008     18.1637E-03     19.8995E-03
            4753             860     22.0630E-03     26.2655E-03
            4753             861     17.7251E-03     21.0441E-03
            4753            4990     22.4247E-03     26.1771E-03
            4753            5008     18.1637E-03     19.8995E-03
            4754             808     63.7381E-03     63.7189E-03
            4754             809     56.4517E-03     59.2973E-03
            4754            4991     60.1613E-03     60.0389E-03
            4754            5009     47.7801E-03     50.4677E-03
            4755            4991     60.1613E-03     60.0389E-03
            4755            4992     56.8525E-03     56.9288E-03
            4755            5009     47.7801E-03     50.4677E-03
            4755            5010     42.2580E-03     44.8352E-03
            4756            4992     56.8525E-03     56.9288E-03
            4756            4993     53.8375E-03     54.0609E-03
            4756            5010     42.2580E-03     44.8352E-03
            4756            5011     37.9706E-03     40.5462E-03
            4757            4993     53.8375E-03     54.0609E-03
            4757            4994     50.8412E-03     51.2578E-03
            4757            5011     37.9706E-03     40.5462E-03
            4757            5012     34.6150E-03     37.2010E-03
            4758            4994     50.8412E-03     51.2578E-03
            4758            4995     47.8940E-03     48.4319E-03
            4758            5012     34.6150E-03     37.2010E-03
            4758            5013     31.7154E-03     34.3159E-03
            4759            4995     47.8940E-03     48.4319E-03
            4759            4996     44.9164E-03     45.5634E-03
            4759            5013     31.7154E-03     34.3159E-03
            4759            5014     29.1427E-03     31.7527E-03
            4760            4996     44.9164E-03     45.5634E-03
            4760            4997     41.9387E-03     42.6500E-03
            4760            5014     29.1427E-03     31.7527E-03
            4760            5015     26.7426E-03     29.3403E-03
            4761            4997     41.9387E-03     42.6500E-03
            4761            4998     38.9510E-03     39.7108E-03
            4761            5015     26.7426E-03     29.3403E-03
            4761            5016     24.4703E-03     27.0435E-03
            4762            4998     38.9510E-03     39.7108E-03
            4762            4999     35.9883E-03     36.7670E-03
            4762            5016     24.4703E-03     27.0435E-03
            4762            5017     22.2843E-03     24.8032E-03
            4763            4999     35.9883E-03     36.7670E-03
            4763            5000     33.0634E-03     33.8473E-03
            4763            5017     22.2843E-03     24.8032E-03
            4763            5018     20.1829E-03     22.6218E-03
            4764            5000     33.0634E-03     33.8473E-03
            4764            5001     30.2280E-03     30.9891E-03
            4764            5018     20.1829E-03     22.6218E-03
            4764            5019     18.1733E-03     20.4849E-03
            4765            5001     30.2280E-03     30.9891E-03
            4765            5002     27.5035E-03     28.2162E-03
            4765            5019     18.1733E-03     20.4849E-03
            4765            5020     16.2826E-03     18.4115E-03
            4766            5002     27.5035E-03     28.2162E-03
            4766            5003     24.9769E-03     25.6038E-03
            4766            5020     16.2826E-03     18.4115E-03
            4766            5021     14.5635E-03     16.4192E-03
            4767            5003     24.9769E-03     25.6038E-03
            4767            5004     22.6859E-03     23.1684E-03
            4767            5021     14.5635E-03     16.4192E-03
            4767            5022     13.0846E-03     14.5605E-03
            4768            5004     22.6859E-03     23.1684E-03
            4768            5005     20.7830E-03     21.1038E-03
            4768            5022     13.0846E-03     14.5605E-03
            4768            5023     12.0225E-03     12.9584E-03
            4769            5005     20.7830E-03     21.1038E-03
            4769            5006     19.3280E-03     19.4343E-03
            4769            5023     12.0225E-03     12.9584E-03
            4769            5024     11.5081E-03     11.7639E-03
            4770            5006     19.3280E-03     19.4343E-03
            4770            5007     18.5197E-03     18.7829E-03
            4770            5024     11.5081E-03     11.7639E-03
            4770            5025     12.1116E-03     11.6392E-03
            4771            5007     18.5197E-03     18.7829E-03
            4771            5008     18.1637E-03     19.8995E-03
            4771            5025     12.1116E-03     11.6392E-03
            4771            5026     13.6438E-03     12.4703E-03
            4772             861     17.7251E-03     21.0441E-03
            4772             862     13.1829E-03     13.5836E-03
            4772            5008     18.1637E-03     19.8995E-03
            4772            5026     13.6438E-03     12.4703E-03
            4773             809     56.4517E-03     59.2973E-03
            4773             810     57.8699E-03     59.0267E-03
            4773            5009     47.7801E-03     50.4677E-03
            4773            5027     48.9669E-03     50.8895E-03
            4774            5009     47.7801E-03     50.4677E-03
            4774            5010     42.2580E-03     44.8352E-03
            4774            5027     48.9669E-03     50.8895E-03
            4774            5028     43.3240E-03     45.4651E-03
            4775            5010     42.2580E-03     44.8352E-03
            4775            5011     37.9706E-03     40.5462E-03
            4775            5028     43.3240E-03     45.4651E-03
            4775            5029     39.1638E-03     41.3398E-03
            4776            5011     37.9706E-03     40.5462E-03
            4776            5012     34.6150E-03     37.2010E-03
            4776            5029     39.1638E-03     41.3398E-03
            4776            5030     35.7911E-03     38.0108E-03
            4777            5012     34.6150E-03     37.2010E-03
            4777            5013     31.7154E-03     34.3159E-03
            4777            5030     35.7911E-03     38.0108E-03
            4777            5031     32.9533E-03     35.1557E-03
            4778            5013     31.7154E-03     34.3159E-03
            4778            5014     29.1427E-03     31.7527E-03
            4778            5031     32.9533E-03     35.1557E-03
            4778            5032     30.3788E-03     32.5656E-03
            4779            5014     29.1427E-03     31.7527E-03
            4779            5015     26.7426E-03     29.3403E-03
            4779            5032     30.3788E-03     32.5656E-03
            4779            5033     28.0003E-03     30.1510E-03
            4780            5015     26.7426E-03     29.3403E-03
            4780            5016     24.4703E-03     27.0435E-03
            4780            5033     28.0003E-03     30.1510E-03
            4780            5034     25.7332E-03     27.8373E-03
            4781            5016     24.4703E-03     27.0435E-03
            4781            5017     22.2843E-03     24.8032E-03
            4781            5034     25.7332E-03     27.8373E-03
            4781            5035     23.5691E-03     25.6093E-03
            4782            5017     22.2843E-03     24.8032E-03
            4782            5018     20.1829E-03     22.6218E-03
            4782            5035     23.5691E-03     25.6093E-03
            4782            5036     21.4980E-03     23.4484E-03
            4783            5018     20.1829E-03     22.6218E-03
            4783            5019     18.1733E-03     20.4849E-03
            4783            5036     21.4980E-03     23.4484E-03
            4783            5037     19.5367E-03     21.3629E-03
            4784            5019     18.1733E-03     20.4849E-03
            4784            5020     16.2826E-03     18.4115E-03
            4784            5037     19.5367E-03     21.3629E-03
            4784            5038     17.7142E-03     19.3626E-03
            4785            5020     16.2826E-03     18.4115E-03
            4785            5021     14.5635E-03     16.4192E-03
            4785            5038     17.7142E-03     19.3626E-03
            4785            5039     16.0647E-03     17.4659E-03
            4786            5021     14.5635E-03     16.4192E-03
            4786            5022     13.0846E-03     14.5605E-03
            4786            5039     16.0647E-03     17.4659E-03
            4786            5040     14.6693E-03     15.7285E-03
            4787            5022     13.0846E-03     14.5605E-03
            4787            5023     12.0225E-03     12.9584E-03
            4787            5040     14.6693E-03     15.7285E-03
            4787            5041     13.5810E-03     14.1866E-03
            4788            5023     12.0225E-03     12.9584E-03
            4788            5024     11.5081E-03     11.7639E-03
            4788            5041     13.5810E-03     14.1866E-03
            4788            5042     12.9935E-03     13.0710E-03
            4789            5024     11.5081E-03     11.7639E-03
            4789            5025     12.1116E-03     11.6392E-03
            4789            5042     12.9935E-03     13.0710E-03
            4789            5043     12.9368E-03     12.4333E-03
            4790            5025     12.1116E-03     11.6392E-03
            4790            5026     13.6438E-03     12.4703E-03
            4790            5043     12.9368E-03     12.4333E-03
            4790            5044     12.8543E-03     11.8204E-03
            4791             862     13.1829E-03     13.5836E-03
            4791             863     12.2052E-03     11.7760E-03
            4791            5026     13.6438E-03     12.4703E-03
            4791            5044     12.8543E-03     11.8204E-03
            4792             810     57.8699E-03     59.0267E-03
            4792             811     55.3937E-03     56.3716E-03
            4792            5027     48.9669E-03     50.8895E-03
            4792            5045     49.0713E-03     50.3652E-03
            4793            5027     48.9669E-03     50.8895E-03
            4793            5028     43.3240E-03     45.4651E-03
            4793            5045     49.0713E-03     50.3652E-03
            4793            5046     43.8826E-03     45.5735E-03
            4794            5028     43.3240E-03     45.4651E-03
            4794            5029     39.1638E-03     41.3398E-03
            4794            5046     43.8826E-03     45.5735E-03
            4794            5047     40.0858E-03     41.8979E-03
            4795            5029     39.1638E-03     41.3398E-03
            4795            5030     35.7911E-03     38.0108E-03
            4795            5047     40.0858E-03     41.8979E-03
            4795            5048     36.9256E-03     38.7455E-03
            4796            5030     35.7911E-03     38.0108E-03
            4796            5031     32.9533E-03     35.1557E-03
            4796            5048     36.9256E-03     38.7455E-03
            4796            5049     34.1475E-03     35.9631E-03
            4797            5031     32.9533E-03     35.1557E-03
            4797            5032     30.3788E-03     32.5656E-03
            4797            5049     34.1475E-03     35.9631E-03
            4797            5050     31.6197E-03     33.3850E-03
            4798            5032     30.3788E-03     32.5656E-03
            4798            5033     28.0003E-03     30.1510E-03
            4798            5050     31.6197E-03     33.3850E-03
            4798            5051     29.2305E-03     30.9515E-03
            4799            5033     28.0003E-03     30.1510E-03
            4799            5034     25.7332E-03     27.8373E-03
            4799            5051     29.2305E-03     30.9515E-03
            4799            5052     26.9644E-03     28.6243E-03
            4800            5034     25.7332E-03     27.8373E-03
            4800            5035     23.5691E-03     25.6093E-03
            4800            5052     26.9644E-03     28.6243E-03
            4800            5053     24.7962E-03     26.3892E-03
            4801            5035     23.5691E-03     25.6093E-03
            4801            5036     21.4980E-03     23.4484E-03
            4801            5053     24.7962E-03     26.3892E-03
            4801            5054     22.7384E-03     24.2450E-03
            4802            5036     21.4980E-03     23.4484E-03
            4802            5037     19.5367E-03     21.3629E-03
            4802            5054     22.7384E-03     24.2450E-03
            4802            5055     20.8056E-03     22.1992E-03
            4803            5037     19.5367E-03     21.3629E-03
            4803            5038     17.7142E-03     19.3626E-03
            4803            5055     20.8056E-03     22.1992E-03
            4803            5056     19.0205E-03     20.2575E-03
            4804            5038     17.7142E-03     19.3626E-03
            4804            5039     16.0647E-03     17.4659E-03
            4804            5056     19.0205E-03     20.2575E-03
            4804            5057     17.4226E-03     18.4430E-03
            4805            5039     16.0647E-03     17.4659E-03
            4805            5040     14.6693E-03     15.7285E-03
            4805            5057     17.4226E-03     18.4430E-03
            4805            5058     16.0354E-03     16.7530E-03
            4806            5040     14.6693E-03     15.7285E-03
            4806            5041     13.5810E-03     14.1866E-03
            4806            5058     16.0354E-03     16.7530E-03
            4806            5059     14.9154E-03     15.2368E-03
            4807            5041     13.5810E-03     14.1866E-03
            4807            5042     12.9935E-03     13.0710E-03
            4807            5059     14.9154E-03     15.2368E-03
            4807            5060     14.0762E-03     13.9001E-03
            4808            5042     12.9935E-03     13.0710E-03
            4808            5043     12.9368E-03     12.4333E-03
            4808            5060     14.0762E-03     13.9001E-03
            4808            5061     13.3667E-03     12.5689E-03
            4809            5043     12.9368E-03     12.4333E-03
            4809            5044     12.8543E-03     11.8204E-03
            4809            5061     13.3667E-03     12.5689E-03
            4809            5062     12.8165E-03     11.4463E-03
            4810             863     12.2052E-03     11.7760E-03
            4810             864     11.9366E-03     11.3696E-03
            4810            5044     12.8543E-03     11.8204E-03
            4810            5062     12.8165E-03     11.4463E-03
            4811             811     55.3937E-03     56.3716E-03
            4811             812     51.2966E-03     52.4016E-03
            4811            5045     49.0713E-03     50.3652E-03
            4811            5063     47.2134E-03     48.4409E-03
            4812            5045     49.0713E-03     50.3652E-03
            4812            5046     43.8826E-03     45.5735E-03
            4812            5063     47.2134E-03     48.4409E-03
            4812            5064     43.6550E-03     44.9966E-03
            4813            5046     43.8826E-03     45.5735E-03
            4813            5047     40.0858E-03     41.8979E-03
            4813            5064     43.6550E-03     44.9966E-03
            4813            5065     40.4770E-03     41.9426E-03
            4814            5047     40.0858E-03     41.8979E-03
            4814            5048     36.9256E-03     38.7455E-03
            4814            5065     40.4770E-03     41.9426E-03
            4814            5066     37.7326E-03     39.1861E-03
            4815            5048     36.9256E-03     38.7455E-03
            4815            5049     34.1475E-03     35.9631E-03
            4815            5066     37.7326E-03     39.1861E-03
            4815            5067     35.1481E-03     36.5534E-03
            4816            5049     34.1475E-03     35.9631E-03
            4816            5050     31.6197E-03     33.3850E-03
            4816            5067     35.1481E-03     36.5534E-03
            4816            5068     32.6915E-03     34.0451E-03
            4817            5050     31.6197E-03     33.3850E-03
            4817            5051     29.2305E-03     30.9515E-03
            4817            5068     32.6915E-03     34.0451E-03
            4817            5069     30.3325E-03     31.6219E-03
            4818            5051     29.2305E-03     30.9515E-03
            4818            5052     26.9644E-03     28.6243E-03
            4818            5069     30.3325E-03     31.6219E-03
            4818            5070     28.0647E-03     29.2970E-03
            4819            5052     26.9644E-03     28.6243E-03
            4819            5053     24.7962E-03     26.3892E-03
            4819            5070     28.0647E-03     29.2970E-03
            4819            5071     25.8998E-03     27.0666E-03
            4820            5053     24.7962E-03     26.3892E-03
            4820            5054     22.7384E-03     24.2450E-03
            4820            5071     25.8998E-03     27.0666E-03
            4820            5072     23.8510E-03     24.9463E-03
            4821            5054     22.7384E-03     24.2450E-03
            4821            5055     20.8056E-03     22.1992E-03
            4821            5072     23.8510E-03     24.9463E-03
            4821            5073     21.9369E-03     22.9406E-03
            4822            5055     20.8056E-03     22.1992E-03
            4822            5056     19.0205E-03     20.2575E-03
            4822            5073     21.9369E-03     22.9406E-03
            4822            5074     20.1840E-03     21.0670E-03
            4823            5056     19.0205E-03     20.2575E-03
            4823            5057     17.4226E-03     18.4430E-03
            4823            5074     20.1840E-03     21.0670E-03
            4823            5075     18.6092E-03     19.3153E-03
            4824            5057     17.4226E-03     18.4430E-03
            4824            5058     16.0354E-03     16.7530E-03
            4824            5075     18.6092E-03     19.3153E-03
            4824            5076     17.2296E-03     17.6864E-03
            4825            5058     16.0354E-03     16.7530E-03
            4825            5059     14.9154E-03     15.2368E-03
            4825            5076     17.2296E-03     17.6864E-03
            4825            5077     16.0463E-03     16.1493E-03
            4826            5059     14.9154E-03     15.2368E-03
            4826            5060     14.0762E-03     13.9001E-03
            4826            5077     16.0463E-03     16.1493E-03
            4826            5078     14.9794E-03     14.5970E-03
            4827            5060     14.0762E-03     13.9001E-03
            4827            5061     13.3667E-03     12.5689E-03
            4827            5078     14.9794E-03     14.5970E-03
            4827            5079     14.0343E-03     13.1333E-03
            4828            5061     13.3667E-03     12.5689E-03
            4828            5062     12.8165E-03     11.4463E-03
            4828            5079     14.0343E-03     13.1333E-03
            4828            5080     13.2321E-03     11.9039E-03
            4829             864     11.9366E-03     11.3696E-03
            4829             865     12.3055E-03     11.4902E-03
            4829            5062     12.8165E-03     11.4463E-03
            4829            5080     13.2321E-03     11.9039E-03
            4830             812     51.2966E-03     52.4016E-03
            4830             813     47.1222E-03     47.9529E-03
            4830            5063     47.2134E-03     48.4409E-03
            4830            5081     44.5709E-03     45.6962E-03
            4831            5063     47.2134E-03     48.4409E-03
            4831            5064     43.6550E-03     44.9966E-03
            4831            5081     44.5709E-03     45.6962E-03
            4831            5082     42.4735E-03     43.6512E-03
            4832            5064     43.6550E-03     44.9966E-03
            4832            5065     40.4770E-03     41.9426E-03
            4832            5082     42.4735E-03     43.6512E-03
            4832            5083     40.3544E-03     41.4757E-03
            4833            5065     40.4770E-03     41.9426E-03
            4833            5066     37.7326E-03     39.1861E-03
            4833            5083     40.3544E-03     41.4757E-03
            4833            5084     38.0988E-03     39.1737E-03
            4834            5066     37.7326E-03     39.1861E-03
            4834            5067     35.1481E-03     36.5534E-03
            4834            5084     38.0988E-03     39.1737E-03
            4834            5085     35.8182E-03     36.8076E-03
            4835            5067     35.1481E-03     36.5534E-03
            4835            5068     32.6915E-03     34.0451E-03
            4835            5085     35.8182E-03     36.8076E-03
            4835            5086     33.4908E-03     34.4105E-03
            4836            5068     32.6915E-03     34.0451E-03
            4836            5069     30.3325E-03     31.6219E-03
            4836            5086     33.4908E-03     34.4105E-03
            4836            5087     31.1988E-03     32.0582E-03
            4837            5069     30.3325E-03     31.6219E-03
            4837            5070     28.0647E-03     29.2970E-03
            4837            5087     31.1988E-03     32.0582E-03
            4837            5088     28.9632E-03     29.7668E-03
            4838            5070     28.0647E-03     29.2970E-03
            4838            5071     25.8998E-03     27.0666E-03
            4838            5088     28.9632E-03     29.7668E-03
            4838            5089     26.8223E-03     27.5771E-03
            4839            5071     25.8998E-03     27.0666E-03
            4839            5072     23.8510E-03     24.9463E-03
            4839            5089     26.8223E-03     27.5771E-03
            4839            5090     24.7967E-03     25.4999E-03
            4840            5072     23.8510E-03     24.9463E-03
            4840            5073     21.9369E-03     22.9406E-03
            4840            5090     24.7967E-03     25.4999E-03
            4840            5091     22.9148E-03     23.5606E-03
            4841            5073     21.9369E-03     22.9406E-03
            4841            5074     20.1840E-03     21.0670E-03
            4841            5091     22.9148E-03     23.5606E-03
            4841            5092     21.1920E-03     21.7612E-03
            4842            5074     20.1840E-03     21.0670E-03
            4842            5075     18.6092E-03     19.3153E-03
            4842            5092     21.1920E-03     21.7612E-03
            4842            5093     19.6474E-03     20.1066E-03
            4843            5075     18.6092E-03     19.3153E-03
            4843            5076     17.2296E-03     17.6864E-03
            4843            5093     19.6474E-03     20.1066E-03
            4843            5094     18.2853E-03     18.5590E-03
            4844            5076     17.2296E-03     17.6864E-03
            4844            5077     16.0463E-03     16.1493E-03
            4844            5094     18.2853E-03     18.5590E-03
            4844            5095     17.0574E-03     17.0427E-03
            4845            5077     16.0463E-03     16.1493E-03
            4845            5078     14.9794E-03     14.5970E-03
            4845            5095     17.0574E-03     17.0427E-03
            4845            5096     15.9447E-03     15.5427E-03
            4846            5078     14.9794E-03     14.5970E-03
            4846            5079     14.0343E-03     13.1333E-03
            4846            5096     15.9447E-03     15.5427E-03
            4846            5097     14.8804E-03     14.0159E-03
            4847            5079     14.0343E-03     13.1333E-03
            4847            5080     13.2321E-03     11.9039E-03
            4847            5097     14.8804E-03     14.0159E-03
            4847            5098     13.8759E-03     12.6121E-03
            4848             865     12.3055E-03     11.4902E-03
            4848             866     12.7559E-03     11.9492E-03
            4848            5080     13.2321E-03     11.9039E-03
            4848            5098     13.8759E-03     12.6121E-03
            4849             813     47.1222E-03     47.9529E-03
            4849             814     42.6111E-03     43.4400E-03
            4849            5081     44.5709E-03     45.6962E-03
            4849            5099     41.7167E-03     42.6384E-03
            4850            5081     44.5709E-03     45.6962E-03
            4850            5082     42.4735E-03     43.6512E-03
            4850            5099     41.7167E-03     42.6384E-03
            4850            5100     40.8912E-03     41.8060E-03
            4851            5082     42.4735E-03     43.6512E-03
            4851            5083     40.3544E-03     41.4757E-03
            4851            5100     40.8912E-03     41.8060E-03
            4851            5101     39.7089E-03     40.4970E-03
            4852            5083     40.3544E-03     41.4757E-03
            4852            5084     38.0988E-03     39.1737E-03
            4852            5101     39.7089E-03     40.4970E-03
            4852            5102     38.0702E-03     38.7000E-03
            4853            5084     38.0988E-03     39.1737E-03
            4853            5085     35.8182E-03     36.8076E-03
            4853            5102     38.0702E-03     38.7000E-03
            4853            5103     36.0756E-03     36.6199E-03
            4854            5085     35.8182E-03     36.8076E-03
            4854            5086     33.4908E-03     34.4105E-03
            4854            5103     36.0756E-03     36.6199E-03
            4854            5104     33.9540E-03     34.4175E-03
            4855            5086     33.4908E-03     34.4105E-03
            4855            5087     31.1988E-03     32.0582E-03
            4855            5104     33.9540E-03     34.4175E-03
            4855            5105     31.7656E-03     32.1792E-03
            4856            5087     31.1988E-03     32.0582E-03
            4856            5088     28.9632E-03     29.7668E-03
            4856            5105     31.7656E-03     32.1792E-03
            4856            5106     29.6149E-03     29.9894E-03
            4857            5088     28.9632E-03     29.7668E-03
            4857            5089     26.8223E-03     27.5771E-03
            4857            5106     29.6149E-03     29.9894E-03
            4857            5107     27.5340E-03     27.8798E-03
            4858            5089     26.8223E-03     27.5771E-03
            4858            5090     24.7967E-03     25.4999E-03
            4858            5107     27.5340E-03     27.8798E-03
            4858            5108     25.5691E-03     25.8923E-03
            4859            5090     24.7967E-03     25.4999E-03
            4859            5091     22.9148E-03     23.5606E-03
            4859            5108     25.5691E-03     25.8923E-03
            4859            5109     23.7387E-03     24.0435E-03
            4860            5091     22.9148E-03     23.5606E-03
            4860            5092     21.1920E-03     21.7612E-03
            4860            5109     23.7387E-03     24.0435E-03
            4860            5110     22.0694E-03     22.3536E-03
            4861            5092     21.1920E-03     21.7612E-03
            4861            5093     19.6474E-03     20.1066E-03
            4861            5110     22.0694E-03     22.3536E-03
            4861            5111     20.5675E-03     20.8185E-03
            4862            5093     19.6474E-03     20.1066E-03
            4862            5094     18.2853E-03     18.5590E-03
            4862            5111     20.5675E-03     20.8185E-03
            4862            5112     19.2305E-03     19.4089E-03
            4863            5094     18.2853E-03     18.5590E-03
            4863            5095     17.0574E-03     17.0427E-03
            4863            5112     19.2305E-03     19.4089E-03
            4863            5113     18.0498E-03     18.0420E-03
            4864            5095     17.0574E-03     17.0427E-03
            4864            5096     15.9447E-03     15.5427E-03
            4864            5113     18.0498E-03     18.0420E-03
            4864            5114     16.9298E-03     16.6215E-03
            4865            5096     15.9447E-03     15.5427E-03
            4865            5097     14.8804E-03     14.0159E-03
            4865            5114     16.9298E-03     16.6215E-03
            4865            5115     15.8297E-03     15.1339E-03
            4866            5097     14.8804E-03     14.0159E-03
            4866            5098     13.8759E-03     12.6121E-03
            4866            5115     15.8297E-03     15.1339E-03
            4866            5116     14.7177E-03     13.5748E-03
            4867             866     12.7559E-03     11.9492E-03
            4867             867     13.4735E-03     12.5077E-03
            4867            5098     13.8759E-03     12.6121E-03
            4867            5116     14.7177E-03     13.5748E-03
            4868             814     42.6111E-03     43.4400E-03
            4868             815     38.1100E-03     38.7272E-03
            4868            5099     41.7167E-03     42.6384E-03
            4868            5117     38.6931E-03     39.4415E-03
            4869            5099     41.7167E-03     42.6384E-03
            4869            5100     40.8912E-03     41.8060E-03
            4869            5117     38.6931E-03     39.4415E-03
            4869            5118     39.1854E-03     39.7033E-03
            4870            5100     40.8912E-03     41.8060E-03
            4870            5101     39.7089E-03     40.4970E-03
            4870            5118     39.1854E-03     39.7033E-03
            4870            5119     38.7781E-03     39.0592E-03
            4871            5101     39.7089E-03     40.4970E-03
            4871            5102     38.0702E-03     38.7000E-03
            4871            5119     38.7781E-03     39.0592E-03
            4871            5120     37.5848E-03     37.7261E-03
            4872            5102     38.0702E-03     38.7000E-03
            4872            5103     36.0756E-03     36.6199E-03
            4872            5120     37.5848E-03     37.7261E-03
            4872            5121     35.9460E-03     35.9779E-03
            4873            5103     36.0756E-03     36.6199E-03
            4873            5104     33.9540E-03     34.4175E-03
            4873            5121     35.9460E-03     35.9779E-03
            4873            5122     34.0275E-03     34.0130E-03
            4874            5104     33.9540E-03     34.4175E-03
            4874            5105     31.7656E-03     32.1792E-03
            4874            5122     34.0275E-03     34.0130E-03
            4874            5123     32.0257E-03     31.9781E-03
            4875            5105     31.7656E-03     32.1792E-03
            4875            5106     29.6149E-03     29.9894E-03
            4875            5123     32.0257E-03     31.9781E-03
            4875            5124     30.0059E-03     29.9477E-03
            4876            5106     29.6149E-03     29.9894E-03
            4876            5107     27.5340E-03     27.8798E-03
            4876            5124     30.0059E-03     29.9477E-03
            4876            5125     28.0491E-03     27.9890E-03
            4877            5107     27.5340E-03     27.8798E-03
            4877            5108     25.5691E-03     25.8923E-03
            4877            5125     28.0491E-03     27.9890E-03
            4877            5126     26.1838E-03     26.1347E-03
            4878            5108     25.5691E-03     25.8923E-03
            4878            5109     23.7387E-03     24.0435E-03
            4878            5126     26.1838E-03     26.1347E-03
            4878            5127     24.4473E-03     24.4185E-03
            4879            5109     23.7387E-03     24.0435E-03
            4879            5110     22.0694E-03     22.3536E-03
            4879            5127     24.4473E-03     24.4185E-03
            4879            5128     22.8522E-03     22.8620E-03
            4880            5110     22.0694E-03     22.3536E-03
            4880            5111     20.5675E-03     20.8185E-03
            4880            5128     22.8522E-03     22.8620E-03
            4880            5129     21.4147E-03     21.4707E-03
            4881            5111     20.5675E-03     20.8185E-03
            4881            5112     19.2305E-03     19.4089E-03
            4881            5129     21.4147E-03     21.4707E-03
            4881            5130     20.1255E-03     20.2379E-03
            4882            5112     19.2305E-03     19.4089E-03
            4882            5113     18.0498E-03     18.0420E-03
            4882            5130     20.1255E-03     20.2379E-03
            4882            5131     18.9772E-03     19.1069E-03
            4883            5113     18.0498E-03     18.0420E-03
            4883            5114     16.9298E-03     16.6215E-03
            4883            5131     18.9772E-03     19.1069E-03
            4883            5132     17.9487E-03     17.8700E-03
            4884            5114     16.9298E-03     16.6215E-03
            4884            5115     15.8297E-03     15.1339E-03
            4884            5132     17.9487E-03     17.8700E-03
            4884            5133     16.8546E-03     16.4066E-03
            4885            5115     15.8297E-03     15.1339E-03
            4885            5116     14.7177E-03     13.5748E-03
            4885            5133     16.8546E-03     16.4066E-03
            4885            5134     15.6148E-03     14.8391E-03
            4886             867     13.4735E-03     12.5077E-03
            4886             868     14.1718E-03     13.5846E-03
            4886            5116     14.7177E-03     13.5748E-03
            4886            5134     15.6148E-03     14.8391E-03
            4887             815     38.1100E-03     38.7272E-03
            4887             816     33.4288E-03     33.9510E-03
            4887            5117     38.6931E-03     39.4415E-03
            4887            5135     35.9722E-03     36.1961E-03
            4888            5117     38.6931E-03     39.4415E-03
            4888            5118     39.1854E-03     39.7033E-03
            4888            5135     35.9722E-03     36.1961E-03
            4888            5136     37.4343E-03     37.2851E-03
            4889            5118     39.1854E-03     39.7033E-03
            4889            5119     38.7781E-03     39.0592E-03
            4889            5136     37.4343E-03     37.2851E-03
            4889            5137     37.4994E-03     37.1477E-03
            4890            5119     38.7781E-03     39.0592E-03
            4890            5120     37.5848E-03     37.7261E-03
            4890            5137     37.4994E-03     37.1477E-03
            4890            5138     36.7177E-03     36.2477E-03
            4891            5120     37.5848E-03     37.7261E-03
            4891            5121     35.9460E-03     35.9779E-03
            4891            5138     36.7177E-03     36.2477E-03
            4891            5139     35.3772E-03     34.8694E-03
            4892            5121     35.9460E-03     35.9779E-03
            4892            5122     34.0275E-03     34.0130E-03
            4892            5139     35.3772E-03     34.8694E-03
            4892            5140     33.7578E-03     33.2337E-03
            4893            5122     34.0275E-03     34.0130E-03
            4893            5123     32.0257E-03     31.9781E-03
            4893            5140     33.7578E-03     33.2337E-03
            4893            5141     31.9869E-03     31.4776E-03
            4894            5123     32.0257E-03     31.9781E-03
            4894            5124     30.0059E-03     29.9477E-03
            4894            5141     31.9869E-03     31.4776E-03
            4894            5142     30.1872E-03     29.6981E-03
            4895            5124     30.0059E-03     29.9477E-03
            4895            5125     28.0491E-03     27.9890E-03
            4895            5142     30.1872E-03     29.6981E-03
            4895            5143     28.4082E-03     27.9533E-03
            4896            5125     28.0491E-03     27.9890E-03
            4896            5126     26.1838E-03     26.1347E-03
            4896            5143     28.4082E-03     27.9533E-03
            4896            5144     26.7030E-03     26.2901E-03
            4897            5126     26.1838E-03     26.1347E-03
            4897            5127     24.4473E-03     24.4185E-03
            4897            5144     26.7030E-03     26.2901E-03
            4897            5145     25.0948E-03     24.7426E-03
            4898            5127     24.4473E-03     24.4185E-03
            4898            5128     22.8522E-03     22.8620E-03
            4898            5145     25.0948E-03     24.7426E-03
            4898            5146     23.6076E-03     23.3346E-03
            4899            5128     22.8522E-03     22.8620E-03
            4899            5129     21.4147E-03     21.4707E-03
            4899            5146     23.6076E-03     23.3346E-03
            4899            5147     22.2471E-03     22.0970E-03
            4900            5129     21.4147E-03     21.4707E-03
            4900            5130     20.1255E-03     20.2379E-03
            4900            5147     22.2471E-03     22.0970E-03
            4900            5148     21.0194E-03     21.0235E-03
            4901            5130     20.1255E-03     20.2379E-03
            4901            5131     18.9772E-03     19.1069E-03
            4901            5148     21.0194E-03     21.0235E-03
            4901            5149     19.8875E-03     20.1169E-03
            4902            5131     18.9772E-03     19.1069E-03
            4902            5132     17.9487E-03     17.8700E-03
            4902            5149     19.8875E-03     20.1169E-03
            4902            5150     18.8640E-03     19.2791E-03
            4903            5132     17.9487E-03     17.8700E-03
            4903            5133     16.8546E-03     16.4066E-03
            4903            5150     18.8640E-03     19.2791E-03
            4903            5151     17.9357E-03     18.0186E-03
            4904            5133     16.8546E-03     16.4066E-03
            4904            5134     15.6148E-03     14.8391E-03
            4904            5151     17.9357E-03     18.0186E-03
            4904            5152     16.6873E-03     16.1329E-03
            4905             868     14.1718E-03     13.5846E-03
            4905             869     14.9923E-03     14.3181E-03
            4905            5134     15.6148E-03     14.8391E-03
            4905            5152     16.6873E-03     16.1329E-03
            4906             816     33.4288E-03     33.9510E-03
            4906             817     29.4647E-03     29.1697E-03
            4906            5135     35.9722E-03     36.1961E-03
            4906            5153     33.6286E-03     32.7703E-03
            4907            5135     35.9722E-03     36.1961E-03
            4907            5136     37.4343E-03     37.2851E-03
            4907            5153     33.6286E-03     32.7703E-03
            4907            5154     35.3985E-03     34.3202E-03
            4908            5136     37.4343E-03     37.2851E-03
            4908            5137     37.4994E-03     37.1477E-03
            4908            5154     35.3985E-03     34.3202E-03
            4908            5155     35.8333E-03     34.7018E-03
            4909            5137     37.4994E-03     37.1477E-03
            4909            5138     36.7177E-03     36.2477E-03
            4909            5155     35.8333E-03     34.7018E-03
            4909            5156     35.4066E-03     34.2840E-03
            4910            5138     36.7177E-03     36.2477E-03
            4910            5139     35.3772E-03     34.8694E-03
            4910            5156     35.4066E-03     34.2840E-03
            4910            5157     34.4547E-03     33.3748E-03
            4911            5139     35.3772E-03     34.8694E-03
            4911            5140     33.7578E-03     33.2337E-03
            4911            5157     34.4547E-03     33.3748E-03
            4911            5158     33.1894E-03     32.1684E-03
            4912            5140     33.7578E-03     33.2337E-03
            4912            5141     31.9869E-03     31.4776E-03
            4912            5158     33.1894E-03     32.1684E-03
            4912            5159     31.7560E-03     30.7939E-03
            4913            5141     31.9869E-03     31.4776E-03
            4913            5142     30.1872E-03     29.6981E-03
            4913            5159     31.7560E-03     30.7939E-03
            4913            5160     30.2405E-03     29.3452E-03
            4914            5142     30.1872E-03     29.6981E-03
            4914            5143     28.4082E-03     27.9533E-03
            4914            5160     30.2405E-03     29.3452E-03
            4914            5161     28.7124E-03     27.8845E-03
            4915            5143     28.4082E-03     27.9533E-03
            4915            5144     26.7030E-03     26.2901E-03
            4915            5161     28.7124E-03     27.8845E-03
            4915            5162     27.2118E-03     26.4604E-03
            4916            5144     26.7030E-03     26.2901E-03
            4916            5145     25.0948E-03     24.7426E-03
            4916            5162     27.2118E-03     26.4604E-03
            4916            5163     25.7709E-03     25.1079E-03
            4917            5145     25.0948E-03     24.7426E-03
            4917            5146     23.6076E-03     23.3346E-03
            4917            5163     25.7709E-03     25.1079E-03
            4917            5164     24.4133E-03     23.8627E-03
            4918            5146     23.6076E-03     23.3346E-03
            4918            5147     22.2471E-03     22.0970E-03
            4918            5164     24.4133E-03     23.8627E-03
            4918            5165     23.1470E-03     22.7442E-03
            4919            5147     22.2471E-03     22.0970E-03
            4919            5148     21.0194E-03     21.0235E-03
            4919            5165     23.1470E-03     22.7442E-03
            4919            5166     21.9745E-03     21.7945E-03
            4920            5148     21.0194E-03     21.0235E-03
            4920            5149     19.8875E-03     20.1169E-03
            4920            5166     21.9745E-03     21.7945E-03
            4920            5167     20.8793E-03     21.0002E-03
            4921            5149     19.8875E-03     20.1169E-03
            4921            5150     18.8640E-03     19.2791E-03
            4921            5167     20.8793E-03     21.0002E-03
            4921            5168     19.7803E-03     20.4415E-03
            4922            5150     18.8640E-03     19.2791E-03
            4922            5151     17.9357E-03     18.0186E-03
            4922            5168     19.7803E-03     20.4415E-03
            4922            5169     18.7234E-03     19.9044E-03
            4923            5151     17.9357E-03     18.0186E-03
            4923            5152     16.6873E-03     16.1329E-03
            4923            5169     18.7234E-03     19.9044E-03
            4923            5170     17.7128E-03     18.3764E-03
            4924             869     14.9923E-03     14.3181E-03
            4924             870     16.1693E-03     16.1833E-03
            4924            5152     16.6873E-03     16.1329E-03
            4924            5170     17.7128E-03     18.3764E-03
            4925             817     29.4647E-03     29.1697E-03
            4925             818     26.8393E-03     24.4410E-03
            4925            5153     33.6286E-03     32.7703E-03
            4925            5171     30.9564E-03     28.6007E-03
            4926            5153     33.6286E-03     32.7703E-03
            4926            5154     35.3985E-03     34.3202E-03
            4926            5171     30.9564E-03     28.6007E-03
            4926            5172     32.8813E-03     30.7563E-03
            4927            5154     35.3985E-03     34.3202E-03
            4927            5155     35.8333E-03     34.7018E-03
            4927            5172     32.8813E-03     30.7563E-03
            4927            5173     33.7196E-03     31.7852E-03
            4928            5155     35.8333E-03     34.7018E-03
            4928            5156     35.4066E-03     34.2840E-03
            4928            5173     33.7196E-03     31.7852E-03
            4928            5174     33.7598E-03     32.0057E-03
            4929            5156     35.4066E-03     34.2840E-03
            4929            5157     34.4547E-03     33.3748E-03
            4929            5174     33.7598E-03     32.0057E-03
            4929            5175     33.3100E-03     31.7053E-03
            4930            5157     34.4547E-03     33.3748E-03
            4930            5158     33.1894E-03     32.1684E-03
            4930            5175     33.3100E-03     31.7053E-03
            4930            5176     32.5096E-03     31.0303E-03
            4931            5158     33.1894E-03     32.1684E-03
            4931            5159     31.7560E-03     30.7939E-03
            4931            5176     32.5096E-03     31.0303E-03
            4931            5177     31.4877E-03     30.1252E-03
            4932            5159     31.7560E-03     30.7939E-03
            4932            5160     30.2405E-03     29.3452E-03
            4932            5177     31.4877E-03     30.1252E-03
            4932            5178     30.3268E-03     29.0682E-03
            4933            5160     30.2405E-03     29.3452E-03
            4933            5161     28.7124E-03     27.8845E-03
            4933            5178     30.3268E-03     29.0682E-03
            4933            5179     29.0915E-03     27.9370E-03
            4934            5161     28.7124E-03     27.8845E-03
            4934            5162     27.2118E-03     26.4604E-03
            4934            5179     29.0915E-03     27.9370E-03
            4934            5180     27.8280E-03     26.7793E-03
            4935            5162     27.2118E-03     26.4604E-03
            4935            5163     25.7709E-03     25.1079E-03
            4935            5180     27.8280E-03     26.7793E-03
            4935            5181     26.5766E-03     25.6381E-03
            4936            5163     25.7709E-03     25.1079E-03
            4936            5164     24.4133E-03     23.8627E-03
            4936            5181     26.5766E-03     25.6381E-03
            4936            5182     25.3550E-03     24.5455E-03
            4937            5164     24.4133E-03     23.8627E-03
            4937            5165     23.1470E-03     22.7442E-03
            4937            5182     25.3550E-03     24.5455E-03
            4937            5183     24.1952E-03     23.5284E-03
            4938            5165     23.1470E-03     22.7442E-03
            4938            5166     21.9745E-03     21.7945E-03
            4938            5183     24.1952E-03     23.5284E-03
            4938            5184     23.0788E-03     22.6103E-03
            4939            5166     21.9745E-03     21.7945E-03
            4939            5167     20.8793E-03     21.0002E-03
            4939            5184     23.0788E-03     22.6103E-03
            4939            5185     22.0273E-03     21.8246E-03
            4940            5167     20.8793E-03     21.0002E-03
            4940            5168     19.7803E-03     20.4415E-03
            4940            5185     22.0273E-03     21.8246E-03
            4940            5186     20.9410E-03     21.1716E-03
            4941            5168     19.7803E-03     20.4415E-03
            4941            5169     18.7234E-03     19.9044E-03
            4941            5186     20.9410E-03     21.1716E-03
            4941            5187     19.7450E-03     20.9042E-03
            4942            5169     18.7234E-03     19.9044E-03
            4942            5170     17.7128E-03     18.3764E-03
            4942            5187     19.7450E-03     20.9042E-03
            4942            5188     18.3127E-03     20.5115E-03
            4943             870     16.1693E-03     16.1833E-03
            4943             871     15.9808E-03     18.9263E-03
            4943            5170     17.7128E-03     18.3764E-03
            4943            5188     18.3127E-03     20.5115E-03
            4944             818     26.8393E-03     24.4410E-03
            4944             819     20.1280E-03     19.7029E-03
            4944            5171     30.9564E-03     28.6007E-03
            4944            5189     21.9170E-03     21.6516E-03
            4945            5171     30.9564E-03     28.6007E-03
            4945            5172     32.8813E-03     30.7563E-03
            4945            5189     21.9170E-03     21.6516E-03
            4945            5190     23.1362E-03     22.9289E-03
            4946            5172     32.8813E-03     30.7563E-03
            4946            5173     33.7196E-03     31.7852E-03
            4946            5190     23.1362E-03     22.9289E-03
            4946            5191     23.4448E-03     23.4271E-03
            4947            5173     33.7196E-03     31.7852E-03
            4947            5174     33.7598E-03     32.0057E-03
            4947            5191     23.4448E-03     23.4271E-03
            4947            5192     23.5423E-03     23.5835E-03
            4948            5174     33.7598E-03     32.0057E-03
            4948            5175     33.3100E-03     31.7053E-03
            4948            5192     23.5423E-03     23.5835E-03
            4948            5193     23.3087E-03     23.4034E-03
            4949            5175     33.3100E-03     31.7053E-03
            4949            5176     32.5096E-03     31.0303E-03
            4949            5193     23.3087E-03     23.4034E-03
            4949            5194     22.9684E-03     23.0712E-03
            4950            5176     32.5096E-03     31.0303E-03
            4950            5177     31.4877E-03     30.1252E-03
            4950            5194     22.9684E-03     23.0712E-03
            4950            5195     22.4796E-03     22.5861E-03
            4951            5177     31.4877E-03     30.1252E-03
            4951            5178     30.3268E-03     29.0682E-03
            4951            5195     22.4796E-03     22.5861E-03
            4951            5196     21.9404E-03     22.0310E-03
            4952            5178     30.3268E-03     29.0682E-03
            4952            5179     29.0915E-03     27.9370E-03
            4952            5196     21.9404E-03     22.0310E-03
            4952            5197     21.3467E-03     21.4214E-03
            4953            5179     29.0915E-03     27.9370E-03
            4953            5180     27.8280E-03     26.7793E-03
            4953            5197     21.3467E-03     21.4214E-03
            4953            5198     20.7435E-03     20.7932E-03
            4954            5180     27.8280E-03     26.7793E-03
            4954            5181     26.5766E-03     25.6381E-03
            4954            5198     20.7435E-03     20.7932E-03
            4954            5199     20.1421E-03     20.1708E-03
            4955            5181     26.5766E-03     25.6381E-03
            4955            5182     25.3550E-03     24.5455E-03
            4955            5199     20.1421E-03     20.1708E-03
            4955            5200     19.5554E-03     19.5588E-03
            4956            5182     25.3550E-03     24.5455E-03
            4956            5183     24.1952E-03     23.5284E-03
            4956            5200     19.5554E-03     19.5588E-03
            4956            5201     19.0096E-03     18.9982E-03
            4957            5183     24.1952E-03     23.5284E-03
            4957            5184     23.0788E-03     22.6103E-03
            4957            5201     19.0096E-03     18.9982E-03
            4957            5202     18.4791E-03     18.4476E-03
            4958            5184     23.0788E-03     22.6103E-03
            4958            5185     22.0273E-03     21.8246E-03
            4958            5202     18.4791E-03     18.4476E-03
            4958            5203     17.9947E-03     18.0142E-03
            4959            5185     22.0273E-03     21.8246E-03
            4959            5186     20.9410E-03     21.1716E-03
            4959            5203     17.9947E-03     18.0142E-03
            4959            5204     17.4509E-03     17.4545E-03
            4960            5186     20.9410E-03     21.1716E-03
            4960            5187     19.7450E-03     20.9042E-03
            4960            5204     17.4509E-03     17.4545E-03
            4960            5205     16.8446E-03     17.0166E-03
            4961            5187     19.7450E-03     20.9042E-03
            4961            5188     18.3127E-03     20.5115E-03
            4961            5205     16.8446E-03     17.0166E-03
            4961            5206     15.6514E-03     16.6011E-03
            4962             871     15.9808E-03     18.9263E-03
            4962             872     11.8227E-03     15.0783E-03
            4962            5188     18.3127E-03     20.5115E-03
            4962            5206     15.6514E-03     16.6011E-03
            4963             819     20.1280E-03     19.7029E-03
            4963             820     15.5081E-03     17.4884E-03
            4963            5189     21.9170E-03     21.6516E-03
            4963            5207     15.4096E-03     17.0839E-03
            4964            5189     21.9170E-03     21.6516E-03
            4964            5190     23.1362E-03     22.9289E-03
            4964            5207     15.4096E-03     17.0839E-03
            4964            5208     15.2473E-03     16.7942E-03
            4965            5190     23.1362E-03     22.9289E-03
            4965            5191     23.4448E-03     23.4271E-03
            4965            5208     15.2473E-03     16.7942E-03
            4965            5209     14.8299E-03     16.3698E-03
            4966            5191     23.4448E-03     23.4271E-03
            4966            5192     23.5423E-03     23.5835E-03
            4966            5209     14.8299E-03     16.3698E-03
            4966            5210     14.5915E-03     16.0440E-03
            4967            5192     23.5423E-03     23.5835E-03
            4967            5193     23.3087E-03     23.4034E-03
            4967            5210     14.5915E-03     16.0440E-03
            4967            5211     14.3313E-03     15.7082E-03
            4968            5193     23.3087E-03     23.4034E-03
            4968            5194     22.9684E-03     23.0712E-03
            4968            5211     14.3313E-03     15.7082E-03
            4968            5212     14.1450E-03     15.4309E-03
            4969            5194     22.9684E-03     23.0712E-03
            4969            5195     22.4796E-03     22.5861E-03
            4969            5212     14.1450E-03     15.4309E-03
            4969            5213     13.9668E-03     15.1566E-03
            4970            5195     22.4796E-03     22.5861E-03
            4970            5196     21.9404E-03     22.0310E-03
            4970            5213     13.9668E-03     15.1566E-03
            4970            5214     13.8251E-03     14.9143E-03
            4971            5196     21.9404E-03     22.0310E-03
            4971            5197     21.3467E-03     21.4214E-03
            4971            5214     13.8251E-03     14.9143E-03
            4971            5215     13.7014E-03     14.6836E-03
            4972            5197     21.3467E-03     21.4214E-03
            4972            5198     20.7435E-03     20.7932E-03
            4972            5215     13.7014E-03     14.6836E-03
            4972            5216     13.6033E-03     14.4756E-03
            4973            5198     20.7435E-03     20.7932E-03
            4973            5199     20.1421E-03     20.1708E-03
            4973            5216     13.6033E-03     14.4756E-03
            4973            5217     13.5285E-03     14.2858E-03
            4974            5199     20.1421E-03     20.1708E-03
            4974            5200     19.5554E-03     19.5588E-03
            4974            5217     13.5285E-03     14.2858E-03
            4974            5218     13.4759E-03     14.1158E-03
            4975            5200     19.5554E-03     19.5588E-03
            4975            5201     19.0096E-03     18.9982E-03
            4975            5218     13.4759E-03     14.1158E-03
            4975            5219     13.4553E-03     13.9745E-03
            4976            5201     19.0096E-03     18.9982E-03
            4976            5202     18.4791E-03     18.4476E-03
            4976            5219     13.4553E-03     13.9745E-03
            4976            5220     13.4562E-03     13.8570E-03
            4977            5202     18.4791E-03     18.4476E-03
            4977            5203     17.9947E-03     18.0142E-03
            4977            5220     13.4562E-03     13.8570E-03
            4977            5221     13.5091E-03     13.7890E-03
            4978            5203     17.9947E-03     18.0142E-03
            4978            5204     17.4509E-03     17.4545E-03
            4978            5221     13.5091E-03     13.7890E-03
            4978            5222     13.5342E-03     13.6886E-03
            4979            5204     17.4509E-03     17.4545E-03
            4979            5205     16.8446E-03     17.0166E-03
            4979            5222     13.5342E-03     13.6886E-03
            4979            5223     13.4639E-03     13.3882E-03
            4980            5205     16.8446E-03     17.0166E-03
            4980            5206     15.6514E-03     16.6011E-03
            4980            5223     13.4639E-03     13.3882E-03
            4980            5224     12.6415E-03     11.9654E-03
            4981             872     11.8227E-03     15.0783E-03
            4981             873     9.09854E-03     9.22846E-03
            4981            5206     15.6514E-03     16.6011E-03
            4981            5224     12.6415E-03     11.9654E-03
            4982             820     15.5081E-03     17.4884E-03
            4982             821     16.5598E-03     16.7717E-03
            4982            5207     15.4096E-03     17.0839E-03
            4982            5225     16.9340E-03     16.8029E-03
            4983            5207     15.4096E-03     17.0839E-03
            4983            5208     15.2473E-03     16.7942E-03
            4983            5225     16.9340E-03     16.8029E-03
            4983            5226     16.1123E-03     16.2490E-03
            4984            5208     15.2473E-03     16.7942E-03
            4984            5209     14.8299E-03     16.3698E-03
            4984            5226     16.1123E-03     16.2490E-03
            4984            5227     15.7691E-03     15.8377E-03
            4985            5209     14.8299E-03     16.3698E-03
            4985            5210     14.5915E-03     16.0440E-03
            4985            5227     15.7691E-03     15.8377E-03
            4985            5228     15.4262E-03     15.5024E-03
            4986            5210     14.5915E-03     16.0440E-03
            4986            5211     14.3313E-03     15.7082E-03
            4986            5228     15.4262E-03     15.5024E-03
            4986            5229     15.1976E-03     15.2727E-03
            4987            5211     14.3313E-03     15.7082E-03
            4987            5212     14.1450E-03     15.4309E-03
            4987            5229     15.1976E-03     15.2727E-03
            4987            5230     14.9648E-03     15.0366E-03
            4988            5212     14.1450E-03     15.4309E-03
            4988            5213     13.9668E-03     15.1566E-03
            4988            5230     14.9648E-03     15.0366E-03
            4988            5231     14.7697E-03     14.8356E-03
            4989            5213     13.9668E-03     15.1566E-03
            4989            5214     13.8251E-03     14.9143E-03
            4989            5231     14.7697E-03     14.8356E-03
            4989            5232     14.5795E-03     14.6420E-03
            4990            5214     13.8251E-03     14.9143E-03
            4990            5215     13.7014E-03     14.6836E-03
            4990            5232     14.5795E-03     14.6420E-03
            4990            5233     14.4141E-03     14.4706E-03
            4991            5215     13.7014E-03     14.6836E-03
            4991            5216     13.6033E-03     14.4756E-03
            4991            5233     14.4141E-03     14.4706E-03
            4991            5234     14.2637E-03     14.3154E-03
            4992            5216     13.6033E-03     14.4756E-03
            4992            5217     13.5285E-03     14.2858E-03
            4992            5234     14.2637E-03     14.3154E-03
            4992            5235     14.1323E-03     14.1782E-03
            4993            5217     13.5285E-03     14.2858E-03
            4993            5218     13.4759E-03     14.1158E-03
            4993            5235     14.1323E-03     14.1782E-03
            4993            5236     14.0242E-03     14.0635E-03
            4994            5218     13.4759E-03     14.1158E-03
            4994            5219     13.4553E-03     13.9745E-03
            4994            5236     14.0242E-03     14.0635E-03
            4994            5237     13.9301E-03     13.9646E-03
            4995            5219     13.4553E-03     13.9745E-03
            4995            5220     13.4562E-03     13.8570E-03
            4995            5237     13.9301E-03     13.9646E-03
            4995            5238     13.8782E-03     13.9144E-03
            4996            5220     13.4562E-03     13.8570E-03
            4996            5221     13.5091E-03     13.7890E-03
            4996            5238     13.8782E-03     13.9144E-03
            4996            5239     13.8793E-03     13.8657E-03
            4997            5221     13.5091E-03     13.7890E-03
            4997            5222     13.5342E-03     13.6886E-03
            4997            5239     13.8793E-03     13.8657E-03
            4997            5240     13.9061E-03     14.0010E-03
            4998            5222     13.5342E-03     13.6886E-03
            4998            5223     13.4639E-03     13.3882E-03
            4998            5240     13.9061E-03     14.0010E-03
            4998            5241     13.7794E-03     13.8435E-03
            4999            5223     13.4639E-03     13.3882E-03
            4999            5224     12.6415E-03     11.9654E-03
            4999            5241     13.7794E-03     13.8435E-03
            4999            5242     12.5935E-03     11.7647E-03
            5000             873     9.09854E-03     9.22846E-03
            5000             874     9.85745E-03     8.05713E-03
            5000            5224     12.6415E-03     11.9654E-03
            5000            5242     12.5935E-03     11.7647E-03
            5001             821     16.5598E-03     16.7717E-03
            5001             822     15.6221E-03     14.0347E-03
            5001            5225     16.9340E-03     16.8029E-03
            5001            5243     17.0574E-03     15.4570E-03
            5002            5225     16.9340E-03     16.8029E-03
            5002            5226     16.1123E-03     16.2490E-03
            5002            5243     17.0574E-03     15.4570E-03
            5002            5244     16.9237E-03     15.4925E-03
            5003            5226     16.1123E-03     16.2490E-03
            5003            5227     15.7691E-03     15.8377E-03
            5003            5244     16.9237E-03     15.4925E-03
            5003            5245     16.6337E-03     15.2729E-03
            5004            5227     15.7691E-03     15.8377E-03
            5004            5228     15.4262E-03     15.5024E-03
            5004            5245     16.6337E-03     15.2729E-03
            5004            5246     16.3793E-03     15.1077E-03
            5005            5228     15.4262E-03     15.5024E-03
            5005            5229     15.1976E-03     15.2727E-03
            5005            5246     16.3793E-03     15.1077E-03
            5005            5247     16.1263E-03     14.9389E-03
            5006            5229     15.1976E-03     15.2727E-03
            5006            5230     14.9648E-03     15.0366E-03
            5006            5247     16.1263E-03     14.9389E-03
            5006            5248     15.8975E-03     14.7917E-03
            5007            5230     14.9648E-03     15.0366E-03
            5007            5231     14.7697E-03     14.8356E-03
            5007            5248     15.8975E-03     14.7917E-03
            5007            5249     15.6660E-03     14.6490E-03
            5008            5231     14.7697E-03     14.8356E-03
            5008            5232     14.5795E-03     14.6420E-03
            5008            5249     15.6660E-03     14.6490E-03
            5008            5250     15.4503E-03     14.5217E-03
            5009            5232     14.5795E-03     14.6420E-03
            5009            5233     14.4141E-03     14.4706E-03
            5009            5250     15.4503E-03     14.5217E-03
            5009            5251     15.2425E-03     14.4083E-03
            5010            5233     14.4141E-03     14.4706E-03
            5010            5234     14.2637E-03     14.3154E-03
            5010            5251     15.2425E-03     14.4083E-03
            5010            5252     15.0497E-03     14.3107E-03
            5011            5234     14.2637E-03     14.3154E-03
            5011            5235     14.1323E-03     14.1782E-03
            5011            5252     15.0497E-03     14.3107E-03
            5011            5253     14.8717E-03     14.2323E-03
            5012            5235     14.1323E-03     14.1782E-03
            5012            5236     14.0242E-03     14.0635E-03
            5012            5253     14.8717E-03     14.2323E-03
            5012            5254     14.7060E-03     14.1676E-03
            5013            5236     14.0242E-03     14.0635E-03
            5013            5237     13.9301E-03     13.9646E-03
            5013            5254     14.7060E-03     14.1676E-03
            5013            5255     14.5619E-03     14.1278E-03
            5014            5237     13.9301E-03     13.9646E-03
            5014            5238     13.8782E-03     13.9144E-03
            5014            5255     14.5619E-03     14.1278E-03
            5014            5256     14.4244E-03     14.0949E-03
            5015            5238     13.8782E-03     13.9144E-03
            5015            5239     13.8793E-03     13.8657E-03
            5015            5256     14.4244E-03     14.0949E-03
            5015            5257     14.3189E-03     14.0994E-03
            5016            5239     13.8793E-03     13.8657E-03
            5016            5240     13.9061E-03     14.0010E-03
            5016            5257     14.3189E-03     14.0994E-03
            5016            5258     14.1527E-03     14.0497E-03
            5017            5240     13.9061E-03     14.0010E-03
            5017            5241     13.7794E-03     13.8435E-03
            5017            5258     14.1527E-03     14.0497E-03
            5017            5259     13.7780E-03     13.7499E-03
            5018            5241     13.7794E-03     13.8435E-03
            5018            5242     12.5935E-03     11.7647E-03
            5018            5259     13.7780E-03     13.7499E-03
            5018            5260     12.5932E-03     12.3032E-03
            5019             874     9.85745E-03     8.05713E-03
            5019             875     9.09245E-03     9.28326E-03
            5019            5242     12.5935E-03     11.7647E-03
            5019            5260     12.5932E-03     12.3032E-03
            5020              36     7.63258E-03     6.40903E-03
            5020             822     15.6221E-03     14.0347E-03
            5020             893     8.55179E-03     7.49370E-03
            5020            5243     17.0574E-03     15.4570E-03
            5021             892     8.92580E-03     7.80399E-03
            5021             893     8.55179E-03     7.49370E-03
            5021            5243     17.0574E-03     15.4570E-03
            5021            5244     16.9237E-03     15.4925E-03
            5022             891     8.74210E-03     7.75002E-03
            5022             892     8.92580E-03     7.80399E-03
            5022            5244     16.9237E-03     15.4925E-03
            5022            5245     16.6337E-03     15.2729E-03
            5023             890     8.67860E-03     7.74371E-03
            5023             891     8.74210E-03     7.75002E-03
            5023            5245     16.6337E-03     15.2729E-03
            5023            5246     16.3793E-03     15.1077E-03
            5024             889     8.52475E-03     7.65099E-03
            5024             890     8.67860E-03     7.74371E-03
            5024            5246     16.3793E-03     15.1077E-03
            5024            5247     16.1263E-03     14.9389E-03
            5025             888     8.41655E-03     7.60689E-03
            5025             889     8.52475E-03     7.65099E-03
            5025            5247     16.1263E-03     14.9389E-03
            5025            5248     15.8975E-03     14.7917E-03
            5026             887     8.28214E-03     7.53751E-03
            5026             888     8.41655E-03     7.60689E-03
            5026            5248     15.8975E-03     14.7917E-03
            5026            5249     15.6660E-03     14.6490E-03
            5027             886     8.16680E-03     7.48973E-03
            5027             887     8.28214E-03     7.53751E-03
            5027            5249     15.6660E-03     14.6490E-03
            5027            5250     15.4503E-03     14.5217E-03
            5028             885     8.04763E-03     7.43990E-03
            5028             886     8.16680E-03     7.48973E-03
            5028            5250     15.4503E-03     14.5217E-03
            5028            5251     15.2425E-03     14.4083E-03
            5029             884     7.93831E-03     7.40213E-03
            5029             885     8.04763E-03     7.43990E-03
            5029            5251     15.2425E-03     14.4083E-03
            5029            5252     15.0497E-03     14.3107E-03
            5030             883     7.83572E-03     7.37275E-03
            5030             884     7.93831E-03     7.40213E-03
            5030            5252     15.0497E-03     14.3107E-03
            5030            5253     14.8717E-03     14.2323E-03
            5031             882     7.73623E-03     7.34845E-03
            5031             883     7.83572E-03     7.37275E-03
            5031            5253     14.8717E-03     14.2323E-03
            5031            5254     14.7060E-03     14.1676E-03
            5032             881     7.65276E-03     7.34070E-03
            5032             882     7.73623E-03     7.34845E-03
            5032            5254     14.7060E-03     14.1676E-03
            5032            5255     14.5619E-03     14.1278E-03
            5033             880     7.55776E-03     7.31979E-03
            5033             881     7.65276E-03     7.34070E-03
            5033            5255     14.5619E-03     14.1278E-03
            5033            5256     14.4244E-03     14.0949E-03
            5034             879     7.47267E-03     7.33614E-03
            5034             880     7.55776E-03     7.31979E-03
            5034            5256     14.4244E-03     14.0949E-03
            5034            5257     14.3189E-03     14.0994E-03
            5035             878     7.31468E-03     7.20643E-03
            5035             879     7.47267E-03     7.33614E-03
            5035            5257     14.3189E-03     14.0994E-03
            5035            5258     14.1527E-03     14.0497E-03
            5036             877     7.06023E-03     6.99495E-03
            5036             878     7.31468E-03     7.20643E-03
            5036            5258     14.1527E-03     14.0497E-03
            5036            5259     13.7780E-03     13.7499E-03
            5037             876     6.45499E-03     6.57891E-03
            5037             877     7.06023E-03     6.99495E-03
            5037            5259     13.7780E-03     13.7499E-03
            5037            5260     12.5932E-03     12.3032E-03
            5038              37     4.34063E-03     5.37776E-03
            5038             875     9.09245E-03     9.28326E-03
            5038             876     6.45499E-03     6.57891E-03
            5038            5260     12.5932E-03     12.3032E-03
            5039              37     4.34063E-03     5.37776E-03
            5039             894     2.79196E-03     3.54077E-03
            5039             941     378.844E-06     424.267E-06
            5039            5261     379.422E-06     420.403E-06
            5040             894     2.79196E-03     3.54077E-03
            5040             895     3.02799E-03     2.38215E-03
            5040            5261     379.422E-06     420.403E-06
            5040            5262     383.267E-06     413.494E-06
            5041             895     3.02799E-03     2.38215E-03
            5041             896     3.19285E-03     2.12565E-03
            5041            5262     383.267E-06     413.494E-06
            5041            5263     388.638E-06     412.440E-06
            5042             896     3.19285E-03     2.12565E-03
            5042             897     3.27884E-03     2.03425E-03
            5042            5263     388.638E-06     412.440E-06
            5042            5264     391.221E-06     417.342E-06
            5043             897     3.27884E-03     2.03425E-03
            5043             898     3.43324E-03     2.04690E-03
            5043            5264     391.221E-06     417.342E-06
            5043            5265     393.172E-06     423.896E-06
            5044             898     3.43324E-03     2.04690E-03
            5044             899     3.59128E-03     2.07781E-03
            5044            5265     393.172E-06     423.896E-06
            5044            5266     396.149E-06     431.207E-06
            5045             899     3.59128E-03     2.07781E-03
            5045             900     3.76275E-03     2.15376E-03
            5045            5266     396.149E-06     431.207E-06
            5045            5267     400.101E-06     439.027E-06
            5046             900     3.76275E-03     2.15376E-03
            5046             901     3.93598E-03     2.23673E-03
            5046            5267     400.101E-06     439.027E-06
            5046            5268     405.451E-06     447.518E-06
            5047             901     3.93598E-03     2.23673E-03
            5047             902     4.11506E-03     2.34495E-03
            5047            5268     405.451E-06     447.518E-06
            5047            5269     411.847E-06     456.727E-06
            5048             902     4.11506E-03     2.34495E-03
            5048             903     4.29375E-03     2.45998E-03
            5048            5269     411.847E-06     456.727E-06
            5048            5270     419.521E-06     466.513E-06
            5049             903     4.29375E-03     2.45998E-03
            5049             904     4.47811E-03     2.59371E-03
            5049            5270     419.521E-06     466.513E-06
            5049            5271     428.097E-06     477.028E-06
            5050             904     4.47811E-03     2.59371E-03
            5050             905     4.65669E-03     2.72541E-03
            5050            5271     428.097E-06     477.028E-06
            5050            5272     437.661E-06     487.811E-06
            5051             905     4.65669E-03     2.72541E-03
            5051             906     4.84588E-03     2.87868E-03
            5051            5272     437.661E-06     487.811E-06
            5051            5273     447.717E-06     499.088E-06
            5052             906     4.84588E-03     2.87868E-03
            5052             907     5.01622E-03     3.01060E-03
            5052            5273     447.717E-06     499.088E-06
            5052            5274     457.847E-06     509.911E-06
            5053             907     5.01622E-03     3.01060E-03
            5053             908     5.21720E-03     3.18628E-03
            5053            5274     457.847E-06     509.911E-06
            5053            5275     468.055E-06     521.086E-06
            5054             908     5.21720E-03     3.18628E-03
            5054             909     5.36799E-03     3.30566E-03
            5054            5275     468.055E-06     521.086E-06
            5054            5276     476.886E-06     531.201E-06
            5055             909     5.36799E-03     3.30566E-03
            5055             910     5.62154E-03     3.47982E-03
            5055            5276     476.886E-06     531.201E-06
            5055            5277     490.189E-06     545.620E-06
            5056             910     5.62154E-03     3.47982E-03
            5056             911     5.61111E-03     3.47923E-03
            5056            5277     490.189E-06     545.620E-06
            5056            5278     510.255E-06     568.410E-06
            5057              38     5.05451E-03     2.99604E-03
            5057             911     5.61111E-03     3.47923E-03
            5057             912     581.500E-06     638.711E-06
            5057            5278     510.255E-06     568.410E-06
            5058             940     431.325E-06     389.976E-06
            5058             941     378.844E-06     424.267E-06
            5058            5261     379.422E-06     420.403E-06
            5058            5279     420.359E-06     402.282E-06
            5059            5261     379.422E-06     420.403E-06
            5059            5262     383.267E-06     413.494E-06
            5059            5279     420.359E-06     402.282E-06
            5059            5280     405.437E-06     417.261E-06
            5060            5262     383.267E-06     413.494E-06
            5060            5263     388.638E-06     412.440E-06
            5060            5280     405.437E-06     417.261E-06
            5060            5281     403.093E-06     420.440E-06
            5061            5263     388.638E-06     412.440E-06
            5061            5264     391.221E-06     417.342E-06
            5061            5281     403.093E-06     420.440E-06
            5061            5282     405.122E-06     424.371E-06
            5062            5264     391.221E-06     417.342E-06
            5062            5265     393.172E-06     423.896E-06
            5062            5282     405.122E-06     424.371E-06
            5062            5283     406.707E-06     430.214E-06
            5063            5265     393.172E-06     423.896E-06
            5063            5266     396.149E-06     431.207E-06
            5063            5283     406.707E-06     430.214E-06
            5063            5284     410.087E-06     436.025E-06
            5064            5266     396.149E-06     431.207E-06
            5064            5267     400.101E-06     439.027E-06
            5064            5284     410.087E-06     436.025E-06
            5064            5285     414.742E-06     442.944E-06
            5065            5267     400.101E-06     439.027E-06
            5065            5268     405.451E-06     447.518E-06
            5065            5285     414.742E-06     442.944E-06
            5065            5286     420.412E-06     450.618E-06
            5066            5268     405.451E-06     447.518E-06
            5066            5269     411.847E-06     456.727E-06
            5066            5286     420.412E-06     450.618E-06
            5066            5287     427.343E-06     459.135E-06
            5067            5269     411.847E-06     456.727E-06
            5067            5270     419.521E-06     466.513E-06
            5067            5287     427.343E-06     459.135E-06
            5067            5288     435.302E-06     468.531E-06
            5068            5270     419.521E-06     466.513E-06
            5068            5271     428.097E-06     477.028E-06
            5068            5288     435.302E-06     468.531E-06
            5068            5289     444.459E-06     478.713E-06
            5069            5271     428.097E-06     477.028E-06
            5069            5272     437.661E-06     487.811E-06
            5069            5289     444.459E-06     478.713E-06
            5069            5290     454.717E-06     489.897E-06
            5070            5272     437.661E-06     487.811E-06
            5070            5273     447.717E-06     499.088E-06
            5070            5290     454.717E-06     489.897E-06
            5070            5291     466.037E-06     501.796E-06
            5071            5273     447.717E-06     499.088E-06
            5071            5274     457.847E-06     509.911E-06
            5071            5291     466.037E-06     501.796E-06
            5071            5292     478.494E-06     514.815E-06
            5072            5274     457.847E-06     509.911E-06
            5072            5275     468.055E-06     521.086E-06
            5072            5292     478.494E-06     514.815E-06
            5072            5293     491.115E-06     528.056E-06
            5073            5275     468.055E-06     521.086E-06
            5073            5276     476.886E-06     531.201E-06
            5073            5293     491.115E-06     528.056E-06
            5073            5294     504.837E-06     542.194E-06
            5074            5276     476.886E-06     531.201E-06
            5074            5277     490.189E-06     545.620E-06
            5074            5294     504.837E-06     542.194E-06
            5074            5295     515.373E-06     554.827E-06
            5075            5277     490.189E-06     545.620E-06
            5075            5278     510.255E-06     568.410E-06
            5075            5295     515.373E-06     554.827E-06
            5075            5296     532.758E-06     568.671E-06
            5076             912     581.500E-06     638.711E-06
            5076             913     577.945E-06     603.394E-06
            5076            5278     510.255E-06     568.410E-06
            5076            5296     532.758E-06     568.671E-06
            5077             939     441.192E-06     392.898E-06
            5077             940     431.325E-06     389.976E-06
            5077            5279     420.359E-06     402.282E-06
            5077            5297     439.030E-06     398.076E-06
            5078            5279     420.359E-06     402.282E-06
            5078            5280     405.437E-06     417.261E-06
            5078            5297     439.030E-06     398.076E-06
            5078            5298     431.199E-06     412.553E-06
            5079            5280     405.437E-06     417.261E-06
            5079            5281     403.093E-06     420.440E-06
            5079            5298     431.199E-06     412.553E-06
            5079            5299     422.049E-06     426.588E-06
            5080            5281     403.093E-06     420.440E-06
            5080            5282     405.122E-06     424.371E-06
            5080            5299     422.049E-06     426.588E-06
            5080            5300     419.150E-06     432.651E-06
            5081            5282     405.122E-06     424.371E-06
            5081            5283     406.707E-06     430.214E-06
            5081            5300     419.150E-06     432.651E-06
            5081            5301     421.437E-06     436.322E-06
            5082            5283     406.707E-06     430.214E-06
            5082            5284     410.087E-06     436.025E-06
            5082            5301     421.437E-06     436.322E-06
            5082            5302     425.245E-06     441.157E-06
            5083            5284     410.087E-06     436.025E-06
            5083            5285     414.742E-06     442.944E-06
            5083            5302     425.245E-06     441.157E-06
            5083            5303     430.218E-06     446.830E-06
            5084            5285     414.742E-06     442.944E-06
            5084            5286     420.412E-06     450.618E-06
            5084            5303     430.218E-06     446.830E-06
            5084            5304     436.286E-06     453.537E-06
            5085            5286     420.412E-06     450.618E-06
            5085            5287     427.343E-06     459.135E-06
            5085            5304     436.286E-06     453.537E-06
            5085            5305     443.300E-06     461.186E-06
            5086            5287     427.343E-06     459.135E-06
            5086            5288     435.302E-06     468.531E-06
            5086            5305     443.300E-06     461.186E-06
            5086            5306     451.413E-06     469.784E-06
            5087            5288     435.302E-06     468.531E-06
            5087            5289     444.459E-06     478.713E-06
            5087            5306     451.413E-06     469.784E-06
            5087            5307     460.681E-06     479.483E-06
            5088            5289     444.459E-06     478.713E-06
            5088            5290     454.717E-06     489.897E-06
            5088            5307     460.681E-06     479.483E-06
            5088            5308     471.255E-06     490.378E-06
            5089            5290     454.717E-06     489.897E-06
            5089            5291     466.037E-06     501.796E-06
            5089            5308     471.255E-06     490.378E-06
            5089            5309     483.391E-06     502.751E-06
            5090            5291     466.037E-06     501.796E-06
            5090            5292     478.494E-06     514.815E-06
            5090            5309     483.391E-06     502.751E-06
            5090            5310     496.989E-06     516.652E-06
            5091            5292     478.494E-06     514.815E-06
            5091            5293     491.115E-06     528.056E-06
            5091            5310     496.989E-06     516.652E-06
            5091            5311     511.916E-06     531.709E-06
            5092            5293     491.115E-06     528.056E-06
            5092            5294     504.837E-06     542.194E-06
            5092            5311     511.916E-06     531.709E-06
            5092            5312     526.009E-06     546.697E-06
            5093            5294     504.837E-06     542.194E-06
            5093            5295     515.373E-06     554.827E-06
            5093            5312     526.009E-06     546.697E-06
            5093            5313     534.729E-06     556.501E-06
            5094            5295     515.373E-06     554.827E-06
            5094            5296     532.758E-06     568.671E-06
            5094            5313     534.729E-06     556.501E-06
            5094            5314     529.605E-06     554.263E-06
            5095             913     577.945E-06     603.394E-06
            5095             914     500.280E-06     523.687E-06
            5095            5296     532.758E-06     568.671E-06
            5095            5314     529.605E-06     554.263E-06
            5096             938     452.817E-06     403.494E-06
            5096             939     441.192E-06     392.898E-06
            5096            5297     439.030E-06     398.076E-06
            5096            5315     450.833E-06     410.004E-06
            5097            5297     439.030E-06     398.076E-06
            5097            5298     431.199E-06     412.553E-06
            5097            5315     450.833E-06     410.004E-06
            5097            5316     443.361E-06     424.917E-06
            5098            5298     431.199E-06     412.553E-06
            5098            5299     422.049E-06     426.588E-06
            5098            5316     443.361E-06     424.917E-06
            5098            5317     435.277E-06     436.370E-06
            5099            5299     422.049E-06     426.588E-06
            5099            5300     419.150E-06     432.651E-06
            5099            5317     435.277E-06     436.370E-06
            5099            5318     434.022E-06     440.212E-06
            5100            5300     419.150E-06     432.651E-06
            5100            5301     421.437E-06     436.322E-06
            5100            5318     434.022E-06     440.212E-06
            5100            5319     437.244E-06     442.648E-06
            5101            5301     421.437E-06     436.322E-06
            5101            5302     425.245E-06     441.157E-06
            5101            5319     437.244E-06     442.648E-06
            5101            5320     441.588E-06     446.311E-06
            5102            5302     425.245E-06     441.157E-06
            5102            5303     430.218E-06     446.830E-06
            5102            5320     441.588E-06     446.311E-06
            5102            5321     446.919E-06     450.901E-06
            5103            5303     430.218E-06     446.830E-06
            5103            5304     436.286E-06     453.537E-06
            5103            5321     446.919E-06     450.901E-06
            5103            5322     453.069E-06     456.525E-06
            5104            5304     436.286E-06     453.537E-06
            5104            5305     443.300E-06     461.186E-06
            5104            5322     453.069E-06     456.525E-06
            5104            5323     460.006E-06     463.035E-06
            5105            5305     443.300E-06     461.186E-06
            5105            5306     451.413E-06     469.784E-06
            5105            5323     460.006E-06     463.035E-06
            5105            5324     467.843E-06     470.490E-06
            5106            5306     451.413E-06     469.784E-06
            5106            5307     460.681E-06     479.483E-06
            5106            5324     467.843E-06     470.490E-06
            5106            5325     476.631E-06     478.962E-06
            5107            5307     460.681E-06     479.483E-06
            5107            5308     471.255E-06     490.378E-06
            5107            5325     476.631E-06     478.962E-06
            5107            5326     486.607E-06     488.633E-06
            5108            5308     471.255E-06     490.378E-06
            5108            5309     483.391E-06     502.751E-06
            5108            5326     486.607E-06     488.633E-06
            5108            5327     497.942E-06     499.749E-06
            5109            5309     483.391E-06     502.751E-06
            5109            5310     496.989E-06     516.652E-06
            5109            5327     497.942E-06     499.749E-06
            5109            5328     510.564E-06     512.120E-06
            5110            5310     496.989E-06     516.652E-06
            5110            5311     511.916E-06     531.709E-06
            5110            5328     510.564E-06     512.120E-06
            5110            5329     524.214E-06     525.648E-06
            5111            5311     511.916E-06     531.709E-06
            5111            5312     526.009E-06     546.697E-06
            5111            5329     524.214E-06     525.648E-06
            5111            5330     534.803E-06     536.722E-06
            5112            5312     526.009E-06     546.697E-06
            5112            5313     534.729E-06     556.501E-06
            5112            5330     534.803E-06     536.722E-06
            5112            5331     538.572E-06     540.963E-06
            5113            5313     534.729E-06     556.501E-06
            5113            5314     529.605E-06     554.263E-06
            5113            5331     538.572E-06     540.963E-06
            5113            5332     506.842E-06     518.571E-06
            5114             914     500.280E-06     523.687E-06
            5114             915     414.079E-06     437.612E-06
            5114            5314     529.605E-06     554.263E-06
            5114            5332     506.842E-06     518.571E-06
            5115             937     466.726E-06     430.607E-06
            5115             938     452.817E-06     403.494E-06
            5115            5315     450.833E-06     410.004E-06
            5115            5333     455.447E-06     441.730E-06
            5116            5315     450.833E-06     410.004E-06
            5116            5316     443.361E-06     424.917E-06
            5116            5333     455.447E-06     441.730E-06
            5116            5334     442.283E-06     451.769E-06
            5117            5316     443.361E-06     424.917E-06
            5117            5317     435.277E-06     436.370E-06
            5117            5334     442.283E-06     451.769E-06
            5117            5335     444.345E-06     448.177E-06
            5118            5317     435.277E-06     436.370E-06
            5118            5318     434.022E-06     440.212E-06
            5118            5335     444.345E-06     448.177E-06
            5118            5336     450.126E-06     447.047E-06
            5119            5318     434.022E-06     440.212E-06
            5119            5319     437.244E-06     442.648E-06
            5119            5336     450.126E-06     447.047E-06
            5119            5337     454.213E-06     449.163E-06
            5120            5319     437.244E-06     442.648E-06
            5120            5320     441.588E-06     446.311E-06
            5120            5337     454.213E-06     449.163E-06
            5120            5338     459.259E-06     451.648E-06
            5121            5320     441.588E-06     446.311E-06
            5121            5321     446.919E-06     450.901E-06
            5121            5338     459.259E-06     451.648E-06
            5121            5339     464.869E-06     455.379E-06
            5122            5321     446.919E-06     450.901E-06
            5122            5322     453.069E-06     456.525E-06
            5122            5339     464.869E-06     455.379E-06
            5122            5340     470.924E-06     459.823E-06
            5123            5322     453.069E-06     456.525E-06
            5123            5323     460.006E-06     463.035E-06
            5123            5340     470.924E-06     459.823E-06
            5123            5341     477.645E-06     465.044E-06
            5124            5323     460.006E-06     463.035E-06
            5124            5324     467.843E-06     470.490E-06
            5124            5341     477.645E-06     465.044E-06
            5124            5342     484.805E-06     470.975E-06
            5125            5324     467.843E-06     470.490E-06
            5125            5325     476.631E-06     478.962E-06
            5125            5342     484.805E-06     470.975E-06
            5125            5343     492.597E-06     477.579E-06
            5126            5325     476.631E-06     478.962E-06
            5126            5326     486.607E-06     488.633E-06
            5126            5343     492.597E-06     477.579E-06
            5126            5344     500.896E-06     484.920E-06
            5127            5326     486.607E-06     488.633E-06
            5127            5327     497.942E-06     499.749E-06
            5127            5344     500.896E-06     484.920E-06
            5127            5345     509.686E-06     492.752E-06
            5128            5327     497.942E-06     499.749E-06
            5128            5328     510.564E-06     512.120E-06
            5128            5345     509.686E-06     492.752E-06
            5128            5346     518.767E-06     501.018E-06
            5129            5328     510.564E-06     512.120E-06
            5129            5329     524.214E-06     525.648E-06
            5129            5346     518.767E-06     501.018E-06
            5129            5347     526.370E-06     507.854E-06
            5130            5329     524.214E-06     525.648E-06
            5130            5330     534.803E-06     536.722E-06
            5130            5347     526.370E-06     507.854E-06
            5130            5348     530.917E-06     511.494E-06
            5131            5330     534.803E-06     536.722E-06
            5131            5331     538.572E-06     540.963E-06
            5131            5348     530.917E-06     511.494E-06
            5131            5349     520.415E-06     502.199E-06
            5132            5331     538.572E-06     540.963E-06
            5132            5332     506.842E-06     518.571E-06
            5132            5349     520.415E-06     502.199E-06
            5132            5350     484.021E-06     466.821E-06
            5133             915     414.079E-06     437.612E-06
            5133             916     372.483E-06     368.300E-06
            5133            5332     506.842E-06     518.571E-06
            5133            5350     484.021E-06     466.821E-06
            5134             936     434.012E-06     492.328E-06
            5134             937     466.726E-06     430.607E-06
            5134            5333     455.447E-06     441.730E-06
            5134            5351     437.889E-06     482.543E-06
            5135            5333     455.447E-06     441.730E-06
            5135            5334     442.283E-06     451.769E-06
            5135            5351     437.889E-06     482.543E-06
            5135            5352     448.492E-06     464.904E-06
            5136            5334     442.283E-06     451.769E-06
            5136            5335     444.345E-06     448.177E-06
            5136            5352     448.492E-06     464.904E-06
            5136            5353     459.949E-06     455.964E-06
            5137            5335     444.345E-06     448.177E-06
            5137            5336     450.126E-06     447.047E-06
            5137            5353     459.949E-06     455.964E-06
            5137            5354     467.085E-06     454.764E-06
            5138            5336     450.126E-06     447.047E-06
            5138            5337     454.213E-06     449.163E-06
            5138            5354     467.085E-06     454.764E-06
            5138            5355     472.612E-06     455.617E-06
            5139            5337     454.213E-06     449.163E-06
            5139            5338     459.259E-06     451.648E-06
            5139            5355     472.612E-06     455.617E-06
            5139            5356     478.245E-06     457.685E-06
            5140            5338     459.259E-06     451.648E-06
            5140            5339     464.869E-06     455.379E-06
            5140            5356     478.245E-06     457.685E-06
            5140            5357     483.881E-06     460.345E-06
            5141            5339     464.869E-06     455.379E-06
            5141            5340     470.924E-06     459.823E-06
            5141            5357     483.881E-06     460.345E-06
            5141            5358     490.045E-06     463.673E-06
            5142            5340     470.924E-06     459.823E-06
            5142            5341     477.645E-06     465.044E-06
            5142            5358     490.045E-06     463.673E-06
            5142            5359     496.285E-06     467.569E-06
            5143            5341     477.645E-06     465.044E-06
            5143            5342     484.805E-06     470.975E-06
            5143            5359     496.285E-06     467.569E-06
            5143            5360     502.832E-06     471.839E-06
            5144            5342     484.805E-06     470.975E-06
            5144            5343     492.597E-06     477.579E-06
            5144            5360     502.832E-06     471.839E-06
            5144            5361     509.245E-06     476.428E-06
            5145            5343     492.597E-06     477.579E-06
            5145            5344     500.896E-06     484.920E-06
            5145            5361     509.245E-06     476.428E-06
            5145            5362     515.453E-06     480.826E-06
            5146            5344     500.896E-06     484.920E-06
            5146            5345     509.686E-06     492.752E-06
            5146            5362     515.453E-06     480.826E-06
            5146            5363     520.784E-06     484.611E-06
            5147            5345     509.686E-06     492.752E-06
            5147            5346     518.767E-06     501.018E-06
            5147            5363     520.784E-06     484.611E-06
            5147            5364     524.145E-06     486.520E-06
            5148            5346     518.767E-06     501.018E-06
            5148            5347     526.370E-06     507.854E-06
            5148            5364     524.145E-06     486.520E-06
            5148            5365     523.847E-06     484.556E-06
            5149            5347     526.370E-06     507.854E-06
            5149            5348     530.917E-06     511.494E-06
            5149            5365     523.847E-06     484.556E-06
            5149            5366     515.183E-06     474.623E-06
            5150            5348     530.917E-06     511.494E-06
            5150            5349     520.415E-06     502.199E-06
            5150            5366     515.183E-06     474.623E-06
            5150            5367     491.933E-06     449.290E-06
            5151            5349     520.415E-06     502.199E-06
            5151            5350     484.021E-06     466.821E-06
            5151            5367     491.933E-06     449.290E-06
            5151            5368     440.707E-06     395.083E-06
            5152             916     372.483E-06     368.300E-06
            5152             917     342.391E-06     296.035E-06
            5152            5350     484.021E-06     466.821E-06
            5152            5368     440.707E-06     395.083E-06
            5153              40     402.525E-06     503.357E-06
            5153             935     427.781E-06     490.726E-06
            5153             936     434.012E-06     492.328E-06
            5153            5351     437.889E-06     482.543E-06
            5154             934     458.762E-06     466.388E-06
            5154             935     427.781E-06     490.726E-06
            5154            5351     437.889E-06     482.543E-06
            5154            5352     448.492E-06     464.904E-06
            5155             933     469.211E-06     457.944E-06
            5155             934     458.762E-06     466.388E-06
            5155            5352     448.492E-06     464.904E-06
            5155            5353     459.949E-06     455.964E-06
            5156             932     476.306E-06     459.128E-06
            5156             933     469.211E-06     457.944E-06
            5156            5353     459.949E-06     455.964E-06
            5156            5354     467.085E-06     454.764E-06
            5157             931     482.033E-06     458.763E-06
            5157             932     476.306E-06     459.128E-06
            5157            5354     467.085E-06     454.764E-06
            5157            5355     472.612E-06     455.617E-06
            5158             930     487.996E-06     460.994E-06
            5158             931     482.033E-06     458.763E-06
            5158            5355     472.612E-06     455.617E-06
            5158            5356     478.245E-06     457.685E-06
            5159             929     493.706E-06     462.876E-06
            5159             930     487.996E-06     460.994E-06
            5159            5356     478.245E-06     457.685E-06
            5159            5357     483.881E-06     460.345E-06
            5160             928     499.822E-06     465.834E-06
            5160             929     493.706E-06     462.876E-06
            5160            5357     483.881E-06     460.345E-06
            5160            5358     490.045E-06     463.673E-06
            5161             927     505.956E-06     468.887E-06
            5161             928     499.822E-06     465.834E-06
            5161            5358     490.045E-06     463.673E-06
            5161            5359     496.285E-06     467.569E-06
            5162             926     512.079E-06     472.577E-06
            5162             927     505.956E-06     468.887E-06
            5162            5359     496.285E-06     467.569E-06
            5162            5360     502.832E-06     471.839E-06
            5163             925     517.923E-06     475.913E-06
            5163             926     512.079E-06     472.577E-06
            5163            5360     502.832E-06     471.839E-06
            5163            5361     509.245E-06     476.428E-06
            5164             924     522.982E-06     479.148E-06
            5164             925     517.923E-06     475.913E-06
            5164            5361     509.245E-06     476.428E-06
            5164            5362     515.453E-06     480.826E-06
            5165             923     526.525E-06     480.553E-06
            5165             924     522.982E-06     479.148E-06
            5165            5362     515.453E-06     480.826E-06
            5165            5363     520.784E-06     484.611E-06
            5166             922     526.864E-06     479.319E-06
            5166             923     526.525E-06     480.553E-06
            5166            5363     520.784E-06     484.611E-06
            5166            5364     524.145E-06     486.520E-06
            5167             921     522.045E-06     472.552E-06
            5167             922     526.864E-06     479.319E-06
            5167            5364     524.145E-06     486.520E-06
            5167            5365     523.847E-06     484.556E-06
            5168             920     505.615E-06     454.401E-06
            5168             921     522.045E-06     472.552E-06
            5168            5365     523.847E-06     484.556E-06
            5168            5366     515.183E-06     474.623E-06
            5169             919     476.183E-06     421.367E-06
            5169             920     505.615E-06     454.401E-06
            5169            5366     515.183E-06     474.623E-06
            5169            5367     491.933E-06     449.290E-06
            5170             918     410.713E-06     353.054E-06
            5170             919     476.183E-06     421.367E-06
            5170            5367     491.933E-06     449.290E-06
            5170            5368     440.707E-06     395.083E-06
            5171              39     320.029E-06     254.013E-06
            5171             917     342.391E-06     296.035E-06
            5171             918     410.713E-06     353.054E-06
            5171            5368     440.707E-06     395.083E-06
            5172              29     222.075E-03     227.468E-03
            5172             625     208.656E-03     215.087E-03
            5172             947     186.425E-03     191.860E-03
            5172            5369     171.184E-03     177.087E-03
            5173             624     197.616E-03     204.976E-03
            5173             625     208.656E-03     215.087E-03
            5173            5369     171.184E-03     177.087E-03
            5173            5370     159.451E-03     165.481E-03
            5174             623     187.425E-03     195.638E-03
            5174             624     197.616E-03     204.976E-03
            5174            5370     159.451E-03     165.481E-03
            5174            5371     148.205E-03     154.501E-03
            5175             622     177.906E-03     186.817E-03
            5175             623     187.425E-03     195.638E-03
            5175            5371     148.205E-03     154.501E-03
            5175            5372     137.446E-03     143.910E-03
            5176             621     168.750E-03     178.176E-03
            5176             622     177.906E-03     186.817E-03
            5176            5372     137.446E-03     143.910E-03
            5176            5373     126.708E-03     133.297E-03
            5177             620     159.920E-03     169.811E-03
            5177             621     168.750E-03     178.176E-03
            5177            5373     126.708E-03     133.297E-03
            5177            5374     116.001E-03     122.713E-03
            5178             619     151.370E-03     161.571E-03
            5178             620     159.920E-03     169.811E-03
            5178            5374     116.001E-03     122.713E-03
            5178            5375     105.279E-03     112.070E-03
            5179             618     143.096E-03     153.545E-03
            5179             619     151.370E-03     161.571E-03
            5179            5375     105.279E-03     112.070E-03
            5179            5376     94.5512E-03     101.439E-03
            5180             617     135.108E-03     145.671E-03
            5180             618     143.096E-03     153.545E-03
            5180            5376     94.5512E-03     101.439E-03
            5180            5377     83.8397E-03     90.7969E-03
            5181             616     127.418E-03     138.003E-03
            5181             617     135.108E-03     145.671E-03
            5181            5377     83.8397E-03     90.7969E-03
            5181            5378     73.1651E-03     80.2047E-03
            5182             615     120.053E-03     130.529E-03
            5182             616     127.418E-03     138.003E-03
            5182            5378     73.1651E-03     80.2047E-03
            5182            5379     62.5691E-03     69.6652E-03
            5183             614     113.029E-03     123.283E-03
            5183             615     120.053E-03     130.529E-03
            5183            5379     62.5691E-03     69.6652E-03
            5183            5380     52.1118E-03     59.2556E-03
            5184             613     106.348E-03     116.225E-03
            5184             614     113.029E-03     123.283E-03
            5184            5380     52.1118E-03     59.2556E-03
            5184            5381     41.9133E-03     49.0144E-03
            5185             612     99.9163E-03     109.223E-03
            5185             613     106.348E-03     116.225E-03
            5185            5381     41.9133E-03     49.0144E-03
            5185            5382     32.2246E-03     39.0962E-03
            5186             611     93.9429E-03     102.001E-03
            5186             612     99.9163E-03     109.223E-03
            5186            5382     32.2246E-03     39.0962E-03
            5186            5383     23.7464E-03     29.7055E-03
            5187             610     87.9405E-03     93.1736E-03
            5187             611     93.9429E-03     102.001E-03
            5187            5383     23.7464E-03     29.7055E-03
            5187            5384     18.0861E-03     21.4026E-03
            5188             609     85.4380E-03     86.7858E-03
            5188             610     87.9405E-03     93.1736E-03
            5188            5384     18.0861E-03     21.4026E-03
            5188            5385     18.8992E-03     17.4764E-03
            5189             608     88.7260E-03     83.2593E-03
            5189             609     85.4380E-03     86.7858E-03
            5189            5385     18.8992E-03     17.4764E-03
            5189            5386     26.0883E-03     20.8446E-03
            5190              30     69.0526E-03     79.5885E-03
            5190             608     88.7260E-03     83.2593E-03
            5190             720     31.4266E-03     31.1780E-03
            5190            5386     26.0883E-03     20.8446E-03
            5191             946     191.956E-03     196.135E-03
            5191             947     186.425E-03     191.860E-03
            5191            5369     171.184E-03     177.087E-03
            5191            5387     176.178E-03     181.316E-03
            5192            5369     171.184E-03     177.087E-03
            5192            5370     159.451E-03     165.481E-03
            5192            5387     176.178E-03     181.316E-03
            5192            5388     163.695E-03     168.765E-03
            5193            5370     159.451E-03     165.481E-03
            5193            5371     148.205E-03     154.501E-03
            5193            5388     163.695E-03     168.765E-03
            5193            5389     152.075E-03     156.940E-03
            5194            5371     148.205E-03     154.501E-03
            5194            5372     137.446E-03     143.910E-03
            5194            5389     152.075E-03     156.940E-03
            5194            5390     140.820E-03     145.619E-03
            5195            5372     137.446E-03     143.910E-03
            5195            5373     126.708E-03     133.297E-03
            5195            5390     140.820E-03     145.619E-03
            5195            5391     129.766E-03     134.539E-03
            5196            5373     126.708E-03     133.297E-03
            5196            5374     116.001E-03     122.713E-03
            5196            5391     129.766E-03     134.539E-03
            5196            5392     118.799E-03     123.590E-03
            5197            5374     116.001E-03     122.713E-03
            5197            5375     105.279E-03     112.070E-03
            5197            5392     118.799E-03     123.590E-03
            5197            5393     107.919E-03     112.749E-03
            5198            5375     105.279E-03     112.070E-03
            5198            5376     94.5512E-03     101.439E-03
            5198            5393     107.919E-03     112.749E-03
            5198            5394     97.1151E-03     101.972E-03
            5199            5376     94.5512E-03     101.439E-03
            5199            5377     83.8397E-03     90.7969E-03
            5199            5394     97.1151E-03     101.972E-03
            5199            5395     86.3967E-03     91.2887E-03
            5200            5377     83.8397E-03     90.7969E-03
            5200            5378     73.1651E-03     80.2047E-03
            5200            5395     86.3967E-03     91.2887E-03
            5200            5396     75.7886E-03     80.6895E-03
            5201            5378     73.1651E-03     80.2047E-03
            5201            5379     62.5691E-03     69.6652E-03
            5201            5396     75.7886E-03     80.6895E-03
            5201            5397     65.3326E-03     70.2315E-03
            5202            5379     62.5691E-03     69.6652E-03
            5202            5380     52.1118E-03     59.2556E-03
            5202            5397     65.3326E-03     70.2315E-03
            5202            5398     55.1153E-03     59.9591E-03
            5203            5380     52.1118E-03     59.2556E-03
            5203            5381     41.9133E-03     49.0144E-03
            5203            5398     55.1153E-03     59.9591E-03
            5203            5399     45.2941E-03     50.0065E-03
            5204            5381     41.9133E-03     49.0144E-03
            5204            5382     32.2246E-03     39.0962E-03
            5204            5399     45.2941E-03     50.0065E-03
            5204            5400     36.2094E-03     40.6019E-03
            5205            5382     32.2246E-03     39.0962E-03
            5205            5383     23.7464E-03     29.7055E-03
            5205            5400     36.2094E-03     40.6019E-03
            5205            5401     28.5313E-03     32.1124E-03
            5206            5383     23.7464E-03     29.7055E-03
            5206            5384     18.0861E-03     21.4026E-03
            5206            5401     28.5313E-03     32.1124E-03
            5206            5402     24.0041E-03     25.4161E-03
            5207            5384     18.0861E-03     21.4026E-03
            5207            5385     18.8992E-03     17.4764E-03
            5207            5402     24.0041E-03     25.4161E-03
            5207            5403     23.6080E-03     21.5023E-03
            5208            5385     18.8992E-03     17.4764E-03
            5208            5386     26.0883E-03     20.8446E-03
            5208            5403     23.6080E-03     21.5023E-03
            5208            5404     25.9656E-03     20.7963E-03
            5209             719     27.3526E-03     27.0459E-03
            5209             720     31.4266E-03     31.1780E-03
            5209            5386     26.0883E-03     20.8446E-03
            5209            5404     25.9656E-03     20.7963E-03
            5210             945     189.947E-03     193.657E-03
            5210             946     191.956E-03     196.135E-03
            5210            5387     176.178E-03     181.316E-03
            5210            5405     178.120E-03     181.711E-03
            5211            5387     176.178E-03     181.316E-03
            5211            5388     163.695E-03     168.765E-03
            5211            5405     178.120E-03     181.711E-03
            5211            5406     165.644E-03     169.224E-03
            5212            5388     163.695E-03     168.765E-03
            5212            5389     152.075E-03     156.940E-03
            5212            5406     165.644E-03     169.224E-03
            5212            5407     154.241E-03     157.461E-03
            5213            5389     152.075E-03     156.940E-03
            5213            5390     140.820E-03     145.619E-03
            5213            5407     154.241E-03     157.461E-03
            5213            5408     142.968E-03     146.000E-03
            5214            5390     140.820E-03     145.619E-03
            5214            5391     129.766E-03     134.539E-03
            5214            5408     142.968E-03     146.000E-03
            5214            5409     131.933E-03     134.871E-03
            5215            5391     129.766E-03     134.539E-03
            5215            5392     118.799E-03     123.590E-03
            5215            5409     131.933E-03     134.871E-03
            5215            5410     121.029E-03     123.932E-03
            5216            5392     118.799E-03     123.590E-03
            5216            5393     107.919E-03     112.749E-03
            5216            5410     121.029E-03     123.932E-03
            5216            5411     110.254E-03     113.136E-03
            5217            5393     107.919E-03     112.749E-03
            5217            5394     97.1151E-03     101.972E-03
            5217            5411     110.254E-03     113.136E-03
            5217            5412     99.5928E-03     102.470E-03
            5218            5394     97.1151E-03     101.972E-03
            5218            5395     86.3967E-03     91.2887E-03
            5218            5412     99.5928E-03     102.470E-03
            5218            5413     89.0578E-03     91.9140E-03
            5219            5395     86.3967E-03     91.2887E-03
            5219            5396     75.7886E-03     80.6895E-03
            5219            5413     89.0578E-03     91.9140E-03
            5219            5414     78.6672E-03     81.4990E-03
            5220            5396     75.7886E-03     80.6895E-03
            5220            5397     65.3326E-03     70.2315E-03
            5220            5414     78.6672E-03     81.4990E-03
            5220            5415     68.4801E-03     71.2572E-03
            5221            5397     65.3326E-03     70.2315E-03
            5221            5398     55.1153E-03     59.9591E-03
            5221            5415     68.4801E-03     71.2572E-03
            5221            5416     58.5855E-03     61.2757E-03
            5222            5398     55.1153E-03     59.9591E-03
            5222            5399     45.2941E-03     50.0065E-03
            5222            5416     58.5855E-03     61.2757E-03
            5222            5417     49.1644E-03     51.7211E-03
            5223            5399     45.2941E-03     50.0065E-03
            5223            5400     36.2094E-03     40.6019E-03
            5223            5417     49.1644E-03     51.7211E-03
            5223            5418     40.5252E-03     42.8480E-03
            5224            5400     36.2094E-03     40.6019E-03
            5224            5401     28.5313E-03     32.1124E-03
            5224            5418     40.5252E-03     42.8480E-03
            5224            5419     33.2940E-03     35.2451E-03
            5225            5401     28.5313E-03     32.1124E-03
            5225            5402     24.0041E-03     25.4161E-03
            5225            5419     33.2940E-03     35.2451E-03
            5225            5420     28.5154E-03     29.5108E-03
            5226            5402     24.0041E-03     25.4161E-03
            5226            5403     23.6080E-03     21.5023E-03
            5226            5420     28.5154E-03     29.5108E-03
            5226            5421     26.8071E-03     25.3484E-03
            5227            5403     23.6080E-03     21.5023E-03
            5227            5404     25.9656E-03     20.7963E-03
            5227            5421     26.8071E-03     25.3484E-03
            5227            5422     27.1201E-03     22.9850E-03
            5228             718     27.4365E-03     26.2584E-03
            5228             719     27.3526E-03     27.0459E-03
            5228            5404     25.9656E-03     20.7963E-03
            5228            5422     27.1201E-03     22.9850E-03
            5229             944     183.468E-03     186.127E-03
            5229             945     189.947E-03     193.657E-03
            5229            5405     178.120E-03     181.711E-03
            5229            5423     174.983E-03     176.919E-03
            5230            5405     178.120E-03     181.711E-03
            5230            5406     165.644E-03     169.224E-03
            5230            5423     174.983E-03     176.919E-03
            5230            5424     164.941E-03     166.350E-03
            5231            5406     165.644E-03     169.224E-03
            5231            5407     154.241E-03     157.461E-03
            5231            5424     164.941E-03     166.350E-03
            5231            5425     154.234E-03     155.509E-03
            5232            5407     154.241E-03     157.461E-03
            5232            5408     142.968E-03     146.000E-03
            5232            5425     154.234E-03     155.509E-03
            5232            5426     143.678E-03     144.798E-03
            5233            5408     142.968E-03     146.000E-03
            5233            5409     131.933E-03     134.871E-03
            5233            5426     143.678E-03     144.798E-03
            5233            5427     133.107E-03     134.174E-03
            5234            5409     131.933E-03     134.871E-03
            5234            5410     121.029E-03     123.932E-03
            5234            5427     133.107E-03     134.174E-03
            5234            5428     122.657E-03     123.660E-03
            5235            5410     121.029E-03     123.932E-03
            5235            5411     110.254E-03     113.136E-03
            5235            5428     122.657E-03     123.660E-03
            5235            5429     112.274E-03     113.245E-03
            5236            5411     110.254E-03     113.136E-03
            5236            5412     99.5928E-03     102.470E-03
            5236            5429     112.274E-03     113.245E-03
            5236            5430     101.998E-03     102.921E-03
            5237            5412     99.5928E-03     102.470E-03
            5237            5413     89.0578E-03     91.9140E-03
            5237            5430     101.998E-03     102.921E-03
            5237            5431     91.8253E-03     92.7109E-03
            5238            5413     89.0578E-03     91.9140E-03
            5238            5414     78.6672E-03     81.4990E-03
            5238            5431     91.8253E-03     92.7109E-03
            5238            5432     81.8111E-03     82.6445E-03
            5239            5414     78.6672E-03     81.4990E-03
            5239            5415     68.4801E-03     71.2572E-03
            5239            5432     81.8111E-03     82.6445E-03
            5239            5433     72.0001E-03     72.7777E-03
            5240            5415     68.4801E-03     71.2572E-03
            5240            5416     58.5855E-03     61.2757E-03
            5240            5433     72.0001E-03     72.7777E-03
            5240            5434     62.5082E-03     63.2195E-03
            5241            5416     58.5855E-03     61.2757E-03
            5241            5417     49.1644E-03     51.7211E-03
            5241            5434     62.5082E-03     63.2195E-03
            5241            5435     53.4824E-03     54.1153E-03
            5242            5417     49.1644E-03     51.7211E-03
            5242            5418     40.5252E-03     42.8480E-03
            5242            5435     53.4824E-03     54.1153E-03
            5242            5436     45.2005E-03     45.7976E-03
            5243            5418     40.5252E-03     42.8480E-03
            5243            5419     33.2940E-03     35.2451E-03
            5243            5436     45.2005E-03     45.7976E-03
            5243            5437     38.0782E-03     38.7024E-03
            5244            5419     33.2940E-03     35.2451E-03
            5244            5420     28.5154E-03     29.5108E-03
            5244            5437     38.0782E-03     38.7024E-03
            5244            5438     32.4757E-03     33.4573E-03
            5245            5420     28.5154E-03     29.5108E-03
            5245            5421     26.8071E-03     25.3484E-03
            5245            5438     32.4757E-03     33.4573E-03
            5245            5439     29.6422E-03     30.5368E-03
            5246            5421     26.8071E-03     25.3484E-03
            5246            5422     27.1201E-03     22.9850E-03
            5246            5439     29.6422E-03     30.5368E-03
            5246            5440     30.0489E-03     28.2845E-03
            5247             717     29.7984E-03     30.0548E-03
            5247             718     27.4365E-03     26.2584E-03
            5247            5422     27.1201E-03     22.9850E-03
            5247            5440     30.0489E-03     28.2845E-03
            5248             943     174.819E-03     173.945E-03
            5248             944     183.468E-03     186.127E-03
            5248            5423     174.983E-03     176.919E-03
            5248            5441     168.869E-03     167.992E-03
            5249            5423     174.983E-03     176.919E-03
            5249            5424     164.941E-03     166.350E-03
            5249            5441     168.869E-03     167.992E-03
            5249            5442     161.272E-03     160.347E-03
            5250            5424     164.941E-03     166.350E-03
            5250            5425     154.234E-03     155.509E-03
            5250            5442     161.272E-03     160.347E-03
            5250            5443     152.450E-03     151.569E-03
            5251            5425     154.234E-03     155.509E-03
            5251            5426     143.678E-03     144.798E-03
            5251            5443     152.450E-03     151.569E-03
            5251            5444     143.100E-03     142.314E-03
            5252            5426     143.678E-03     144.798E-03
            5252            5427     133.107E-03     134.174E-03
            5252            5444     143.100E-03     142.314E-03
            5252            5445     133.574E-03     132.737E-03
            5253            5427     133.107E-03     134.174E-03
            5253            5428     122.657E-03     123.660E-03
            5253            5445     133.574E-03     132.737E-03
            5253            5446     123.889E-03     123.038E-03
            5254            5428     122.657E-03     123.660E-03
            5254            5429     112.274E-03     113.245E-03
            5254            5446     123.889E-03     123.038E-03
            5254            5447     114.190E-03     113.267E-03
            5255            5429     112.274E-03     113.245E-03
            5255            5430     101.998E-03     102.921E-03
            5255            5447     114.190E-03     113.267E-03
            5255            5448     104.476E-03     103.503E-03
            5256            5430     101.998E-03     102.921E-03
            5256            5431     91.8253E-03     92.7109E-03
            5256            5448     104.476E-03     103.503E-03
            5256            5449     94.8354E-03     93.8043E-03
            5257            5431     91.8253E-03     92.7109E-03
            5257            5432     81.8111E-03     82.6445E-03
            5257            5449     94.8354E-03     93.8043E-03
            5257            5450     85.3037E-03     84.2341E-03
            5258            5432     81.8111E-03     82.6445E-03
            5258            5433     72.0001E-03     72.7777E-03
            5258            5450     85.3037E-03     84.2341E-03
            5258            5451     75.9821E-03     74.8882E-03
            5259            5433     72.0001E-03     72.7777E-03
            5259            5434     62.5082E-03     63.2195E-03
            5259            5451     75.9821E-03     74.8882E-03
            5259            5452     66.9463E-03     65.8594E-03
            5260            5434     62.5082E-03     63.2195E-03
            5260            5435     53.4824E-03     54.1153E-03
            5260            5452     66.9463E-03     65.8594E-03
            5260            5453     58.3711E-03     57.3322E-03
            5261            5435     53.4824E-03     54.1153E-03
            5261            5436     45.2005E-03     45.7976E-03
            5261            5453     58.3711E-03     57.3322E-03
            5261            5454     50.4212E-03     49.5241E-03
            5262            5436     45.2005E-03     45.7976E-03
            5262            5437     38.0782E-03     38.7024E-03
            5262            5454     50.4212E-03     49.5241E-03
            5262            5455     43.3602E-03     42.7712E-03
            5263            5437     38.0782E-03     38.7024E-03
            5263            5438     32.4757E-03     33.4573E-03
            5263            5455     43.3602E-03     42.7712E-03
            5263            5456     37.4895E-03     37.6420E-03
            5264            5438     32.4757E-03     33.4573E-03
            5264            5439     29.6422E-03     30.5368E-03
            5264            5456     37.4895E-03     37.6420E-03
            5264            5457     32.8386E-03     34.8184E-03
            5265            5439     29.6422E-03     30.5368E-03
            5265            5440     30.0489E-03     28.2845E-03
            5265            5457     32.8386E-03     34.8184E-03
            5265            5458     30.1769E-03     34.3158E-03
            5266             716     30.9784E-03     35.8314E-03
            5266             717     29.7984E-03     30.0548E-03
            5266            5440     30.0489E-03     28.2845E-03
            5266            5458     30.1769E-03     34.3158E-03
            5267             942     162.561E-03     162.276E-03
            5267             943     174.819E-03     173.945E-03
            5267            5441     168.869E-03     167.992E-03
            5267            5459     155.823E-03     155.695E-03
            5268            5441     168.869E-03     167.992E-03
            5268            5442     161.272E-03     160.347E-03
            5268            5459     155.823E-03     155.695E-03
            5268            5460     147.891E-03     148.057E-03
            5269            5442     161.272E-03     160.347E-03
            5269            5443     152.450E-03     151.569E-03
            5269            5460     147.891E-03     148.057E-03
            5269            5461     139.482E-03     139.764E-03
            5270            5443     152.450E-03     151.569E-03
            5270            5444     143.100E-03     142.314E-03
            5270            5461     139.482E-03     139.764E-03
            5270            5462     130.627E-03     130.984E-03
            5271            5444     143.100E-03     142.314E-03
            5271            5445     133.574E-03     132.737E-03
            5271            5462     130.627E-03     130.984E-03
            5271            5463     121.580E-03     121.928E-03
            5272            5445     133.574E-03     132.737E-03
            5272            5446     123.889E-03     123.038E-03
            5272            5463     121.580E-03     121.928E-03
            5272            5464     112.403E-03     112.758E-03
            5273            5446     123.889E-03     123.038E-03
            5273            5447     114.190E-03     113.267E-03
            5273            5464     112.403E-03     112.758E-03
            5273            5465     103.169E-03     103.466E-03
            5274            5447     114.190E-03     113.267E-03
            5274            5448     104.476E-03     103.503E-03
            5274            5465     103.169E-03     103.466E-03
            5274            5466     93.9005E-03     94.1852E-03
            5275            5448     104.476E-03     103.503E-03
            5275            5449     94.8354E-03     93.8043E-03
            5275            5466     93.9005E-03     94.1852E-03
            5275            5467     84.6567E-03     84.8958E-03
            5276            5449     94.8354E-03     93.8043E-03
            5276            5450     85.3037E-03     84.2341E-03
            5276            5467     84.6567E-03     84.8958E-03
            5276            5468     75.4584E-03     75.6931E-03
            5277            5450     85.3037E-03     84.2341E-03
            5277            5451     75.9821E-03     74.8882E-03
            5277            5468     75.4584E-03     75.6931E-03
            5277            5469     66.3724E-03     66.5967E-03
            5278            5451     75.9821E-03     74.8882E-03
            5278            5452     66.9463E-03     65.8594E-03
            5278            5469     66.3724E-03     66.5967E-03
            5278            5470     57.4310E-03     57.6846E-03
            5279            5452     66.9463E-03     65.8594E-03
            5279            5453     58.3711E-03     57.3322E-03
            5279            5470     57.4310E-03     57.6846E-03
            5279            5471     48.7444E-03     49.0506E-03
            5280            5453     58.3711E-03     57.3322E-03
            5280            5454     50.4212E-03     49.5241E-03
            5280            5471     48.7444E-03     49.0506E-03
            5280            5472     40.3697E-03     40.7656E-03
            5281            5454     50.4212E-03     49.5241E-03
            5281            5455     43.3602E-03     42.7712E-03
            5281            5472     40.3697E-03     40.7656E-03
            5281            5473     32.5519E-03     33.1110E-03
            5282            5455     43.3602E-03     42.7712E-03
            5282            5456     37.4895E-03     37.6420E-03
            5282            5473     32.5519E-03     33.1110E-03
            5282            5474     25.7103E-03     26.3592E-03
            5283            5456     37.4895E-03     37.6420E-03
            5283            5457     32.8386E-03     34.8184E-03
            5283            5474     25.7103E-03     26.3592E-03
            5283            5475     21.6280E-03     22.3424E-03
            5284            5457     32.8386E-03     34.8184E-03
            5284            5458     30.1769E-03     34.3158E-03
            5284            5475     21.6280E-03     22.3424E-03
            5284            5476     20.6217E-03     23.7037E-03
            5285             715     24.8082E-03     28.0341E-03
            5285             716     30.9784E-03     35.8314E-03
            5285            5458     30.1769E-03     34.3158E-03
            5285            5476     20.6217E-03     23.7037E-03
            5286              35     149.949E-03     153.349E-03
            5286             824     138.600E-03     141.612E-03
            5286             942     162.561E-03     162.276E-03
            5286            5459     155.823E-03     155.695E-03
            5287             824     138.600E-03     141.612E-03
            5287             825     128.369E-03     131.489E-03
            5287            5459     155.823E-03     155.695E-03
            5287            5460     147.891E-03     148.057E-03
            5288             825     128.369E-03     131.489E-03
            5288             826     119.058E-03     122.269E-03
            5288            5460     147.891E-03     148.057E-03
            5288            5461     139.482E-03     139.764E-03
            5289             826     119.058E-03     122.269E-03
            5289             827     110.070E-03     113.495E-03
            5289            5461     139.482E-03     139.764E-03
            5289            5462     130.627E-03     130.984E-03
            5290             827     110.070E-03     113.495E-03
            5290             828     101.381E-03     104.925E-03
            5290            5462     130.627E-03     130.984E-03
            5290            5463     121.580E-03     121.928E-03
            5291             828     101.381E-03     104.925E-03
            5291             829     92.7848E-03     96.4717E-03
            5291            5463     121.580E-03     121.928E-03
            5291            5464     112.403E-03     112.758E-03
            5292             829     92.7848E-03     96.4717E-03
            5292             830     84.2825E-03     88.0452E-03
            5292            5464     112.403E-03     112.758E-03
            5292            5465     103.169E-03     103.466E-03
            5293             830     84.2825E-03     88.0452E-03
            5293             831     75.7923E-03     79.6331E-03
            5293            5465     103.169E-03     103.466E-03
            5293            5466     93.9005E-03     94.1852E-03
            5294             831     75.7923E-03     79.6331E-03
            5294             832     67.3235E-03     71.2041E-03
            5294            5466     93.9005E-03     94.1852E-03
            5294            5467     84.6567E-03     84.8958E-03
            5295             832     67.3235E-03     71.2041E-03
            5295             833     58.8434E-03     62.7617E-03
            5295            5467     84.6567E-03     84.8958E-03
            5295            5468     75.4584E-03     75.6931E-03
            5296             833     58.8434E-03     62.7617E-03
            5296             834     50.3659E-03     54.2940E-03
            5296            5468     75.4584E-03     75.6931E-03
            5296            5469     66.3724E-03     66.5967E-03
            5297             834     50.3659E-03     54.2940E-03
            5297             835     41.8762E-03     45.8014E-03
            5297            5469     66.3724E-03     66.5967E-03
            5297            5470     57.4310E-03     57.6846E-03
            5298             835     41.8762E-03     45.8014E-03
            5298             836     33.4003E-03     37.2771E-03
            5298            5470     57.4310E-03     57.6846E-03
            5298            5471     48.7444E-03     49.0506E-03
            5299             836     33.4003E-03     37.2771E-03
            5299             837     24.9246E-03     28.7095E-03
            5299            5471     48.7444E-03     49.0506E-03
            5299            5472     40.3697E-03     40.7656E-03
            5300             837     24.9246E-03     28.7095E-03
            5300             838     16.5699E-03     20.1256E-03
            5300            5472     40.3697E-03     40.7656E-03
            5300            5473     32.5519E-03     33.1110E-03
            5301             838     16.5699E-03     20.1256E-03
            5301             839     8.68539E-03     11.6494E-03
            5301            5473     32.5519E-03     33.1110E-03
            5301            5474     25.7103E-03     26.3592E-03
            5302             839     8.68539E-03     11.6494E-03
            5302             840     6.56183E-03     6.74384E-03
            5302            5474     25.7103E-03     26.3592E-03
            5302            5475     21.6280E-03     22.3424E-03
            5303             840     6.56183E-03     6.74384E-03
            5303             841     13.4045E-03     11.7561E-03
            5303            5475     21.6280E-03     22.3424E-03
            5303            5476     20.6217E-03     23.7037E-03
            5304              33     22.0151E-03     22.4608E-03
            5304             715     24.8082E-03     28.0341E-03
            5304             841     13.4045E-03     11.7561E-03
            5304            5476     20.6217E-03     23.7037E-03
            5305              27     263.443E-03     279.656E-03
            5305             565     242.132E-03     249.226E-03
            5305             742     233.333E-03     230.243E-03
            5305            5477     208.682E-03     212.275E-03
            5306              29     222.075E-03     227.468E-03
            5306             565     242.132E-03     249.226E-03
            5306             947     186.425E-03     191.860E-03
            5306            5477     208.682E-03     212.275E-03
            5307             741     220.752E-03     213.518E-03
            5307             742     233.333E-03     230.243E-03
            5307            5477     208.682E-03     212.275E-03
            5307            5478     207.433E-03     208.952E-03
            5308             946     191.956E-03     196.135E-03
            5308             947     186.425E-03     191.860E-03
            5308            5477     208.682E-03     212.275E-03
            5308            5478     207.433E-03     208.952E-03
            5309             740     199.740E-03     207.889E-03
            5309             741     220.752E-03     213.518E-03
            5309            5478     207.433E-03     208.952E-03
            5309            5479     198.635E-03     203.146E-03
            5310             945     189.947E-03     193.657E-03
            5310             946     191.956E-03     196.135E-03
            5310            5478     207.433E-03     208.952E-03
            5310            5479     198.635E-03     203.146E-03
            5311             739     194.707E-03     188.528E-03
            5311             740     199.740E-03     207.889E-03
            5311            5479     198.635E-03     203.146E-03
            5311            5480     189.654E-03     191.191E-03
            5312             944     183.468E-03     186.127E-03
            5312             945     189.947E-03     193.657E-03
            5312            5479     198.635E-03     203.146E-03
            5312            5480     189.654E-03     191.191E-03
            5313             738     181.434E-03     177.581E-03
            5313             739     194.707E-03     188.528E-03
            5313            5480     189.654E-03     191.191E-03
            5313            5481     177.653E-03     176.695E-03
            5314             943     174.819E-03     173.945E-03
            5314             944     183.468E-03     186.127E-03
            5314            5480     189.654E-03     191.191E-03
            5314            5481     177.653E-03     176.695E-03
            5315             737     170.257E-03     175.232E-03
            5315             738     181.434E-03     177.581E-03
            5315            5481     177.653E-03     176.695E-03
            5315            5482     167.702E-03     168.171E-03
            5316             942     162.561E-03     162.276E-03
            5316             943     174.819E-03     173.945E-03
            5316            5481     177.653E-03     176.695E-03
            5316            5482     167.702E-03     168.171E-03
            5317              34     181.409E-03     192.624E-03
            5317             737     170.257E-03     175.232E-03
            5317             788     166.482E-03     172.023E-03
            5317            5482     167.702E-03     168.171E-03
            5318              35     149.949E-03     153.349E-03
            5318             788     166.482E-03     172.023E-03
            5318             942     162.561E-03     162.276E-03
            5318            5482     167.702E-03     168.171E-03
            5319              38     5.05451E-03     2.99604E-03
            5319             912     581.500E-06     638.711E-06
            5319             948     5.05339E-03     5.07885E-03
            5319            5483     768.150E-06     817.718E-06
            5320              15     4.78685E-03     7.45011E-03
            5320             948     5.05339E-03     5.07885E-03
            5320             949     998.947E-06     1.01684E-03
            5320            5483     768.150E-06     817.718E-06
            5321             912     581.500E-06     638.711E-06
            5321             913     577.945E-06     603.394E-06
            5321            5483     768.150E-06     817.718E-06
            5321            5484     656.994E-06     661.782E-06
            5322             949     998.947E-06     1.01684E-03
            5322             950     785.347E-06     756.786E-06
            5322            5483     768.150E-06     817.718E-06
            5322            5484     656.994E-06     661.782E-06
            5323             913     577.945E-06     603.394E-06
            5323             914     500.280E-06     523.687E-06
            5323            5484     656.994E-06     661.782E-06
            5323            5485     488.819E-06     507.790E-06
            5324             950     785.347E-06     756.786E-06
            5324             951     535.894E-06     571.897E-06
            5324            5484     656.994E-06     661.782E-06
            5324            5485     488.819E-06     507.790E-06
            5325             914     500.280E-06     523.687E-06
            5325             915     414.079E-06     437.612E-06
            5325            5485     488.819E-06     507.790E-06
            5325            5486     343.707E-06     347.876E-06
            5326             951     535.894E-06     571.897E-06
            5326             952     376.601E-06     359.031E-06
            5326            5485     488.819E-06     507.790E-06
            5326            5486     343.707E-06     347.876E-06
            5327             915     414.079E-06     437.612E-06
            5327             916     372.483E-06     368.300E-06
            5327            5486     343.707E-06     347.876E-06
            5327            5487     234.153E-06     229.097E-06
            5328             952     376.601E-06     359.031E-06
            5328             953     241.547E-06     232.424E-06
            5328            5486     343.707E-06     347.876E-06
            5328            5487     234.153E-06     229.097E-06
            5329             916     372.483E-06     368.300E-06
            5329             917     342.391E-06     296.035E-06
            5329            5487     234.153E-06     229.097E-06
            5329            5488     218.469E-06     226.707E-06
            5330             953     241.547E-06     232.424E-06
            5330             954     229.769E-06     292.672E-06
            5330            5487     234.153E-06     229.097E-06
            5330            5488     218.469E-06     226.707E-06
            5331              39     320.029E-06     254.013E-06
            5331             917     342.391E-06     296.035E-06
            5331             955     237.245E-06     268.840E-06
            5331            5488     218.469E-06     226.707E-06
            5332              41     258.199E-06     396.660E-06
            5332             954     229.769E-06     292.672E-06
            5332             955     237.245E-06     268.840E-06
            5332            5488     218.469E-06     226.707E-06
            5333               9     42.7633E-03     42.3817E-03
            5333             178     43.3226E-03     45.7378E-03
            5333             749     63.4307E-03     67.0138E-03
            5333            5489     63.6216E-03     67.3170E-03
            5334             177     51.5560E-03     53.1349E-03
            5334             178     43.3226E-03     45.7378E-03
            5334            5489     63.6216E-03     67.3170E-03
            5334            5490     73.7579E-03     72.4996E-03
            5335             176     52.8097E-03     51.6511E-03
            5335             177     51.5560E-03     53.1349E-03
            5335            5490     73.7579E-03     72.4996E-03
            5335            5491     78.3207E-03     75.5658E-03
            5336             175     51.4266E-03     53.3440E-03
            5336             176     52.8097E-03     51.6511E-03
            5336            5491     78.3207E-03     75.5658E-03
            5336            5492     76.0603E-03     82.9528E-03
            5337             174     54.0002E-03     53.3975E-03
            5337             175     51.4266E-03     53.3440E-03
            5337            5492     76.0603E-03     82.9528E-03
            5337            5493     84.5798E-03     81.7331E-03
            5338             173     53.9203E-03     50.5666E-03
            5338             174     54.0002E-03     53.3975E-03
            5338            5493     84.5798E-03     81.7331E-03
            5338            5494     83.1541E-03     80.3772E-03
            5339               7     51.2184E-03     57.7149E-03
            5339             173     53.9203E-03     50.5666E-03
            5339             557     83.5901E-03     100.409E-03
            5339            5494     83.1541E-03     80.3772E-03
            5340             749     63.4307E-03     67.0138E-03
            5340             750     95.3252E-03     104.922E-03
            5340            5489     63.6216E-03     67.3170E-03
            5340            5495     94.9768E-03     101.253E-03
            5341            5489     63.6216E-03     67.3170E-03
            5341            5490     73.7579E-03     72.4996E-03
            5341            5495     94.9768E-03     101.253E-03
            5341            5496     109.079E-03     104.864E-03
            5342            5490     73.7579E-03     72.4996E-03
            5342            5491     78.3207E-03     75.5658E-03
            5342            5496     109.079E-03     104.864E-03
            5342            5497     118.399E-03     112.630E-03
            5343            5491     78.3207E-03     75.5658E-03
            5343            5492     76.0603E-03     82.9528E-03
            5343            5497     118.399E-03     112.630E-03
            5343            5498     114.544E-03     125.719E-03
            5344            5492     76.0603E-03     82.9528E-03
            5344            5493     84.5798E-03     81.7331E-03
            5344            5498     114.544E-03     125.719E-03
            5344            5499     130.664E-03     122.480E-03
            5345            5493     84.5798E-03     81.7331E-03
            5345            5494     83.1541E-03     80.3772E-03
            5345            5499     130.664E-03     122.480E-03
            5345            5500     126.835E-03     122.546E-03
            5346             556     123.581E-03     149.565E-03
            5346             557     83.5901E-03     100.409E-03
            5346            5494     83.1541E-03     80.3772E-03
            5346            5500     126.835E-03     122.546E-03
            5347             750     95.3252E-03     104.922E-03
            5347             751     125.900E-03     143.740E-03
            5347            5495     94.9768E-03     101.253E-03
            5347            5501     124.807E-03     136.746E-03
            5348            5495     94.9768E-03     101.253E-03
            5348            5496     109.079E-03     104.864E-03
            5348            5501     124.807E-03     136.746E-03
            5348            5502     144.388E-03     138.823E-03
            5349            5496     109.079E-03     104.864E-03
            5349            5497     118.399E-03     112.630E-03
            5349            5502     144.388E-03     138.823E-03
            5349            5503     155.444E-03     144.973E-03
            5350            5497     118.399E-03     112.630E-03
            5350            5498     114.544E-03     125.719E-03
            5350            5503     155.444E-03     144.973E-03
            5350            5504     146.764E-03     161.785E-03
            5351            5498     114.544E-03     125.719E-03
            5351            5499     130.664E-03     122.480E-03
            5351            5504     146.764E-03     161.785E-03
            5351            5505     171.811E-03     155.769E-03
            5352            5499     130.664E-03     122.480E-03
            5352            5500     126.835E-03     122.546E-03
            5352            5505     171.811E-03     155.769E-03
            5352            5506     168.415E-03     162.273E-03
            5353             555     160.513E-03     200.832E-03
            5353             556     123.581E-03     149.565E-03
            5353            5500     126.835E-03     122.546E-03
            5353            5506     168.415E-03     162.273E-03
            5354             751     125.900E-03     143.740E-03
            5354             752     150.187E-03     175.350E-03
            5354            5501     124.807E-03     136.746E-03
            5354            5507     148.966E-03     166.873E-03
            5355            5501     124.807E-03     136.746E-03
            5355            5502     144.388E-03     138.823E-03
            5355            5507     148.966E-03     166.873E-03
            5355            5508     171.824E-03     168.836E-03
            5356            5502     144.388E-03     138.823E-03
            5356            5503     155.444E-03     144.973E-03
            5356            5508     171.824E-03     168.836E-03
            5356            5509     180.531E-03     170.144E-03
            5357            5503     155.444E-03     144.973E-03
            5357            5504     146.764E-03     161.785E-03
            5357            5509     180.531E-03     170.144E-03
            5357            5510     166.285E-03     190.077E-03
            5358            5504     146.764E-03     161.785E-03
            5358            5505     171.811E-03     155.769E-03
            5358            5510     166.285E-03     190.077E-03
            5358            5511     200.978E-03     185.678E-03
            5359            5505     171.811E-03     155.769E-03
            5359            5506     168.415E-03     162.273E-03
            5359            5511     200.978E-03     185.678E-03
            5359            5512     202.037E-03     199.260E-03
            5360             554     197.626E-03     249.091E-03
            5360             555     160.513E-03     200.832E-03
            5360            5506     168.415E-03     162.273E-03
            5360            5512     202.037E-03     199.260E-03
            5361             752     150.187E-03     175.350E-03
            5361             753     172.895E-03     194.369E-03
            5361            5507     148.966E-03     166.873E-03
            5361            5513     164.866E-03     179.215E-03
            5362            5507     148.966E-03     166.873E-03
            5362            5508     171.824E-03     168.836E-03
            5362            5513     164.866E-03     179.215E-03
            5362            5514     183.521E-03     180.265E-03
            5363            5508     171.824E-03     168.836E-03
            5363            5509     180.531E-03     170.144E-03
            5363            5514     183.521E-03     180.265E-03
            5363            5515     193.359E-03     183.437E-03
            5364            5509     180.531E-03     170.144E-03
            5364            5510     166.285E-03     190.077E-03
            5364            5515     193.359E-03     183.437E-03
            5364            5516     185.209E-03     205.668E-03
            5365            5510     166.285E-03     190.077E-03
            5365            5511     200.978E-03     185.678E-03
            5365            5516     185.209E-03     205.668E-03
            5365            5517     220.255E-03     207.788E-03
            5366            5511     200.978E-03     185.678E-03
            5366            5512     202.037E-03     199.260E-03
            5366            5517     220.255E-03     207.788E-03
            5366            5518     230.897E-03     227.169E-03
            5367             553     244.710E-03     282.633E-03
            5367             554     197.626E-03     249.091E-03
            5367            5512     202.037E-03     199.260E-03
            5367            5518     230.897E-03     227.169E-03
            5368              34     181.409E-03     192.624E-03
            5368             737     170.257E-03     175.232E-03
            5368             753     172.895E-03     194.369E-03
            5368            5513     164.866E-03     179.215E-03
            5369             737     170.257E-03     175.232E-03
            5369             738     181.434E-03     177.581E-03
            5369            5513     164.866E-03     179.215E-03
            5369            5514     183.521E-03     180.265E-03
            5370             738     181.434E-03     177.581E-03
            5370             739     194.707E-03     188.528E-03
            5370            5514     183.521E-03     180.265E-03
            5370            5515     193.359E-03     183.437E-03
            5371             739     194.707E-03     188.528E-03
            5371             740     199.740E-03     207.889E-03
            5371            5515     193.359E-03     183.437E-03
            5371            5516     185.209E-03     205.668E-03
            5372             740     199.740E-03     207.889E-03
            5372             741     220.752E-03     213.518E-03
            5372            5516     185.209E-03     205.668E-03
            5372            5517     220.255E-03     207.788E-03
            5373             741     220.752E-03     213.518E-03
            5373             742     233.333E-03     230.243E-03
            5373            5517     220.255E-03     207.788E-03
            5373            5518     230.897E-03     227.169E-03
            5374              27     263.443E-03     279.656E-03
            5374             553     244.710E-03     282.633E-03
            5374             742     233.333E-03     230.243E-03
            5374            5518     230.897E-03     227.169E-03
            5431              36     7.63258E-03     6.40903E-03
            5431             893     8.55179E-03     7.49370E-03
            5431             993     581.500E-06     638.711E-06
            5431            5561     510.255E-06     568.410E-06
            5432             892     8.92580E-03     7.80399E-03
            5432             893     8.55179E-03     7.49370E-03
            5432            5561     510.255E-06     568.410E-06
            5432            5562     490.189E-06     545.620E-06
            5433             891     8.74210E-03     7.75002E-03
            5433             892     8.92580E-03     7.80399E-03
            5433            5562     490.189E-06     545.620E-06
            5433            5563     476.886E-06     531.201E-06
            5434             890     8.67860E-03     7.74371E-03
            5434             891     8.74210E-03     7.75002E-03
            5434            5563     476.886E-06     531.201E-06
            5434            5564     468.055E-06     521.086E-06
            5435             889     8.52475E-03     7.65099E-03
            5435             890     8.67860E-03     7.74371E-03
            5435            5564     468.055E-06     521.086E-06
            5435            5565     457.847E-06     509.911E-06
            5436             888     8.41655E-03     7.60689E-03
            5436             889     8.52475E-03     7.65099E-03
            5436            5565     457.847E-06     509.911E-06
            5436            5566     447.717E-06     499.088E-06
            5437             887     8.28214E-03     7.53751E-03
            5437             888     8.41655E-03     7.60689E-03
            5437            5566     447.717E-06     499.088E-06
            5437            5567     437.661E-06     487.811E-06
            5438             886     8.16680E-03     7.48973E-03
            5438             887     8.28214E-03     7.53751E-03
            5438            5567     437.661E-06     487.811E-06
            5438            5568     428.097E-06     477.028E-06
            5439             885     8.04763E-03     7.43990E-03
            5439             886     8.16680E-03     7.48973E-03
            5439            5568     428.097E-06     477.028E-06
            5439            5569     419.521E-06     466.513E-06
            5440             884     7.93831E-03     7.40213E-03
            5440             885     8.04763E-03     7.43990E-03
            5440            5569     419.521E-06     466.513E-06
            5440            5570     411.847E-06     456.727E-06
            5441             883     7.83572E-03     7.37275E-03
            5441             884     7.93831E-03     7.40213E-03
            5441            5570     411.847E-06     456.727E-06
            5441            5571     405.451E-06     447.518E-06
            5442             882     7.73623E-03     7.34845E-03
            5442             883     7.83572E-03     7.37275E-03
            5442            5571     405.451E-06     447.518E-06
            5442            5572     400.101E-06     439.027E-06
            5443             881     7.65276E-03     7.34070E-03
            5443             882     7.73623E-03     7.34845E-03
            5443            5572     400.101E-06     439.027E-06
            5443            5573     396.149E-06     431.207E-06
            5444             880     7.55776E-03     7.31979E-03
            5444             881     7.65276E-03     7.34070E-03
            5444            5573     396.149E-06     431.207E-06
            5444            5574     393.172E-06     423.896E-06
            5445             879     7.47267E-03     7.33614E-03
            5445             880     7.55776E-03     7.31979E-03
            5445            5574     393.172E-06     423.896E-06
            5445            5575     391.221E-06     417.342E-06
            5446             878     7.31468E-03     7.20643E-03
            5446             879     7.47267E-03     7.33614E-03
            5446            5575     391.221E-06     417.342E-06
            5446            5576     388.638E-06     412.440E-06
            5447             877     7.06023E-03     6.99495E-03
            5447             878     7.31468E-03     7.20643E-03
            5447            5576     388.638E-06     412.440E-06
            5447            5577     383.267E-06     413.494E-06
            5448             876     6.45499E-03     6.57891E-03
            5448             877     7.06023E-03     6.99495E-03
            5448            5577     383.267E-06     413.494E-06
            5448            5578     379.422E-06     420.403E-06
            5449              37     4.34063E-03     5.37776E-03
            5449             876     6.45499E-03     6.57891E-03
            5449             941     378.844E-06     424.267E-06
            5449            5578     379.422E-06     420.403E-06
            5450             992     577.945E-06     603.394E-06
            5450             993     581.500E-06     638.711E-06
            5450            5561     510.255E-06     568.410E-06
            5450            5579     532.758E-06     568.671E-06
            5451            5561     510.255E-06     568.410E-06
            5451            5562     490.189E-06     545.620E-06
            5451            5579     532.758E-06     568.671E-06
            5451            5580     515.373E-06     554.827E-06
            5452            5562     490.189E-06     545.620E-06
            5452            5563     476.886E-06     531.201E-06
            5452            5580     515.373E-06     554.827E-06
            5452            5581     504.837E-06     542.194E-06
            5453            5563     476.886E-06     531.201E-06
            5453            5564     468.055E-06     521.086E-06
            5453            5581     504.837E-06     542.194E-06
            5453            5582     491.115E-06     528.056E-06
            5454            5564     468.055E-06     521.086E-06
            5454            5565     457.847E-06     509.911E-06
            5454            5582     491.115E-06     528.056E-06
            5454            5583     478.494E-06     514.815E-06
            5455            5565     457.847E-06     509.911E-06
            5455            5566     447.717E-06     499.088E-06
            5455            5583     478.494E-06     514.815E-06
            5455            5584     466.037E-06     501.796E-06
            5456            5566     447.717E-06     499.088E-06
            5456            5567     437.661E-06     487.811E-06
            5456            5584     466.037E-06     501.796E-06
            5456            5585     454.717E-06     489.897E-06
            5457            5567     437.661E-06     487.811E-06
            5457            5568     428.097E-06     477.028E-06
            5457            5585     454.717E-06     489.897E-06
            5457            5586     444.459E-06     478.713E-06
            5458            5568     428.097E-06     477.028E-06
            5458            5569     419.521E-06     466.513E-06
            5458            5586     444.459E-06     478.713E-06
            5458            5587     435.302E-06     468.531E-06
            5459            5569     419.521E-06     466.513E-06
            5459            5570     411.847E-06     456.727E-06
            5459            5587     435.302E-06     468.531E-06
            5459            5588     427.343E-06     459.135E-06
            5460            5570     411.847E-06     456.727E-06
            5460            5571     405.451E-06     447.518E-06
            5460            5588     427.343E-06     459.135E-06
            5460            5589     420.412E-06     450.618E-06
            5461            5571     405.451E-06     447.518E-06
            5461            5572     400.101E-06     439.027E-06
            5461            5589     420.412E-06     450.618E-06
            5461            5590     414.742E-06     442.944E-06
            5462            5572     400.101E-06     439.027E-06
            5462            5573     396.149E-06     431.207E-06
            5462            5590     414.742E-06     442.944E-06
            5462            5591     410.087E-06     436.025E-06
            5463            5573     396.149E-06     431.207E-06
            5463            5574     393.172E-06     423.896E-06
            5463            5591     410.087E-06     436.025E-06
            5463            5592     406.707E-06     430.214E-06
            5464            5574     393.172E-06     423.896E-06
            5464            5575     391.221E-06     417.342E-06
            5464            5592     406.707E-06     430.214E-06
            5464            5593     405.122E-06     424.371E-06
            5465            5575     391.221E-06     417.342E-06
            5465            5576     388.638E-06     412.440E-06
            5465            5593     405.122E-06     424.371E-06
            5465            5594     403.093E-06     420.440E-06
            5466            5576     388.638E-06     412.440E-06
            5466            5577     383.267E-06     413.494E-06
            5466            5594     403.093E-06     420.440E-06
            5466            5595     405.437E-06     417.261E-06
            5467            5577     383.267E-06     413.494E-06
            5467            5578     379.422E-06     420.403E-06
            5467            5595     405.437E-06     417.261E-06
            5467            5596     420.359E-06     402.282E-06
            5468             940     431.325E-06     389.976E-06
            5468             941     378.844E-06     424.267E-06
            5468            5578     379.422E-06     420.403E-06
            5468            5596     420.359E-06     402.282E-06
            5469             991     500.280E-06     523.687E-06
            5469             992     577.945E-06     603.394E-06
            5469            5579     532.758E-06     568.671E-06
            5469            5597     529.605E-06     554.263E-06
            5470            5579     532.758E-06     568.671E-06
            5470            5580     515.373E-06     554.827E-06
            5470            5597     529.605E-06     554.263E-06
            5470            5598     534.729E-06     556.501E-06
            5471            5580     515.373E-06     554.827E-06
            5471            5581     504.837E-06     542.194E-06
            5471            5598     534.729E-06     556.501E-06
            5471            5599     526.009E-06     546.697E-06
            5472            5581     504.837E-06     542.194E-06
            5472            5582     491.115E-06     528.056E-06
            5472            5599     526.009E-06     546.697E-06
            5472            5600     511.916E-06     531.709E-06
            5473            5582     491.115E-06     528.056E-06
            5473            5583     478.494E-06     514.815E-06
            5473            5600     511.916E-06     531.709E-06
            5473            5601     496.989E-06     516.652E-06
            5474            5583     478.494E-06     514.815E-06
            5474            5584     466.037E-06     501.796E-06
            5474            5601     496.989E-06     516.652E-06
            5474            5602     483.391E-06     502.751E-06
            5475            5584     466.037E-06     501.796E-06
            5475            5585     454.717E-06     489.897E-06
            5475            5602     483.391E-06     502.751E-06
            5475            5603     471.255E-06     490.378E-06
            5476            5585     454.717E-06     489.897E-06
            5476            5586     444.459E-06     478.713E-06
            5476            5603     471.255E-06     490.378E-06
            5476            5604     460.681E-06     479.483E-06
            5477            5586     444.459E-06     478.713E-06
            5477            5587     435.302E-06     468.531E-06
            5477            5604     460.681E-06     479.483E-06
            5477            5605     451.413E-06     469.784E-06
            5478            5587     435.302E-06     468.531E-06
            5478            5588     427.343E-06     459.135E-06
            5478            5605     451.413E-06     469.784E-06
            5478            5606     443.300E-06     461.186E-06
            5479            5588     427.343E-06     459.135E-06
            5479            5589     420.412E-06     450.618E-06
            5479            5606     443.300E-06     461.186E-06
            5479            5607     436.286E-06     453.537E-06
            5480            5589     420.412E-06     450.618E-06
            5480            5590     414.742E-06     442.944E-06
            5480            5607     436.286E-06     453.537E-06
            5480            5608     430.218E-06     446.830E-06
            5481            5590     414.742E-06     442.944E-06
            5481            5591     410.087E-06     436.025E-06
            5481            5608     430.218E-06     446.830E-06
            5481            5609     425.245E-06     441.157E-06
            5482            5591     410.087E-06     436.025E-06
            5482            5592     406.707E-06     430.214E-06
            5482            5609     425.245E-06     441.157E-06
            5482            5610     421.437E-06     436.322E-06
            5483            5592     406.707E-06     430.214E-06
            5483            5593     405.122E-06     424.371E-06
            5483            5610     421.437E-06     436.322E-06
            5483            5611     419.150E-06     432.651E-06
            5484            5593     405.122E-06     424.371E-06
            5484            5594     403.093E-06     420.440E-06
            5484            5611     419.150E-06     432.651E-06
            5484            5612     422.049E-06     426.588E-06
            5485            5594     403.093E-06     420.440E-06
            5485            5595     405.437E-06     417.261E-06
            5485            5612     422.049E-06     426.588E-06
            5485            5613     431.199E-06     412.553E-06
            5486            5595     405.437E-06     417.261E-06
            5486            5596     420.359E-06     402.282E-06
            5486            5613     431.199E-06     412.553E-06
            5486            5614     439.030E-06     398.076E-06
            5487             939     441.192E-06     392.898E-06
            5487             940     431.325E-06     389.976E-06
            5487            5596     420.359E-06     402.282E-06
            5487            5614     439.030E-06     398.076E-06
            5488             990     414.079E-06     437.612E-06
            5488             991     500.280E-06     523.687E-06
            5488            5597     529.605E-06     554.263E-06
            5488            5615     506.842E-06     518.571E-06
            5489            5597     529.605E-06     554.263E-06
            5489            5598     534.729E-06     556.501E-06
            5489            5615     506.842E-06     518.571E-06
            5489            5616     538.572E-06     540.963E-06
            5490            5598     534.729E-06     556.501E-06
            5490            5599     526.009E-06     546.697E-06
            5490            5616     538.572E-06     540.963E-06
            5490            5617     534.803E-06     536.722E-06
            5491            5599     526.009E-06     546.697E-06
            5491            5600     511.916E-06     531.709E-06
            5491            5617     534.803E-06     536.722E-06
            5491            5618     524.214E-06     525.648E-06
            5492            5600     511.916E-06     531.709E-06
            5492            5601     496.989E-06     516.652E-06
            5492            5618     524.214E-06     525.648E-06
            5492            5619     510.564E-06     512.120E-06
            5493            5601     496.989E-06     516.652E-06
            5493            5602     483.391E-06     502.751E-06
            5493            5619     510.564E-06     512.120E-06
            5493            5620     497.942E-06     499.749E-06
            5494            5602     483.391E-06     502.751E-06
            5494            5603     471.255E-06     490.378E-06
            5494            5620     497.942E-06     499.749E-06
            5494            5621     486.607E-06     488.633E-06
            5495            5603     471.255E-06     490.378E-06
            5495            5604     460.681E-06     479.483E-06
            5495            5621     486.607E-06     488.633E-06
            5495            5622     476.631E-06     478.962E-06
            5496            5604     460.681E-06     479.483E-06
            5496            5605     451.413E-06     469.784E-06
            5496            5622     476.631E-06     478.962E-06
            5496            5623     467.843E-06     470.490E-06
            5497            5605     451.413E-06     469.784E-06
            5497            5606     443.300E-06     461.186E-06
            5497            5623     467.843E-06     470.490E-06
            5497            5624     460.006E-06     463.035E-06
            5498            5606     443.300E-06     461.186E-06
            5498            5607     436.286E-06     453.537E-06
            5498            5624     460.006E-06     463.035E-06
            5498            5625     453.069E-06     456.525E-06
            5499            5607     436.286E-06     453.537E-06
            5499            5608     430.218E-06     446.830E-06
            5499            5625     453.069E-06     456.525E-06
            5499            5626     446.919E-06     450.901E-06
            5500            5608     430.218E-06     446.830E-06
            5500            5609     425.245E-06     441.157E-06
            5500            5626     446.919E-06     450.901E-06
            5500            5627     441.588E-06     446.311E-06
            5501            5609     425.245E-06     441.157E-06
            5501            5610     421.437E-06     436.322E-06
            5501            5627     441.588E-06     446.311E-06
            5501            5628     437.244E-06     442.648E-06
            5502            5610     421.437E-06     436.322E-06
            5502            5611     419.150E-06     432.651E-06
            5502            5628     437.244E-06     442.648E-06
            5502            5629     434.022E-06     440.212E-06
            5503            5611     419.150E-06     432.651E-06
            5503            5612     422.049E-06     426.588E-06
            5503            5629     434.022E-06     440.212E-06
            5503            5630     435.277E-06     436.370E-06
            5504            5612     422.049E-06     426.588E-06
            5504            5613     431.199E-06     412.553E-06
            5504            5630     435.277E-06     436.370E-06
            5504            5631     443.361E-06     424.917E-06
            5505            5613     431.199E-06     412.553E-06
            5505            5614     439.030E-06     398.076E-06
            5505            5631     443.361E-06     424.917E-06
            5505            5632     450.833E-06     410.004E-06
            5506             938     452.817E-06     403.494E-06
            5506             939     441.192E-06     392.898E-06
            5506            5614     439.030E-06     398.076E-06
            5506            5632     450.833E-06     410.004E-06
            5507             989     372.483E-06     368.300E-06
            5507             990     414.079E-06     437.612E-06
            5507            5615     506.842E-06     518.571E-06
            5507            5633     484.021E-06     466.821E-06
            5508            5615     506.842E-06     518.571E-06
            5508            5616     538.572E-06     540.963E-06
            5508            5633     484.021E-06     466.821E-06
            5508            5634     520.415E-06     502.199E-06
            5509            5616     538.572E-06     540.963E-06
            5509            5617     534.803E-06     536.722E-06
            5509            5634     520.415E-06     502.199E-06
            5509            5635     530.917E-06     511.494E-06
            5510            5617     534.803E-06     536.722E-06
            5510            5618     524.214E-06     525.648E-06
            5510            5635     530.917E-06     511.494E-06
            5510            5636     526.370E-06     507.854E-06
            5511            5618     524.214E-06     525.648E-06
            5511            5619     510.564E-06     512.120E-06
            5511            5636     526.370E-06     507.854E-06
            5511            5637     518.767E-06     501.018E-06
            5512            5619     510.564E-06     512.120E-06
            5512            5620     497.942E-06     499.749E-06
            5512            5637     518.767E-06     501.018E-06
            5512            5638     509.686E-06     492.752E-06
            5513            5620     497.942E-06     499.749E-06
            5513            5621     486.607E-06     488.633E-06
            5513            5638     509.686E-06     492.752E-06
            5513            5639     500.896E-06     484.920E-06
            5514            5621     486.607E-06     488.633E-06
            5514            5622     476.631E-06     478.962E-06
            5514            5639     500.896E-06     484.920E-06
            5514            5640     492.597E-06     477.579E-06
            5515            5622     476.631E-06     478.962E-06
            5515            5623     467.843E-06     470.490E-06
            5515            5640     492.597E-06     477.579E-06
            5515            5641     484.805E-06     470.975E-06
            5516            5623     467.843E-06     470.490E-06
            5516            5624     460.006E-06     463.035E-06
            5516            5641     484.805E-06     470.975E-06
            5516            5642     477.645E-06     465.044E-06
            5517            5624     460.006E-06     463.035E-06
            5517            5625     453.069E-06     456.525E-06
            5517            5642     477.645E-06     465.044E-06
            5517            5643     470.924E-06     459.823E-06
            5518            5625     453.069E-06     456.525E-06
            5518            5626     446.919E-06     450.901E-06
            5518            5643     470.924E-06     459.823E-06
            5518            5644     464.869E-06     455.379E-06
            5519            5626     446.919E-06     450.901E-06
            5519            5627     441.588E-06     446.311E-06
            5519            5644     464.869E-06     455.379E-06
            5519            5645     459.259E-06     451.648E-06
            5520            5627     441.588E-06     446.311E-06
            5520            5628     437.244E-06     442.648E-06
            5520            5645     459.259E-06     451.648E-06
            5520            5646     454.213E-06     449.163E-06
            5521            5628     437.244E-06     442.648E-06
            5521            5629     434.022E-06     440.212E-06
            5521            5646     454.213E-06     449.163E-06
            5521            5647     450.126E-06     447.047E-06
            5522            5629     434.022E-06     440.212E-06
            5522            5630     435.277E-06     436.370E-06
            5522            5647     450.126E-06     447.047E-06
            5522            5648     444.345E-06     448.177E-06
            5523            5630     435.277E-06     436.370E-06
            5523            5631     443.361E-06     424.917E-06
            5523            5648     444.345E-06     448.177E-06
            5523            5649     442.283E-06     451.769E-06
            5524            5631     443.361E-06     424.917E-06
            5524            5632     450.833E-06     410.004E-06
            5524            5649     442.283E-06     451.769E-06
            5524            5650     455.447E-06     441.730E-06
            5525             937     466.726E-06     430.607E-06
            5525             938     452.817E-06     403.494E-06
            5525            5632     450.833E-06     410.004E-06
            5525            5650     455.447E-06     441.730E-06
            5526             988     342.391E-06     296.035E-06
            5526             989     372.483E-06     368.300E-06
            5526            5633     484.021E-06     466.821E-06
            5526            5651     440.707E-06     395.083E-06
            5527            5633     484.021E-06     466.821E-06
            5527            5634     520.415E-06     502.199E-06
            5527            5651     440.707E-06     395.083E-06
            5527            5652     491.933E-06     449.290E-06
            5528            5634     520.415E-06     502.199E-06
            5528            5635     530.917E-06     511.494E-06
            5528            5652     491.933E-06     449.290E-06
            5528            5653     515.183E-06     474.623E-06
            5529            5635     530.917E-06     511.494E-06
            5529            5636     526.370E-06     507.854E-06
            5529            5653     515.183E-06     474.623E-06
            5529            5654     523.847E-06     484.556E-06
            5530            5636     526.370E-06     507.854E-06
            5530            5637     518.767E-06     501.018E-06
            5530            5654     523.847E-06     484.556E-06
            5530            5655     524.145E-06     486.520E-06
            5531            5637     518.767E-06     501.018E-06
            5531            5638     509.686E-06     492.752E-06
            5531            5655     524.145E-06     486.520E-06
            5531            5656     520.784E-06     484.611E-06
            5532            5638     509.686E-06     492.752E-06
            5532            5639     500.896E-06     484.920E-06
            5532            5656     520.784E-06     484.611E-06
            5532            5657     515.453E-06     480.826E-06
            5533            5639     500.896E-06     484.920E-06
            5533            5640     492.597E-06     477.579E-06
            5533            5657     515.453E-06     480.826E-06
            5533            5658     509.245E-06     476.428E-06
            5534            5640     492.597E-06     477.579E-06
            5534            5641     484.805E-06     470.975E-06
            5534            5658     509.245E-06     476.428E-06
            5534            5659     502.832E-06     471.839E-06
            5535            5641     484.805E-06     470.975E-06
            5535            5642     477.645E-06     465.044E-06
            5535            5659     502.832E-06     471.839E-06
            5535            5660     496.285E-06     467.569E-06
            5536            5642     477.645E-06     465.044E-06
            5536            5643     470.924E-06     459.823E-06
            5536            5660     496.285E-06     467.569E-06
            5536            5661     490.045E-06     463.673E-06
            5537            5643     470.924E-06     459.823E-06
            5537            5644     464.869E-06     455.379E-06
            5537            5661     490.045E-06     463.673E-06
            5537            5662     483.881E-06     460.345E-06
            5538            5644     464.869E-06     455.379E-06
            5538            5645     459.259E-06     451.648E-06
            5538            5662     483.881E-06     460.345E-06
            5538            5663     478.245E-06     457.685E-06
            5539            5645     459.259E-06     451.648E-06
            5539            5646     454.213E-06     449.163E-06
            5539            5663     478.245E-06     457.685E-06
            5539            5664     472.612E-06     455.617E-06
            5540            5646     454.213E-06     449.163E-06
            5540            5647     450.126E-06     447.047E-06
            5540            5664     472.612E-06     455.617E-06
            5540            5665     467.085E-06     454.764E-06
            5541            5647     450.126E-06     447.047E-06
            5541            5648     444.345E-06     448.177E-06
            5541            5665     467.085E-06     454.764E-06
            5541            5666     459.949E-06     455.964E-06
            5542            5648     444.345E-06     448.177E-06
            5542            5649     442.283E-06     451.769E-06
            5542            5666     459.949E-06     455.964E-06
            5542            5667     448.492E-06     464.904E-06
            5543            5649     442.283E-06     451.769E-06
            5543            5650     455.447E-06     441.730E-06
            5543            5667     448.492E-06     464.904E-06
            5543            5668     437.889E-06     482.543E-06
            5544             936     434.012E-06     492.328E-06
            5544             937     466.726E-06     430.607E-06
            5544            5650     455.447E-06     441.730E-06
            5544            5668     437.889E-06     482.543E-06
            5545              42     320.029E-06     254.013E-06
            5545             987     410.713E-06     353.054E-06
            5545             988     342.391E-06     296.035E-06
            5545            5651     440.707E-06     395.083E-06
            5546             986     476.183E-06     421.367E-06
            5546             987     410.713E-06     353.054E-06
            5546            5651     440.707E-06     395.083E-06
            5546            5652     491.933E-06     449.290E-06
            5547             985     505.615E-06     454.401E-06
            5547             986     476.183E-06     421.367E-06
            5547            5652     491.933E-06     449.290E-06
            5547            5653     515.183E-06     474.623E-06
            5548             984     522.045E-06     472.552E-06
            5548             985     505.615E-06     454.401E-06
            5548            5653     515.183E-06     474.623E-06
            5548            5654     523.847E-06     484.556E-06
            5549             983     526.864E-06     479.319E-06
            5549             984     522.045E-06     472.552E-06
            5549            5654     523.847E-06     484.556E-06
            5549            5655     524.145E-06     486.520E-06
            5550             982     526.525E-06     480.553E-06
            5550             983     526.864E-06     479.319E-06
            5550            5655     524.145E-06     486.520E-06
            5550            5656     520.784E-06     484.611E-06
            5551             981     522.982E-06     479.148E-06
            5551             982     526.525E-06     480.553E-06
            5551            5656     520.784E-06     484.611E-06
            5551            5657     515.453E-06     480.826E-06
            5552             980     517.923E-06     475.913E-06
            5552             981     522.982E-06     479.148E-06
            5552            5657     515.453E-06     480.826E-06
            5552            5658     509.245E-06     476.428E-06
            5553             979     512.079E-06     472.577E-06
            5553             980     517.923E-06     475.913E-06
            5553            5658     509.245E-06     476.428E-06
            5553            5659     502.832E-06     471.839E-06
            5554             978     505.956E-06     468.887E-06
            5554             979     512.079E-06     472.577E-06
            5554            5659     502.832E-06     471.839E-06
            5554            5660     496.285E-06     467.569E-06
            5555             977     499.822E-06     465.834E-06
            5555             978     505.956E-06     468.887E-06
            5555            5660     496.285E-06     467.569E-06
            5555            5661     490.045E-06     463.673E-06
            5556             976     493.706E-06     462.876E-06
            5556             977     499.822E-06     465.834E-06
            5556            5661     490.045E-06     463.673E-06
            5556            5662     483.881E-06     460.345E-06
            5557             975     487.996E-06     460.994E-06
            5557             976     493.706E-06     462.876E-06
            5557            5662     483.881E-06     460.345E-06
            5557            5663     478.245E-06     457.685E-06
            5558             974     482.033E-06     458.763E-06
            5558             975     487.996E-06     460.994E-06
            5558            5663     478.245E-06     457.685E-06
            5558            5664     472.612E-06     455.617E-06
            5559             973     476.306E-06     459.128E-06
            5559             974     482.033E-06     458.763E-06
            5559            5664     472.612E-06     455.617E-06
            5559            5665     467.085E-06     454.764E-06
            5560             972     469.211E-06     457.944E-06
            5560             973     476.306E-06     459.128E-06
            5560            5665     467.085E-06     454.764E-06
            5560            5666     459.949E-06     455.964E-06
            5561             971     458.762E-06     466.388E-06
            5561             972     469.211E-06     457.944E-06
            5561            5666     459.949E-06     455.964E-06
            5561            5667     448.492E-06     464.904E-06
            5562             970     427.781E-06     490.726E-06
            5562             971     458.762E-06     466.388E-06
            5562            5667     448.492E-06     464.904E-06
            5562            5668     437.889E-06     482.543E-06
            5563              40     402.525E-06     503.357E-06
            5563             936     434.012E-06     492.328E-06
            5563             970     427.781E-06     490.726E-06
            5563            5668     437.889E-06     482.543E-06
            5564              33     22.0151E-03     22.4608E-03
            5564             714     26.7863E-03     29.2282E-03
            5564             842     23.0836E-03     23.4402E-03
            5564            5669     26.9322E-03     30.6343E-03
            5565             713     30.6204E-03     33.7379E-03
            5565             714     26.7863E-03     29.2282E-03
            5565            5669     26.9322E-03     30.6343E-03
            5565            5670     29.8870E-03     33.7389E-03
            5566             712     35.8864E-03     39.3802E-03
            5566             713     30.6204E-03     33.7379E-03
            5566            5670     29.8870E-03     33.7389E-03
            5566            5671     33.7985E-03     38.1567E-03
            5567             711     41.6210E-03     45.3539E-03
            5567             712     35.8864E-03     39.3802E-03
            5567            5671     33.7985E-03     38.1567E-03
            5567            5672     38.7872E-03     43.4793E-03
            5568             710     47.6031E-03     51.4875E-03
            5568             711     41.6210E-03     45.3539E-03
            5568            5672     38.7872E-03     43.4793E-03
            5568            5673     44.1072E-03     49.0295E-03
            5569             709     53.7275E-03     57.6944E-03
            5569             710     47.6031E-03     51.4875E-03
            5569            5673     44.1072E-03     49.0295E-03
            5569            5674     49.7121E-03     54.7691E-03
            5570             708     59.9239E-03     63.9333E-03
            5570             709     53.7275E-03     57.6944E-03
            5570            5674     49.7121E-03     54.7691E-03
            5570            5675     55.4220E-03     60.5431E-03
            5571             707     66.1602E-03     70.1766E-03
            5571             708     59.9239E-03     63.9333E-03
            5571            5675     55.4220E-03     60.5431E-03
            5571            5676     61.2064E-03     66.3454E-03
            5572             706     72.4069E-03     76.4158E-03
            5572             707     66.1602E-03     70.1766E-03
            5572            5676     61.2064E-03     66.3454E-03
            5572            5677     67.0053E-03     72.1283E-03
            5573             705     78.6611E-03     82.6365E-03
            5573             706     72.4069E-03     76.4158E-03
            5573            5677     67.0053E-03     72.1283E-03
            5573            5678     72.8107E-03     77.8893E-03
            5574             704     84.9066E-03     88.8449E-03
            5574             705     78.6611E-03     82.6365E-03
            5574            5678     72.8107E-03     77.8893E-03
            5574            5679     78.6160E-03     83.6266E-03
            5575             703     91.1721E-03     95.0339E-03
            5575             704     84.9066E-03     88.8449E-03
            5575            5679     78.6160E-03     83.6266E-03
            5575            5680     84.4326E-03     89.3444E-03
            5576             702     97.4456E-03     101.232E-03
            5576             703     91.1721E-03     95.0339E-03
            5576            5680     84.4326E-03     89.3444E-03
            5576            5681     90.3160E-03     95.0948E-03
            5577             701     103.812E-03     107.453E-03
            5577             702     97.4456E-03     101.232E-03
            5577            5681     90.3160E-03     95.0948E-03
            5577            5682     96.3093E-03     100.919E-03
            5578             700     110.263E-03     113.783E-03
            5578             701     103.812E-03     107.453E-03
            5578            5682     96.3093E-03     100.919E-03
            5578            5683     102.608E-03     107.001E-03
            5579             699     117.013E-03     120.308E-03
            5579             700     110.263E-03     113.783E-03
            5579            5683     102.608E-03     107.001E-03
            5579            5684     109.322E-03     113.503E-03
            5580             698     124.059E-03     127.261E-03
            5580             699     117.013E-03     120.308E-03
            5580            5684     109.322E-03     113.503E-03
            5580            5685     117.062E-03     121.013E-03
            5581             697     132.015E-03     135.086E-03
            5581             698     124.059E-03     127.261E-03
            5581            5685     117.062E-03     121.013E-03
            5581            5686     126.127E-03     130.037E-03
            5582              32     140.977E-03     144.433E-03
            5582             697     132.015E-03     135.086E-03
            5582             994     139.002E-03     143.089E-03
            5582            5686     126.127E-03     130.037E-03
            5583             842     23.0836E-03     23.4402E-03
            5583             843     19.6284E-03     19.6047E-03
            5583            5669     26.9322E-03     30.6343E-03
            5583            5687     23.7666E-03     28.2768E-03
            5584            5669     26.9322E-03     30.6343E-03
            5584            5670     29.8870E-03     33.7389E-03
            5584            5687     23.7666E-03     28.2768E-03
            5584            5688     29.0855E-03     33.2045E-03
            5585            5670     29.8870E-03     33.7389E-03
            5585            5671     33.7985E-03     38.1567E-03
            5585            5688     29.0855E-03     33.2045E-03
            5585            5689     33.7307E-03     37.7976E-03
            5586            5671     33.7985E-03     38.1567E-03
            5586            5672     38.7872E-03     43.4793E-03
            5586            5689     33.7307E-03     37.7976E-03
            5586            5690     39.0266E-03     43.2036E-03
            5587            5672     38.7872E-03     43.4793E-03
            5587            5673     44.1072E-03     49.0295E-03
            5587            5690     39.0266E-03     43.2036E-03
            5587            5691     44.6372E-03     48.9120E-03
            5588            5673     44.1072E-03     49.0295E-03
            5588            5674     49.7121E-03     54.7691E-03
            5588            5691     44.6372E-03     48.9120E-03
            5588            5692     50.4351E-03     54.7652E-03
            5589            5674     49.7121E-03     54.7691E-03
            5589            5675     55.4220E-03     60.5431E-03
            5589            5692     50.4351E-03     54.7652E-03
            5589            5693     56.3426E-03     60.7071E-03
            5590            5675     55.4220E-03     60.5431E-03
            5590            5676     61.2064E-03     66.3454E-03
            5590            5693     56.3426E-03     60.7071E-03
            5590            5694     62.2978E-03     66.6725E-03
            5591            5676     61.2064E-03     66.3454E-03
            5591            5677     67.0053E-03     72.1283E-03
            5591            5694     62.2978E-03     66.6725E-03
            5591            5695     68.2803E-03     72.6505E-03
            5592            5677     67.0053E-03     72.1283E-03
            5592            5678     72.8107E-03     77.8893E-03
            5592            5695     68.2803E-03     72.6505E-03
            5592            5696     74.2721E-03     78.6271E-03
            5593            5678     72.8107E-03     77.8893E-03
            5593            5679     78.6160E-03     83.6266E-03
            5593            5696     74.2721E-03     78.6271E-03
            5593            5697     80.2737E-03     84.6055E-03
            5594            5679     78.6160E-03     83.6266E-03
            5594            5680     84.4326E-03     89.3444E-03
            5594            5697     80.2737E-03     84.6055E-03
            5594            5698     86.3085E-03     90.6075E-03
            5595            5680     84.4326E-03     89.3444E-03
            5595            5681     90.3160E-03     95.0948E-03
            5595            5698     86.3085E-03     90.6075E-03
            5595            5699     92.4001E-03     96.6700E-03
            5596            5681     90.3160E-03     95.0948E-03
            5596            5682     96.3093E-03     100.919E-03
            5596            5699     92.4001E-03     96.6700E-03
            5596            5700     98.6547E-03     102.877E-03
            5597            5682     96.3093E-03     100.919E-03
            5597            5683     102.608E-03     107.001E-03
            5597            5700     98.6547E-03     102.877E-03
            5597            5701     105.164E-03     109.368E-03
            5598            5683     102.608E-03     107.001E-03
            5598            5684     109.322E-03     113.503E-03
            5598            5701     105.164E-03     109.368E-03
            5598            5702     112.248E-03     116.379E-03
            5599            5684     109.322E-03     113.503E-03
            5599            5685     117.062E-03     121.013E-03
            5599            5702     112.248E-03     116.379E-03
            5599            5703     120.266E-03     124.366E-03
            5600            5685     117.062E-03     121.013E-03
            5600            5686     126.127E-03     130.037E-03
            5600            5703     120.266E-03     124.366E-03
            5600            5704     129.993E-03     133.902E-03
            5601             994     139.002E-03     143.089E-03
            5601             995     144.018E-03     146.811E-03
            5601            5686     126.127E-03     130.037E-03
            5601            5704     129.993E-03     133.902E-03
            5602             843     19.6284E-03     19.6047E-03
            5602             844     18.5822E-03     18.2197E-03
            5602            5687     23.7666E-03     28.2768E-03
            5602            5705     22.4624E-03     26.3117E-03
            5603            5687     23.7666E-03     28.2768E-03
            5603            5688     29.0855E-03     33.2045E-03
            5603            5705     22.4624E-03     26.3117E-03
            5603            5706     28.2543E-03     32.2590E-03
            5604            5688     29.0855E-03     33.2045E-03
            5604            5689     33.7307E-03     37.7976E-03
            5604            5706     28.2543E-03     32.2590E-03
            5604            5707     33.8809E-03     37.6867E-03
            5605            5689     33.7307E-03     37.7976E-03
            5605            5690     39.0266E-03     43.2036E-03
            5605            5707     33.8809E-03     37.6867E-03
            5605            5708     39.4604E-03     43.1906E-03
            5606            5690     39.0266E-03     43.2036E-03
            5606            5691     44.6372E-03     48.9120E-03
            5606            5708     39.4604E-03     43.1906E-03
            5606            5709     45.3278E-03     49.0090E-03
            5607            5691     44.6372E-03     48.9120E-03
            5607            5692     50.4351E-03     54.7652E-03
            5607            5709     45.3278E-03     49.0090E-03
            5607            5710     51.2899E-03     54.9527E-03
            5608            5692     50.4351E-03     54.7652E-03
            5608            5693     56.3426E-03     60.7071E-03
            5608            5710     51.2899E-03     54.9527E-03
            5608            5711     57.3384E-03     60.9865E-03
            5609            5693     56.3426E-03     60.7071E-03
            5609            5694     62.2978E-03     66.6725E-03
            5609            5711     57.3384E-03     60.9865E-03
            5609            5712     63.4273E-03     67.0697E-03
            5610            5694     62.2978E-03     66.6725E-03
            5610            5695     68.2803E-03     72.6505E-03
            5610            5712     63.4273E-03     67.0697E-03
            5610            5713     69.5437E-03     73.1895E-03
            5611            5695     68.2803E-03     72.6505E-03
            5611            5696     74.2721E-03     78.6271E-03
            5611            5713     69.5437E-03     73.1895E-03
            5611            5714     75.6806E-03     79.3361E-03
            5612            5696     74.2721E-03     78.6271E-03
            5612            5697     80.2737E-03     84.6055E-03
            5612            5714     75.6806E-03     79.3361E-03
            5612            5715     81.8455E-03     85.5186E-03
            5613            5697     80.2737E-03     84.6055E-03
            5613            5698     86.3085E-03     90.6075E-03
            5613            5715     81.8455E-03     85.5186E-03
            5613            5716     88.0513E-03     91.7590E-03
            5614            5698     86.3085E-03     90.6075E-03
            5614            5699     92.4001E-03     96.6700E-03
            5614            5716     88.0513E-03     91.7590E-03
            5614            5717     94.3416E-03     98.0938E-03
            5615            5699     92.4001E-03     96.6700E-03
            5615            5700     98.6547E-03     102.877E-03
            5615            5717     94.3416E-03     98.0938E-03
            5615            5718     100.780E-03     104.608E-03
            5616            5700     98.6547E-03     102.877E-03
            5616            5701     105.164E-03     109.368E-03
            5616            5718     100.780E-03     104.608E-03
            5616            5719     107.490E-03     111.389E-03
            5617            5701     105.164E-03     109.368E-03
            5617            5702     112.248E-03     116.379E-03
            5617            5719     107.490E-03     111.389E-03
            5617            5720     114.729E-03     118.684E-03
            5618            5702     112.248E-03     116.379E-03
            5618            5703     120.266E-03     124.366E-03
            5618            5720     114.729E-03     118.684E-03
            5618            5721     122.722E-03     126.661E-03
            5619            5703     120.266E-03     124.366E-03
            5619            5704     129.993E-03     133.902E-03
            5619            5721     122.722E-03     126.661E-03
            5619            5722     132.576E-03     135.994E-03
            5620             995     144.018E-03     146.811E-03
            5620             996     143.630E-03     146.474E-03
            5620            5704     129.993E-03     133.902E-03
            5620            5722     132.576E-03     135.994E-03
            5621             844     18.5822E-03     18.2197E-03
            5621             845     18.9388E-03     18.6080E-03
            5621            5705     22.4624E-03     26.3117E-03
            5621            5723     22.4243E-03     25.8513E-03
            5622            5705     22.4624E-03     26.3117E-03
            5622            5706     28.2543E-03     32.2590E-03
            5622            5723     22.4243E-03     25.8513E-03
            5622            5724     28.2160E-03     31.7088E-03
            5623            5706     28.2543E-03     32.2590E-03
            5623            5707     33.8809E-03     37.6867E-03
            5623            5724     28.2160E-03     31.7088E-03
            5623            5725     34.1194E-03     37.6086E-03
            5624            5707     33.8809E-03     37.6867E-03
            5624            5708     39.4604E-03     43.1906E-03
            5624            5725     34.1194E-03     37.6086E-03
            5624            5726     40.0996E-03     43.3589E-03
            5625            5708     39.4604E-03     43.1906E-03
            5625            5709     45.3278E-03     49.0090E-03
            5625            5726     40.0996E-03     43.3589E-03
            5625            5727     46.0954E-03     49.2163E-03
            5626            5709     45.3278E-03     49.0090E-03
            5626            5710     51.2899E-03     54.9527E-03
            5626            5727     46.0954E-03     49.2163E-03
            5626            5728     52.1911E-03     55.2030E-03
            5627            5710     51.2899E-03     54.9527E-03
            5627            5711     57.3384E-03     60.9865E-03
            5627            5728     52.1911E-03     55.2030E-03
            5627            5729     58.3162E-03     61.2643E-03
            5628            5711     57.3384E-03     60.9865E-03
            5628            5712     63.4273E-03     67.0697E-03
            5628            5729     58.3162E-03     61.2643E-03
            5628            5730     64.4813E-03     67.4101E-03
            5629            5712     63.4273E-03     67.0697E-03
            5629            5713     69.5437E-03     73.1895E-03
            5629            5730     64.4813E-03     67.4101E-03
            5629            5731     70.6726E-03     73.6053E-03
            5630            5713     69.5437E-03     73.1895E-03
            5630            5714     75.6806E-03     79.3361E-03
            5630            5731     70.6726E-03     73.6053E-03
            5630            5732     76.8992E-03     79.8590E-03
            5631            5714     75.6806E-03     79.3361E-03
            5631            5715     81.8455E-03     85.5186E-03
            5631            5732     76.8992E-03     79.8590E-03
            5631            5733     83.1657E-03     86.1747E-03
            5632            5715     81.8455E-03     85.5186E-03
            5632            5716     88.0513E-03     91.7590E-03
            5632            5733     83.1657E-03     86.1747E-03
            5632            5734     89.4873E-03     92.5698E-03
            5633            5716     88.0513E-03     91.7590E-03
            5633            5717     94.3416E-03     98.0938E-03
            5633            5734     89.4873E-03     92.5698E-03
            5633            5735     95.8984E-03     99.0868E-03
            5634            5717     94.3416E-03     98.0938E-03
            5634            5718     100.780E-03     104.608E-03
            5634            5735     95.8984E-03     99.0868E-03
            5634            5736     102.425E-03     105.756E-03
            5635            5718     100.780E-03     104.608E-03
            5635            5719     107.490E-03     111.389E-03
            5635            5736     102.425E-03     105.756E-03
            5635            5737     109.201E-03     112.674E-03
            5636            5719     107.490E-03     111.389E-03
            5636            5720     114.729E-03     118.684E-03
            5636            5737     109.201E-03     112.674E-03
            5636            5738     116.233E-03     119.878E-03
            5637            5720     114.729E-03     118.684E-03
            5637            5721     122.722E-03     126.661E-03
            5637            5738     116.233E-03     119.878E-03
            5637            5739     123.972E-03     127.533E-03
            5638            5721     122.722E-03     126.661E-03
            5638            5722     132.576E-03     135.994E-03
            5638            5739     123.972E-03     127.533E-03
            5638            5740     132.158E-03     135.579E-03
            5639             996     143.630E-03     146.474E-03
            5639             997     140.379E-03     143.595E-03
            5639            5722     132.576E-03     135.994E-03
            5639            5740     132.158E-03     135.579E-03
            5640             845     18.9388E-03     18.6080E-03
            5640             846     20.3992E-03     19.7943E-03
            5640            5723     22.4243E-03     25.8513E-03
            5640            5741     23.3577E-03     26.2598E-03
            5641            5723     22.4243E-03     25.8513E-03
            5641            5724     28.2160E-03     31.7088E-03
            5641            5741     23.3577E-03     26.2598E-03
            5641            5742     28.7794E-03     31.9962E-03
            5642            5724     28.2160E-03     31.7088E-03
            5642            5725     34.1194E-03     37.6086E-03
            5642            5742     28.7794E-03     31.9962E-03
            5642            5743     34.7664E-03     37.7575E-03
            5643            5725     34.1194E-03     37.6086E-03
            5643            5726     40.0996E-03     43.3589E-03
            5643            5743     34.7664E-03     37.7575E-03
            5643            5744     40.8430E-03     43.6412E-03
            5644            5726     40.0996E-03     43.3589E-03
            5644            5727     46.0954E-03     49.2163E-03
            5644            5744     40.8430E-03     43.6412E-03
            5644            5745     46.9554E-03     49.4767E-03
            5645            5727     46.0954E-03     49.2163E-03
            5645            5728     52.1911E-03     55.2030E-03
            5645            5745     46.9554E-03     49.4767E-03
            5645            5746     53.0708E-03     55.4033E-03
            5646            5728     52.1911E-03     55.2030E-03
            5646            5729     58.3162E-03     61.2643E-03
            5646            5746     53.0708E-03     55.4033E-03
            5646            5747     59.2109E-03     61.4582E-03
            5647            5729     58.3162E-03     61.2643E-03
            5647            5730     64.4813E-03     67.4101E-03
            5647            5747     59.2109E-03     61.4582E-03
            5647            5748     65.3689E-03     67.5807E-03
            5648            5730     64.4813E-03     67.4101E-03
            5648            5731     70.6726E-03     73.6053E-03
            5648            5748     65.3689E-03     67.5807E-03
            5648            5749     71.5670E-03     73.7864E-03
            5649            5731     70.6726E-03     73.6053E-03
            5649            5732     76.8992E-03     79.8590E-03
            5649            5749     71.5670E-03     73.7864E-03
            5649            5750     77.8049E-03     80.0580E-03
            5650            5732     76.8992E-03     79.8590E-03
            5650            5733     83.1657E-03     86.1747E-03
            5650            5750     77.8049E-03     80.0580E-03
            5650            5751     84.0929E-03     86.4075E-03
            5651            5733     83.1657E-03     86.1747E-03
            5651            5734     89.4873E-03     92.5698E-03
            5651            5751     84.0929E-03     86.4075E-03
            5651            5752     90.4462E-03     92.8502E-03
            5652            5734     89.4873E-03     92.5698E-03
            5652            5735     95.8984E-03     99.0868E-03
            5652            5752     90.4462E-03     92.8502E-03
            5652            5753     96.8585E-03     99.3958E-03
            5653            5735     95.8984E-03     99.0868E-03
            5653            5736     102.425E-03     105.756E-03
            5653            5753     96.8585E-03     99.3958E-03
            5653            5754     103.382E-03     106.077E-03
            5654            5736     102.425E-03     105.756E-03
            5654            5737     109.201E-03     112.674E-03
            5654            5754     103.382E-03     106.077E-03
            5654            5755     109.954E-03     112.884E-03
            5655            5737     109.201E-03     112.674E-03
            5655            5738     116.233E-03     119.878E-03
            5655            5755     109.954E-03     112.884E-03
            5655            5756     116.710E-03     119.802E-03
            5656            5738     116.233E-03     119.878E-03
            5656            5739     123.972E-03     127.533E-03
            5656            5756     116.710E-03     119.802E-03
            5656            5757     123.433E-03     126.736E-03
            5657            5739     123.972E-03     127.533E-03
            5657            5740     132.158E-03     135.579E-03
            5657            5757     123.433E-03     126.736E-03
            5657            5758     130.047E-03     133.357E-03
            5658             997     140.379E-03     143.595E-03
            5658             998     136.563E-03     139.303E-03
            5658            5740     132.158E-03     135.579E-03
            5658            5758     130.047E-03     133.357E-03
            5659             846     20.3992E-03     19.7943E-03
            5659             847     22.3615E-03     22.3962E-03
            5659            5741     23.3577E-03     26.2598E-03
            5659            5759     24.8056E-03     27.5458E-03
            5660            5741     23.3577E-03     26.2598E-03
            5660            5742     28.7794E-03     31.9962E-03
            5660            5759     24.8056E-03     27.5458E-03
            5660            5760     29.9851E-03     32.7383E-03
            5661            5742     28.7794E-03     31.9962E-03
            5661            5743     34.7664E-03     37.7575E-03
            5661            5760     29.9851E-03     32.7383E-03
            5661            5761     35.7811E-03     38.4634E-03
            5662            5743     34.7664E-03     37.7575E-03
            5662            5744     40.8430E-03     43.6412E-03
            5662            5761     35.7811E-03     38.4634E-03
            5662            5762     41.8195E-03     44.0322E-03
            5663            5744     40.8430E-03     43.6412E-03
            5663            5745     46.9554E-03     49.4767E-03
            5663            5762     41.8195E-03     44.0322E-03
            5663            5763     47.8896E-03     49.7036E-03
            5664            5745     46.9554E-03     49.4767E-03
            5664            5746     53.0708E-03     55.4033E-03
            5664            5763     47.8896E-03     49.7036E-03
            5664            5764     53.9313E-03     55.5488E-03
            5665            5746     53.0708E-03     55.4033E-03
            5665            5747     59.2109E-03     61.4582E-03
            5665            5764     53.9313E-03     55.5488E-03
            5665            5765     59.9718E-03     61.4917E-03
            5666            5747     59.2109E-03     61.4582E-03
            5666            5748     65.3689E-03     67.5807E-03
            5666            5765     59.9718E-03     61.4917E-03
            5666            5766     66.0470E-03     67.5388E-03
            5667            5748     65.3689E-03     67.5807E-03
            5667            5749     71.5670E-03     73.7864E-03
            5667            5766     66.0470E-03     67.5388E-03
            5667            5767     72.1568E-03     73.6558E-03
            5668            5749     71.5670E-03     73.7864E-03
            5668            5750     77.8049E-03     80.0580E-03
            5668            5767     72.1568E-03     73.6558E-03
            5668            5768     78.3170E-03     79.8488E-03
            5669            5750     77.8049E-03     80.0580E-03
            5669            5751     84.0929E-03     86.4075E-03
            5669            5768     78.3170E-03     79.8488E-03
            5669            5769     84.5314E-03     86.1152E-03
            5670            5751     84.0929E-03     86.4075E-03
            5670            5752     90.4462E-03     92.8502E-03
            5670            5769     84.5314E-03     86.1152E-03
            5670            5770     90.7913E-03     92.4587E-03
            5671            5752     90.4462E-03     92.8502E-03
            5671            5753     96.8585E-03     99.3958E-03
            5671            5770     90.7913E-03     92.4587E-03
            5671            5771     97.1105E-03     98.8850E-03
            5672            5753     96.8585E-03     99.3958E-03
            5672            5754     103.382E-03     106.077E-03
            5672            5771     97.1105E-03     98.8850E-03
            5672            5772     103.428E-03     105.377E-03
            5673            5754     103.382E-03     106.077E-03
            5673            5755     109.954E-03     112.884E-03
            5673            5772     103.428E-03     105.377E-03
            5673            5773     109.756E-03     111.895E-03
            5674            5755     109.954E-03     112.884E-03
            5674            5756     116.710E-03     119.802E-03
            5674            5773     109.756E-03     111.895E-03
            5674            5774     115.904E-03     118.346E-03
            5675            5756     116.710E-03     119.802E-03
            5675            5757     123.433E-03     126.736E-03
            5675            5774     115.904E-03     118.346E-03
            5675            5775     121.733E-03     124.450E-03
            5676            5757     123.433E-03     126.736E-03
            5676            5758     130.047E-03     133.357E-03
            5676            5775     121.733E-03     124.450E-03
            5676            5776     127.033E-03     129.902E-03
            5677             998     136.563E-03     139.303E-03
            5677             999     131.785E-03     134.548E-03
            5677            5758     130.047E-03     133.357E-03
            5677            5776     127.033E-03     129.902E-03
            5678             847     22.3615E-03     22.3962E-03
            5678             848     24.8886E-03     24.6492E-03
            5678            5759     24.8056E-03     27.5458E-03
            5678            5777     27.0362E-03     29.2921E-03
            5679            5759     24.8056E-03     27.5458E-03
            5679            5760     29.9851E-03     32.7383E-03
            5679            5777     27.0362E-03     29.2921E-03
            5679            5778     31.6599E-03     34.5419E-03
            5680            5760     29.9851E-03     32.7383E-03
            5680            5761     35.7811E-03     38.4634E-03
            5680            5778     31.6599E-03     34.5419E-03
            5680            5779     37.2522E-03     39.4548E-03
            5681            5761     35.7811E-03     38.4634E-03
            5681            5762     41.8195E-03     44.0322E-03
            5681            5779     37.2522E-03     39.4548E-03
            5681            5780     43.1147E-03     44.4971E-03
            5682            5762     41.8195E-03     44.0322E-03
            5682            5763     47.8896E-03     49.7036E-03
            5682            5780     43.1147E-03     44.4971E-03
            5682            5781     48.9447E-03     49.9624E-03
            5683            5763     47.8896E-03     49.7036E-03
            5683            5764     53.9313E-03     55.5488E-03
            5683            5781     48.9447E-03     49.9624E-03
            5683            5782     54.7643E-03     55.6165E-03
            5684            5764     53.9313E-03     55.5488E-03
            5684            5765     59.9718E-03     61.4917E-03
            5684            5782     54.7643E-03     55.6165E-03
            5684            5783     60.6156E-03     61.4024E-03
            5685            5765     59.9718E-03     61.4917E-03
            5685            5766     66.0470E-03     67.5388E-03
            5685            5783     60.6156E-03     61.4024E-03
            5685            5784     66.5009E-03     67.2759E-03
            5686            5766     66.0470E-03     67.5388E-03
            5686            5767     72.1568E-03     73.6558E-03
            5686            5784     66.5009E-03     67.2759E-03
            5686            5785     72.4360E-03     73.2195E-03
            5687            5767     72.1568E-03     73.6558E-03
            5687            5768     78.3170E-03     79.8488E-03
            5687            5785     72.4360E-03     73.2195E-03
            5687            5786     78.4174E-03     79.2201E-03
            5688            5768     78.3170E-03     79.8488E-03
            5688            5769     84.5314E-03     86.1152E-03
            5688            5786     78.4174E-03     79.2201E-03
            5688            5787     84.4389E-03     85.2734E-03
            5689            5769     84.5314E-03     86.1152E-03
            5689            5770     90.7913E-03     92.4587E-03
            5689            5787     84.4389E-03     85.2734E-03
            5689            5788     90.4983E-03     91.3704E-03
            5690            5770     90.7913E-03     92.4587E-03
            5690            5771     97.1105E-03     98.8850E-03
            5690            5788     90.4983E-03     91.3704E-03
            5690            5789     96.5545E-03     97.4967E-03
            5691            5771     97.1105E-03     98.8850E-03
            5691            5772     103.428E-03     105.377E-03
            5691            5789     96.5545E-03     97.4967E-03
            5691            5790     102.585E-03     103.615E-03
            5692            5772     103.428E-03     105.377E-03
            5692            5773     109.756E-03     111.895E-03
            5692            5790     102.585E-03     103.615E-03
            5692            5791     108.467E-03     109.662E-03
            5693            5773     109.756E-03     111.895E-03
            5693            5774     115.904E-03     118.346E-03
            5693            5791     108.467E-03     109.662E-03
            5693            5792     114.056E-03     115.480E-03
            5694            5774     115.904E-03     118.346E-03
            5694            5775     121.733E-03     124.450E-03
            5694            5792     114.056E-03     115.480E-03
            5694            5793     119.103E-03     120.852E-03
            5695            5775     121.733E-03     124.450E-03
            5695            5776     127.033E-03     129.902E-03
            5695            5793     119.103E-03     120.852E-03
            5695            5794     123.234E-03     125.370E-03
            5696             999     131.785E-03     134.548E-03
            5696            1000     126.540E-03     128.765E-03
            5696            5776     127.033E-03     129.902E-03
            5696            5794     123.234E-03     125.370E-03
            5697             848     24.8886E-03     24.6492E-03
            5697             849     28.2227E-03     29.2631E-03
            5697            5777     27.0362E-03     29.2921E-03
            5697            5795     29.6165E-03     33.2076E-03
            5698            5777     27.0362E-03     29.2921E-03
            5698            5778     31.6599E-03     34.5419E-03
            5698            5795     29.6165E-03     33.2076E-03
            5698            5796     34.0473E-03     36.7459E-03
            5699            5778     31.6599E-03     34.5419E-03
            5699            5779     37.2522E-03     39.4548E-03
            5699            5796     34.0473E-03     36.7459E-03
            5699            5797     39.3778E-03     40.4080E-03
            5700            5779     37.2522E-03     39.4548E-03
            5700            5780     43.1147E-03     44.4971E-03
            5700            5797     39.3778E-03     40.4080E-03
            5700            5798     44.7328E-03     45.1086E-03
            5701            5780     43.1147E-03     44.4971E-03
            5701            5781     48.9447E-03     49.9624E-03
            5701            5798     44.7328E-03     45.1086E-03
            5701            5799     50.1323E-03     50.2989E-03
            5702            5781     48.9447E-03     49.9624E-03
            5702            5782     54.7643E-03     55.6165E-03
            5702            5799     50.1323E-03     50.2989E-03
            5702            5800     55.6145E-03     55.7055E-03
            5703            5782     54.7643E-03     55.6165E-03
            5703            5783     60.6156E-03     61.4024E-03
            5703            5800     55.6145E-03     55.7055E-03
            5703            5801     61.1716E-03     61.2570E-03
            5704            5783     60.6156E-03     61.4024E-03
            5704            5784     66.5009E-03     67.2759E-03
            5704            5801     61.1716E-03     61.2570E-03
            5704            5802     66.7906E-03     66.8789E-03
            5705            5784     66.5009E-03     67.2759E-03
            5705            5785     72.4360E-03     73.2195E-03
            5705            5802     66.7906E-03     66.8789E-03
            5705            5803     72.4606E-03     72.5536E-03
            5706            5785     72.4360E-03     73.2195E-03
            5706            5786     78.4174E-03     79.2201E-03
            5706            5803     72.4606E-03     72.5536E-03
            5706            5804     78.1627E-03     78.2566E-03
            5707            5786     78.4174E-03     79.2201E-03
            5707            5787     84.4389E-03     85.2734E-03
            5707            5804     78.1627E-03     78.2566E-03
            5707            5805     83.8865E-03     83.9685E-03
            5708            5787     84.4389E-03     85.2734E-03
            5708            5788     90.4983E-03     91.3704E-03
            5708            5805     83.8865E-03     83.9685E-03
            5708            5806     89.5993E-03     89.6710E-03
            5709            5788     90.4983E-03     91.3704E-03
            5709            5789     96.5545E-03     97.4967E-03
            5709            5806     89.5993E-03     89.6710E-03
            5709            5807     95.2755E-03     95.3228E-03
            5710            5789     96.5545E-03     97.4967E-03
            5710            5790     102.585E-03     103.615E-03
            5710            5807     95.2755E-03     95.3228E-03
            5710            5808     100.844E-03     100.882E-03
            5711            5790     102.585E-03     103.615E-03
            5711            5791     108.467E-03     109.662E-03
            5711            5808     100.844E-03     100.882E-03
            5711            5809     106.202E-03     106.249E-03
            5712            5791     108.467E-03     109.662E-03
            5712            5792     114.056E-03     115.480E-03
            5712            5809     106.202E-03     106.249E-03
            5712            5810     111.205E-03     111.298E-03
            5713            5792     114.056E-03     115.480E-03
            5713            5793     119.103E-03     120.852E-03
            5713            5810     111.205E-03     111.298E-03
            5713            5811     115.541E-03     115.827E-03
            5714            5793     119.103E-03     120.852E-03
            5714            5794     123.234E-03     125.370E-03
            5714            5811     115.541E-03     115.827E-03
            5714            5812     118.946E-03     119.509E-03
            5715            1000     126.540E-03     128.765E-03
            5715            1001     120.836E-03     121.816E-03
            5715            5794     123.234E-03     125.370E-03
            5715            5812     118.946E-03     119.509E-03
            5716             849     28.2227E-03     29.2631E-03
            5716             850     29.4503E-03     35.1341E-03
            5716            5795     29.6165E-03     33.2076E-03
            5716            5813     33.5868E-03     36.6223E-03
            5717            5795     29.6165E-03     33.2076E-03
            5717            5796     34.0473E-03     36.7459E-03
            5717            5813     33.5868E-03     36.6223E-03
            5717            5814     37.7869E-03     38.1319E-03
            5718            5796     34.0473E-03     36.7459E-03
            5718            5797     39.3778E-03     40.4080E-03
            5718            5814     37.7869E-03     38.1319E-03
            5718            5815     41.9996E-03     41.4661E-03
            5719            5797     39.3778E-03     40.4080E-03
            5719            5798     44.7328E-03     45.1086E-03
            5719            5815     41.9996E-03     41.4661E-03
            5719            5816     46.6051E-03     45.9553E-03
            5720            5798     44.7328E-03     45.1086E-03
            5720            5799     50.1323E-03     50.2989E-03
            5720            5816     46.6051E-03     45.9553E-03
            5720            5817     51.4359E-03     50.8240E-03
            5721            5799     50.1323E-03     50.2989E-03
            5721            5800     55.6145E-03     55.7055E-03
            5721            5817     51.4359E-03     50.8240E-03
            5721            5818     56.5188E-03     55.9495E-03
            5722            5800     55.6145E-03     55.7055E-03
            5722            5801     61.1716E-03     61.2570E-03
            5722            5818     56.5188E-03     55.9495E-03
            5722            5819     61.7219E-03     61.1839E-03
            5723            5801     61.1716E-03     61.2570E-03
            5723            5802     66.7906E-03     66.8789E-03
            5723            5819     61.7219E-03     61.1839E-03
            5723            5820     67.0252E-03     66.4922E-03
            5724            5802     66.7906E-03     66.8789E-03
            5724            5803     72.4606E-03     72.5536E-03
            5724            5820     67.0252E-03     66.4922E-03
            5724            5821     72.3626E-03     71.8204E-03
            5725            5803     72.4606E-03     72.5536E-03
            5725            5804     78.1627E-03     78.2566E-03
            5725            5821     72.3626E-03     71.8204E-03
            5725            5822     77.7131E-03     77.1379E-03
            5726            5804     78.1627E-03     78.2566E-03
            5726            5805     83.8865E-03     83.9685E-03
            5726            5822     77.7131E-03     77.1379E-03
            5726            5823     83.0316E-03     82.4106E-03
            5727            5805     83.8865E-03     83.9685E-03
            5727            5806     89.5993E-03     89.6710E-03
            5727            5823     83.0316E-03     82.4106E-03
            5727            5824     88.2902E-03     87.5864E-03
            5728            5806     89.5993E-03     89.6710E-03
            5728            5807     95.2755E-03     95.3228E-03
            5728            5824     88.2902E-03     87.5864E-03
            5728            5825     93.4353E-03     92.6270E-03
            5729            5807     95.2755E-03     95.3228E-03
            5729            5808     100.844E-03     100.882E-03
            5729            5825     93.4353E-03     92.6270E-03
            5729            5826     98.4031E-03     97.4359E-03
            5730            5808     100.844E-03     100.882E-03
            5730            5809     106.202E-03     106.249E-03
            5730            5826     98.4031E-03     97.4359E-03
            5730            5827     103.112E-03     101.944E-03
            5731            5809     106.202E-03     106.249E-03
            5731            5810     111.205E-03     111.298E-03
            5731            5827     103.112E-03     101.944E-03
            5731            5828     107.398E-03     105.993E-03
            5732            5810     111.205E-03     111.298E-03
            5732            5811     115.541E-03     115.827E-03
            5732            5828     107.398E-03     105.993E-03
            5732            5829     111.123E-03     109.429E-03
            5733            5811     115.541E-03     115.827E-03
            5733            5812     118.946E-03     119.509E-03
            5733            5829     111.123E-03     109.429E-03
            5733            5830     113.913E-03     112.017E-03
            5734            1001     120.836E-03     121.816E-03
            5734            1002     115.272E-03     113.308E-03
            5734            5812     118.946E-03     119.509E-03
            5734            5830     113.913E-03     112.017E-03
            5735             850     29.4503E-03     35.1341E-03
            5735             851     24.1472E-03     27.9972E-03
            5735            5813     33.5868E-03     36.6223E-03
            5735            5831     27.8284E-03     29.5951E-03
            5736            5813     33.5868E-03     36.6223E-03
            5736            5814     37.7869E-03     38.1319E-03
            5736            5831     27.8284E-03     29.5951E-03
            5736            5832     29.6189E-03     30.7766E-03
            5737            5814     37.7869E-03     38.1319E-03
            5737            5815     41.9996E-03     41.4661E-03
            5737            5832     29.6189E-03     30.7766E-03
            5737            5833     32.5702E-03     33.8678E-03
            5738            5815     41.9996E-03     41.4661E-03
            5738            5816     46.6051E-03     45.9553E-03
            5738            5833     32.5702E-03     33.8678E-03
            5738            5834     36.1662E-03     37.7284E-03
            5739            5816     46.6051E-03     45.9553E-03
            5739            5817     51.4359E-03     50.8240E-03
            5739            5834     36.1662E-03     37.7284E-03
            5739            5835     40.1461E-03     41.8690E-03
            5740            5817     51.4359E-03     50.8240E-03
            5740            5818     56.5188E-03     55.9495E-03
            5740            5835     40.1461E-03     41.8690E-03
            5740            5836     44.3661E-03     46.1861E-03
            5741            5818     56.5188E-03     55.9495E-03
            5741            5819     61.7219E-03     61.1839E-03
            5741            5836     44.3661E-03     46.1861E-03
            5741            5837     48.7255E-03     50.5896E-03
            5742            5819     61.7219E-03     61.1839E-03
            5742            5820     67.0252E-03     66.4922E-03
            5742            5837     48.7255E-03     50.5896E-03
            5742            5838     53.1568E-03     55.0212E-03
            5743            5820     67.0252E-03     66.4922E-03
            5743            5821     72.3626E-03     71.8204E-03
            5743            5838     53.1568E-03     55.0212E-03
            5743            5839     57.6154E-03     59.4635E-03
            5744            5821     72.3626E-03     71.8204E-03
            5744            5822     77.7131E-03     77.1379E-03
            5744            5839     57.6154E-03     59.4635E-03
            5744            5840     62.0736E-03     63.8711E-03
            5745            5822     77.7131E-03     77.1379E-03
            5745            5823     83.0316E-03     82.4106E-03
            5745            5840     62.0736E-03     63.8711E-03
            5745            5841     66.5002E-03     68.2402E-03
            5746            5823     83.0316E-03     82.4106E-03
            5746            5824     88.2902E-03     87.5864E-03
            5746            5841     66.5002E-03     68.2402E-03
            5746            5842     70.9012E-03     72.5313E-03
            5747            5824     88.2902E-03     87.5864E-03
            5747            5825     93.4353E-03     92.6270E-03
            5747            5842     70.9012E-03     72.5313E-03
            5747            5843     75.2372E-03     76.7446E-03
            5748            5825     93.4353E-03     92.6270E-03
            5748            5826     98.4031E-03     97.4359E-03
            5748            5843     75.2372E-03     76.7446E-03
            5748            5844     79.5638E-03     80.8538E-03
            5749            5826     98.4031E-03     97.4359E-03
            5749            5827     103.112E-03     101.944E-03
            5749            5844     79.5638E-03     80.8538E-03
            5749            5845     83.8157E-03     84.8819E-03
            5750            5827     103.112E-03     101.944E-03
            5750            5828     107.398E-03     105.993E-03
            5750            5845     83.8157E-03     84.8819E-03
            5750            5846     88.1566E-03     88.8518E-03
            5751            5828     107.398E-03     105.993E-03
            5751            5829     111.123E-03     109.429E-03
            5751            5846     88.1566E-03     88.8518E-03
            5751            5847     92.4786E-03     92.8867E-03
            5752            5829     111.123E-03     109.429E-03
            5752            5830     113.913E-03     112.017E-03
            5752            5847     92.4786E-03     92.8867E-03
            5752            5848     97.2358E-03     97.2580E-03
            5753            1002     115.272E-03     113.308E-03
            5753            1003     102.286E-03     102.377E-03
            5753            5830     113.913E-03     112.017E-03
            5753            5848     97.2358E-03     97.2580E-03
            5754             851     24.1472E-03     27.9972E-03
            5754             852     17.4726E-03     17.4531E-03
            5754            5831     27.8284E-03     29.5951E-03
            5754            5849     18.3818E-03     21.3813E-03
            5755            5831     27.8284E-03     29.5951E-03
            5755            5832     29.6189E-03     30.7766E-03
            5755            5849     18.3818E-03     21.3813E-03
            5755            5850     19.4569E-03     22.8379E-03
            5756            5832     29.6189E-03     30.7766E-03
            5756            5833     32.5702E-03     33.8678E-03
            5756            5850     19.4569E-03     22.8379E-03
            5756            5851     21.7903E-03     25.5110E-03
            5757            5833     32.5702E-03     33.8678E-03
            5757            5834     36.1662E-03     37.7284E-03
            5757            5851     21.7903E-03     25.5110E-03
            5757            5852     24.9671E-03     28.8937E-03
            5758            5834     36.1662E-03     37.7284E-03
            5758            5835     40.1461E-03     41.8690E-03
            5758            5852     24.9671E-03     28.8937E-03
            5758            5853     28.4098E-03     32.4762E-03
            5759            5835     40.1461E-03     41.8690E-03
            5759            5836     44.3661E-03     46.1861E-03
            5759            5853     28.4098E-03     32.4762E-03
            5759            5854     32.0664E-03     36.2146E-03
            5760            5836     44.3661E-03     46.1861E-03
            5760            5837     48.7255E-03     50.5896E-03
            5760            5854     32.0664E-03     36.2146E-03
            5760            5855     35.8044E-03     39.9900E-03
            5761            5837     48.7255E-03     50.5896E-03
            5761            5838     53.1568E-03     55.0212E-03
            5761            5855     35.8044E-03     39.9900E-03
            5761            5856     39.5989E-03     43.7924E-03
            5762            5838     53.1568E-03     55.0212E-03
            5762            5839     57.6154E-03     59.4635E-03
            5762            5856     39.5989E-03     43.7924E-03
            5762            5857     43.4062E-03     47.5860E-03
            5763            5839     57.6154E-03     59.4635E-03
            5763            5840     62.0736E-03     63.8711E-03
            5763            5857     43.4062E-03     47.5860E-03
            5763            5858     47.2208E-03     51.3688E-03
            5764            5840     62.0736E-03     63.8711E-03
            5764            5841     66.5002E-03     68.2402E-03
            5764            5858     47.2208E-03     51.3688E-03
            5764            5859     51.0413E-03     55.1417E-03
            5765            5841     66.5002E-03     68.2402E-03
            5765            5842     70.9012E-03     72.5313E-03
            5765            5859     51.0413E-03     55.1417E-03
            5765            5860     54.8796E-03     58.9135E-03
            5766            5842     70.9012E-03     72.5313E-03
            5766            5843     75.2372E-03     76.7446E-03
            5766            5860     54.8796E-03     58.9135E-03
            5766            5861     58.7863E-03     62.7307E-03
            5767            5843     75.2372E-03     76.7446E-03
            5767            5844     79.5638E-03     80.8538E-03
            5767            5861     58.7863E-03     62.7307E-03
            5767            5862     62.8066E-03     66.6403E-03
            5768            5844     79.5638E-03     80.8538E-03
            5768            5845     83.8157E-03     84.8819E-03
            5768            5862     62.8066E-03     66.6403E-03
            5768            5863     67.1094E-03     70.8019E-03
            5769            5845     83.8157E-03     84.8819E-03
            5769            5846     88.1566E-03     88.8518E-03
            5769            5863     67.1094E-03     70.8019E-03
            5769            5864     71.8142E-03     75.3754E-03
            5770            5846     88.1566E-03     88.8518E-03
            5770            5847     92.4786E-03     92.8867E-03
            5770            5864     71.8142E-03     75.3754E-03
            5770            5865     77.4361E-03     80.8654E-03
            5771            5847     92.4786E-03     92.8867E-03
            5771            5848     97.2358E-03     97.2580E-03
            5771            5865     77.4361E-03     80.8654E-03
            5771            5866     84.2955E-03     87.7389E-03
            5772            1003     102.286E-03     102.377E-03
            5772            1004     94.4679E-03     98.1120E-03
            5772            5848     97.2358E-03     97.2580E-03
            5772            5866     84.2955E-03     87.7389E-03
            5773             852     17.4726E-03     17.4531E-03
            5773             853     15.1046E-03     14.8679E-03
            5773            5849     18.3818E-03     21.3813E-03
            5773            5867     16.9301E-03     19.6788E-03
            5774            5849     18.3818E-03     21.3813E-03
            5774            5850     19.4569E-03     22.8379E-03
            5774            5867     16.9301E-03     19.6788E-03
            5774            5868     19.5452E-03     22.5228E-03
            5775            5850     19.4569E-03     22.8379E-03
            5775            5851     21.7903E-03     25.5110E-03
            5775            5868     19.5452E-03     22.5228E-03
            5775            5869     22.1132E-03     25.3031E-03
            5776            5851     21.7903E-03     25.5110E-03
            5776            5852     24.9671E-03     28.8937E-03
            5776            5869     22.1132E-03     25.3031E-03
            5776            5870     25.4067E-03     28.7277E-03
            5777            5852     24.9671E-03     28.8937E-03
            5777            5853     28.4098E-03     32.4762E-03
            5777            5870     25.4067E-03     28.7277E-03
            5777            5871     28.9910E-03     32.4007E-03
            5778            5853     28.4098E-03     32.4762E-03
            5778            5854     32.0664E-03     36.2146E-03
            5778            5871     28.9910E-03     32.4007E-03
            5778            5872     32.7461E-03     36.1991E-03
            5779            5854     32.0664E-03     36.2146E-03
            5779            5855     35.8044E-03     39.9900E-03
            5779            5872     32.7461E-03     36.1991E-03
            5779            5873     36.5955E-03     40.0722E-03
            5780            5855     35.8044E-03     39.9900E-03
            5780            5856     39.5989E-03     43.7924E-03
            5780            5873     36.5955E-03     40.0722E-03
            5780            5874     40.4857E-03     43.9684E-03
            5781            5856     39.5989E-03     43.7924E-03
            5781            5857     43.4062E-03     47.5860E-03
            5781            5874     40.4857E-03     43.9684E-03
            5781            5875     44.3976E-03     47.8755E-03
            5782            5857     43.4062E-03     47.5860E-03
            5782            5858     47.2208E-03     51.3688E-03
            5782            5875     44.3976E-03     47.8755E-03
            5782            5876     48.3164E-03     51.7826E-03
            5783            5858     47.2208E-03     51.3688E-03
            5783            5859     51.0413E-03     55.1417E-03
            5783            5876     48.3164E-03     51.7826E-03
            5783            5877     52.2422E-03     55.6924E-03
            5784            5859     51.0413E-03     55.1417E-03
            5784            5860     54.8796E-03     58.9135E-03
            5784            5877     52.2422E-03     55.6924E-03
            5784            5878     56.1965E-03     59.6234E-03
            5785            5860     54.8796E-03     58.9135E-03
            5785            5861     58.7863E-03     62.7307E-03
            5785            5878     56.1965E-03     59.6234E-03
            5785            5879     60.2014E-03     63.6096E-03
            5786            5861     58.7863E-03     62.7307E-03
            5786            5862     62.8066E-03     66.6403E-03
            5786            5879     60.2014E-03     63.6096E-03
            5786            5880     64.3504E-03     67.7243E-03
            5787            5862     62.8066E-03     66.6403E-03
            5787            5863     67.1094E-03     70.8019E-03
            5787            5880     64.3504E-03     67.7243E-03
            5787            5881     68.7329E-03     72.0920E-03
            5788            5863     67.1094E-03     70.8019E-03
            5788            5864     71.8142E-03     75.3754E-03
            5788            5881     68.7329E-03     72.0920E-03
            5788            5882     73.6262E-03     76.9247E-03
            5789            5864     71.8142E-03     75.3754E-03
            5789            5865     77.4361E-03     80.8654E-03
            5789            5882     73.6262E-03     76.9247E-03
            5789            5883     79.3697E-03     82.6207E-03
            5790            5865     77.4361E-03     80.8654E-03
            5790            5866     84.2955E-03     87.7389E-03
            5790            5883     79.3697E-03     82.6207E-03
            5790            5884     86.6399E-03     89.7121E-03
            5791            1004     94.4679E-03     98.1120E-03
            5791            1005     97.7126E-03     99.8235E-03
            5791            5866     84.2955E-03     87.7389E-03
            5791            5884     86.6399E-03     89.7121E-03
            5792             853     15.1046E-03     14.8679E-03
            5792             854     14.6609E-03     14.1843E-03
            5792            5867     16.9301E-03     19.6788E-03
            5792            5885     16.2700E-03     18.5486E-03
            5793            5867     16.9301E-03     19.6788E-03
            5793            5868     19.5452E-03     22.5228E-03
            5793            5885     16.2700E-03     18.5486E-03
            5793            5886     19.3650E-03     21.9504E-03
            5794            5868     19.5452E-03     22.5228E-03
            5794            5869     22.1132E-03     25.3031E-03
            5794            5886     19.3650E-03     21.9504E-03
            5794            5887     22.5718E-03     25.2640E-03
            5795            5869     22.1132E-03     25.3031E-03
            5795            5870     25.4067E-03     28.7277E-03
            5795            5887     22.5718E-03     25.2640E-03
            5795            5888     25.9592E-03     28.7348E-03
            5796            5870     25.4067E-03     28.7277E-03
            5796            5871     28.9910E-03     32.4007E-03
            5796            5888     25.9592E-03     28.7348E-03
            5796            5889     29.6814E-03     32.4692E-03
            5797            5871     28.9910E-03     32.4007E-03
            5797            5872     32.7461E-03     36.1991E-03
            5797            5889     29.6814E-03     32.4692E-03
            5797            5890     33.5193E-03     36.3168E-03
            5798            5872     32.7461E-03     36.1991E-03
            5798            5873     36.5955E-03     40.0722E-03
            5798            5890     33.5193E-03     36.3168E-03
            5798            5891     37.4454E-03     40.2400E-03
            5799            5873     36.5955E-03     40.0722E-03
            5799            5874     40.4857E-03     43.9684E-03
            5799            5891     37.4454E-03     40.2400E-03
            5799            5892     41.4108E-03     44.2033E-03
            5800            5874     40.4857E-03     43.9684E-03
            5800            5875     44.3976E-03     47.8755E-03
            5800            5892     41.4108E-03     44.2033E-03
            5800            5893     45.3991E-03     48.1938E-03
            5801            5875     44.3976E-03     47.8755E-03
            5801            5876     48.3164E-03     51.7826E-03
            5801            5893     45.3991E-03     48.1938E-03
            5801            5894     49.4013E-03     52.2023E-03
            5802            5876     48.3164E-03     51.7826E-03
            5802            5877     52.2422E-03     55.6924E-03
            5802            5894     49.4013E-03     52.2023E-03
            5802            5895     53.4232E-03     56.2346E-03
            5803            5877     52.2422E-03     55.6924E-03
            5803            5878     56.1965E-03     59.6234E-03
            5803            5895     53.4232E-03     56.2346E-03
            5803            5896     57.4730E-03     60.3081E-03
            5804            5878     56.1965E-03     59.6234E-03
            5804            5879     60.2014E-03     63.6096E-03
            5804            5896     57.4730E-03     60.3081E-03
            5804            5897     61.5904E-03     64.4521E-03
            5805            5879     60.2014E-03     63.6096E-03
            5805            5880     64.3504E-03     67.7243E-03
            5805            5897     61.5904E-03     64.4521E-03
            5805            5898     65.8264E-03     68.7373E-03
            5806            5880     64.3504E-03     67.7243E-03
            5806            5881     68.7329E-03     72.0920E-03
            5806            5898     65.8264E-03     68.7373E-03
            5806            5899     70.2953E-03     73.2419E-03
            5807            5881     68.7329E-03     72.0920E-03
            5807            5882     73.6262E-03     76.9247E-03
            5807            5899     70.2953E-03     73.2419E-03
            5807            5900     75.2204E-03     78.1821E-03
            5808            5882     73.6262E-03     76.9247E-03
            5808            5883     79.3697E-03     82.6207E-03
            5808            5900     75.2204E-03     78.1821E-03
            5808            5901     80.8252E-03     83.7316E-03
            5809            5883     79.3697E-03     82.6207E-03
            5809            5884     86.6399E-03     89.7121E-03
            5809            5901     80.8252E-03     83.7316E-03
            5809            5902     88.0905E-03     90.5204E-03
            5810            1005     97.7126E-03     99.8235E-03
            5810            1006     96.6352E-03     98.5614E-03
            5810            5884     86.6399E-03     89.7121E-03
            5810            5902     88.0905E-03     90.5204E-03
            5811             854     14.6609E-03     14.1843E-03
            5811             855     15.1286E-03     14.6270E-03
            5811            5885     16.2700E-03     18.5486E-03
            5811            5903     16.5056E-03     18.3331E-03
            5812            5885     16.2700E-03     18.5486E-03
            5812            5886     19.3650E-03     21.9504E-03
            5812            5903     16.5056E-03     18.3331E-03
            5812            5904     19.5376E-03     21.6660E-03
            5813            5886     19.3650E-03     21.9504E-03
            5813            5887     22.5718E-03     25.2640E-03
            5813            5904     19.5376E-03     21.6660E-03
            5813            5905     22.9690E-03     25.2480E-03
            5814            5887     22.5718E-03     25.2640E-03
            5814            5888     25.9592E-03     28.7348E-03
            5814            5905     22.9690E-03     25.2480E-03
            5814            5906     26.6245E-03     28.8661E-03
            5815            5888     25.9592E-03     28.7348E-03
            5815            5889     29.6814E-03     32.4692E-03
            5815            5906     26.6245E-03     28.8661E-03
            5815            5907     30.4075E-03     32.6177E-03
            5816            5889     29.6814E-03     32.4692E-03
            5816            5890     33.5193E-03     36.3168E-03
            5816            5907     30.4075E-03     32.6177E-03
            5816            5908     34.3256E-03     36.4855E-03
            5817            5890     33.5193E-03     36.3168E-03
            5817            5891     37.4454E-03     40.2400E-03
            5817            5908     34.3256E-03     36.4855E-03
            5817            5909     38.2916E-03     40.4186E-03
            5818            5891     37.4454E-03     40.2400E-03
            5818            5892     41.4108E-03     44.2033E-03
            5818            5909     38.2916E-03     40.4186E-03
            5818            5910     42.2988E-03     44.4159E-03
            5819            5892     41.4108E-03     44.2033E-03
            5819            5893     45.3991E-03     48.1938E-03
            5819            5910     42.2988E-03     44.4159E-03
            5819            5911     46.3289E-03     48.4496E-03
            5820            5893     45.3991E-03     48.1938E-03
            5820            5894     49.4013E-03     52.2023E-03
            5820            5911     46.3289E-03     48.4496E-03
            5820            5912     50.3853E-03     52.5236E-03
            5821            5894     49.4013E-03     52.2023E-03
            5821            5895     53.4232E-03     56.2346E-03
            5821            5912     50.3853E-03     52.5236E-03
            5821            5913     54.4680E-03     56.6393E-03
            5822            5895     53.4232E-03     56.2346E-03
            5822            5896     57.4730E-03     60.3081E-03
            5822            5913     54.4680E-03     56.6393E-03
            5822            5914     58.5899E-03     60.8084E-03
            5823            5896     57.4730E-03     60.3081E-03
            5823            5897     61.5904E-03     64.4521E-03
            5823            5914     58.5899E-03     60.8084E-03
            5823            5915     62.7730E-03     65.0620E-03
            5824            5897     61.5904E-03     64.4521E-03
            5824            5898     65.8264E-03     68.7373E-03
            5824            5915     62.7730E-03     65.0620E-03
            5824            5916     67.0442E-03     69.4223E-03
            5825            5898     65.8264E-03     68.7373E-03
            5825            5899     70.2953E-03     73.2419E-03
            5825            5916     67.0442E-03     69.4223E-03
            5825            5917     71.5011E-03     73.9694E-03
            5826            5899     70.2953E-03     73.2419E-03
            5826            5900     75.2204E-03     78.1821E-03
            5826            5917     71.5011E-03     73.9694E-03
            5826            5918     76.1716E-03     78.7377E-03
            5827            5900     75.2204E-03     78.1821E-03
            5827            5901     80.8252E-03     83.7316E-03
            5827            5918     76.1716E-03     78.7377E-03
            5827            5919     81.4463E-03     83.9070E-03
            5828            5901     80.8252E-03     83.7316E-03
            5828            5902     88.0905E-03     90.5204E-03
            5828            5919     81.4463E-03     83.9070E-03
            5828            5920     87.2043E-03     89.5213E-03
            5829            1006     96.6352E-03     98.5614E-03
            5829            1007     93.2902E-03     95.4277E-03
            5829            5902     88.0905E-03     90.5204E-03
            5829            5920     87.2043E-03     89.5213E-03
            5830             855     15.1286E-03     14.6270E-03
            5830             856     16.2649E-03     15.5004E-03
            5830            5903     16.5056E-03     18.3331E-03
            5830            5921     17.2776E-03     18.6724E-03
            5831            5903     16.5056E-03     18.3331E-03
            5831            5904     19.5376E-03     21.6660E-03
            5831            5921     17.2776E-03     18.6724E-03
            5831            5922     20.0692E-03     21.9004E-03
            5832            5904     19.5376E-03     21.6660E-03
            5832            5905     22.9690E-03     25.2480E-03
            5832            5922     20.0692E-03     21.9004E-03
            5832            5923     23.5506E-03     25.3816E-03
            5833            5905     22.9690E-03     25.2480E-03
            5833            5906     26.6245E-03     28.8661E-03
            5833            5923     23.5506E-03     25.3816E-03
            5833            5924     27.3058E-03     29.0790E-03
            5834            5906     26.6245E-03     28.8661E-03
            5834            5907     30.4075E-03     32.6177E-03
            5834            5924     27.3058E-03     29.0790E-03
            5834            5925     31.1813E-03     32.8096E-03
            5835            5907     30.4075E-03     32.6177E-03
            5835            5908     34.3256E-03     36.4855E-03
            5835            5925     31.1813E-03     32.8096E-03
            5835            5926     35.1137E-03     36.6299E-03
            5836            5908     34.3256E-03     36.4855E-03
            5836            5909     38.2916E-03     40.4186E-03
            5836            5926     35.1137E-03     36.6299E-03
            5836            5927     39.0870E-03     40.5514E-03
            5837            5909     38.2916E-03     40.4186E-03
            5837            5910     42.2988E-03     44.4159E-03
            5837            5927     39.0870E-03     40.5514E-03
            5837            5928     43.0832E-03     44.5265E-03
            5838            5910     42.2988E-03     44.4159E-03
            5838            5911     46.3289E-03     48.4496E-03
            5838            5928     43.0832E-03     44.5265E-03
            5838            5929     47.1134E-03     48.5619E-03
            5839            5911     46.3289E-03     48.4496E-03
            5839            5912     50.3853E-03     52.5236E-03
            5839            5929     47.1134E-03     48.5619E-03
            5839            5930     51.1732E-03     52.6444E-03
            5840            5912     50.3853E-03     52.5236E-03
            5840            5913     54.4680E-03     56.6393E-03
            5840            5930     51.1732E-03     52.6444E-03
            5840            5931     55.2693E-03     56.7805E-03
            5841            5913     54.4680E-03     56.6393E-03
            5841            5914     58.5899E-03     60.8084E-03
            5841            5931     55.2693E-03     56.7805E-03
            5841            5932     59.4084E-03     60.9788E-03
            5842            5914     58.5899E-03     60.8084E-03
            5842            5915     62.7730E-03     65.0620E-03
            5842            5932     59.4084E-03     60.9788E-03
            5842            5933     63.5854E-03     65.2426E-03
            5843            5915     62.7730E-03     65.0620E-03
            5843            5916     67.0442E-03     69.4223E-03
            5843            5933     63.5854E-03     65.2426E-03
            5843            5934     67.8275E-03     69.5905E-03
            5844            5916     67.0442E-03     69.4223E-03
            5844            5917     71.5011E-03     73.9694E-03
            5844            5934     67.8275E-03     69.5905E-03
            5844            5935     72.0883E-03     74.0064E-03
            5845            5917     71.5011E-03     73.9694E-03
            5845            5918     76.1716E-03     78.7377E-03
            5845            5935     72.0883E-03     74.0064E-03
            5845            5936     76.4484E-03     78.4767E-03
            5846            5918     76.1716E-03     78.7377E-03
            5846            5919     81.4463E-03     83.9070E-03
            5846            5936     76.4484E-03     78.4767E-03
            5846            5937     80.7682E-03     82.9384E-03
            5847            5919     81.4463E-03     83.9070E-03
            5847            5920     87.2043E-03     89.5213E-03
            5847            5937     80.7682E-03     82.9384E-03
            5847            5938     85.0697E-03     87.2303E-03
            5848            1007     93.2902E-03     95.4277E-03
            5848            1008     89.5475E-03     91.2977E-03
            5848            5920     87.2043E-03     89.5213E-03
            5848            5938     85.0697E-03     87.2303E-03
            5849             856     16.2649E-03     15.5004E-03
            5849             857     17.6334E-03     17.3622E-03
            5849            5921     17.2776E-03     18.6724E-03
            5849            5939     18.2975E-03     19.5993E-03
            5850            5921     17.2776E-03     18.6724E-03
            5850            5922     20.0692E-03     21.9004E-03
            5850            5939     18.2975E-03     19.5993E-03
            5850            5940     20.9350E-03     22.4139E-03
            5851            5922     20.0692E-03     21.9004E-03
            5851            5923     23.5506E-03     25.3816E-03
            5851            5940     20.9350E-03     22.4139E-03
            5851            5941     24.3405E-03     25.8828E-03
            5852            5923     23.5506E-03     25.3816E-03
            5852            5924     27.3058E-03     29.0790E-03
            5852            5941     24.3405E-03     25.8828E-03
            5852            5942     28.1038E-03     29.3729E-03
            5853            5924     27.3058E-03     29.0790E-03
            5853            5925     31.1813E-03     32.8096E-03
            5853            5942     28.1038E-03     29.3729E-03
            5853            5943     31.9927E-03     32.9855E-03
            5854            5925     31.1813E-03     32.8096E-03
            5854            5926     35.1137E-03     36.6299E-03
            5854            5943     31.9927E-03     32.9855E-03
            5854            5944     35.8850E-03     36.7436E-03
            5855            5926     35.1137E-03     36.6299E-03
            5855            5927     39.0870E-03     40.5514E-03
            5855            5944     35.8850E-03     36.7436E-03
            5855            5945     39.7900E-03     40.5816E-03
            5856            5927     39.0870E-03     40.5514E-03
            5856            5928     43.0832E-03     44.5265E-03
            5856            5945     39.7900E-03     40.5816E-03
            5856            5946     43.7269E-03     44.4981E-03
            5857            5928     43.0832E-03     44.5265E-03
            5857            5929     47.1134E-03     48.5619E-03
            5857            5946     43.7269E-03     44.4981E-03
            5857            5947     47.6922E-03     48.4677E-03
            5858            5929     47.1134E-03     48.5619E-03
            5858            5930     51.1732E-03     52.6444E-03
            5858            5947     47.6922E-03     48.4677E-03
            5858            5948     51.6966E-03     52.4930E-03
            5859            5930     51.1732E-03     52.6444E-03
            5859            5931     55.2693E-03     56.7805E-03
            5859            5948     51.6966E-03     52.4930E-03
            5859            5949     55.7400E-03     56.5700E-03
            5860            5931     55.2693E-03     56.7805E-03
            5860            5932     59.4084E-03     60.9788E-03
            5860            5949     55.7400E-03     56.5700E-03
            5860            5950     59.8134E-03     60.6981E-03
            5861            5932     59.4084E-03     60.9788E-03
            5861            5933     63.5854E-03     65.2426E-03
            5861            5950     59.8134E-03     60.6981E-03
            5861            5951     63.9187E-03     64.8736E-03
            5862            5933     63.5854E-03     65.2426E-03
            5862            5934     67.8275E-03     69.5905E-03
            5862            5951     63.9187E-03     64.8736E-03
            5862            5952     68.0011E-03     69.0736E-03
            5863            5934     67.8275E-03     69.5905E-03
            5863            5935     72.0883E-03     74.0064E-03
            5863            5952     68.0011E-03     69.0736E-03
            5863            5953     72.0412E-03     73.2470E-03
            5864            5935     72.0883E-03     74.0064E-03
            5864            5936     76.4484E-03     78.4767E-03
            5864            5953     72.0412E-03     73.2470E-03
            5864            5954     75.8793E-03     77.3043E-03
            5865            5936     76.4484E-03     78.4767E-03
            5865            5937     80.7682E-03     82.9384E-03
            5865            5954     75.8793E-03     77.3043E-03
            5865            5955     79.3396E-03     80.9993E-03
            5866            5937     80.7682E-03     82.9384E-03
            5866            5938     85.0697E-03     87.2303E-03
            5866            5955     79.3396E-03     80.9993E-03
            5866            5956     82.3480E-03     84.1397E-03
            5867            1008     89.5475E-03     91.2977E-03
            5867            1009     85.1447E-03     86.8447E-03
            5867            5938     85.0697E-03     87.2303E-03
            5867            5956     82.3480E-03     84.1397E-03
            5868             857     17.6334E-03     17.3622E-03
            5868             858     19.3291E-03     18.8373E-03
            5868            5939     18.2975E-03     19.5993E-03
            5868            5957     19.7646E-03     20.7575E-03
            5869            5939     18.2975E-03     19.5993E-03
            5869            5940     20.9350E-03     22.4139E-03
            5869            5957     19.7646E-03     20.7575E-03
            5869            5958     22.0516E-03     23.6521E-03
            5870            5940     20.9350E-03     22.4139E-03
            5870            5941     24.3405E-03     25.8828E-03
            5870            5958     22.0516E-03     23.6521E-03
            5870            5959     25.3797E-03     26.5888E-03
            5871            5941     24.3405E-03     25.8828E-03
            5871            5942     28.1038E-03     29.3729E-03
            5871            5959     25.3797E-03     26.5888E-03
            5871            5960     29.1267E-03     29.7214E-03
            5872            5942     28.1038E-03     29.3729E-03
            5872            5943     31.9927E-03     32.9855E-03
            5872            5960     29.1267E-03     29.7214E-03
            5872            5961     32.8793E-03     33.1876E-03
            5873            5943     31.9927E-03     32.9855E-03
            5873            5944     35.8850E-03     36.7436E-03
            5873            5961     32.8793E-03     33.1876E-03
            5873            5962     36.6312E-03     36.8064E-03
            5874            5944     35.8850E-03     36.7436E-03
            5874            5945     39.7900E-03     40.5816E-03
            5874            5962     36.6312E-03     36.8064E-03
            5874            5963     40.4073E-03     40.5274E-03
            5875            5945     39.7900E-03     40.5816E-03
            5875            5946     43.7269E-03     44.4981E-03
            5875            5963     40.4073E-03     40.5274E-03
            5875            5964     44.2091E-03     44.3162E-03
            5876            5946     43.7269E-03     44.4981E-03
            5876            5947     47.6922E-03     48.4677E-03
            5876            5964     44.2091E-03     44.3162E-03
            5876            5965     48.0502E-03     48.1594E-03
            5877            5947     47.6922E-03     48.4677E-03
            5877            5948     51.6966E-03     52.4930E-03
            5877            5965     48.0502E-03     48.1594E-03
            5877            5966     51.9268E-03     52.0464E-03
            5878            5948     51.6966E-03     52.4930E-03
            5878            5949     55.7400E-03     56.5700E-03
            5878            5966     51.9268E-03     52.0464E-03
            5878            5967     55.8329E-03     55.9721E-03
            5879            5949     55.7400E-03     56.5700E-03
            5879            5950     59.8134E-03     60.6981E-03
            5879            5967     55.8329E-03     55.9721E-03
            5879            5968     59.7633E-03     59.9248E-03
            5880            5950     59.8134E-03     60.6981E-03
            5880            5951     63.9187E-03     64.8736E-03
            5880            5968     59.7633E-03     59.9248E-03
            5880            5969     63.6777E-03     63.8862E-03
            5881            5951     63.9187E-03     64.8736E-03
            5881            5952     68.0011E-03     69.0736E-03
            5881            5969     63.6777E-03     63.8862E-03
            5881            5970     67.5451E-03     67.8115E-03
            5882            5952     68.0011E-03     69.0736E-03
            5882            5953     72.0412E-03     73.2470E-03
            5882            5970     67.5451E-03     67.8115E-03
            5882            5971     71.2458E-03     71.6314E-03
            5883            5953     72.0412E-03     73.2470E-03
            5883            5954     75.8793E-03     77.3043E-03
            5883            5971     71.2458E-03     71.6314E-03
            5883            5972     74.6178E-03     75.1798E-03
            5884            5954     75.8793E-03     77.3043E-03
            5884            5955     79.3396E-03     80.9993E-03
            5884            5972     74.6178E-03     75.1798E-03
            5884            5973     77.4301E-03     78.2547E-03
            5885            5955     79.3396E-03     80.9993E-03
            5885            5956     82.3480E-03     84.1397E-03
            5885            5973     77.4301E-03     78.2547E-03
            5885            5974     79.2467E-03     80.4565E-03
            5886            1009     85.1447E-03     86.8447E-03
            5886            1010     80.4381E-03     81.7668E-03
            5886            5956     82.3480E-03     84.1397E-03
            5886            5974     79.2467E-03     80.4565E-03
            5887             858     19.3291E-03     18.8373E-03
            5887             859     21.5512E-03     22.0709E-03
            5887            5957     19.7646E-03     20.7575E-03
            5887            5975     21.3575E-03     23.4266E-03
            5888            5957     19.7646E-03     20.7575E-03
            5888            5958     22.0516E-03     23.6521E-03
            5888            5975     21.3575E-03     23.4266E-03
            5888            5976     23.5304E-03     25.1877E-03
            5889            5958     22.0516E-03     23.6521E-03
            5889            5959     25.3797E-03     26.5888E-03
            5889            5976     23.5304E-03     25.1877E-03
            5889            5977     26.9143E-03     27.2832E-03
            5890            5959     25.3797E-03     26.5888E-03
            5890            5960     29.1267E-03     29.7214E-03
            5890            5977     26.9143E-03     27.2832E-03
            5890            5978     30.3815E-03     30.1734E-03
            5891            5960     29.1267E-03     29.7214E-03
            5891            5961     32.8793E-03     33.1876E-03
            5891            5978     30.3815E-03     30.1734E-03
            5891            5979     33.8561E-03     33.4434E-03
            5892            5961     32.8793E-03     33.1876E-03
            5892            5962     36.6312E-03     36.8064E-03
            5892            5979     33.8561E-03     33.4434E-03
            5892            5980     37.3804E-03     36.8808E-03
            5893            5962     36.6312E-03     36.8064E-03
            5893            5963     40.4073E-03     40.5274E-03
            5893            5980     37.3804E-03     36.8808E-03
            5893            5981     40.9504E-03     40.4285E-03
            5894            5963     40.4073E-03     40.5274E-03
            5894            5964     44.2091E-03     44.3162E-03
            5894            5981     40.9504E-03     40.4285E-03
            5894            5982     44.5648E-03     44.0335E-03
            5895            5964     44.2091E-03     44.3162E-03
            5895            5965     48.0502E-03     48.1594E-03
            5895            5982     44.5648E-03     44.0335E-03
            5895            5983     48.2165E-03     47.6811E-03
            5896            5965     48.0502E-03     48.1594E-03
            5896            5966     51.9268E-03     52.0464E-03
            5896            5983     48.2165E-03     47.6811E-03
            5896            5984     51.8929E-03     51.3533E-03
            5897            5966     51.9268E-03     52.0464E-03
            5897            5967     55.8329E-03     55.9721E-03
            5897            5984     51.8929E-03     51.3533E-03
            5897            5985     55.5849E-03     55.0328E-03
            5898            5967     55.8329E-03     55.9721E-03
            5898            5968     59.7633E-03     59.9248E-03
            5898            5985     55.5849E-03     55.0328E-03
            5898            5986     59.2624E-03     58.7016E-03
            5899            5968     59.7633E-03     59.9248E-03
            5899            5969     63.6777E-03     63.8862E-03
            5899            5986     59.2624E-03     58.7016E-03
            5899            5987     62.9009E-03     62.3193E-03
            5900            5969     63.6777E-03     63.8862E-03
            5900            5970     67.5451E-03     67.8115E-03
            5900            5987     62.9009E-03     62.3193E-03
            5900            5988     66.4257E-03     65.8401E-03
            5901            5970     67.5451E-03     67.8115E-03
            5901            5971     71.2458E-03     71.6314E-03
            5901            5988     66.4257E-03     65.8401E-03
            5901            5989     69.7409E-03     69.1604E-03
            5902            5971     71.2458E-03     71.6314E-03
            5902            5972     74.6178E-03     75.1798E-03
            5902            5989     69.7409E-03     69.1604E-03
            5902            5990     72.6796E-03     72.1459E-03
            5903            5972     74.6178E-03     75.1798E-03
            5903            5973     77.4301E-03     78.2547E-03
            5903            5990     72.6796E-03     72.1459E-03
            5903            5991     74.9397E-03     74.5642E-03
            5904            5973     77.4301E-03     78.2547E-03
            5904            5974     79.2467E-03     80.4565E-03
            5904            5991     74.9397E-03     74.5642E-03
            5904            5992     76.2059E-03     76.0888E-03
            5905            1010     80.4381E-03     81.7668E-03
            5905            1011     75.7473E-03     76.1244E-03
            5905            5974     79.2467E-03     80.4565E-03
            5905            5992     76.2059E-03     76.0888E-03
            5906             859     21.5512E-03     22.0709E-03
            5906             860     22.0630E-03     26.2655E-03
            5906            5975     21.3575E-03     23.4266E-03
            5906            5993     23.5498E-03     25.8785E-03
            5907            5975     21.3575E-03     23.4266E-03
            5907            5976     23.5304E-03     25.1877E-03
            5907            5993     23.5498E-03     25.8785E-03
            5907            5994     26.0892E-03     26.1757E-03
            5908            5976     23.5304E-03     25.1877E-03
            5908            5977     26.9143E-03     27.2832E-03
            5908            5994     26.0892E-03     26.1757E-03
            5908            5995     28.8685E-03     28.0511E-03
            5909            5977     26.9143E-03     27.2832E-03
            5909            5978     30.3815E-03     30.1734E-03
            5909            5995     28.8685E-03     28.0511E-03
            5909            5996     31.8166E-03     30.7865E-03
            5910            5978     30.3815E-03     30.1734E-03
            5910            5979     33.8561E-03     33.4434E-03
            5910            5996     31.8166E-03     30.7865E-03
            5910            5997     34.9027E-03     33.8238E-03
            5911            5979     33.8561E-03     33.4434E-03
            5911            5980     37.3804E-03     36.8808E-03
            5911            5997     34.9027E-03     33.8238E-03
            5911            5998     38.1469E-03     37.0519E-03
            5912            5980     37.3804E-03     36.8808E-03
            5912            5981     40.9504E-03     40.4285E-03
            5912            5998     38.1469E-03     37.0519E-03
            5912            5999     41.4710E-03     40.3699E-03
            5913            5981     40.9504E-03     40.4285E-03
            5913            5982     44.5648E-03     44.0335E-03
            5913            5999     41.4710E-03     40.3699E-03
            5913            6000     44.8635E-03     43.7465E-03
            5914            5982     44.5648E-03     44.0335E-03
            5914            5983     48.2165E-03     47.6811E-03
            5914            6000     44.8635E-03     43.7465E-03
            5914            6001     48.2800E-03     47.1442E-03
            5915            5983     48.2165E-03     47.6811E-03
            5915            5984     51.8929E-03     51.3533E-03
            5915            6001     48.2800E-03     47.1442E-03
            5915            6002     51.7049E-03     50.5368E-03
            5916            5984     51.8929E-03     51.3533E-03
            5916            5985     55.5849E-03     55.0328E-03
            5916            6002     51.7049E-03     50.5368E-03
            5916            6003     55.1020E-03     53.8971E-03
            5917            5985     55.5849E-03     55.0328E-03
            5917            5986     59.2624E-03     58.7016E-03
            5917            6003     55.1020E-03     53.8971E-03
            5917            6004     58.4474E-03     57.1810E-03
            5918            5986     59.2624E-03     58.7016E-03
            5918            5987     62.9009E-03     62.3193E-03
            5918            6004     58.4474E-03     57.1810E-03
            5918            6005     61.6888E-03     60.3503E-03
            5919            5987     62.9009E-03     62.3193E-03
            5919            5988     66.4257E-03     65.8401E-03
            5919            6005     61.6888E-03     60.3503E-03
            5919            6006     64.7698E-03     63.3205E-03
            5920            5988     66.4257E-03     65.8401E-03
            5920            5989     69.7409E-03     69.1604E-03
            5920            6006     64.7698E-03     63.3205E-03
            5920            6007     67.5958E-03     66.0116E-03
            5921            5989     69.7409E-03     69.1604E-03
            5921            5990     72.6796E-03     72.1459E-03
            5921            6007     67.5958E-03     66.0116E-03
            5921            6008     70.0236E-03     68.2750E-03
            5922            5990     72.6796E-03     72.1459E-03
            5922            5991     74.9397E-03     74.5642E-03
            5922            6008     70.0236E-03     68.2750E-03
            5922            6009     71.8547E-03     69.9104E-03
            5923            5991     74.9397E-03     74.5642E-03
            5923            5992     76.2059E-03     76.0888E-03
            5923            6009     71.8547E-03     69.9104E-03
            5923            6010     72.7711E-03     70.6839E-03
            5924            1011     75.7473E-03     76.1244E-03
            5924            1012     72.0184E-03     69.9097E-03
            5924            5992     76.2059E-03     76.0888E-03
            5924            6010     72.7711E-03     70.6839E-03
            5925             860     22.0630E-03     26.2655E-03
            5925             861     17.7251E-03     21.0441E-03
            5925            5993     23.5498E-03     25.8785E-03
            5925            6011     17.6122E-03     20.2313E-03
            5926            5993     23.5498E-03     25.8785E-03
            5926            5994     26.0892E-03     26.1757E-03
            5926            6011     17.6122E-03     20.2313E-03
            5926            6012     18.4473E-03     19.6496E-03
            5927            5994     26.0892E-03     26.1757E-03
            5927            5995     28.8685E-03     28.0511E-03
            5927            6012     18.4473E-03     19.6496E-03
            5927            6013     20.0192E-03     20.9630E-03
            5928            5995     28.8685E-03     28.0511E-03
            5928            5996     31.8166E-03     30.7865E-03
            5928            6013     20.0192E-03     20.9630E-03
            5928            6014     21.9129E-03     22.8899E-03
            5929            5996     31.8166E-03     30.7865E-03
            5929            5997     34.9027E-03     33.8238E-03
            5929            6014     21.9129E-03     22.8899E-03
            5929            6015     24.0909E-03     25.0832E-03
            5930            5997     34.9027E-03     33.8238E-03
            5930            5998     38.1469E-03     37.0519E-03
            5930            6015     24.0909E-03     25.0832E-03
            5930            6016     26.4147E-03     27.4322E-03
            5931            5998     38.1469E-03     37.0519E-03
            5931            5999     41.4710E-03     40.3699E-03
            5931            6016     26.4147E-03     27.4322E-03
            5931            6017     28.8549E-03     29.8737E-03
            5932            5999     41.4710E-03     40.3699E-03
            5932            6000     44.8635E-03     43.7465E-03
            5932            6017     28.8549E-03     29.8737E-03
            5932            6018     31.3479E-03     32.3541E-03
            5933            6000     44.8635E-03     43.7465E-03
            5933            6001     48.2800E-03     47.1442E-03
            5933            6018     31.3479E-03     32.3541E-03
            5933            6019     33.8767E-03     34.8621E-03
            5934            6001     48.2800E-03     47.1442E-03
            5934            6002     51.7049E-03     50.5368E-03
            5934            6019     33.8767E-03     34.8621E-03
            5934            6020     36.4148E-03     37.3619E-03
            5935            6002     51.7049E-03     50.5368E-03
            5935            6003     55.1020E-03     53.8971E-03
            5935            6020     36.4148E-03     37.3619E-03
            5935            6021     38.9483E-03     39.8534E-03
            5936            6003     55.1020E-03     53.8971E-03
            5936            6004     58.4474E-03     57.1810E-03
            5936            6021     38.9483E-03     39.8534E-03
            5936            6022     41.4775E-03     42.3117E-03
            5937            6004     58.4474E-03     57.1810E-03
            5937            6005     61.6888E-03     60.3503E-03
            5937            6022     41.4775E-03     42.3117E-03
            5937            6023     43.9836E-03     44.7416E-03
            5938            6005     61.6888E-03     60.3503E-03
            5938            6006     64.7698E-03     63.3205E-03
            5938            6023     43.9836E-03     44.7416E-03
            5938            6024     46.5054E-03     47.1348E-03
            5939            6006     64.7698E-03     63.3205E-03
            5939            6007     67.5958E-03     66.0116E-03
            5939            6024     46.5054E-03     47.1348E-03
            5939            6025     49.0067E-03     49.5144E-03
            5940            6007     67.5958E-03     66.0116E-03
            5940            6008     70.0236E-03     68.2750E-03
            5940            6025     49.0067E-03     49.5144E-03
            5940            6026     51.6119E-03     51.9121E-03
            5941            6008     70.0236E-03     68.2750E-03
            5941            6009     71.8547E-03     69.9104E-03
            5941            6026     51.6119E-03     51.9121E-03
            5941            6027     54.2446E-03     54.4222E-03
            5942            6009     71.8547E-03     69.9104E-03
            5942            6010     72.7711E-03     70.6839E-03
            5942            6027     54.2446E-03     54.4222E-03
            5942            6028     57.2600E-03     57.2453E-03
            5943            1012     72.0184E-03     69.9097E-03
            5943            1013     60.4827E-03     60.6486E-03
            5943            6010     72.7711E-03     70.6839E-03
            5943            6028     57.2600E-03     57.2453E-03
            5944             861     17.7251E-03     21.0441E-03
            5944             862     13.1829E-03     13.5836E-03
            5944            6011     17.6122E-03     20.2313E-03
            5944            6029     10.8118E-03     13.4703E-03
            5945            6011     17.6122E-03     20.2313E-03
            5945            6012     18.4473E-03     19.6496E-03
            5945            6029     10.8118E-03     13.4703E-03
            5945            6030     9.75641E-03     12.7661E-03
            5946            6012     18.4473E-03     19.6496E-03
            5946            6013     20.0192E-03     20.9630E-03
            5946            6030     9.75641E-03     12.7661E-03
            5946            6031     10.3645E-03     13.3761E-03
            5947            6013     20.0192E-03     20.9630E-03
            5947            6014     21.9129E-03     22.8899E-03
            5947            6031     10.3645E-03     13.3761E-03
            5947            6032     11.5614E-03     14.6024E-03
            5948            6014     21.9129E-03     22.8899E-03
            5948            6015     24.0909E-03     25.0832E-03
            5948            6032     11.5614E-03     14.6024E-03
            5948            6033     12.9837E-03     16.0605E-03
            5949            6015     24.0909E-03     25.0832E-03
            5949            6016     26.4147E-03     27.4322E-03
            5949            6033     12.9837E-03     16.0605E-03
            5949            6034     14.5801E-03     17.6803E-03
            5950            6016     26.4147E-03     27.4322E-03
            5950            6017     28.8549E-03     29.8737E-03
            5950            6034     14.5801E-03     17.6803E-03
            5950            6035     16.2554E-03     19.3721E-03
            5951            6017     28.8549E-03     29.8737E-03
            5951            6018     31.3479E-03     32.3541E-03
            5951            6035     16.2554E-03     19.3721E-03
            5951            6036     17.9939E-03     21.1113E-03
            5952            6018     31.3479E-03     32.3541E-03
            5952            6019     33.8767E-03     34.8621E-03
            5952            6036     17.9939E-03     21.1113E-03
            5952            6037     19.7645E-03     22.8737E-03
            5953            6019     33.8767E-03     34.8621E-03
            5953            6020     36.4148E-03     37.3619E-03
            5953            6037     19.7645E-03     22.8737E-03
            5953            6038     21.5645E-03     24.6542E-03
            5954            6020     36.4148E-03     37.3619E-03
            5954            6021     38.9483E-03     39.8534E-03
            5954            6038     21.5645E-03     24.6542E-03
            5954            6039     23.4004E-03     26.4625E-03
            5955            6021     38.9483E-03     39.8534E-03
            5955            6022     41.4775E-03     42.3117E-03
            5955            6039     23.4004E-03     26.4625E-03
            5955            6040     25.2894E-03     28.3141E-03
            5956            6022     41.4775E-03     42.3117E-03
            5956            6023     43.9836E-03     44.7416E-03
            5956            6040     25.2894E-03     28.3141E-03
            5956            6041     27.2875E-03     30.2659E-03
            5957            6023     43.9836E-03     44.7416E-03
            5957            6024     46.5054E-03     47.1348E-03
            5957            6041     27.2875E-03     30.2659E-03
            5957            6042     29.4502E-03     32.3780E-03
            5958            6024     46.5054E-03     47.1348E-03
            5958            6025     49.0067E-03     49.5144E-03
            5958            6042     29.4502E-03     32.3780E-03
            5958            6043     31.9411E-03     34.8122E-03
            5959            6025     49.0067E-03     49.5144E-03
            5959            6026     51.6119E-03     51.9121E-03
            5959            6043     31.9411E-03     34.8122E-03
            5959            6044     34.8951E-03     37.7375E-03
            5960            6026     51.6119E-03     51.9121E-03
            5960            6027     54.2446E-03     54.4222E-03
            5960            6044     34.8951E-03     37.7375E-03
            5960            6045     38.7574E-03     41.5997E-03
            5961            6027     54.2446E-03     54.4222E-03
            5961            6028     57.2600E-03     57.2453E-03
            5961            6045     38.7574E-03     41.5997E-03
            5961            6046     43.8773E-03     46.8432E-03
            5962            1013     60.4827E-03     60.6486E-03
            5962            1014     51.9313E-03     55.1965E-03
            5962            6028     57.2600E-03     57.2453E-03
            5962            6046     43.8773E-03     46.8432E-03
            5963             862     13.1829E-03     13.5836E-03
            5963             863     12.2052E-03     11.7760E-03
            5963            6029     10.8118E-03     13.4703E-03
            5963            6047     11.3416E-03     12.2991E-03
            5964            6029     10.8118E-03     13.4703E-03
            5964            6030     9.75641E-03     12.7661E-03
            5964            6047     11.3416E-03     12.2991E-03
            5964            6048     10.7786E-03     12.6373E-03
            5965            6030     9.75641E-03     12.7661E-03
            5965            6031     10.3645E-03     13.3761E-03
            5965            6048     10.7786E-03     12.6373E-03
            5965            6049     11.0294E-03     13.3088E-03
            5966            6031     10.3645E-03     13.3761E-03
            5966            6032     11.5614E-03     14.6024E-03
            5966            6049     11.0294E-03     13.3088E-03
            5966            6050     12.1436E-03     14.5487E-03
            5967            6032     11.5614E-03     14.6024E-03
            5967            6033     12.9837E-03     16.0605E-03
            5967            6050     12.1436E-03     14.5487E-03
            5967            6051     13.5598E-03     16.0397E-03
            5968            6033     12.9837E-03     16.0605E-03
            5968            6034     14.5801E-03     17.6803E-03
            5968            6051     13.5598E-03     16.0397E-03
            5968            6052     15.1605E-03     17.6824E-03
            5969            6034     14.5801E-03     17.6803E-03
            5969            6035     16.2554E-03     19.3721E-03
            5969            6052     15.1605E-03     17.6824E-03
            5969            6053     16.8678E-03     19.4088E-03
            5970            6035     16.2554E-03     19.3721E-03
            5970            6036     17.9939E-03     21.1113E-03
            5970            6053     16.8678E-03     19.4088E-03
            5970            6054     18.6317E-03     21.1821E-03
            5971            6036     17.9939E-03     21.1113E-03
            5971            6037     19.7645E-03     22.8737E-03
            5971            6054     18.6317E-03     21.1821E-03
            5971            6055     20.4306E-03     22.9805E-03
            5972            6037     19.7645E-03     22.8737E-03
            5972            6038     21.5645E-03     24.6542E-03
            5972            6055     20.4306E-03     22.9805E-03
            5972            6056     22.2535E-03     24.7979E-03
            5973            6038     21.5645E-03     24.6542E-03
            5973            6039     23.4004E-03     26.4625E-03
            5973            6056     22.2535E-03     24.7979E-03
            5973            6057     24.1015E-03     26.6370E-03
            5974            6039     23.4004E-03     26.4625E-03
            5974            6040     25.2894E-03     28.3141E-03
            5974            6057     24.1015E-03     26.6370E-03
            5974            6058     26.0001E-03     28.5223E-03
            5975            6040     25.2894E-03     28.3141E-03
            5975            6041     27.2875E-03     30.2659E-03
            5975            6058     26.0001E-03     28.5223E-03
            5975            6059     27.9803E-03     30.4901E-03
            5976            6041     27.2875E-03     30.2659E-03
            5976            6042     29.4502E-03     32.3780E-03
            5976            6059     27.9803E-03     30.4901E-03
            5976            6060     30.1372E-03     32.6242E-03
            5977            6042     29.4502E-03     32.3780E-03
            5977            6043     31.9411E-03     34.8122E-03
            5977            6060     30.1372E-03     32.6242E-03
            5977            6061     32.5720E-03     35.0433E-03
            5978            6043     31.9411E-03     34.8122E-03
            5978            6044     34.8951E-03     37.7375E-03
            5978            6061     32.5720E-03     35.0433E-03
            5978            6062     35.5451E-03     37.9679E-03
            5979            6044     34.8951E-03     37.7375E-03
            5979            6045     38.7574E-03     41.5997E-03
            5979            6062     35.5451E-03     37.9679E-03
            5979            6063     39.3842E-03     41.7538E-03
            5980            6045     38.7574E-03     41.5997E-03
            5980            6046     43.8773E-03     46.8432E-03
            5980            6063     39.3842E-03     41.7538E-03
            5980            6064     44.7035E-03     46.9266E-03
            5981            1014     51.9313E-03     55.1965E-03
            5981            1015     53.5575E-03     54.9880E-03
            5981            6046     43.8773E-03     46.8432E-03
            5981            6064     44.7035E-03     46.9266E-03
            5982             863     12.2052E-03     11.7760E-03
            5982             864     11.9366E-03     11.3696E-03
            5982            6047     11.3416E-03     12.2991E-03
            5982            6065     11.2444E-03     11.8481E-03
            5983            6047     11.3416E-03     12.2991E-03
            5983            6048     10.7786E-03     12.6373E-03
            5983            6065     11.2444E-03     11.8481E-03
            5983            6066     11.3449E-03     12.3958E-03
            5984            6048     10.7786E-03     12.6373E-03
            5984            6049     11.0294E-03     13.3088E-03
            5984            6066     11.3449E-03     12.3958E-03
            5984            6067     11.7885E-03     13.3346E-03
            5985            6049     11.0294E-03     13.3088E-03
            5985            6050     12.1436E-03     14.5487E-03
            5985            6067     11.7885E-03     13.3346E-03
            5985            6068     12.7759E-03     14.5751E-03
            5986            6050     12.1436E-03     14.5487E-03
            5986            6051     13.5598E-03     16.0397E-03
            5986            6068     12.7759E-03     14.5751E-03
            5986            6069     14.1978E-03     16.1047E-03
            5987            6051     13.5598E-03     16.0397E-03
            5987            6052     15.1605E-03     17.6824E-03
            5987            6069     14.1978E-03     16.1047E-03
            5987            6070     15.8021E-03     17.7641E-03
            5988            6052     15.1605E-03     17.6824E-03
            5988            6053     16.8678E-03     19.4088E-03
            5988            6070     15.8021E-03     17.7641E-03
            5988            6071     17.5321E-03     19.5196E-03
            5989            6053     16.8678E-03     19.4088E-03
            5989            6054     18.6317E-03     21.1821E-03
            5989            6071     17.5321E-03     19.5196E-03
            5989            6072     19.3224E-03     21.3220E-03
            5990            6054     18.6317E-03     21.1821E-03
            5990            6055     20.4306E-03     22.9805E-03
            5990            6072     19.3224E-03     21.3220E-03
            5990            6073     21.1519E-03     23.1576E-03
            5991            6055     20.4306E-03     22.9805E-03
            5991            6056     22.2535E-03     24.7979E-03
            5991            6073     21.1519E-03     23.1576E-03
            5991            6074     23.0038E-03     25.0155E-03
            5992            6056     22.2535E-03     24.7979E-03
            5992            6057     24.1015E-03     26.6370E-03
            5992            6074     23.0038E-03     25.0155E-03
            5992            6075     24.8832E-03     26.9003E-03
            5993            6057     24.1015E-03     26.6370E-03
            5993            6058     26.0001E-03     28.5223E-03
            5993            6075     24.8832E-03     26.9003E-03
            5993            6076     26.8008E-03     28.8282E-03
            5994            6058     26.0001E-03     28.5223E-03
            5994            6059     27.9803E-03     30.4901E-03
            5994            6076     26.8008E-03     28.8282E-03
            5994            6077     28.7981E-03     30.8319E-03
            5995            6059     27.9803E-03     30.4901E-03
            5995            6060     30.1372E-03     32.6242E-03
            5995            6077     28.7981E-03     30.8319E-03
            5995            6078     30.9322E-03     32.9771E-03
            5996            6060     30.1372E-03     32.6242E-03
            5996            6061     32.5720E-03     35.0433E-03
            5996            6078     30.9322E-03     32.9771E-03
            5996            6079     33.3270E-03     35.3575E-03
            5997            6061     32.5720E-03     35.0433E-03
            5997            6062     35.5451E-03     37.9679E-03
            5997            6079     33.3270E-03     35.3575E-03
            5997            6080     36.1930E-03     38.1773E-03
            5998            6062     35.5451E-03     37.9679E-03
            5998            6063     39.3842E-03     41.7538E-03
            5998            6080     36.1930E-03     38.1773E-03
            5998            6081     39.7969E-03     41.6633E-03
            5999            6063     39.3842E-03     41.7538E-03
            5999            6064     44.7035E-03     46.9266E-03
            5999            6081     39.7969E-03     41.6633E-03
            5999            6082     45.0397E-03     46.4596E-03
            6000            1015     53.5575E-03     54.9880E-03
            6000            1016     51.9565E-03     52.9223E-03
            6000            6064     44.7035E-03     46.9266E-03
            6000            6082     45.0397E-03     46.4596E-03
            6001             864     11.9366E-03     11.3696E-03
            6001             865     12.3055E-03     11.4902E-03
            6001            6065     11.2444E-03     11.8481E-03
            6001            6083     11.5960E-03     11.8041E-03
            6002            6065     11.2444E-03     11.8481E-03
            6002            6066     11.3449E-03     12.3958E-03
            6002            6083     11.5960E-03     11.8041E-03
            6002            6084     11.6643E-03     12.3481E-03
            6003            6066     11.3449E-03     12.3958E-03
            6003            6067     11.7885E-03     13.3346E-03
            6003            6084     11.6643E-03     12.3481E-03
            6003            6085     12.3496E-03     13.3521E-03
            6004            6067     11.7885E-03     13.3346E-03
            6004            6068     12.7759E-03     14.5751E-03
            6004            6085     12.3496E-03     13.3521E-03
            6004            6086     13.4210E-03     14.6858E-03
            6005            6068     12.7759E-03     14.5751E-03
            6005            6069     14.1978E-03     16.1047E-03
            6005            6086     13.4210E-03     14.6858E-03
            6005            6087     14.8281E-03     16.2122E-03
            6006            6069     14.1978E-03     16.1047E-03
            6006            6070     15.8021E-03     17.7641E-03
            6006            6087     14.8281E-03     16.2122E-03
            6006            6088     16.4687E-03     17.9017E-03
            6007            6070     15.8021E-03     17.7641E-03
            6007            6071     17.5321E-03     19.5196E-03
            6007            6088     16.4687E-03     17.9017E-03
            6007            6089     18.2122E-03     19.6673E-03
            6008            6071     17.5321E-03     19.5196E-03
            6008            6072     19.3224E-03     21.3220E-03
            6008            6089     18.2122E-03     19.6673E-03
            6008            6090     20.0317E-03     21.4947E-03
            6009            6072     19.3224E-03     21.3220E-03
            6009            6073     21.1519E-03     23.1576E-03
            6009            6090     20.0317E-03     21.4947E-03
            6009            6091     21.8852E-03     23.3579E-03
            6010            6073     21.1519E-03     23.1576E-03
            6010            6074     23.0038E-03     25.0155E-03
            6010            6091     21.8852E-03     23.3579E-03
            6010            6092     23.7682E-03     25.2521E-03
            6011            6074     23.0038E-03     25.0155E-03
            6011            6075     24.8832E-03     26.9003E-03
            6011            6092     23.7682E-03     25.2521E-03
            6011            6093     25.6756E-03     27.1778E-03
            6012            6075     24.8832E-03     26.9003E-03
            6012            6076     26.8008E-03     28.8282E-03
            6012            6093     25.6756E-03     27.1778E-03
            6012            6094     27.6167E-03     29.1411E-03
            6013            6076     26.8008E-03     28.8282E-03
            6013            6077     28.7981E-03     30.8319E-03
            6013            6094     27.6167E-03     29.1411E-03
            6013            6095     29.6144E-03     31.1685E-03
            6014            6077     28.7981E-03     30.8319E-03
            6014            6078     30.9322E-03     32.9771E-03
            6014            6095     29.6144E-03     31.1685E-03
            6014            6096     31.7000E-03     33.2828E-03
            6015            6078     30.9322E-03     32.9771E-03
            6015            6079     33.3270E-03     35.3575E-03
            6015            6096     31.7000E-03     33.2828E-03
            6015            6097     33.9716E-03     35.5645E-03
            6016            6079     33.3270E-03     35.3575E-03
            6016            6080     36.1930E-03     38.1773E-03
            6016            6097     33.9716E-03     35.5645E-03
            6016            6098     36.5113E-03     38.0895E-03
            6017            6080     36.1930E-03     38.1773E-03
            6017            6081     39.7969E-03     41.6633E-03
            6017            6098     36.5113E-03     38.0895E-03
            6017            6099     39.7057E-03     41.1049E-03
            6018            6081     39.7969E-03     41.6633E-03
            6018            6082     45.0397E-03     46.4596E-03
            6018            6099     39.7057E-03     41.1049E-03
            6018            6100     43.6868E-03     44.8715E-03
            6019            1016     51.9565E-03     52.9223E-03
            6019            1017     48.6245E-03     49.6546E-03
            6019            6082     45.0397E-03     46.4596E-03
            6019            6100     43.6868E-03     44.8715E-03
            6020             865     12.3055E-03     11.4902E-03
            6020             866     12.7559E-03     11.9492E-03
            6020            6083     11.5960E-03     11.8041E-03
            6020            6101     12.0147E-03     11.9569E-03
            6021            6083     11.5960E-03     11.8041E-03
            6021            6084     11.6643E-03     12.3481E-03
            6021            6101     12.0147E-03     11.9569E-03
            6021            6102     12.1112E-03     12.4465E-03
            6022            6084     11.6643E-03     12.3481E-03
            6022            6085     12.3496E-03     13.3521E-03
            6022            6102     12.1112E-03     12.4465E-03
            6022            6103     12.7848E-03     13.4699E-03
            6023            6085     12.3496E-03     13.3521E-03
            6023            6086     13.4210E-03     14.6858E-03
            6023            6103     12.7848E-03     13.4699E-03
            6023            6104     13.9714E-03     14.8063E-03
            6024            6086     13.4210E-03     14.6858E-03
            6024            6087     14.8281E-03     16.2122E-03
            6024            6104     13.9714E-03     14.8063E-03
            6024            6105     15.4481E-03     16.3677E-03
            6025            6087     14.8281E-03     16.2122E-03
            6025            6088     16.4687E-03     17.9017E-03
            6025            6105     15.4481E-03     16.3677E-03
            6025            6106     17.1045E-03     18.0451E-03
            6026            6088     16.4687E-03     17.9017E-03
            6026            6089     18.2122E-03     19.6673E-03
            6026            6106     17.1045E-03     18.0451E-03
            6026            6107     18.8812E-03     19.8178E-03
            6027            6089     18.2122E-03     19.6673E-03
            6027            6090     20.0317E-03     21.4947E-03
            6027            6107     18.8812E-03     19.8178E-03
            6027            6108     20.7083E-03     21.6473E-03
            6028            6090     20.0317E-03     21.4947E-03
            6028            6091     21.8852E-03     23.3579E-03
            6028            6108     20.7083E-03     21.6473E-03
            6028            6109     22.5790E-03     23.5229E-03
            6029            6091     21.8852E-03     23.3579E-03
            6029            6092     23.7682E-03     25.2521E-03
            6029            6109     22.5790E-03     23.5229E-03
            6029            6110     24.4759E-03     25.4343E-03
            6030            6092     23.7682E-03     25.2521E-03
            6030            6093     25.6756E-03     27.1778E-03
            6030            6110     24.4759E-03     25.4343E-03
            6030            6111     26.3964E-03     27.3771E-03
            6031            6093     25.6756E-03     27.1778E-03
            6031            6094     27.6167E-03     29.1411E-03
            6031            6111     26.3964E-03     27.3771E-03
            6031            6112     28.3435E-03     29.3560E-03
            6032            6094     27.6167E-03     29.1411E-03
            6032            6095     29.6144E-03     31.1685E-03
            6032            6112     28.3435E-03     29.3560E-03
            6032            6113     30.3066E-03     31.3631E-03
            6033            6095     29.6144E-03     31.1685E-03
            6033            6096     31.7000E-03     33.2828E-03
            6033            6113     30.3066E-03     31.3631E-03
            6033            6114     32.3130E-03     33.4142E-03
            6034            6096     31.7000E-03     33.2828E-03
            6034            6097     33.9716E-03     35.5645E-03
            6034            6114     32.3130E-03     33.4142E-03
            6034            6115     34.3299E-03     35.4936E-03
            6035            6097     33.9716E-03     35.5645E-03
            6035            6098     36.5113E-03     38.0895E-03
            6035            6115     34.3299E-03     35.4936E-03
            6035            6116     36.4750E-03     37.6392E-03
            6036            6098     36.5113E-03     38.0895E-03
            6036            6099     39.7057E-03     41.1049E-03
            6036            6116     36.4750E-03     37.6392E-03
            6036            6117     38.7762E-03     39.9239E-03
            6037            6099     39.7057E-03     41.1049E-03
            6037            6100     43.6868E-03     44.8715E-03
            6037            6117     38.7762E-03     39.9239E-03
            6037            6118     41.4603E-03     42.4908E-03
            6038            1017     48.6245E-03     49.6546E-03
            6038            1018     45.1050E-03     45.7906E-03
            6038            6100     43.6868E-03     44.8715E-03
            6038            6118     41.4603E-03     42.4908E-03
            6039             866     12.7559E-03     11.9492E-03
            6039             867     13.4735E-03     12.5077E-03
            6039            6101     12.0147E-03     11.9569E-03
            6039            6119     12.5512E-03     12.3127E-03
            6040            6101     12.0147E-03     11.9569E-03
            6040            6102     12.1112E-03     12.4465E-03
            6040            6119     12.5512E-03     12.3127E-03
            6040            6120     12.5028E-03     12.7065E-03
            6041            6102     12.1112E-03     12.4465E-03
            6041            6103     12.7848E-03     13.4699E-03
            6041            6120     12.5028E-03     12.7065E-03
            6041            6121     13.2352E-03     13.6512E-03
            6042            6103     12.7848E-03     13.4699E-03
            6042            6104     13.9714E-03     14.8063E-03
            6042            6121     13.2352E-03     13.6512E-03
            6042            6122     14.4714E-03     14.9963E-03
            6043            6104     13.9714E-03     14.8063E-03
            6043            6105     15.4481E-03     16.3677E-03
            6043            6122     14.4714E-03     14.9963E-03
            6043            6123     16.0154E-03     16.5223E-03
            6044            6105     15.4481E-03     16.3677E-03
            6044            6106     17.1045E-03     18.0451E-03
            6044            6123     16.0154E-03     16.5223E-03
            6044            6124     17.7188E-03     18.1786E-03
            6045            6106     17.1045E-03     18.0451E-03
            6045            6107     18.8812E-03     19.8178E-03
            6045            6124     17.7188E-03     18.1786E-03
            6045            6125     19.4916E-03     19.9246E-03
            6046            6107     18.8812E-03     19.8178E-03
            6046            6108     20.7083E-03     21.6473E-03
            6046            6125     19.4916E-03     19.9246E-03
            6046            6126     21.3167E-03     21.7347E-03
            6047            6108     20.7083E-03     21.6473E-03
            6047            6109     22.5790E-03     23.5229E-03
            6047            6126     21.3167E-03     21.7347E-03
            6047            6127     23.1733E-03     23.5918E-03
            6048            6109     22.5790E-03     23.5229E-03
            6048            6110     24.4759E-03     25.4343E-03
            6048            6127     23.1733E-03     23.5918E-03
            6048            6128     25.0572E-03     25.4870E-03
            6049            6110     24.4759E-03     25.4343E-03
            6049            6111     26.3964E-03     27.3771E-03
            6049            6128     25.0572E-03     25.4870E-03
            6049            6129     26.9641E-03     27.4147E-03
            6050            6111     26.3964E-03     27.3771E-03
            6050            6112     28.3435E-03     29.3560E-03
            6050            6129     26.9641E-03     27.4147E-03
            6050            6130     28.8752E-03     29.3607E-03
            6051            6112     28.3435E-03     29.3560E-03
            6051            6113     30.3066E-03     31.3631E-03
            6051            6130     28.8752E-03     29.3607E-03
            6051            6131     30.7879E-03     31.3164E-03
            6052            6113     30.3066E-03     31.3631E-03
            6052            6114     32.3130E-03     33.4142E-03
            6052            6131     30.7879E-03     31.3164E-03
            6052            6132     32.6373E-03     33.2394E-03
            6053            6114     32.3130E-03     33.4142E-03
            6053            6115     34.3299E-03     35.4936E-03
            6053            6132     32.6373E-03     33.2394E-03
            6053            6133     34.4201E-03     35.0911E-03
            6054            6115     34.3299E-03     35.4936E-03
            6054            6116     36.4750E-03     37.6392E-03
            6054            6133     34.4201E-03     35.0911E-03
            6054            6134     36.0017E-03     36.7930E-03
            6055            6116     36.4750E-03     37.6392E-03
            6055            6117     38.7762E-03     39.9239E-03
            6055            6134     36.0017E-03     36.7930E-03
            6055            6135     37.4144E-03     38.2788E-03
            6056            6117     38.7762E-03     39.9239E-03
            6056            6118     41.4603E-03     42.4908E-03
            6056            6135     37.4144E-03     38.2788E-03
            6056            6136     38.9485E-03     39.7290E-03
            6057            1018     45.1050E-03     45.7906E-03
            6057            1019     41.1607E-03     41.7842E-03
            6057            6118     41.4603E-03     42.4908E-03
            6057            6136     38.9485E-03     39.7290E-03
            6058             867     13.4735E-03     12.5077E-03
            6058             868     14.1718E-03     13.5846E-03
            6058            6119     12.5512E-03     12.3127E-03
            6058            6137     13.0601E-03     12.9050E-03
            6059            6119     12.5512E-03     12.3127E-03
            6059            6120     12.5028E-03     12.7065E-03
            6059            6137     13.0601E-03     12.9050E-03
            6059            6138     12.9416E-03     13.0568E-03
            6060            6120     12.5028E-03     12.7065E-03
            6060            6121     13.2352E-03     13.6512E-03
            6060            6138     12.9416E-03     13.0568E-03
            6060            6139     13.6699E-03     13.9928E-03
            6061            6121     13.2352E-03     13.6512E-03
            6061            6122     14.4714E-03     14.9963E-03
            6061            6139     13.6699E-03     13.9928E-03
            6061            6140     14.9788E-03     15.2354E-03
            6062            6122     14.4714E-03     14.9963E-03
            6062            6123     16.0154E-03     16.5223E-03
            6062            6140     14.9788E-03     15.2354E-03
            6062            6141     16.5893E-03     16.6783E-03
            6063            6123     16.0154E-03     16.5223E-03
            6063            6124     17.7188E-03     18.1786E-03
            6063            6141     16.5893E-03     16.6783E-03
            6063            6142     18.2919E-03     18.2779E-03
            6064            6124     17.7188E-03     18.1786E-03
            6064            6125     19.4916E-03     19.9246E-03
            6064            6142     18.2919E-03     18.2779E-03
            6064            6143     20.0382E-03     19.9668E-03
            6065            6125     19.4916E-03     19.9246E-03
            6065            6126     21.3167E-03     21.7347E-03
            6065            6143     20.0382E-03     19.9668E-03
            6065            6144     21.8180E-03     21.7196E-03
            6066            6126     21.3167E-03     21.7347E-03
            6066            6127     23.1733E-03     23.5918E-03
            6066            6144     21.8180E-03     21.7196E-03
            6066            6145     23.6253E-03     23.5199E-03
            6067            6127     23.1733E-03     23.5918E-03
            6067            6128     25.0572E-03     25.4870E-03
            6067            6145     23.6253E-03     23.5199E-03
            6067            6146     25.4584E-03     25.3561E-03
            6068            6128     25.0572E-03     25.4870E-03
            6068            6129     26.9641E-03     27.4147E-03
            6068            6146     25.4584E-03     25.3561E-03
            6068            6147     27.3029E-03     27.2160E-03
            6069            6129     26.9641E-03     27.4147E-03
            6069            6130     28.8752E-03     29.3607E-03
            6069            6147     27.3029E-03     27.2160E-03
            6069            6148     29.1496E-03     29.0848E-03
            6070            6130     28.8752E-03     29.3607E-03
            6070            6131     30.7879E-03     31.3164E-03
            6070            6148     29.1496E-03     29.0848E-03
            6070            6149     30.9473E-03     30.9266E-03
            6071            6131     30.7879E-03     31.3164E-03
            6071            6132     32.6373E-03     33.2394E-03
            6071            6149     30.9473E-03     30.9266E-03
            6071            6150     32.6594E-03     32.6938E-03
            6072            6132     32.6373E-03     33.2394E-03
            6072            6133     34.4201E-03     35.0911E-03
            6072            6150     32.6594E-03     32.6938E-03
            6072            6151     34.1447E-03     34.2882E-03
            6073            6133     34.4201E-03     35.0911E-03
            6073            6134     36.0017E-03     36.7930E-03
            6073            6151     34.1447E-03     34.2882E-03
            6073            6152     35.3012E-03     35.5802E-03
            6074            6134     36.0017E-03     36.7930E-03
            6074            6135     37.4144E-03     38.2788E-03
            6074            6152     35.3012E-03     35.5802E-03
            6074            6153     35.9215E-03     36.3982E-03
            6075            6135     37.4144E-03     38.2788E-03
            6075            6136     38.9485E-03     39.7290E-03
            6075            6153     35.9215E-03     36.3982E-03
            6075            6154     36.1718E-03     36.7845E-03
            6076            1019     41.1607E-03     41.7842E-03
            6076            1020     37.1451E-03     37.5281E-03
            6076            6136     38.9485E-03     39.7290E-03
            6076            6154     36.1718E-03     36.7845E-03
            6077             868     14.1718E-03     13.5846E-03
            6077             869     14.9923E-03     14.3181E-03
            6077            6137     13.0601E-03     12.9050E-03
            6077            6155     13.6853E-03     13.5071E-03
            6078            6137     13.0601E-03     12.9050E-03
            6078            6138     12.9416E-03     13.0568E-03
            6078            6155     13.6853E-03     13.5071E-03
            6078            6156     13.3851E-03     13.7537E-03
            6079            6138     12.9416E-03     13.0568E-03
            6079            6139     13.6699E-03     13.9928E-03
            6079            6156     13.3851E-03     13.7537E-03
            6079            6157     14.1396E-03     14.4689E-03
            6080            6139     13.6699E-03     13.9928E-03
            6080            6140     14.9788E-03     15.2354E-03
            6080            6157     14.1396E-03     14.4689E-03
            6080            6158     15.5991E-03     15.5036E-03
            6081            6140     14.9788E-03     15.2354E-03
            6081            6141     16.5893E-03     16.6783E-03
            6081            6158     15.5991E-03     15.5036E-03
            6081            6159     17.2076E-03     16.8478E-03
            6082            6141     16.5893E-03     16.6783E-03
            6082            6142     18.2919E-03     18.2779E-03
            6082            6159     17.2076E-03     16.8478E-03
            6082            6160     18.8433E-03     18.3467E-03
            6083            6142     18.2919E-03     18.2779E-03
            6083            6143     20.0382E-03     19.9668E-03
            6083            6160     18.8433E-03     18.3467E-03
            6083            6161     20.5133E-03     19.9408E-03
            6084            6143     20.0382E-03     19.9668E-03
            6084            6144     21.8180E-03     21.7196E-03
            6084            6161     20.5133E-03     19.9408E-03
            6084            6162     22.2012E-03     21.5958E-03
            6085            6144     21.8180E-03     21.7196E-03
            6085            6145     23.6253E-03     23.5199E-03
            6085            6162     22.2012E-03     21.5958E-03
            6085            6163     23.9162E-03     23.2921E-03
            6086            6145     23.6253E-03     23.5199E-03
            6086            6146     25.4584E-03     25.3561E-03
            6086            6163     23.9162E-03     23.2921E-03
            6086            6164     25.6468E-03     25.0169E-03
            6087            6146     25.4584E-03     25.3561E-03
            6087            6147     27.3029E-03     27.2160E-03
            6087            6164     25.6468E-03     25.0169E-03
            6087            6165     27.3862E-03     26.7536E-03
            6088            6147     27.3029E-03     27.2160E-03
            6088            6148     29.1496E-03     29.0848E-03
            6088            6165     27.3862E-03     26.7536E-03
            6088            6166     29.1030E-03     28.4787E-03
            6089            6148     29.1496E-03     29.0848E-03
            6089            6149     30.9473E-03     30.9266E-03
            6089            6166     29.1030E-03     28.4787E-03
            6089            6167     30.7632E-03     30.1523E-03
            6090            6149     30.9473E-03     30.9266E-03
            6090            6150     32.6594E-03     32.6938E-03
            6090            6167     30.7632E-03     30.1523E-03
            6090            6168     32.2788E-03     31.7083E-03
            6091            6150     32.6594E-03     32.6938E-03
            6091            6151     34.1447E-03     34.2882E-03
            6091            6168     32.2788E-03     31.7083E-03
            6091            6169     33.5419E-03     33.0399E-03
            6092            6151     34.1447E-03     34.2882E-03
            6092            6152     35.3012E-03     35.5802E-03
            6092            6169     33.5419E-03     33.0399E-03
            6092            6170     34.3439E-03     33.9763E-03
            6093            6152     35.3012E-03     35.5802E-03
            6093            6153     35.9215E-03     36.3982E-03
            6093            6170     34.3439E-03     33.9763E-03
            6093            6171     34.4694E-03     34.3278E-03
            6094            6153     35.9215E-03     36.3982E-03
            6094            6154     36.1718E-03     36.7845E-03
            6094            6171     34.4694E-03     34.3278E-03
            6094            6172     33.6183E-03     33.8024E-03
            6095            1020     37.1451E-03     37.5281E-03
            6095            1021     32.8447E-03     33.1335E-03
            6095            6154     36.1718E-03     36.7845E-03
            6095            6172     33.6183E-03     33.8024E-03
            6096             869     14.9923E-03     14.3181E-03
            6096             870     16.1693E-03     16.1833E-03
            6096            6155     13.6853E-03     13.5071E-03
            6096            6173     14.2461E-03     14.9593E-03
            6097            6155     13.6853E-03     13.5071E-03
            6097            6156     13.3851E-03     13.7537E-03
            6097            6173     14.2461E-03     14.9593E-03
            6097            6174     13.7576E-03     14.6823E-03
            6098            6156     13.3851E-03     13.7537E-03
            6098            6157     14.1396E-03     14.4689E-03
            6098            6174     13.7576E-03     14.6823E-03
            6098            6175     14.9339E-03     14.9467E-03
            6099            6157     14.1396E-03     14.4689E-03
            6099            6158     15.5991E-03     15.5036E-03
            6099            6175     14.9339E-03     14.9467E-03
            6099            6176     16.4110E-03     15.8374E-03
            6100            6158     15.5991E-03     15.5036E-03
            6100            6159     17.2076E-03     16.8478E-03
            6100            6176     16.4110E-03     15.8374E-03
            6100            6177     17.8812E-03     17.0480E-03
            6101            6159     17.2076E-03     16.8478E-03
            6101            6160     18.8433E-03     18.3467E-03
            6101            6177     17.8812E-03     17.0480E-03
            6101            6178     19.3957E-03     18.4165E-03
            6102            6160     18.8433E-03     18.3467E-03
            6102            6161     20.5133E-03     19.9408E-03
            6102            6178     19.3957E-03     18.4165E-03
            6102            6179     20.9244E-03     19.8764E-03
            6103            6161     20.5133E-03     19.9408E-03
            6103            6162     22.2012E-03     21.5958E-03
            6103            6179     20.9244E-03     19.8764E-03
            6103            6180     22.4836E-03     21.3907E-03
            6104            6162     22.2012E-03     21.5958E-03
            6104            6163     23.9162E-03     23.2921E-03
            6104            6180     22.4836E-03     21.3907E-03
            6104            6181     24.0585E-03     22.9372E-03
            6105            6163     23.9162E-03     23.2921E-03
            6105            6164     25.6468E-03     25.0169E-03
            6105            6181     24.0585E-03     22.9372E-03
            6105            6182     25.6434E-03     24.4964E-03
            6106            6164     25.6468E-03     25.0169E-03
            6106            6165     27.3862E-03     26.7536E-03
            6106            6182     25.6434E-03     24.4964E-03
            6106            6183     27.2172E-03     26.0490E-03
            6107            6165     27.3862E-03     26.7536E-03
            6107            6166     29.1030E-03     28.4787E-03
            6107            6183     27.2172E-03     26.0490E-03
            6107            6184     28.7535E-03     27.5614E-03
            6108            6166     29.1030E-03     28.4787E-03
            6108            6167     30.7632E-03     30.1523E-03
            6108            6184     28.7535E-03     27.5614E-03
            6108            6185     30.2051E-03     28.9947E-03
            6109            6167     30.7632E-03     30.1523E-03
            6109            6168     32.2788E-03     31.7083E-03
            6109            6185     30.2051E-03     28.9947E-03
            6109            6186     31.4959E-03     30.2718E-03
            6110            6168     32.2788E-03     31.7083E-03
            6110            6169     33.5419E-03     33.0399E-03
            6110            6186     31.4959E-03     30.2718E-03
            6110            6187     32.5200E-03     31.2977E-03
            6111            6169     33.5419E-03     33.0399E-03
            6111            6170     34.3439E-03     33.9763E-03
            6111            6187     32.5200E-03     31.2977E-03
            6111            6188     33.0764E-03     31.9071E-03
            6112            6170     34.3439E-03     33.9763E-03
            6112            6171     34.4694E-03     34.3278E-03
            6112            6188     33.0764E-03     31.9071E-03
            6112            6189     32.9292E-03     31.8729E-03
            6113            6171     34.4694E-03     34.3278E-03
            6113            6172     33.6183E-03     33.8024E-03
            6113            6189     32.9292E-03     31.8729E-03
            6113            6190     31.6869E-03     30.9394E-03
            6114            1021     32.8447E-03     33.1335E-03
            6114            1022     29.0329E-03     28.7993E-03
            6114            6172     33.6183E-03     33.8024E-03
            6114            6190     31.6869E-03     30.9394E-03
            6115             870     16.1693E-03     16.1833E-03
            6115             871     15.9808E-03     18.9263E-03
            6115            6173     14.2461E-03     14.9593E-03
            6115            6191     14.3922E-03     16.6074E-03
            6116            6173     14.2461E-03     14.9593E-03
            6116            6174     13.7576E-03     14.6823E-03
            6116            6191     14.3922E-03     16.6074E-03
            6116            6192     14.9497E-03     15.3107E-03
            6117            6174     13.7576E-03     14.6823E-03
            6117            6175     14.9339E-03     14.9467E-03
            6117            6192     14.9497E-03     15.3107E-03
            6117            6193     16.1741E-03     15.4700E-03
            6118            6175     14.9339E-03     14.9467E-03
            6118            6176     16.4110E-03     15.8374E-03
            6118            6193     16.1741E-03     15.4700E-03
            6118            6194     17.3620E-03     16.2610E-03
            6119            6176     16.4110E-03     15.8374E-03
            6119            6177     17.8812E-03     17.0480E-03
            6119            6194     17.3620E-03     16.2610E-03
            6119            6195     18.6194E-03     17.3268E-03
            6120            6177     17.8812E-03     17.0480E-03
            6120            6178     19.3957E-03     18.4165E-03
            6120            6195     18.6194E-03     17.3268E-03
            6120            6196     19.9387E-03     18.5340E-03
            6121            6178     19.3957E-03     18.4165E-03
            6121            6179     20.9244E-03     19.8764E-03
            6121            6196     19.9387E-03     18.5340E-03
            6121            6197     21.3067E-03     19.8310E-03
            6122            6179     20.9244E-03     19.8764E-03
            6122            6180     22.4836E-03     21.3907E-03
            6122            6197     21.3067E-03     19.8310E-03
            6122            6198     22.7056E-03     21.1715E-03
            6123            6180     22.4836E-03     21.3907E-03
            6123            6181     24.0585E-03     22.9372E-03
            6123            6198     22.7056E-03     21.1715E-03
            6123            6199     24.1160E-03     22.5320E-03
            6124            6181     24.0585E-03     22.9372E-03
            6124            6182     25.6434E-03     24.4964E-03
            6124            6199     24.1160E-03     22.5320E-03
            6124            6200     25.5164E-03     23.8848E-03
            6125            6182     25.6434E-03     24.4964E-03
            6125            6183     27.2172E-03     26.0490E-03
            6125            6200     25.5164E-03     23.8848E-03
            6125            6201     26.8800E-03     25.1971E-03
            6126            6183     27.2172E-03     26.0490E-03
            6126            6184     28.7535E-03     27.5614E-03
            6126            6201     26.8800E-03     25.1971E-03
            6126            6202     28.1743E-03     26.4385E-03
            6127            6184     28.7535E-03     27.5614E-03
            6127            6185     30.2051E-03     28.9947E-03
            6127            6202     28.1743E-03     26.4385E-03
            6127            6203     29.3480E-03     27.5467E-03
            6128            6185     30.2051E-03     28.9947E-03
            6128            6186     31.4959E-03     30.2718E-03
            6128            6203     29.3480E-03     27.5467E-03
            6128            6204     30.3474E-03     28.4725E-03
            6129            6186     31.4959E-03     30.2718E-03
            6129            6187     32.5200E-03     31.2977E-03
            6129            6204     30.3474E-03     28.4725E-03
            6129            6205     31.0566E-03     29.0954E-03
            6130            6187     32.5200E-03     31.2977E-03
            6130            6188     33.0764E-03     31.9071E-03
            6130            6205     31.0566E-03     29.0954E-03
            6130            6206     31.3922E-03     29.3262E-03
            6131            6188     33.0764E-03     31.9071E-03
            6131            6189     32.9292E-03     31.8729E-03
            6131            6206     31.3922E-03     29.3262E-03
            6131            6207     31.0635E-03     28.9241E-03
            6132            6189     32.9292E-03     31.8729E-03
            6132            6190     31.6869E-03     30.9394E-03
            6132            6207     31.0635E-03     28.9241E-03
            6132            6208     29.9734E-03     27.7816E-03
            6133            1022     29.0329E-03     28.7993E-03
            6133            1023     27.1390E-03     25.2667E-03
            6133            6190     31.6869E-03     30.9394E-03
            6133            6208     29.9734E-03     27.7816E-03
            6134             871     15.9808E-03     18.9263E-03
            6134             872     11.8227E-03     15.0783E-03
            6134            6191     14.3922E-03     16.6074E-03
            6134            6209     9.05013E-03     12.2721E-03
            6135            6191     14.3922E-03     16.6074E-03
            6135            6192     14.9497E-03     15.3107E-03
            6135            6209     9.05013E-03     12.2721E-03
            6135            6210     9.51026E-03     10.5123E-03
            6136            6192     14.9497E-03     15.3107E-03
            6136            6193     16.1741E-03     15.4700E-03
            6136            6210     9.51026E-03     10.5123E-03
            6136            6211     9.88450E-03     10.6224E-03
            6137            6193     16.1741E-03     15.4700E-03
            6137            6194     17.3620E-03     16.2610E-03
            6137            6211     9.88450E-03     10.6224E-03
            6137            6212     10.2699E-03     11.1462E-03
            6138            6194     17.3620E-03     16.2610E-03
            6138            6195     18.6194E-03     17.3268E-03
            6138            6212     10.2699E-03     11.1462E-03
            6138            6213     10.8900E-03     11.8202E-03
            6139            6195     18.6194E-03     17.3268E-03
            6139            6196     19.9387E-03     18.5340E-03
            6139            6213     10.8900E-03     11.8202E-03
            6139            6214     11.5452E-03     12.5669E-03
            6140            6196     19.9387E-03     18.5340E-03
            6140            6197     21.3067E-03     19.8310E-03
            6140            6214     11.5452E-03     12.5669E-03
            6140            6215     12.2780E-03     13.3595E-03
            6141            6197     21.3067E-03     19.8310E-03
            6141            6198     22.7056E-03     21.1715E-03
            6141            6215     12.2780E-03     13.3595E-03
            6141            6216     13.0357E-03     14.1684E-03
            6142            6198     22.7056E-03     21.1715E-03
            6142            6199     24.1160E-03     22.5320E-03
            6142            6216     13.0357E-03     14.1684E-03
            6142            6217     13.8196E-03     14.9853E-03
            6143            6199     24.1160E-03     22.5320E-03
            6143            6200     25.5164E-03     23.8848E-03
            6143            6217     13.8196E-03     14.9853E-03
            6143            6218     14.6014E-03     15.7922E-03
            6144            6200     25.5164E-03     23.8848E-03
            6144            6201     26.8800E-03     25.1971E-03
            6144            6218     14.6014E-03     15.7922E-03
            6144            6219     15.3734E-03     16.5727E-03
            6145            6201     26.8800E-03     25.1971E-03
            6145            6202     28.1743E-03     26.4385E-03
            6145            6219     15.3734E-03     16.5727E-03
            6145            6220     16.1037E-03     17.3041E-03
            6146            6202     28.1743E-03     26.4385E-03
            6146            6203     29.3480E-03     27.5467E-03
            6146            6220     16.1037E-03     17.3041E-03
            6146            6221     16.7828E-03     17.9634E-03
            6147            6203     29.3480E-03     27.5467E-03
            6147            6204     30.3474E-03     28.4725E-03
            6147            6221     16.7828E-03     17.9634E-03
            6147            6222     17.3580E-03     18.5104E-03
            6148            6204     30.3474E-03     28.4725E-03
            6148            6205     31.0566E-03     29.0954E-03
            6148            6222     17.3580E-03     18.5104E-03
            6148            6223     17.8191E-03     18.9066E-03
            6149            6205     31.0566E-03     29.0954E-03
            6149            6206     31.3922E-03     29.3262E-03
            6149            6223     17.8191E-03     18.9066E-03
            6149            6224     18.0639E-03     19.0767E-03
            6150            6206     31.3922E-03     29.3262E-03
            6150            6207     31.0635E-03     28.9241E-03
            6150            6224     18.0639E-03     19.0767E-03
            6150            6225     18.0569E-03     18.9484E-03
            6151            6207     31.0635E-03     28.9241E-03
            6151            6208     29.9734E-03     27.7816E-03
            6151            6225     18.0569E-03     18.9484E-03
            6151            6226     17.7184E-03     18.4623E-03
            6152            1023     27.1390E-03     25.2667E-03
            6152            1024     17.1157E-03     18.0309E-03
            6152            6208     29.9734E-03     27.7816E-03
            6152            6226     17.7184E-03     18.4623E-03
            6153             872     11.8227E-03     15.0783E-03
            6153             873     9.09854E-03     9.22846E-03
            6153            6209     9.05013E-03     12.2721E-03
            6153            6227     4.82824E-03     6.42458E-03
            6154            6209     9.05013E-03     12.2721E-03
            6154            6210     9.51026E-03     10.5123E-03
            6154            6227     4.82824E-03     6.42458E-03
            6154            6228     3.17107E-03     4.94927E-03
            6155            6210     9.51026E-03     10.5123E-03
            6155            6211     9.88450E-03     10.6224E-03
            6155            6228     3.17107E-03     4.94927E-03
            6155            6229     3.00947E-03     4.87257E-03
            6156            6211     9.88450E-03     10.6224E-03
            6156            6212     10.2699E-03     11.1462E-03
            6156            6229     3.00947E-03     4.87257E-03
            6156            6230     3.06715E-03     5.17440E-03
            6157            6212     10.2699E-03     11.1462E-03
            6157            6213     10.8900E-03     11.8202E-03
            6157            6230     3.06715E-03     5.17440E-03
            6157            6231     3.22458E-03     5.54190E-03
            6158            6213     10.8900E-03     11.8202E-03
            6158            6214     11.5452E-03     12.5669E-03
            6158            6231     3.22458E-03     5.54190E-03
            6158            6232     3.41888E-03     5.89712E-03
            6159            6214     11.5452E-03     12.5669E-03
            6159            6215     12.2780E-03     13.3595E-03
            6159            6232     3.41888E-03     5.89712E-03
            6159            6233     3.64441E-03     6.25155E-03
            6160            6215     12.2780E-03     13.3595E-03
            6160            6216     13.0357E-03     14.1684E-03
            6160            6233     3.64441E-03     6.25155E-03
            6160            6234     3.89232E-03     6.60868E-03
            6161            6216     13.0357E-03     14.1684E-03
            6161            6217     13.8196E-03     14.9853E-03
            6161            6234     3.89232E-03     6.60868E-03
            6161            6235     4.16730E-03     6.96947E-03
            6162            6217     13.8196E-03     14.9853E-03
            6162            6218     14.6014E-03     15.7922E-03
            6162            6235     4.16730E-03     6.96947E-03
            6162            6236     4.45919E-03     7.33246E-03
            6163            6218     14.6014E-03     15.7922E-03
            6163            6219     15.3734E-03     16.5727E-03
            6163            6236     4.45919E-03     7.33246E-03
            6163            6237     4.77300E-03     7.70262E-03
            6164            6219     15.3734E-03     16.5727E-03
            6164            6220     16.1037E-03     17.3041E-03
            6164            6237     4.77300E-03     7.70262E-03
            6164            6238     5.09437E-03     8.07037E-03
            6165            6220     16.1037E-03     17.3041E-03
            6165            6221     16.7828E-03     17.9634E-03
            6165            6238     5.09437E-03     8.07037E-03
            6165            6239     5.44115E-03     8.45178E-03
            6166            6221     16.7828E-03     17.9634E-03
            6166            6222     17.3580E-03     18.5104E-03
            6166            6239     5.44115E-03     8.45178E-03
            6166            6240     5.77986E-03     8.81997E-03
            6167            6222     17.3580E-03     18.5104E-03
            6167            6223     17.8191E-03     18.9066E-03
            6167            6240     5.77986E-03     8.81997E-03
            6167            6241     6.16478E-03     9.21522E-03
            6168            6223     17.8191E-03     18.9066E-03
            6168            6224     18.0639E-03     19.0767E-03
            6168            6241     6.16478E-03     9.21522E-03
            6168            6242     6.48647E-03     9.56510E-03
            6169            6224     18.0639E-03     19.0767E-03
            6169            6225     18.0569E-03     18.9484E-03
            6169            6242     6.48647E-03     9.56510E-03
            6169            6243     6.92338E-03     9.93885E-03
            6170            6225     18.0569E-03     18.9484E-03
            6170            6226     17.7184E-03     18.4623E-03
            6170            6243     6.92338E-03     9.93885E-03
            6170            6244     7.25455E-03     10.2812E-03
            6171            1024     17.1157E-03     18.0309E-03
            6171            1025     8.18245E-03     11.5106E-03
            6171            6226     17.7184E-03     18.4623E-03
            6171            6244     7.25455E-03     10.2812E-03
            6172             873     9.09854E-03     9.22846E-03
            6172             874     9.85745E-03     8.05713E-03
            6172            6227     4.82824E-03     6.42458E-03
            6172            6245     6.14927E-03     5.26276E-03
            6173            6227     4.82824E-03     6.42458E-03
            6173            6228     3.17107E-03     4.94927E-03
            6173            6245     6.14927E-03     5.26276E-03
            6173            6246     3.85951E-03     4.12287E-03
            6174            6228     3.17107E-03     4.94927E-03
            6174            6229     3.00947E-03     4.87257E-03
            6174            6246     3.85951E-03     4.12287E-03
            6174            6247     3.77812E-03     3.92870E-03
            6175            6229     3.00947E-03     4.87257E-03
            6175            6230     3.06715E-03     5.17440E-03
            6175            6247     3.77812E-03     3.92870E-03
            6175            6248     4.08506E-03     4.18143E-03
            6176            6230     3.06715E-03     5.17440E-03
            6176            6231     3.22458E-03     5.54190E-03
            6176            6248     4.08506E-03     4.18143E-03
            6176            6249     4.34284E-03     4.47561E-03
            6177            6231     3.22458E-03     5.54190E-03
            6177            6232     3.41888E-03     5.89712E-03
            6177            6249     4.34284E-03     4.47561E-03
            6177            6250     4.63590E-03     4.77496E-03
            6178            6232     3.41888E-03     5.89712E-03
            6178            6233     3.64441E-03     6.25155E-03
            6178            6250     4.63590E-03     4.77496E-03
            6178            6251     4.93055E-03     5.06816E-03
            6179            6233     3.64441E-03     6.25155E-03
            6179            6234     3.89232E-03     6.60868E-03
            6179            6251     4.93055E-03     5.06816E-03
            6179            6252     5.24234E-03     5.38438E-03
            6180            6234     3.89232E-03     6.60868E-03
            6180            6235     4.16730E-03     6.96947E-03
            6180            6252     5.24234E-03     5.38438E-03
            6180            6253     5.56259E-03     5.70533E-03
            6181            6235     4.16730E-03     6.96947E-03
            6181            6236     4.45919E-03     7.33246E-03
            6181            6253     5.56259E-03     5.70533E-03
            6181            6254     5.89606E-03     6.04024E-03
            6182            6236     4.45919E-03     7.33246E-03
            6182            6237     4.77300E-03     7.70262E-03
            6182            6254     5.89606E-03     6.04024E-03
            6182            6255     6.23483E-03     6.37958E-03
            6183            6237     4.77300E-03     7.70262E-03
            6183            6238     5.09437E-03     8.07037E-03
            6183            6255     6.23483E-03     6.37958E-03
            6183            6256     6.58490E-03     6.73005E-03
            6184            6238     5.09437E-03     8.07037E-03
            6184            6239     5.44115E-03     8.45178E-03
            6184            6256     6.58490E-03     6.73005E-03
            6184            6257     6.93566E-03     7.08047E-03
            6185            6239     5.44115E-03     8.45178E-03
            6185            6240     5.77986E-03     8.81997E-03
            6185            6257     6.93566E-03     7.08047E-03
            6185            6258     7.30137E-03     7.44633E-03
            6186            6240     5.77986E-03     8.81997E-03
            6186            6241     6.16478E-03     9.21522E-03
            6186            6258     7.30137E-03     7.44633E-03
            6186            6259     7.66461E-03     7.80618E-03
            6187            6241     6.16478E-03     9.21522E-03
            6187            6242     6.48647E-03     9.56510E-03
            6187            6259     7.66461E-03     7.80618E-03
            6187            6260     8.07758E-03     8.21382E-03
            6188            6242     6.48647E-03     9.56510E-03
            6188            6243     6.92338E-03     9.93885E-03
            6188            6260     8.07758E-03     8.21382E-03
            6188            6261     8.48974E-03     8.65568E-03
            6189            6243     6.92338E-03     9.93885E-03
            6189            6244     7.25455E-03     10.2812E-03
            6189            6261     8.48974E-03     8.65568E-03
            6189            6262     9.16217E-03     9.17733E-03
            6190            1025     8.18245E-03     11.5106E-03
            6190            1026     9.42214E-03     9.58785E-03
            6190            6244     7.25455E-03     10.2812E-03
            6190            6262     9.16217E-03     9.17733E-03
            6191             874     9.85745E-03     8.05713E-03
            6191             875     9.09245E-03     9.28326E-03
            6191            6245     6.14927E-03     5.26276E-03
            6191            6263     5.75479E-03     5.92065E-03
            6192            6245     6.14927E-03     5.26276E-03
            6192            6246     3.85951E-03     4.12287E-03
            6192            6263     5.75479E-03     5.92065E-03
            6192            6264     5.07009E-03     4.08993E-03
            6193            6246     3.85951E-03     4.12287E-03
            6193            6247     3.77812E-03     3.92870E-03
            6193            6264     5.07009E-03     4.08993E-03
            6193            6265     5.21553E-03     3.73382E-03
            6194            6247     3.77812E-03     3.92870E-03
            6194            6248     4.08506E-03     4.18143E-03
            6194            6265     5.21553E-03     3.73382E-03
            6194            6266     5.43973E-03     3.72346E-03
            6195            6248     4.08506E-03     4.18143E-03
            6195            6249     4.34284E-03     4.47561E-03
            6195            6266     5.43973E-03     3.72346E-03
            6195            6267     5.75071E-03     3.84892E-03
            6196            6249     4.34284E-03     4.47561E-03
            6196            6250     4.63590E-03     4.77496E-03
            6196            6267     5.75071E-03     3.84892E-03
            6196            6268     6.05309E-03     3.99935E-03
            6197            6250     4.63590E-03     4.77496E-03
            6197            6251     4.93055E-03     5.06816E-03
            6197            6268     6.05309E-03     3.99935E-03
            6197            6269     6.38437E-03     4.20264E-03
            6198            6251     4.93055E-03     5.06816E-03
            6198            6252     5.24234E-03     5.38438E-03
            6198            6269     6.38437E-03     4.20264E-03
            6198            6270     6.71726E-03     4.42211E-03
            6199            6252     5.24234E-03     5.38438E-03
            6199            6253     5.56259E-03     5.70533E-03
            6199            6270     6.71726E-03     4.42211E-03
            6199            6271     7.06134E-03     4.67417E-03
            6200            6253     5.56259E-03     5.70533E-03
            6200            6254     5.89606E-03     6.04024E-03
            6200            6271     7.06134E-03     4.67417E-03
            6200            6272     7.40881E-03     4.94182E-03
            6201            6254     5.89606E-03     6.04024E-03
            6201            6255     6.23483E-03     6.37958E-03
            6201            6272     7.40881E-03     4.94182E-03
            6201            6273     7.76077E-03     5.22832E-03
            6202            6255     6.23483E-03     6.37958E-03
            6202            6256     6.58490E-03     6.73005E-03
            6202            6273     7.76077E-03     5.22832E-03
            6202            6274     8.11659E-03     5.52596E-03
            6203            6256     6.58490E-03     6.73005E-03
            6203            6257     6.93566E-03     7.08047E-03
            6203            6274     8.11659E-03     5.52596E-03
            6203            6275     8.47055E-03     5.83318E-03
            6204            6257     6.93566E-03     7.08047E-03
            6204            6258     7.30137E-03     7.44633E-03
            6204            6275     8.47055E-03     5.83318E-03
            6204            6276     8.83199E-03     6.14882E-03
            6205            6258     7.30137E-03     7.44633E-03
            6205            6259     7.66461E-03     7.80618E-03
            6205            6276     8.83199E-03     6.14882E-03
            6205            6277     9.18711E-03     6.47166E-03
            6206            6259     7.66461E-03     7.80618E-03
            6206            6260     8.07758E-03     8.21382E-03
            6206            6277     9.18711E-03     6.47166E-03
            6206            6278     9.59270E-03     6.82095E-03
            6207            6260     8.07758E-03     8.21382E-03
            6207            6261     8.48974E-03     8.65568E-03
            6207            6278     9.59270E-03     6.82095E-03
            6207            6279     9.97152E-03     7.20536E-03
            6208            6261     8.48974E-03     8.65568E-03
            6208            6262     9.16217E-03     9.17733E-03
            6208            6279     9.97152E-03     7.20536E-03
            6208            6280     10.4831E-03     7.53757E-03
            6209            1026     9.42214E-03     9.58785E-03
            6209            1027     9.71602E-03     6.87277E-03
            6209            6262     9.16217E-03     9.17733E-03
            6209            6280     10.4831E-03     7.53757E-03
            6210              37     4.34063E-03     5.37776E-03
            6210             875     9.09245E-03     9.28326E-03
            6210             894     2.79196E-03     3.54077E-03
            6210            6263     5.75479E-03     5.92065E-03
            6211             894     2.79196E-03     3.54077E-03
            6211             895     3.02799E-03     2.38215E-03
            6211            6263     5.75479E-03     5.92065E-03
            6211            6264     5.07009E-03     4.08993E-03
            6212             895     3.02799E-03     2.38215E-03
            6212             896     3.19285E-03     2.12565E-03
            6212            6264     5.07009E-03     4.08993E-03
            6212            6265     5.21553E-03     3.73382E-03
            6213             896     3.19285E-03     2.12565E-03
            6213             897     3.27884E-03     2.03425E-03
            6213            6265     5.21553E-03     3.73382E-03
            6213            6266     5.43973E-03     3.72346E-03
            6214             897     3.27884E-03     2.03425E-03
            6214             898     3.43324E-03     2.04690E-03
            6214            6266     5.43973E-03     3.72346E-03
            6214            6267     5.75071E-03     3.84892E-03
            6215             898     3.43324E-03     2.04690E-03
            6215             899     3.59128E-03     2.07781E-03
            6215            6267     5.75071E-03     3.84892E-03
            6215            6268     6.05309E-03     3.99935E-03
            6216             899     3.59128E-03     2.07781E-03
            6216             900     3.76275E-03     2.15376E-03
            6216            6268     6.05309E-03     3.99935E-03
            6216            6269     6.38437E-03     4.20264E-03
            6217             900     3.76275E-03     2.15376E-03
            6217             901     3.93598E-03     2.23673E-03
            6217            6269     6.38437E-03     4.20264E-03
            6217            6270     6.71726E-03     4.42211E-03
            6218             901     3.93598E-03     2.23673E-03
            6218             902     4.11506E-03     2.34495E-03
            6218            6270     6.71726E-03     4.42211E-03
            6218            6271     7.06134E-03     4.67417E-03
            6219             902     4.11506E-03     2.34495E-03
            6219             903     4.29375E-03     2.45998E-03
            6219            6271     7.06134E-03     4.67417E-03
            6219            6272     7.40881E-03     4.94182E-03
            6220             903     4.29375E-03     2.45998E-03
            6220             904     4.47811E-03     2.59371E-03
            6220            6272     7.40881E-03     4.94182E-03
            6220            6273     7.76077E-03     5.22832E-03
            6221             904     4.47811E-03     2.59371E-03
            6221             905     4.65669E-03     2.72541E-03
            6221            6273     7.76077E-03     5.22832E-03
            6221            6274     8.11659E-03     5.52596E-03
            6222             905     4.65669E-03     2.72541E-03
            6222             906     4.84588E-03     2.87868E-03
            6222            6274     8.11659E-03     5.52596E-03
            6222            6275     8.47055E-03     5.83318E-03
            6223             906     4.84588E-03     2.87868E-03
            6223             907     5.01622E-03     3.01060E-03
            6223            6275     8.47055E-03     5.83318E-03
            6223            6276     8.83199E-03     6.14882E-03
            6224             907     5.01622E-03     3.01060E-03
            6224             908     5.21720E-03     3.18628E-03
            6224            6276     8.83199E-03     6.14882E-03
            6224            6277     9.18711E-03     6.47166E-03
            6225             908     5.21720E-03     3.18628E-03
            6225             909     5.36799E-03     3.30566E-03
            6225            6277     9.18711E-03     6.47166E-03
            6225            6278     9.59270E-03     6.82095E-03
            6226             909     5.36799E-03     3.30566E-03
            6226             910     5.62154E-03     3.47982E-03
            6226            6278     9.59270E-03     6.82095E-03
            6226            6279     9.97152E-03     7.20536E-03
            6227             910     5.62154E-03     3.47982E-03
            6227             911     5.61111E-03     3.47923E-03
            6227            6279     9.97152E-03     7.20536E-03
            6227            6280     10.4831E-03     7.53757E-03
            6228              38     5.05451E-03     2.99604E-03
            6228             911     5.61111E-03     3.47923E-03
            6228            1027     9.71602E-03     6.87277E-03
            6228            6280     10.4831E-03     7.53757E-03
            6509              13     3.42577E-03     6.13065E-03
            6509             201     998.947E-06     1.01684E-03
            6509             823     4.77812E-03     5.36179E-03
            6509            6519     768.150E-06     817.718E-06
            6510              36     7.63258E-03     6.40903E-03
            6510             823     4.77812E-03     5.36179E-03
            6510             993     581.500E-06     638.711E-06
            6510            6519     768.150E-06     817.718E-06
            6511             201     998.947E-06     1.01684E-03
            6511             202     785.347E-06     756.786E-06
            6511            6519     768.150E-06     817.718E-06
            6511            6520     656.994E-06     661.782E-06
            6512             992     577.945E-06     603.394E-06
            6512             993     581.500E-06     638.711E-06
            6512            6519     768.150E-06     817.718E-06
            6512            6520     656.994E-06     661.782E-06
            6513             202     785.347E-06     756.786E-06
            6513             203     535.894E-06     571.897E-06
            6513            6520     656.994E-06     661.782E-06
            6513            6521     488.819E-06     507.790E-06
            6514             991     500.280E-06     523.687E-06
            6514             992     577.945E-06     603.394E-06
            6514            6520     656.994E-06     661.782E-06
            6514            6521     488.819E-06     507.790E-06
            6515             203     535.894E-06     571.897E-06
            6515             204     376.601E-06     359.031E-06
            6515            6521     488.819E-06     507.790E-06
            6515            6522     343.707E-06     347.876E-06
            6516             990     414.079E-06     437.612E-06
            6516             991     500.280E-06     523.687E-06
            6516            6521     488.819E-06     507.790E-06
            6516            6522     343.707E-06     347.876E-06
            6517             204     376.601E-06     359.031E-06
            6517             205     241.547E-06     232.424E-06
            6517            6522     343.707E-06     347.876E-06
            6517            6523     234.153E-06     229.097E-06
            6518             989     372.483E-06     368.300E-06
            6518             990     414.079E-06     437.612E-06
            6518            6522     343.707E-06     347.876E-06
            6518            6523     234.153E-06     229.097E-06
            6519             205     241.547E-06     232.424E-06
            6519             206     229.769E-06     292.672E-06
            6519            6523     234.153E-06     229.097E-06
            6519            6524     218.469E-06     226.707E-06
            6520             988     342.391E-06     296.035E-06
            6520             989     372.483E-06     368.300E-06
            6520            6523     234.153E-06     229.097E-06
            6520            6524     218.469E-06     226.707E-06
            6521              14     258.199E-06     396.660E-06
            6521             206     229.769E-06     292.672E-06
            6521            1028     237.245E-06     268.840E-06
            6521            6524     218.469E-06     226.707E-06
            6522              42     320.029E-06     254.013E-06
            6522             988     342.391E-06     296.035E-06
            6522            1028     237.245E-06     268.840E-06
            6522            6524     218.469E-06     226.707E-06
            6523              32     140.977E-03     144.433E-03
            6523             722     154.923E-03     160.483E-03
            6523             994     139.002E-03     143.089E-03
            6523            6525     159.755E-03     162.865E-03
            6524              10     167.059E-03     178.004E-03
            6524             284     182.045E-03     180.154E-03
            6524             722     154.923E-03     160.483E-03
            6524            6525     159.755E-03     162.865E-03
            6525             994     139.002E-03     143.089E-03
            6525             995     144.018E-03     146.811E-03
            6525            6525     159.755E-03     162.865E-03
            6525            6526     159.553E-03     160.627E-03
            6526             283     172.582E-03     168.098E-03
            6526             284     182.045E-03     180.154E-03
            6526            6525     159.755E-03     162.865E-03
            6526            6526     159.553E-03     160.627E-03
            6527             995     144.018E-03     146.811E-03
            6527             996     143.630E-03     146.474E-03
            6527            6526     159.553E-03     160.627E-03
            6527            6527     153.949E-03     156.994E-03
            6528             282     158.083E-03     162.586E-03
            6528             283     172.582E-03     168.098E-03
            6528            6526     159.553E-03     160.627E-03
            6528            6527     153.949E-03     156.994E-03
            6529             996     143.630E-03     146.474E-03
            6529             997     140.379E-03     143.595E-03
            6529            6527     153.949E-03     156.994E-03
            6529            6528     148.737E-03     150.789E-03
            6530             281     152.380E-03     151.089E-03
            6530             282     158.083E-03     162.586E-03
            6530            6527     153.949E-03     156.994E-03
            6530            6528     148.737E-03     150.789E-03
            6531             997     140.379E-03     143.595E-03
            6531             998     136.563E-03     139.303E-03
            6531            6528     148.737E-03     150.789E-03
            6531            6529     142.661E-03     144.902E-03
            6532             280     143.361E-03     144.647E-03
            6532             281     152.380E-03     151.089E-03
            6532            6528     148.737E-03     150.789E-03
            6532            6529     142.661E-03     144.902E-03
            6533             998     136.563E-03     139.303E-03
            6533             999     131.785E-03     134.548E-03
            6533            6529     142.661E-03     144.902E-03
            6533            6530     136.707E-03     138.408E-03
            6534             279     136.284E-03     135.475E-03
            6534             280     143.361E-03     144.647E-03
            6534            6529     142.661E-03     144.902E-03
            6534            6530     136.707E-03     138.408E-03
            6535             999     131.785E-03     134.548E-03
            6535            1000     126.540E-03     128.765E-03
            6535            6530     136.707E-03     138.408E-03
            6535            6531     129.929E-03     131.638E-03
            6536             278     127.307E-03     128.664E-03
            6536             279     136.284E-03     135.475E-03
            6536            6530     136.707E-03     138.408E-03
            6536            6531     129.929E-03     131.638E-03
            6537            1000     126.540E-03     128.765E-03
            6537            1001     120.836E-03     121.816E-03
            6537            6531     129.929E-03     131.638E-03
            6537            6532     122.457E-03     123.119E-03
            6538             277     121.740E-03     118.705E-03
            6538             278     127.307E-03     128.664E-03
            6538            6531     129.929E-03     131.638E-03
            6538            6532     122.457E-03     123.119E-03
            6539            1001     120.836E-03     121.816E-03
            6539            1002     115.272E-03     113.308E-03
            6539            6532     122.457E-03     123.119E-03
            6539            6533     114.657E-03     112.380E-03
            6540             276     114.468E-03     109.606E-03
            6540             277     121.740E-03     118.705E-03
            6540            6532     122.457E-03     123.119E-03
            6540            6533     114.657E-03     112.380E-03
            6541            1002     115.272E-03     113.308E-03
            6541            1003     102.286E-03     102.377E-03
            6541            6533     114.657E-03     112.380E-03
            6541            6534     110.072E-03     111.954E-03
            6542             275     117.127E-03     125.247E-03
            6542             276     114.468E-03     109.606E-03
            6542            6533     114.657E-03     112.380E-03
            6542            6534     110.072E-03     111.954E-03
            6543            1003     102.286E-03     102.377E-03
            6543            1004     94.4679E-03     98.1120E-03
            6543            6534     110.072E-03     111.954E-03
            6543            6535     111.746E-03     114.662E-03
            6544             274     129.757E-03     128.990E-03
            6544             275     117.127E-03     125.247E-03
            6544            6534     110.072E-03     111.954E-03
            6544            6535     111.746E-03     114.662E-03
            6545            1004     94.4679E-03     98.1120E-03
            6545            1005     97.7126E-03     99.8235E-03
            6545            6535     111.746E-03     114.662E-03
            6545            6536     110.605E-03     111.305E-03
            6546             273     121.118E-03     117.900E-03
            6546             274     129.757E-03     128.990E-03
            6546            6535     111.746E-03     114.662E-03
            6546            6536     110.605E-03     111.305E-03
            6547            1005     97.7126E-03     99.8235E-03
            6547            1006     96.6352E-03     98.5614E-03
            6547            6536     110.605E-03     111.305E-03
            6547            6537     105.108E-03     107.229E-03
            6548             272     108.659E-03     112.031E-03
            6548             273     121.118E-03     117.900E-03
            6548            6536     110.605E-03     111.305E-03
            6548            6537     105.108E-03     107.229E-03
            6549            1006     96.6352E-03     98.5614E-03
            6549            1007     93.2902E-03     95.4277E-03
            6549            6537     105.108E-03     107.229E-03
            6549            6538     99.9932E-03     101.324E-03
            6550             271     102.772E-03     101.823E-03
            6550             272     108.659E-03     112.031E-03
            6550            6537     105.108E-03     107.229E-03
            6550            6538     99.9932E-03     101.324E-03
            6551            1007     93.2902E-03     95.4277E-03
            6551            1008     89.5475E-03     91.2977E-03
            6551            6538     99.9932E-03     101.324E-03
            6551            6539     94.2957E-03     95.6853E-03
            6552             270     94.5114E-03     95.3100E-03
            6552             271     102.772E-03     101.823E-03
            6552            6538     99.9932E-03     101.324E-03
            6552            6539     94.2957E-03     95.6853E-03
            6553            1008     89.5475E-03     91.2977E-03
            6553            1009     85.1447E-03     86.8447E-03
            6553            6539     94.2957E-03     95.6853E-03
            6553            6540     88.6709E-03     89.6559E-03
            6554             269     87.5432E-03     87.0418E-03
            6554             270     94.5114E-03     95.3100E-03
            6554            6539     94.2957E-03     95.6853E-03
            6554            6540     88.6709E-03     89.6559E-03
            6555            1009     85.1447E-03     86.8447E-03
            6555            1010     80.4381E-03     81.7668E-03
            6555            6540     88.6709E-03     89.6559E-03
            6555            6541     82.5056E-03     83.3329E-03
            6556             268     79.5601E-03     79.9057E-03
            6556             269     87.5432E-03     87.0418E-03
            6556            6540     88.6709E-03     89.6559E-03
            6556            6541     82.5056E-03     83.3329E-03
            6557            1010     80.4381E-03     81.7668E-03
            6557            1011     75.7473E-03     76.1244E-03
            6557            6541     82.5056E-03     83.3329E-03
            6557            6542     75.7116E-03     75.9752E-03
            6558             267     73.1017E-03     71.2107E-03
            6558             268     79.5601E-03     79.9057E-03
            6558            6541     82.5056E-03     83.3329E-03
            6558            6542     75.7116E-03     75.9752E-03
            6559            1011     75.7473E-03     76.1244E-03
            6559            1012     72.0184E-03     69.9097E-03
            6559            6542     75.7116E-03     75.9752E-03
            6559            6543     69.3448E-03     67.2011E-03
            6560             266     66.0719E-03     62.4958E-03
            6560             267     73.1017E-03     71.2107E-03
            6560            6542     75.7116E-03     75.9752E-03
            6560            6543     69.3448E-03     67.2011E-03
            6561            1012     72.0184E-03     69.9097E-03
            6561            1013     60.4827E-03     60.6486E-03
            6561            6543     69.3448E-03     67.2011E-03
            6561            6544     65.9679E-03     67.4328E-03
            6562             265     70.5460E-03     75.4952E-03
            6562             266     66.0719E-03     62.4958E-03
            6562            6543     69.3448E-03     67.2011E-03
            6562            6544     65.9679E-03     67.4328E-03
            6563            1013     60.4827E-03     60.6486E-03
            6563            1014     51.9313E-03     55.1965E-03
            6563            6544     65.9679E-03     67.4328E-03
            6563            6545     66.6952E-03     69.4827E-03
            6564             264     81.0548E-03     81.3667E-03
            6564             265     70.5460E-03     75.4952E-03
            6564            6544     65.9679E-03     67.4328E-03
            6564            6545     66.6952E-03     69.4827E-03
            6565            1014     51.9313E-03     55.1965E-03
            6565            1015     53.5575E-03     54.9880E-03
            6565            6545     66.6952E-03     69.4827E-03
            6565            6546     64.9838E-03     65.2582E-03
            6566             263     73.4784E-03     71.4222E-03
            6566             264     81.0548E-03     81.3667E-03
            6566            6545     66.6952E-03     69.4827E-03
            6566            6546     64.9838E-03     65.2582E-03
            6567            1015     53.5575E-03     54.9880E-03
            6567            1016     51.9565E-03     52.9223E-03
            6567            6546     64.9838E-03     65.2582E-03
            6567            6547     59.8625E-03     61.0417E-03
            6568             262     63.1629E-03     65.5014E-03
            6568             263     73.4784E-03     71.4222E-03
            6568            6546     64.9838E-03     65.2582E-03
            6568            6547     59.8625E-03     61.0417E-03
            6569            1016     51.9565E-03     52.9223E-03
            6569            1017     48.6245E-03     49.6546E-03
            6569            6547     59.8625E-03     61.0417E-03
            6569            6548     55.1382E-03     55.7253E-03
            6570             261     57.4342E-03     56.7762E-03
            6570             262     63.1629E-03     65.5014E-03
            6570            6547     59.8625E-03     61.0417E-03
            6570            6548     55.1382E-03     55.7253E-03
            6571            1017     48.6245E-03     49.6546E-03
            6571            1018     45.1050E-03     45.7906E-03
            6571            6548     55.1382E-03     55.7253E-03
            6571            6549     50.1446E-03     50.6905E-03
            6572             260     50.1376E-03     50.6169E-03
            6572             261     57.4342E-03     56.7762E-03
            6572            6548     55.1382E-03     55.7253E-03
            6572            6549     50.1446E-03     50.6905E-03
            6573            1018     45.1050E-03     45.7906E-03
            6573            1019     41.1607E-03     41.7842E-03
            6573            6549     50.1446E-03     50.6905E-03
            6573            6550     45.3224E-03     45.5531E-03
            6574             259     43.8653E-03     43.5740E-03
            6574             260     50.1376E-03     50.6169E-03
            6574            6549     50.1446E-03     50.6905E-03
            6574            6550     45.3224E-03     45.5531E-03
            6575            1019     41.1607E-03     41.7842E-03
            6575            1020     37.1451E-03     37.5281E-03
            6575            6550     45.3224E-03     45.5531E-03
            6575            6551     40.3181E-03     40.3782E-03
            6576             258     37.1818E-03     37.0129E-03
            6576             259     43.8653E-03     43.5740E-03
            6576            6550     45.3224E-03     45.5531E-03
            6576            6551     40.3181E-03     40.3782E-03
            6577            1020     37.1451E-03     37.5281E-03
            6577            1021     32.8447E-03     33.1335E-03
            6577            6551     40.3181E-03     40.3782E-03
            6577            6552     35.2641E-03     34.9907E-03
            6578             257     31.0393E-03     30.0912E-03
            6578             258     37.1818E-03     37.0129E-03
            6578            6551     40.3181E-03     40.3782E-03
            6578            6552     35.2641E-03     34.9907E-03
            6579            1021     32.8447E-03     33.1335E-03
            6579            1022     29.0329E-03     28.7993E-03
            6579            6552     35.2641E-03     34.9907E-03
            6579            6553     29.8880E-03     29.4608E-03
            6580             256     25.1123E-03     23.9609E-03
            6580             257     31.0393E-03     30.0912E-03
            6580            6552     35.2641E-03     34.9907E-03
            6580            6553     29.8880E-03     29.4608E-03
            6581            1022     29.0329E-03     28.7993E-03
            6581            1023     27.1390E-03     25.2667E-03
            6581            6553     29.8880E-03     29.4608E-03
            6581            6554     25.6382E-03     24.7579E-03
            6582             255     20.9059E-03     20.1505E-03
            6582             256     25.1123E-03     23.9609E-03
            6582            6553     29.8880E-03     29.4608E-03
            6582            6554     25.6382E-03     24.7579E-03
            6583            1023     27.1390E-03     25.2667E-03
            6583            1024     17.1157E-03     18.0309E-03
            6583            6554     25.6382E-03     24.7579E-03
            6583            6555     19.8143E-03     22.0319E-03
            6584             254     21.3687E-03     24.7256E-03
            6584             255     20.9059E-03     20.1505E-03
            6584            6554     25.6382E-03     24.7579E-03
            6584            6555     19.8143E-03     22.0319E-03
            6585            1024     17.1157E-03     18.0309E-03
            6585            1025     8.18245E-03     11.5106E-03
            6585            6555     19.8143E-03     22.0319E-03
            6585            6556     15.1950E-03     17.7796E-03
            6586             253     21.5429E-03     22.3470E-03
            6586             254     21.3687E-03     24.7256E-03
            6586            6555     19.8143E-03     22.0319E-03
            6586            6556     15.1950E-03     17.7796E-03
            6587            1025     8.18245E-03     11.5106E-03
            6587            1026     9.42214E-03     9.58785E-03
            6587            6556     15.1950E-03     17.7796E-03
            6587            6557     12.8465E-03     12.1483E-03
            6588             252     14.0320E-03     11.9172E-03
            6588             253     21.5429E-03     22.3470E-03
            6588            6556     15.1950E-03     17.7796E-03
            6588            6557     12.8465E-03     12.1483E-03
            6589            1026     9.42214E-03     9.58785E-03
            6589            1027     9.71602E-03     6.87277E-03
            6589            6557     12.8465E-03     12.1483E-03
            6589            6558     9.98852E-03     9.61467E-03
            6590             251     8.23250E-03     11.7404E-03
            6590             252     14.0320E-03     11.9172E-03
            6590            6557     12.8465E-03     12.1483E-03
            6590            6558     9.98852E-03     9.61467E-03
            6591              38     5.05451E-03     2.99604E-03
            6591             948     5.05339E-03     5.07885E-03
            6591            1027     9.71602E-03     6.87277E-03
            6591            6558     9.98852E-03     9.61467E-03
            6592              15     4.78685E-03     7.45011E-03
            6592             251     8.23250E-03     11.7404E-03
            6592             948     5.05339E-03     5.07885E-03
            6592            6558     9.98852E-03     9.61467E-03
            6593              12     20.2979E-03     20.1553E-03
            6593             195     841.251E-06     816.821E-06
            6593             246     20.2301E-03     20.0635E-03
            6593            6559     829.475E-06     808.326E-06
            6594             194     842.840E-06     834.089E-06
            6594             195     841.251E-06     816.821E-06
            6594            6559     829.475E-06     808.326E-06
            6594            6560     829.155E-06     818.863E-06
            6595             193     834.564E-06     831.583E-06
            6595             194     842.840E-06     834.089E-06
            6595            6560     829.155E-06     818.863E-06
            6595            6561     807.413E-06     807.808E-06
            6596             192     839.279E-06     830.583E-06
            6596             193     834.564E-06     831.583E-06
            6596            6561     807.413E-06     807.808E-06
            6596            6562     806.346E-06     795.149E-06
            6597             191     841.482E-06     830.809E-06
            6597             192     839.279E-06     830.583E-06
            6597            6562     806.346E-06     795.149E-06
            6597            6563     805.674E-06     795.167E-06
            6598             190     838.388E-06     823.644E-06
            6598             191     841.482E-06     830.809E-06
            6598            6563     805.674E-06     795.167E-06
            6598            6564     800.059E-06     786.568E-06
            6599              11     831.819E-06     819.058E-06
            6599             190     838.388E-06     823.644E-06
            6599            1029     793.880E-06     781.615E-06
            6599            6564     800.059E-06     786.568E-06
            6600             246     20.2301E-03     20.0635E-03
            6600             247     18.9125E-03     18.7642E-03
            6600            6559     829.475E-06     808.326E-06
            6600            6565     807.163E-06     783.952E-06
            6601            6559     829.475E-06     808.326E-06
            6601            6560     829.155E-06     818.863E-06
            6601            6565     807.163E-06     783.952E-06
            6601            6566     792.963E-06     760.788E-06
            6602            6560     829.155E-06     818.863E-06
            6602            6561     807.413E-06     807.808E-06
            6602            6566     792.963E-06     760.788E-06
            6602            6567     726.979E-06     740.185E-06
            6603            6561     807.413E-06     807.808E-06
            6603            6562     806.346E-06     795.149E-06
            6603            6567     726.979E-06     740.185E-06
            6603            6568     709.008E-06     704.392E-06
            6604            6562     806.346E-06     795.149E-06
            6604            6563     805.674E-06     795.167E-06
            6604            6568     709.008E-06     704.392E-06
            6604            6569     696.203E-06     689.966E-06
            6605            6563     805.674E-06     795.167E-06
            6605            6564     800.059E-06     786.568E-06
            6605            6569     696.203E-06     689.966E-06
            6605            6570     688.609E-06     678.997E-06
            6606            1029     793.880E-06     781.615E-06
            6606            1030     682.974E-06     673.483E-06
            6606            6564     800.059E-06     786.568E-06
            6606            6570     688.609E-06     678.997E-06
            6607             247     18.9125E-03     18.7642E-03
            6607             248     16.1549E-03     16.0443E-03
            6607            6565     807.163E-06     783.952E-06
            6607            6571     772.329E-06     750.833E-06
            6608            6565     807.163E-06     783.952E-06
            6608            6566     792.963E-06     760.788E-06
            6608            6571     772.329E-06     750.833E-06
            6608            6572     736.157E-06     671.194E-06
            6609            6566     792.963E-06     760.788E-06
            6609            6567     726.979E-06     740.185E-06
            6609            6572     736.157E-06     671.194E-06
            6609            6573     606.271E-06     637.346E-06
            6610            6567     726.979E-06     740.185E-06
            6610            6568     709.008E-06     704.392E-06
            6610            6573     606.271E-06     637.346E-06
            6610            6574     565.400E-06     559.976E-06
            6611            6568     709.008E-06     704.392E-06
            6611            6569     696.203E-06     689.966E-06
            6611            6574     565.400E-06     559.976E-06
            6611            6575     524.131E-06     531.056E-06
            6612            6569     696.203E-06     689.966E-06
            6612            6570     688.609E-06     678.997E-06
            6612            6575     524.131E-06     531.056E-06
            6612            6576     499.768E-06     511.896E-06
            6613            1030     682.974E-06     673.483E-06
            6613            1031     496.798E-06     503.399E-06
            6613            6570     688.609E-06     678.997E-06
            6613            6576     499.768E-06     511.896E-06
            6614             248     16.1549E-03     16.0443E-03
            6614             249     12.4784E-03     12.2564E-03
            6614            6571     772.329E-06     750.833E-06
            6614            6577     781.251E-06     778.654E-06
            6615            6571     772.329E-06     750.833E-06
            6615            6572     736.157E-06     671.194E-06
            6615            6577     781.251E-06     778.654E-06
            6615            6578     711.022E-06     642.036E-06
            6616            6572     736.157E-06     671.194E-06
            6616            6573     606.271E-06     637.346E-06
            6616            6578     711.022E-06     642.036E-06
            6616            6579     483.035E-06     546.038E-06
            6617            6573     606.271E-06     637.346E-06
            6617            6574     565.400E-06     559.976E-06
            6617            6579     483.035E-06     546.038E-06
            6617            6580     395.930E-06     367.484E-06
            6618            6574     565.400E-06     559.976E-06
            6618            6575     524.131E-06     531.056E-06
            6618            6580     395.930E-06     367.484E-06
            6618            6581     320.797E-06     308.632E-06
            6619            6575     524.131E-06     531.056E-06
            6619            6576     499.768E-06     511.896E-06
            6619            6581     320.797E-06     308.632E-06
            6619            6582     285.525E-06     312.165E-06
            6620            1031     496.798E-06     503.399E-06
            6620            1032     276.826E-06     322.251E-06
            6620            6576     499.768E-06     511.896E-06
            6620            6582     285.525E-06     312.165E-06
            6621             249     12.4784E-03     12.2564E-03
            6621             250     7.43289E-03     8.88426E-03
            6621            6577     781.251E-06     778.654E-06
            6621            6583     959.087E-06     959.461E-06
            6622            6577     781.251E-06     778.654E-06
            6622            6578     711.022E-06     642.036E-06
            6622            6583     959.087E-06     959.461E-06
            6622            6584     792.788E-06     739.246E-06
            6623            6578     711.022E-06     642.036E-06
            6623            6579     483.035E-06     546.038E-06
            6623            6584     792.788E-06     739.246E-06
            6623            6585     499.969E-06     569.982E-06
            6624            6579     483.035E-06     546.038E-06
            6624            6580     395.930E-06     367.484E-06
            6624            6585     499.969E-06     569.982E-06
            6624            6586     362.334E-06     332.845E-06
            6625            6580     395.930E-06     367.484E-06
            6625            6581     320.797E-06     308.632E-06
            6625            6586     362.334E-06     332.845E-06
            6625            6587     258.041E-06     238.465E-06
            6626            6581     320.797E-06     308.632E-06
            6626            6582     285.525E-06     312.165E-06
            6626            6587     258.041E-06     238.465E-06
            6626            6588     244.425E-06     287.363E-06
            6627            1032     276.826E-06     322.251E-06
            6627            1033     244.977E-06     349.141E-06
            6627            6582     285.525E-06     312.165E-06
            6627            6588     244.425E-06     287.363E-06
            6628              15     4.78685E-03     7.45011E-03
            6628             250     7.43289E-03     8.88426E-03
            6628             949     998.947E-06     1.01684E-03
            6628            6583     959.087E-06     959.461E-06
            6629             949     998.947E-06     1.01684E-03
            6629             950     785.347E-06     756.786E-06
            6629            6583     959.087E-06     959.461E-06
            6629            6584     792.788E-06     739.246E-06
            6630             950     785.347E-06     756.786E-06
            6630             951     535.894E-06     571.897E-06
            6630            6584     792.788E-06     739.246E-06
            6630            6585     499.969E-06     569.982E-06
            6631             951     535.894E-06     571.897E-06
            6631             952     376.601E-06     359.031E-06
            6631            6585     499.969E-06     569.982E-06
            6631            6586     362.334E-06     332.845E-06
            6632             952     376.601E-06     359.031E-06
            6632             953     241.547E-06     232.424E-06
            6632            6586     362.334E-06     332.845E-06
            6632            6587     258.041E-06     238.465E-06
            6633             953     241.547E-06     232.424E-06
            6633             954     229.769E-06     292.672E-06
            6633            6587     258.041E-06     238.465E-06
            6633            6588     244.425E-06     287.363E-06
            6634              41     258.199E-06     396.660E-06
            6634             954     229.769E-06     292.672E-06
            6634            1033     244.977E-06     349.141E-06
            6634            6588     244.425E-06     287.363E-06


  Minimum                            182.084E-06     226.707E-06
      At Element                            2144            6522
            Node                               4            6524

  Maximum                            300.042E-03     294.026E-03
      At Element                            2200            2200
            Node                             552             552

           Total                     1.33007E+03     1.35786E+03


Field Output reported at element nodes for region: B737-1.Region_2
   Computation algorithm: EXTRAPOLATE_COMPUTE_AVERAGE
   Averaged at nodes
   Averaging regions: ODB_REGIONS

   Element Label      Node Label         S.Mises         S.Mises
                                          @Loc 1          @Loc 2
-----------------------------------------------------------------
            1732              23     12.0381E-03     12.3172E-03
            1732             471     13.1027E-03     13.1506E-03
            1732             531     21.0449E-03     21.7133E-03
            1732            2480     24.4401E-03     24.5094E-03
            1733             471     13.1027E-03     13.1506E-03
            1733             472     14.4527E-03     14.3121E-03
            1733            2480     24.4401E-03     24.5094E-03
            1733            2481     28.5856E-03     28.1072E-03
            1734             472     14.4527E-03     14.3121E-03
            1734             473     15.0744E-03     14.9498E-03
            1734            2481     28.5856E-03     28.1072E-03
            1734            2482     29.8979E-03     29.4990E-03
            1735             473     15.0744E-03     14.9498E-03
            1735             474     15.3635E-03     15.2605E-03
            1735            2482     29.8979E-03     29.4990E-03
            1735            2483     30.4155E-03     30.0613E-03
            1736             474     15.3635E-03     15.2605E-03
            1736             475     14.9538E-03     14.8697E-03
            1736            2483     30.4155E-03     30.0613E-03
            1736            2484     29.7008E-03     29.4245E-03
            1737             475     14.9538E-03     14.8697E-03
            1737             476     14.1463E-03     14.1182E-03
            1737            2484     29.7008E-03     29.4245E-03
            1737            2485     28.0188E-03     27.9090E-03
            1738             476     14.1463E-03     14.1182E-03
            1738             477     12.4991E-03     12.5596E-03
            1738            2485     28.0188E-03     27.9090E-03
            1738            2486     23.5052E-03     23.6787E-03
            1739               3     11.2968E-03     11.3607E-03
            1739             155     20.0030E-03     20.3549E-03
            1739             477     12.4991E-03     12.5596E-03
            1739            2486     23.5052E-03     23.6787E-03
            1740             530     18.3731E-03     19.0934E-03
            1740             531     21.0449E-03     21.7133E-03
            1740            2480     24.4401E-03     24.5094E-03
            1740            2487     22.7724E-03     23.0647E-03
            1741            2480     24.4401E-03     24.5094E-03
            1741            2481     28.5856E-03     28.1072E-03
            1741            2487     22.7724E-03     23.0647E-03
            1741            2488     28.9793E-03     28.6527E-03
            1742            2481     28.5856E-03     28.1072E-03
            1742            2482     29.8979E-03     29.4990E-03
            1742            2488     28.9793E-03     28.6527E-03
            1742            2489     31.2815E-03     30.7882E-03
            1743            2482     29.8979E-03     29.4990E-03
            1743            2483     30.4155E-03     30.0613E-03
            1743            2489     31.2815E-03     30.7882E-03
            1743            2490     31.7746E-03     31.3171E-03
            1744            2483     30.4155E-03     30.0613E-03
            1744            2484     29.7008E-03     29.4245E-03
            1744            2490     31.7746E-03     31.3171E-03
            1744            2491     31.2019E-03     30.8376E-03
            1745            2484     29.7008E-03     29.4245E-03
            1745            2485     28.0188E-03     27.9090E-03
            1745            2491     31.2019E-03     30.8376E-03
            1745            2492     28.8040E-03     28.6099E-03
            1746            2485     28.0188E-03     27.9090E-03
            1746            2486     23.5052E-03     23.6787E-03
            1746            2492     28.8040E-03     28.6099E-03
            1746            2493     22.6081E-03     22.7703E-03
            1747             154     18.2390E-03     18.6687E-03
            1747             155     20.0030E-03     20.3549E-03
            1747            2486     23.5052E-03     23.6787E-03
            1747            2493     22.6081E-03     22.7703E-03
            1748             529     18.7289E-03     19.2986E-03
            1748             530     18.3731E-03     19.0934E-03
            1748            2487     22.7724E-03     23.0647E-03
            1748            2494     22.4712E-03     22.9428E-03
            1749            2487     22.7724E-03     23.0647E-03
            1749            2488     28.9793E-03     28.6527E-03
            1749            2494     22.4712E-03     22.9428E-03
            1749            2495     28.6852E-03     28.8287E-03
            1750            2488     28.9793E-03     28.6527E-03
            1750            2489     31.2815E-03     30.7882E-03
            1750            2495     28.6852E-03     28.8287E-03
            1750            2496     32.0466E-03     31.8371E-03
            1751            2489     31.2815E-03     30.7882E-03
            1751            2490     31.7746E-03     31.3171E-03
            1751            2496     32.0466E-03     31.8371E-03
            1751            2497     32.9563E-03     32.6387E-03
            1752            2490     31.7746E-03     31.3171E-03
            1752            2491     31.2019E-03     30.8376E-03
            1752            2497     32.9563E-03     32.6387E-03
            1752            2498     32.1905E-03     31.9026E-03
            1753            2491     31.2019E-03     30.8376E-03
            1753            2492     28.8040E-03     28.6099E-03
            1753            2498     32.1905E-03     31.9026E-03
            1753            2499     29.0632E-03     28.8846E-03
            1754            2492     28.8040E-03     28.6099E-03
            1754            2493     22.6081E-03     22.7703E-03
            1754            2499     29.0632E-03     28.8846E-03
            1754            2500     23.0940E-03     23.0743E-03
            1755             153     19.4664E-03     19.5108E-03
            1755             154     18.2390E-03     18.6687E-03
            1755            2493     22.6081E-03     22.7703E-03
            1755            2500     23.0940E-03     23.0743E-03
            1756             528     21.1169E-03     21.3084E-03
            1756             529     18.7289E-03     19.2986E-03
            1756            2494     22.4712E-03     22.9428E-03
            1756            2501     23.9853E-03     24.2891E-03
            1757            2494     22.4712E-03     22.9428E-03
            1757            2495     28.6852E-03     28.8287E-03
            1757            2501     23.9853E-03     24.2891E-03
            1757            2502     28.9382E-03     29.2566E-03
            1758            2495     28.6852E-03     28.8287E-03
            1758            2496     32.0466E-03     31.8371E-03
            1758            2502     28.9382E-03     29.2566E-03
            1758            2503     32.2196E-03     32.3568E-03
            1759            2496     32.0466E-03     31.8371E-03
            1759            2497     32.9563E-03     32.6387E-03
            1759            2503     32.2196E-03     32.3568E-03
            1759            2504     33.5089E-03     33.5034E-03
            1760            2497     32.9563E-03     32.6387E-03
            1760            2498     32.1905E-03     31.9026E-03
            1760            2504     33.5089E-03     33.5034E-03
            1760            2505     32.5974E-03     32.4839E-03
            1761            2498     32.1905E-03     31.9026E-03
            1761            2499     29.0632E-03     28.8846E-03
            1761            2505     32.5974E-03     32.4839E-03
            1761            2506     29.6916E-03     29.5526E-03
            1762            2499     29.0632E-03     28.8846E-03
            1762            2500     23.0940E-03     23.0743E-03
            1762            2506     29.6916E-03     29.5526E-03
            1762            2507     25.1027E-03     24.9378E-03
            1763             152     22.4155E-03     22.2015E-03
            1763             153     19.4664E-03     19.5108E-03
            1763            2500     23.0940E-03     23.0743E-03
            1763            2507     25.1027E-03     24.9378E-03
            1764             527     24.2140E-03     24.3830E-03
            1764             528     21.1169E-03     21.3084E-03
            1764            2501     23.9853E-03     24.2891E-03
            1764            2508     26.1938E-03     26.4119E-03
            1765            2501     23.9853E-03     24.2891E-03
            1765            2502     28.9382E-03     29.2566E-03
            1765            2508     26.1938E-03     26.4119E-03
            1765            2509     29.8849E-03     30.2040E-03
            1766            2502     28.9382E-03     29.2566E-03
            1766            2503     32.2196E-03     32.3568E-03
            1766            2509     29.8849E-03     30.2040E-03
            1766            2510     32.2516E-03     32.6121E-03
            1767            2503     32.2196E-03     32.3568E-03
            1767            2504     33.5089E-03     33.5034E-03
            1767            2510     32.2516E-03     32.6121E-03
            1767            2511     33.0070E-03     33.3513E-03
            1768            2504     33.5089E-03     33.5034E-03
            1768            2505     32.5974E-03     32.4839E-03
            1768            2511     33.0070E-03     33.3513E-03
            1768            2512     32.7190E-03     32.9452E-03
            1769            2505     32.5974E-03     32.4839E-03
            1769            2506     29.6916E-03     29.5526E-03
            1769            2512     32.7190E-03     32.9452E-03
            1769            2513     30.9028E-03     30.8443E-03
            1770            2506     29.6916E-03     29.5526E-03
            1770            2507     25.1027E-03     24.9378E-03
            1770            2513     30.9028E-03     30.8443E-03
            1770            2514     27.7929E-03     27.4805E-03
            1771             151     26.1113E-03     25.7170E-03
            1771             152     22.4155E-03     22.2015E-03
            1771            2507     25.1027E-03     24.9378E-03
            1771            2514     27.7929E-03     27.4805E-03
            1772             526     29.0590E-03     29.0446E-03
            1772             527     24.2140E-03     24.3830E-03
            1772            2508     26.1938E-03     26.4119E-03
            1772            2515     30.0102E-03     30.0867E-03
            1773            2508     26.1938E-03     26.4119E-03
            1773            2509     29.8849E-03     30.2040E-03
            1773            2515     30.0102E-03     30.0867E-03
            1773            2516     31.1017E-03     31.4495E-03
            1774            2509     29.8849E-03     30.2040E-03
            1774            2510     32.2516E-03     32.6121E-03
            1774            2516     31.1017E-03     31.4495E-03
            1774            2517     31.3138E-03     31.8498E-03
            1775            2510     32.2516E-03     32.6121E-03
            1775            2511     33.0070E-03     33.3513E-03
            1775            2517     31.3138E-03     31.8498E-03
            1775            2518     31.5239E-03     32.0248E-03
            1776            2511     33.0070E-03     33.3513E-03
            1776            2512     32.7190E-03     32.9452E-03
            1776            2518     31.5239E-03     32.0248E-03
            1776            2519     31.8551E-03     32.3234E-03
            1777            2512     32.7190E-03     32.9452E-03
            1777            2513     30.9028E-03     30.8443E-03
            1777            2519     31.8551E-03     32.3234E-03
            1777            2520     32.2588E-03     32.5084E-03
            1778            2513     30.9028E-03     30.8443E-03
            1778            2514     27.7929E-03     27.4805E-03
            1778            2520     32.2588E-03     32.5084E-03
            1778            2521     31.8569E-03     31.7633E-03
            1779             150     31.2443E-03     31.0364E-03
            1779             151     26.1113E-03     25.7170E-03
            1779            2514     27.7929E-03     27.4805E-03
            1779            2521     31.8569E-03     31.7633E-03
            1780             525     36.0508E-03     35.7467E-03
            1780             526     29.0590E-03     29.0446E-03
            1780            2515     30.0102E-03     30.0867E-03
            1780            2522     34.0213E-03     34.0040E-03
            1781            2515     30.0102E-03     30.0867E-03
            1781            2516     31.1017E-03     31.4495E-03
            1781            2522     34.0213E-03     34.0040E-03
            1781            2523     30.5325E-03     30.8876E-03
            1782            2516     31.1017E-03     31.4495E-03
            1782            2517     31.3138E-03     31.8498E-03
            1782            2523     30.5325E-03     30.8876E-03
            1782            2524     29.0350E-03     29.4764E-03
            1783            2517     31.3138E-03     31.8498E-03
            1783            2518     31.5239E-03     32.0248E-03
            1783            2524     29.0350E-03     29.4764E-03
            1783            2525     29.1864E-03     29.5572E-03
            1784            2518     31.5239E-03     32.0248E-03
            1784            2519     31.8551E-03     32.3234E-03
            1784            2525     29.1864E-03     29.5572E-03
            1784            2526     29.7456E-03     29.9518E-03
            1785            2519     31.8551E-03     32.3234E-03
            1785            2520     32.2588E-03     32.5084E-03
            1785            2526     29.7456E-03     29.9518E-03
            1785            2527     31.9707E-03     31.9781E-03
            1786            2520     32.2588E-03     32.5084E-03
            1786            2521     31.8569E-03     31.7633E-03
            1786            2527     31.9707E-03     31.9781E-03
            1786            2528     36.3936E-03     35.7768E-03
            1787             149     38.9608E-03     37.8253E-03
            1787             150     31.2443E-03     31.0364E-03
            1787            2521     31.8569E-03     31.7633E-03
            1787            2528     36.3936E-03     35.7768E-03
            1788             524     31.0186E-03     29.6136E-03
            1788             525     36.0508E-03     35.7467E-03
            1788            2522     34.0213E-03     34.0040E-03
            1788            2529     31.1912E-03     29.8750E-03
            1789            2522     34.0213E-03     34.0040E-03
            1789            2523     30.5325E-03     30.8876E-03
            1789            2529     31.1912E-03     29.8750E-03
            1789            2530     30.7660E-03     29.9195E-03
            1790            2523     30.5325E-03     30.8876E-03
            1790            2524     29.0350E-03     29.4764E-03
            1790            2530     30.7660E-03     29.9195E-03
            1790            2531     30.4211E-03     30.0034E-03
            1791            2524     29.0350E-03     29.4764E-03
            1791            2525     29.1864E-03     29.5572E-03
            1791            2531     30.4211E-03     30.0034E-03
            1791            2532     30.7960E-03     30.4714E-03
            1792            2525     29.1864E-03     29.5572E-03
            1792            2526     29.7456E-03     29.9518E-03
            1792            2532     30.7960E-03     30.4714E-03
            1792            2533     31.0895E-03     30.5731E-03
            1793            2526     29.7456E-03     29.9518E-03
            1793            2527     31.9707E-03     31.9781E-03
            1793            2533     31.0895E-03     30.5731E-03
            1793            2534     32.0088E-03     31.0440E-03
            1794            2527     31.9707E-03     31.9781E-03
            1794            2528     36.3936E-03     35.7768E-03
            1794            2534     32.0088E-03     31.0440E-03
            1794            2535     33.0496E-03     31.5880E-03
            1795             148     33.3427E-03     31.5954E-03
            1795             149     38.9608E-03     37.8253E-03
            1795            2528     36.3936E-03     35.7768E-03
            1795            2535     33.0496E-03     31.5880E-03
            1796             523     23.6319E-03     23.7807E-03
            1796             524     31.0186E-03     29.6136E-03
            1796            2529     31.1912E-03     29.8750E-03
            1796            2536     27.8741E-03     26.9400E-03
            1797            2529     31.1912E-03     29.8750E-03
            1797            2530     30.7660E-03     29.9195E-03
            1797            2536     27.8741E-03     26.9400E-03
            1797            2537     32.6000E-03     30.7423E-03
            1798            2530     30.7660E-03     29.9195E-03
            1798            2531     30.4211E-03     30.0034E-03
            1798            2537     32.6000E-03     30.7423E-03
            1798            2538     33.3967E-03     31.8488E-03
            1799            2531     30.4211E-03     30.0034E-03
            1799            2532     30.7960E-03     30.4714E-03
            1799            2538     33.3967E-03     31.8488E-03
            1799            2539     33.8988E-03     32.5650E-03
            1800            2532     30.7960E-03     30.4714E-03
            1800            2533     31.0895E-03     30.5731E-03
            1800            2539     33.8988E-03     32.5650E-03
            1800            2540     34.1627E-03     32.9132E-03
            1801            2533     31.0895E-03     30.5731E-03
            1801            2534     32.0088E-03     31.0440E-03
            1801            2540     34.1627E-03     32.9132E-03
            1801            2541     33.9203E-03     32.8009E-03
            1802            2534     32.0088E-03     31.0440E-03
            1802            2535     33.0496E-03     31.5880E-03
            1802            2541     33.9203E-03     32.8009E-03
            1802            2542     30.1407E-03     29.8168E-03
            1803             147     26.6785E-03     27.0405E-03
            1803             148     33.3427E-03     31.5954E-03
            1803            2535     33.0496E-03     31.5880E-03
            1803            2542     30.1407E-03     29.8168E-03
            1804             522     27.6856E-03     29.2938E-03
            1804             523     23.6319E-03     23.7807E-03
            1804            2536     27.8741E-03     26.9400E-03
            1804            2543     29.9559E-03     30.7160E-03
            1805            2536     27.8741E-03     26.9400E-03
            1805            2537     32.6000E-03     30.7423E-03
            1805            2543     29.9559E-03     30.7160E-03
            1805            2544     33.1327E-03     32.2351E-03
            1806            2537     32.6000E-03     30.7423E-03
            1806            2538     33.3967E-03     31.8488E-03
            1806            2544     33.1327E-03     32.2351E-03
            1806            2545     34.0788E-03     32.3048E-03
            1807            2538     33.3967E-03     31.8488E-03
            1807            2539     33.8988E-03     32.5650E-03
            1807            2545     34.0788E-03     32.3048E-03
            1807            2546     34.4625E-03     32.7101E-03
            1808            2539     33.8988E-03     32.5650E-03
            1808            2540     34.1627E-03     32.9132E-03
            1808            2546     34.4625E-03     32.7101E-03
            1808            2547     35.3365E-03     33.9732E-03
            1809            2540     34.1627E-03     32.9132E-03
            1809            2541     33.9203E-03     32.8009E-03
            1809            2547     35.3365E-03     33.9732E-03
            1809            2548     35.6934E-03     35.3176E-03
            1810            2541     33.9203E-03     32.8009E-03
            1810            2542     30.1407E-03     29.8168E-03
            1810            2548     35.6934E-03     35.3176E-03
            1810            2549     34.3032E-03     34.9877E-03
            1811             146     33.0861E-03     34.1441E-03
            1811             147     26.6785E-03     27.0405E-03
            1811            2542     30.1407E-03     29.8168E-03
            1811            2549     34.3032E-03     34.9877E-03
            1812             521     32.5831E-03     32.9481E-03
            1812             522     27.6856E-03     29.2938E-03
            1812            2543     29.9559E-03     30.7160E-03
            1812            2550     32.7174E-03     33.2687E-03
            1813            2543     29.9559E-03     30.7160E-03
            1813            2544     33.1327E-03     32.2351E-03
            1813            2550     32.7174E-03     33.2687E-03
            1813            2551     33.6033E-03     33.6445E-03
            1814            2544     33.1327E-03     32.2351E-03
            1814            2545     34.0788E-03     32.3048E-03
            1814            2551     33.6033E-03     33.6445E-03
            1814            2552     34.6876E-03     33.6142E-03
            1815            2545     34.0788E-03     32.3048E-03
            1815            2546     34.4625E-03     32.7101E-03
            1815            2552     34.6876E-03     33.6142E-03
            1815            2553     35.4601E-03     34.0597E-03
            1816            2546     34.4625E-03     32.7101E-03
            1816            2547     35.3365E-03     33.9732E-03
            1816            2553     35.4601E-03     34.0597E-03
            1816            2554     36.4987E-03     35.5920E-03
            1817            2547     35.3365E-03     33.9732E-03
            1817            2548     35.6934E-03     35.3176E-03
            1817            2554     36.4987E-03     35.5920E-03
            1817            2555     37.2957E-03     37.2928E-03
            1818            2548     35.6934E-03     35.3176E-03
            1818            2549     34.3032E-03     34.9877E-03
            1818            2555     37.2957E-03     37.2928E-03
            1818            2556     38.0696E-03     38.3629E-03
            1819             145     38.6453E-03     38.7334E-03
            1819             146     33.0861E-03     34.1441E-03
            1819            2549     34.3032E-03     34.9877E-03
            1819            2556     38.0696E-03     38.3629E-03
            1820             520     37.1512E-03     37.2396E-03
            1820             521     32.5831E-03     32.9481E-03
            1820            2550     32.7174E-03     33.2687E-03
            1820            2557     35.9820E-03     36.2386E-03
            1821            2550     32.7174E-03     33.2687E-03
            1821            2551     33.6033E-03     33.6445E-03
            1821            2557     35.9820E-03     36.2386E-03
            1821            2558     34.7596E-03     34.9869E-03
            1822            2551     33.6033E-03     33.6445E-03
            1822            2552     34.6876E-03     33.6142E-03
            1822            2558     34.7596E-03     34.9869E-03
            1822            2559     35.1205E-03     34.8011E-03
            1823            2552     34.6876E-03     33.6142E-03
            1823            2553     35.4601E-03     34.0597E-03
            1823            2559     35.1205E-03     34.8011E-03
            1823            2560     36.1201E-03     35.4457E-03
            1824            2553     35.4601E-03     34.0597E-03
            1824            2554     36.4987E-03     35.5920E-03
            1824            2560     36.1201E-03     35.4457E-03
            1824            2561     37.4371E-03     37.0113E-03
            1825            2554     36.4987E-03     35.5920E-03
            1825            2555     37.2957E-03     37.2928E-03
            1825            2561     37.4371E-03     37.0113E-03
            1825            2562     39.1806E-03     39.1270E-03
            1826            2555     37.2957E-03     37.2928E-03
            1826            2556     38.0696E-03     38.3629E-03
            1826            2562     39.1806E-03     39.1270E-03
            1826            2563     42.0082E-03     41.9090E-03
            1827             144     43.8237E-03     43.5611E-03
            1827             145     38.6453E-03     38.7334E-03
            1827            2556     38.0696E-03     38.3629E-03
            1827            2563     42.0082E-03     41.9090E-03
            1828             519     41.8396E-03     41.5405E-03
            1828             520     37.1512E-03     37.2396E-03
            1828            2557     35.9820E-03     36.2386E-03
            1828            2564     39.5496E-03     39.5698E-03
            1829            2557     35.9820E-03     36.2386E-03
            1829            2558     34.7596E-03     34.9869E-03
            1829            2564     39.5496E-03     39.5698E-03
            1829            2565     36.4286E-03     36.7825E-03
            1830            2558     34.7596E-03     34.9869E-03
            1830            2559     35.1205E-03     34.8011E-03
            1830            2565     36.4286E-03     36.7825E-03
            1830            2566     35.6516E-03     35.8825E-03
            1831            2559     35.1205E-03     34.8011E-03
            1831            2560     36.1201E-03     35.4457E-03
            1831            2566     35.6516E-03     35.8825E-03
            1831            2567     36.4004E-03     36.4301E-03
            1832            2560     36.1201E-03     35.4457E-03
            1832            2561     37.4371E-03     37.0113E-03
            1832            2567     36.4004E-03     36.4301E-03
            1832            2568     38.3440E-03     38.3389E-03
            1833            2561     37.4371E-03     37.0113E-03
            1833            2562     39.1806E-03     39.1270E-03
            1833            2568     38.3440E-03     38.3389E-03
            1833            2569     41.4122E-03     41.3852E-03
            1834            2562     39.1806E-03     39.1270E-03
            1834            2563     42.0082E-03     41.9090E-03
            1834            2569     41.4122E-03     41.3852E-03
            1834            2570     46.0944E-03     45.7369E-03
            1835             143     48.9568E-03     48.3200E-03
            1835             144     43.8237E-03     43.5611E-03
            1835            2563     42.0082E-03     41.9090E-03
            1835            2570     46.0944E-03     45.7369E-03
            1836             518     46.6744E-03     46.2422E-03
            1836             519     41.8396E-03     41.5405E-03
            1836            2564     39.5496E-03     39.5698E-03
            1836            2571     43.3881E-03     43.3053E-03
            1837            2564     39.5496E-03     39.5698E-03
            1837            2565     36.4286E-03     36.7825E-03
            1837            2571     43.3881E-03     43.3053E-03
            1837            2572     38.2472E-03     38.7122E-03
            1838            2565     36.4286E-03     36.7825E-03
            1838            2566     35.6516E-03     35.8825E-03
            1838            2572     38.2472E-03     38.7122E-03
            1838            2573     36.1250E-03     36.8837E-03
            1839            2566     35.6516E-03     35.8825E-03
            1839            2567     36.4004E-03     36.4301E-03
            1839            2573     36.1250E-03     36.8837E-03
            1839            2574     36.6714E-03     37.4633E-03
            1840            2567     36.4004E-03     36.4301E-03
            1840            2568     38.3440E-03     38.3389E-03
            1840            2574     36.6714E-03     37.4633E-03
            1840            2575     39.1695E-03     39.6774E-03
            1841            2568     38.3440E-03     38.3389E-03
            1841            2569     41.4122E-03     41.3852E-03
            1841            2575     39.1695E-03     39.6774E-03
            1841            2576     43.6933E-03     43.7534E-03
            1842            2569     41.4122E-03     41.3852E-03
            1842            2570     46.0944E-03     45.7369E-03
            1842            2576     43.6933E-03     43.7534E-03
            1842            2577     50.3426E-03     49.9020E-03
            1843             142     54.1523E-03     53.4366E-03
            1843             143     48.9568E-03     48.3200E-03
            1843            2570     46.0944E-03     45.7369E-03
            1843            2577     50.3426E-03     49.9020E-03
            1844             517     51.3959E-03     51.0156E-03
            1844             518     46.6744E-03     46.2422E-03
            1844            2571     43.3881E-03     43.3053E-03
            1844            2578     47.1994E-03     47.1643E-03
            1845            2571     43.3881E-03     43.3053E-03
            1845            2572     38.2472E-03     38.7122E-03
            1845            2578     47.1994E-03     47.1643E-03
            1845            2579     40.3712E-03     41.1347E-03
            1846            2572     38.2472E-03     38.7122E-03
            1846            2573     36.1250E-03     36.8837E-03
            1846            2579     40.3712E-03     41.1347E-03
            1846            2580     36.4782E-03     37.8736E-03
            1847            2573     36.1250E-03     36.8837E-03
            1847            2574     36.6714E-03     37.4633E-03
            1847            2580     36.4782E-03     37.8736E-03
            1847            2581     36.0795E-03     37.6204E-03
            1848            2574     36.6714E-03     37.4633E-03
            1848            2575     39.1695E-03     39.6774E-03
            1848            2581     36.0795E-03     37.6204E-03
            1848            2582     39.7662E-03     41.0090E-03
            1849            2575     39.1695E-03     39.6774E-03
            1849            2576     43.6933E-03     43.7534E-03
            1849            2582     39.7662E-03     41.0090E-03
            1849            2583     46.2129E-03     46.7029E-03
            1850            2576     43.6933E-03     43.7534E-03
            1850            2577     50.3426E-03     49.9020E-03
            1850            2583     46.2129E-03     46.7029E-03
            1850            2584     54.5640E-03     54.1370E-03
            1851             141     59.2925E-03     58.4361E-03
            1851             142     54.1523E-03     53.4366E-03
            1851            2577     50.3426E-03     49.9020E-03
            1851            2584     54.5640E-03     54.1370E-03
            1852             516     57.4871E-03     57.2974E-03
            1852             517     51.3959E-03     51.0156E-03
            1852            2578     47.1994E-03     47.1643E-03
            1852            2585     52.2414E-03     52.5234E-03
            1853            2578     47.1994E-03     47.1643E-03
            1853            2579     40.3712E-03     41.1347E-03
            1853            2585     52.2414E-03     52.5234E-03
            1853            2586     42.1795E-03     43.4121E-03
            1854            2579     40.3712E-03     41.1347E-03
            1854            2580     36.4782E-03     37.8736E-03
            1854            2586     42.1795E-03     43.4121E-03
            1854            2587     35.2675E-03     37.0907E-03
            1855            2580     36.4782E-03     37.8736E-03
            1855            2581     36.0795E-03     37.6204E-03
            1855            2587     35.2675E-03     37.0907E-03
            1855            2588     34.1416E-03     35.9413E-03
            1856            2581     36.0795E-03     37.6204E-03
            1856            2582     39.7662E-03     41.0090E-03
            1856            2588     34.1416E-03     35.9413E-03
            1856            2589     38.7999E-03     40.3071E-03
            1857            2582     39.7662E-03     41.0090E-03
            1857            2583     46.2129E-03     46.7029E-03
            1857            2589     38.7999E-03     40.3071E-03
            1857            2590     48.3442E-03     49.3300E-03
            1858            2583     46.2129E-03     46.7029E-03
            1858            2584     54.5640E-03     54.1370E-03
            1858            2590     48.3442E-03     49.3300E-03
            1858            2591     59.9146E-03     60.0882E-03
            1859             140     65.6294E-03     65.3545E-03
            1859             141     59.2925E-03     58.4361E-03
            1859            2584     54.5640E-03     54.1370E-03
            1859            2591     59.9146E-03     60.0882E-03
            1860             515     65.6290E-03     64.2225E-03
            1860             516     57.4871E-03     57.2974E-03
            1860            2585     52.2414E-03     52.5234E-03
            1860            2592     56.5878E-03     55.9486E-03
            1861            2585     52.2414E-03     52.5234E-03
            1861            2586     42.1795E-03     43.4121E-03
            1861            2592     56.5878E-03     55.9486E-03
            1861            2593     40.8460E-03     41.3519E-03
            1862            2586     42.1795E-03     43.4121E-03
            1862            2587     35.2675E-03     37.0907E-03
            1862            2593     40.8460E-03     41.3519E-03
            1862            2594     31.7014E-03     32.8695E-03
            1863            2587     35.2675E-03     37.0907E-03
            1863            2588     34.1416E-03     35.9413E-03
            1863            2594     31.7014E-03     32.8695E-03
            1863            2595     30.4054E-03     31.6079E-03
            1864            2588     34.1416E-03     35.9413E-03
            1864            2589     38.7999E-03     40.3071E-03
            1864            2595     30.4054E-03     31.6079E-03
            1864            2596     35.6371E-03     36.0198E-03
            1865            2589     38.7999E-03     40.3071E-03
            1865            2590     48.3442E-03     49.3300E-03
            1865            2596     35.6371E-03     36.0198E-03
            1865            2597     47.4624E-03     46.8975E-03
            1866            2590     48.3442E-03     49.3300E-03
            1866            2591     59.9146E-03     60.0882E-03
            1866            2597     47.4624E-03     46.8975E-03
            1866            2598     64.9950E-03     63.2475E-03
            1867             139     74.7861E-03     72.2338E-03
            1867             140     65.6294E-03     65.3545E-03
            1867            2591     59.9146E-03     60.0882E-03
            1867            2598     64.9950E-03     63.2475E-03
            1868             514     55.8275E-03     50.3179E-03
            1868             515     65.6290E-03     64.2225E-03
            1868            2592     56.5878E-03     55.9486E-03
            1868            2599     50.1849E-03     45.5143E-03
            1869            2592     56.5878E-03     55.9486E-03
            1869            2593     40.8460E-03     41.3519E-03
            1869            2599     50.1849E-03     45.5143E-03
            1869            2600     40.1905E-03     37.5406E-03
            1870            2593     40.8460E-03     41.3519E-03
            1870            2594     31.7014E-03     32.8695E-03
            1870            2600     40.1905E-03     37.5406E-03
            1870            2601     34.2302E-03     33.2606E-03
            1871            2594     31.7014E-03     32.8695E-03
            1871            2595     30.4054E-03     31.6079E-03
            1871            2601     34.2302E-03     33.2606E-03
            1871            2602     33.5793E-03     33.0019E-03
            1872            2595     30.4054E-03     31.6079E-03
            1872            2596     35.6371E-03     36.0198E-03
            1872            2602     33.5793E-03     33.0019E-03
            1872            2603     37.9288E-03     36.4736E-03
            1873            2596     35.6371E-03     36.0198E-03
            1873            2597     47.4624E-03     46.8975E-03
            1873            2603     37.9288E-03     36.4736E-03
            1873            2604     46.5213E-03     43.3083E-03
            1874            2597     47.4624E-03     46.8975E-03
            1874            2598     64.9950E-03     63.2475E-03
            1874            2604     46.5213E-03     43.3083E-03
            1874            2605     58.8617E-03     53.9404E-03
            1875             138     66.0015E-03     60.3581E-03
            1875             139     74.7861E-03     72.2338E-03
            1875            2598     64.9950E-03     63.2475E-03
            1875            2605     58.8617E-03     53.9404E-03
            1876             513     45.0979E-03     43.0143E-03
            1876             514     55.8275E-03     50.3179E-03
            1876            2599     50.1849E-03     45.5143E-03
            1876            2606     44.6923E-03     41.6753E-03
            1877            2599     50.1849E-03     45.5143E-03
            1877            2600     40.1905E-03     37.5406E-03
            1877            2606     44.6923E-03     41.6753E-03
            1877            2607     41.9290E-03     38.2531E-03
            1878            2600     40.1905E-03     37.5406E-03
            1878            2601     34.2302E-03     33.2606E-03
            1878            2607     41.9290E-03     38.2531E-03
            1878            2608     38.5356E-03     35.5060E-03
            1879            2601     34.2302E-03     33.2606E-03
            1879            2602     33.5793E-03     33.0019E-03
            1879            2608     38.5356E-03     35.5060E-03
            1879            2609     38.5214E-03     35.9798E-03
            1880            2602     33.5793E-03     33.0019E-03
            1880            2603     37.9288E-03     36.4736E-03
            1880            2609     38.5214E-03     35.9798E-03
            1880            2610     42.3718E-03     39.7941E-03
            1881            2603     37.9288E-03     36.4736E-03
            1881            2604     46.5213E-03     43.3083E-03
            1881            2610     42.3718E-03     39.7941E-03
            1881            2611     48.7451E-03     46.0344E-03
            1882            2604     46.5213E-03     43.3083E-03
            1882            2605     58.8617E-03     53.9404E-03
            1882            2611     48.7451E-03     46.0344E-03
            1882            2612     54.4603E-03     52.3893E-03
            1883             137     56.6308E-03     55.1801E-03
            1883             138     66.0015E-03     60.3581E-03
            1883            2605     58.8617E-03     53.9404E-03
            1883            2612     54.4603E-03     52.3893E-03
            1884             512     52.3996E-03     54.2596E-03
            1884             513     45.0979E-03     43.0143E-03
            1884            2606     44.6923E-03     41.6753E-03
            1884            2613     49.0056E-03     50.1710E-03
            1885            2606     44.6923E-03     41.6753E-03
            1885            2607     41.9290E-03     38.2531E-03
            1885            2613     49.0056E-03     50.1710E-03
            1885            2614     42.7612E-03     41.6254E-03
            1886            2607     41.9290E-03     38.2531E-03
            1886            2608     38.5356E-03     35.5060E-03
            1886            2614     42.7612E-03     41.6254E-03
            1886            2615     38.2796E-03     35.1534E-03
            1887            2608     38.5356E-03     35.5060E-03
            1887            2609     38.5214E-03     35.9798E-03
            1887            2615     38.2796E-03     35.1534E-03
            1887            2616     38.0517E-03     34.7803E-03
            1888            2609     38.5214E-03     35.9798E-03
            1888            2610     42.3718E-03     39.7941E-03
            1888            2616     38.0517E-03     34.7803E-03
            1888            2617     43.2434E-03     40.9208E-03
            1889            2610     42.3718E-03     39.7941E-03
            1889            2611     48.7451E-03     46.0344E-03
            1889            2617     43.2434E-03     40.9208E-03
            1889            2618     51.5791E-03     51.2475E-03
            1890            2611     48.7451E-03     46.0344E-03
            1890            2612     54.4603E-03     52.3893E-03
            1890            2618     51.5791E-03     51.2475E-03
            1890            2619     60.6385E-03     61.6884E-03
            1891             136     65.1508E-03     66.3010E-03
            1891             137     56.6308E-03     55.1801E-03
            1891            2612     54.4603E-03     52.3893E-03
            1891            2619     60.6385E-03     61.6884E-03
            1892             511     58.9460E-03     58.9119E-03
            1892             512     52.3996E-03     54.2596E-03
            1892            2613     49.0056E-03     50.1710E-03
            1892            2620     53.2318E-03     53.8478E-03
            1893            2613     49.0056E-03     50.1710E-03
            1893            2614     42.7612E-03     41.6254E-03
            1893            2620     53.2318E-03     53.8478E-03
            1893            2621     43.9442E-03     44.1228E-03
            1894            2614     42.7612E-03     41.6254E-03
            1894            2615     38.2796E-03     35.1534E-03
            1894            2621     43.9442E-03     44.1228E-03
            1894            2622     38.7383E-03     36.8285E-03
            1895            2615     38.2796E-03     35.1534E-03
            1895            2616     38.0517E-03     34.7803E-03
            1895            2622     38.7383E-03     36.8285E-03
            1895            2623     38.7164E-03     36.0637E-03
            1896            2616     38.0517E-03     34.7803E-03
            1896            2617     43.2434E-03     40.9208E-03
            1896            2623     38.7164E-03     36.0637E-03
            1896            2624     44.6404E-03     43.2401E-03
            1897            2617     43.2434E-03     40.9208E-03
            1897            2618     51.5791E-03     51.2475E-03
            1897            2624     44.6404E-03     43.2401E-03
            1897            2625     54.1422E-03     54.4242E-03
            1898            2618     51.5791E-03     51.2475E-03
            1898            2619     60.6385E-03     61.6884E-03
            1898            2625     54.1422E-03     54.4242E-03
            1898            2626     65.5945E-03     65.9384E-03
            1899             135     71.8584E-03     71.5760E-03
            1899             136     65.1508E-03     66.3010E-03
            1899            2619     60.6385E-03     61.6884E-03
            1899            2626     65.5945E-03     65.9384E-03
            1900             510     64.4776E-03     64.1567E-03
            1900             511     58.9460E-03     58.9119E-03
            1900            2620     53.2318E-03     53.8478E-03
            1900            2627     57.5333E-03     57.5708E-03
            1901            2620     53.2318E-03     53.8478E-03
            1901            2621     43.9442E-03     44.1228E-03
            1901            2627     57.5333E-03     57.5708E-03
            1901            2628     45.8226E-03     45.9792E-03
            1902            2621     43.9442E-03     44.1228E-03
            1902            2622     38.7383E-03     36.8285E-03
            1902            2628     45.8226E-03     45.9792E-03
            1902            2629     39.3197E-03     38.5033E-03
            1903            2622     38.7383E-03     36.8285E-03
            1903            2623     38.7164E-03     36.0637E-03
            1903            2629     39.3197E-03     38.5033E-03
            1903            2630     39.4377E-03     37.9822E-03
            1904            2623     38.7164E-03     36.0637E-03
            1904            2624     44.6404E-03     43.2401E-03
            1904            2630     39.4377E-03     37.9822E-03
            1904            2631     45.9231E-03     45.1607E-03
            1905            2624     44.6404E-03     43.2401E-03
            1905            2625     54.1422E-03     54.4242E-03
            1905            2631     45.9231E-03     45.1607E-03
            1905            2632     56.7857E-03     56.7263E-03
            1906            2625     54.1422E-03     54.4242E-03
            1906            2626     65.5945E-03     65.9384E-03
            1906            2632     56.7857E-03     56.7263E-03
            1906            2633     70.4886E-03     70.1175E-03
            1907             134     77.9597E-03     77.1725E-03
            1907             135     71.8584E-03     71.5760E-03
            1907            2626     65.5945E-03     65.9384E-03
            1907            2633     70.4886E-03     70.1175E-03
            1908             509     69.8225E-03     68.9847E-03
            1908             510     64.4776E-03     64.1567E-03
            1908            2627     57.5333E-03     57.5708E-03
            1908            2634     61.8416E-03     61.5245E-03
            1909            2627     57.5333E-03     57.5708E-03
            1909            2628     45.8226E-03     45.9792E-03
            1909            2634     61.8416E-03     61.5245E-03
            1909            2635     48.1233E-03     48.2963E-03
            1910            2628     45.8226E-03     45.9792E-03
            1910            2629     39.3197E-03     38.5033E-03
            1910            2635     48.1233E-03     48.2963E-03
            1910            2636     40.1393E-03     40.0392E-03
            1911            2629     39.3197E-03     38.5033E-03
            1911            2630     39.4377E-03     37.9822E-03
            1911            2636     40.1393E-03     40.0392E-03
            1911            2637     39.9342E-03     39.5582E-03
            1912            2630     39.4377E-03     37.9822E-03
            1912            2631     45.9231E-03     45.1607E-03
            1912            2637     39.9342E-03     39.5582E-03
            1912            2638     47.2323E-03     46.9425E-03
            1913            2631     45.9231E-03     45.1607E-03
            1913            2632     56.7857E-03     56.7263E-03
            1913            2638     47.2323E-03     46.9425E-03
            1913            2639     59.6425E-03     59.4046E-03
            1914            2632     56.7857E-03     56.7263E-03
            1914            2633     70.4886E-03     70.1175E-03
            1914            2639     59.6425E-03     59.4046E-03
            1914            2640     75.1962E-03     74.4707E-03
            1915             133     83.5962E-03     82.4510E-03
            1915             134     77.9597E-03     77.1725E-03
            1915            2633     70.4886E-03     70.1175E-03
            1915            2640     75.1962E-03     74.4707E-03
            1916             508     75.0412E-03     74.1524E-03
            1916             509     69.8225E-03     68.9847E-03
            1916            2634     61.8416E-03     61.5245E-03
            1916            2641     66.2253E-03     65.7785E-03
            1917            2634     61.8416E-03     61.5245E-03
            1917            2635     48.1233E-03     48.2963E-03
            1917            2641     66.2253E-03     65.7785E-03
            1917            2642     50.7269E-03     51.0507E-03
            1918            2635     48.1233E-03     48.2963E-03
            1918            2636     40.1393E-03     40.0392E-03
            1918            2642     50.7269E-03     51.0507E-03
            1918            2643     41.0964E-03     41.7174E-03
            1919            2636     40.1393E-03     40.0392E-03
            1919            2637     39.9342E-03     39.5582E-03
            1919            2643     41.0964E-03     41.7174E-03
            1919            2644     40.3076E-03     40.8014E-03
            1920            2637     39.9342E-03     39.5582E-03
            1920            2638     47.2323E-03     46.9425E-03
            1920            2644     40.3076E-03     40.8014E-03
            1920            2645     48.5628E-03     48.8503E-03
            1921            2638     47.2323E-03     46.9425E-03
            1921            2639     59.6425E-03     59.4046E-03
            1921            2645     48.5628E-03     48.8503E-03
            1921            2646     62.6587E-03     62.5381E-03
            1922            2639     59.6425E-03     59.4046E-03
            1922            2640     75.1962E-03     74.4707E-03
            1922            2646     62.6587E-03     62.5381E-03
            1922            2647     79.9249E-03     79.0483E-03
            1923             132     89.1912E-03     87.8560E-03
            1923             133     83.5962E-03     82.4510E-03
            1923            2640     75.1962E-03     74.4707E-03
            1923            2647     79.9249E-03     79.0483E-03
            1924             507     80.4578E-03     79.4863E-03
            1924             508     75.0412E-03     74.1524E-03
            1924            2641     66.2253E-03     65.7785E-03
            1924            2648     70.7553E-03     70.3646E-03
            1925            2641     66.2253E-03     65.7785E-03
            1925            2642     50.7269E-03     51.0507E-03
            1925            2648     70.7553E-03     70.3646E-03
            1925            2649     53.2501E-03     53.8975E-03
            1926            2642     50.7269E-03     51.0507E-03
            1926            2643     41.0964E-03     41.7174E-03
            1926            2649     53.2501E-03     53.8975E-03
            1926            2650     41.9681E-03     43.4283E-03
            1927            2643     41.0964E-03     41.7174E-03
            1927            2644     40.3076E-03     40.8014E-03
            1927            2650     41.9681E-03     43.4283E-03
            1927            2651     40.8593E-03     42.5568E-03
            1928            2644     40.3076E-03     40.8014E-03
            1928            2645     48.5628E-03     48.8503E-03
            1928            2651     40.8593E-03     42.5568E-03
            1928            2652     49.8423E-03     50.9667E-03
            1929            2645     48.5628E-03     48.8503E-03
            1929            2646     62.6587E-03     62.5381E-03
            1929            2652     49.8423E-03     50.9667E-03
            1929            2653     65.5436E-03     65.7396E-03
            1930            2646     62.6587E-03     62.5381E-03
            1930            2647     79.9249E-03     79.0483E-03
            1930            2653     65.5436E-03     65.7396E-03
            1930            2654     84.7324E-03     83.9385E-03
            1931             131     94.8324E-03     93.5221E-03
            1931             132     89.1912E-03     87.8560E-03
            1931            2647     79.9249E-03     79.0483E-03
            1931            2654     84.7324E-03     83.9385E-03
            1932             506     85.5747E-03     84.7677E-03
            1932             507     80.4578E-03     79.4863E-03
            1932            2648     70.7553E-03     70.3646E-03
            1932            2655     75.0678E-03     74.9718E-03
            1933            2648     70.7553E-03     70.3646E-03
            1933            2649     53.2501E-03     53.8975E-03
            1933            2655     75.0678E-03     74.9718E-03
            1933            2656     56.0160E-03     57.4409E-03
            1934            2649     53.2501E-03     53.8975E-03
            1934            2650     41.9681E-03     43.4283E-03
            1934            2656     56.0160E-03     57.4409E-03
            1934            2657     42.6373E-03     45.2842E-03
            1935            2650     41.9681E-03     43.4283E-03
            1935            2651     40.8593E-03     42.5568E-03
            1935            2657     42.6373E-03     45.2842E-03
            1935            2658     40.2350E-03     43.1511E-03
            1936            2651     40.8593E-03     42.5568E-03
            1936            2652     49.8423E-03     50.9667E-03
            1936            2658     40.2350E-03     43.1511E-03
            1936            2659     50.7747E-03     53.0920E-03
            1937            2652     49.8423E-03     50.9667E-03
            1937            2653     65.5436E-03     65.7396E-03
            1937            2659     50.7747E-03     53.0920E-03
            1937            2660     68.6455E-03     69.7438E-03
            1938            2653     65.5436E-03     65.7396E-03
            1938            2654     84.7324E-03     83.9385E-03
            1938            2660     68.6455E-03     69.7438E-03
            1938            2661     89.3394E-03     88.8260E-03
            1939             130     100.271E-03     98.9087E-03
            1939             131     94.8324E-03     93.5221E-03
            1939            2654     84.7324E-03     83.9385E-03
            1939            2661     89.3394E-03     88.8260E-03
            1940             505     92.1714E-03     92.0405E-03
            1940             506     85.5747E-03     84.7677E-03
            1940            2655     75.0678E-03     74.9718E-03
            1940            2662     80.6602E-03     81.3669E-03
            1941            2655     75.0678E-03     74.9718E-03
            1941            2656     56.0160E-03     57.4409E-03
            1941            2662     80.6602E-03     81.3669E-03
            1941            2663     58.0450E-03     60.2554E-03
            1942            2656     56.0160E-03     57.4409E-03
            1942            2657     42.6373E-03     45.2842E-03
            1942            2663     58.0450E-03     60.2554E-03
            1942            2664     41.0672E-03     44.3190E-03
            1943            2657     42.6373E-03     45.2842E-03
            1943            2658     40.2350E-03     43.1511E-03
            1943            2664     41.0672E-03     44.3190E-03
            1943            2665     37.8253E-03     41.0943E-03
            1944            2658     40.2350E-03     43.1511E-03
            1944            2659     50.7747E-03     53.0920E-03
            1944            2665     37.8253E-03     41.0943E-03
            1944            2666     49.5153E-03     52.0060E-03
            1945            2659     50.7747E-03     53.0920E-03
            1945            2660     68.6455E-03     69.7438E-03
            1945            2666     49.5153E-03     52.0060E-03
            1945            2667     70.9767E-03     72.6798E-03
            1946            2660     68.6455E-03     69.7438E-03
            1946            2661     89.3394E-03     88.8260E-03
            1946            2667     70.9767E-03     72.6798E-03
            1946            2668     95.2436E-03     95.7854E-03
            1947             129     107.107E-03     106.855E-03
            1947             130     100.271E-03     98.9087E-03
            1947            2661     89.3394E-03     88.8260E-03
            1947            2668     95.2436E-03     95.7854E-03
            1948             504     101.010E-03     98.2387E-03
            1948             505     92.1714E-03     92.0405E-03
            1948            2662     80.6602E-03     81.3669E-03
            1948            2669     84.9617E-03     83.2496E-03
            1949            2662     80.6602E-03     81.3669E-03
            1949            2663     58.0450E-03     60.2554E-03
            1949            2669     84.9617E-03     83.2496E-03
            1949            2670     55.8361E-03     55.8981E-03
            1950            2663     58.0450E-03     60.2554E-03
            1950            2664     41.0672E-03     44.3190E-03
            1950            2670     55.8361E-03     55.8981E-03
            1950            2671     36.1736E-03     37.8854E-03
            1951            2664     41.0672E-03     44.3190E-03
            1951            2665     37.8253E-03     41.0943E-03
            1951            2671     36.1736E-03     37.8854E-03
            1951            2672     32.6264E-03     34.6730E-03
            1952            2665     37.8253E-03     41.0943E-03
            1952            2666     49.5153E-03     52.0060E-03
            1952            2672     32.6264E-03     34.6730E-03
            1952            2673     45.2394E-03     45.4661E-03
            1953            2666     49.5153E-03     52.0060E-03
            1953            2667     70.9767E-03     72.6798E-03
            1953            2673     45.2394E-03     45.4661E-03
            1953            2674     69.1121E-03     67.5386E-03
            1954            2667     70.9767E-03     72.6798E-03
            1954            2668     95.2436E-03     95.7854E-03
            1954            2674     69.1121E-03     67.5386E-03
            1954            2675     100.306E-03     97.1466E-03
            1955             128     117.202E-03     113.037E-03
            1955             129     107.107E-03     106.855E-03
            1955            2668     95.2436E-03     95.7854E-03
            1955            2675     100.306E-03     97.1466E-03
            1956             503     89.4535E-03     80.0452E-03
            1956             504     101.010E-03     98.2387E-03
            1956            2669     84.9617E-03     83.2496E-03
            1956            2676     76.6525E-03     68.3832E-03
            1957            2669     84.9617E-03     83.2496E-03
            1957            2670     55.8361E-03     55.8981E-03
            1957            2676     76.6525E-03     68.3832E-03
            1957            2677     54.4047E-03     49.2794E-03
            1958            2670     55.8361E-03     55.8981E-03
            1958            2671     36.1736E-03     37.8854E-03
            1958            2677     54.4047E-03     49.2794E-03
            1958            2678     39.9109E-03     38.0495E-03
            1959            2671     36.1736E-03     37.8854E-03
            1959            2672     32.6264E-03     34.6730E-03
            1959            2678     39.9109E-03     38.0495E-03
            1959            2679     37.3989E-03     36.4235E-03
            1960            2672     32.6264E-03     34.6730E-03
            1960            2673     45.2394E-03     45.4661E-03
            1960            2679     37.3989E-03     36.4235E-03
            1960            2680     48.2248E-03     45.4272E-03
            1961            2673     45.2394E-03     45.4661E-03
            1961            2674     69.1121E-03     67.5386E-03
            1961            2680     48.2248E-03     45.4272E-03
            1961            2681     67.1510E-03     61.1681E-03
            1962            2674     69.1121E-03     67.5386E-03
            1962            2675     100.306E-03     97.1466E-03
            1962            2681     67.1510E-03     61.1681E-03
            1962            2682     92.5345E-03     83.7847E-03
            1963             127     107.283E-03     97.5018E-03
            1963             128     117.202E-03     113.037E-03
            1963            2675     100.306E-03     97.1466E-03
            1963            2682     92.5345E-03     83.7847E-03
            1964             502     77.0899E-03     73.3754E-03
            1964             503     89.4535E-03     80.0452E-03
            1964            2676     76.6525E-03     68.3832E-03
            1964            2683     70.3626E-03     65.6369E-03
            1965            2676     76.6525E-03     68.3832E-03
            1965            2677     54.4047E-03     49.2794E-03
            1965            2683     70.3626E-03     65.6369E-03
            1965            2684     56.3995E-03     50.9460E-03
            1966            2677     54.4047E-03     49.2794E-03
            1966            2678     39.9109E-03     38.0495E-03
            1966            2684     56.3995E-03     50.9460E-03
            1966            2685     45.5009E-03     40.8871E-03
            1967            2678     39.9109E-03     38.0495E-03
            1967            2679     37.3989E-03     36.4235E-03
            1967            2685     45.5009E-03     40.8871E-03
            1967            2686     44.2733E-03     40.4306E-03
            1968            2679     37.3989E-03     36.4235E-03
            1968            2680     48.2248E-03     45.4272E-03
            1968            2686     44.2733E-03     40.4306E-03
            1968            2687     53.8252E-03     49.8605E-03
            1969            2680     48.2248E-03     45.4272E-03
            1969            2681     67.1510E-03     61.1681E-03
            1969            2687     53.8252E-03     49.8605E-03
            1969            2688     69.9789E-03     65.6355E-03
            1970            2681     67.1510E-03     61.1681E-03
            1970            2682     92.5345E-03     83.7847E-03
            1970            2688     69.9789E-03     65.6355E-03
            1970            2689     87.7042E-03     83.9322E-03
            1971             126     96.3924E-03     93.2338E-03
            1971             127     107.283E-03     97.5018E-03
            1971            2682     92.5345E-03     83.7847E-03
            1971            2689     87.7042E-03     83.9322E-03
            1972             501     85.6013E-03     87.6725E-03
            1972             502     77.0899E-03     73.3754E-03
            1972            2683     70.3626E-03     65.6369E-03
            1972            2690     75.9178E-03     77.6017E-03
            1973            2683     70.3626E-03     65.6369E-03
            1973            2684     56.3995E-03     50.9460E-03
            1973            2690     75.9178E-03     77.6017E-03
            1973            2691     57.7135E-03     56.7090E-03
            1974            2684     56.3995E-03     50.9460E-03
            1974            2685     45.5009E-03     40.8871E-03
            1974            2691     57.7135E-03     56.7090E-03
            1974            2692     44.3265E-03     40.0207E-03
            1975            2685     45.5009E-03     40.8871E-03
            1975            2686     44.2733E-03     40.4306E-03
            1975            2692     44.3265E-03     40.0207E-03
            1975            2693     42.6229E-03     37.8482E-03
            1976            2686     44.2733E-03     40.4306E-03
            1976            2687     53.8252E-03     49.8605E-03
            1976            2693     42.6229E-03     37.8482E-03
            1976            2694     54.5721E-03     51.5526E-03
            1977            2687     53.8252E-03     49.8605E-03
            1977            2688     69.9789E-03     65.6355E-03
            1977            2694     54.5721E-03     51.5526E-03
            1977            2695     73.9444E-03     73.8988E-03
            1978            2688     69.9789E-03     65.6355E-03
            1978            2689     87.7042E-03     83.9322E-03
            1978            2695     73.9444E-03     73.8988E-03
            1978            2696     95.0509E-03     96.5433E-03
            1979             125     105.572E-03     106.852E-03
            1979             126     96.3924E-03     93.2338E-03
            1979            2689     87.7042E-03     83.9322E-03
            1979            2696     95.0509E-03     96.5433E-03
            1980             500     92.9566E-03     92.5340E-03
            1980             501     85.6013E-03     87.6725E-03
            1980            2690     75.9178E-03     77.6017E-03
            1980            2697     80.9249E-03     81.6402E-03
            1981            2690     75.9178E-03     77.6017E-03
            1981            2691     57.7135E-03     56.7090E-03
            1981            2697     80.9249E-03     81.6402E-03
            1981            2698     59.3813E-03     59.9715E-03
            1982            2691     57.7135E-03     56.7090E-03
            1982            2692     44.3265E-03     40.0207E-03
            1982            2698     59.3813E-03     59.9715E-03
            1982            2699     44.6467E-03     42.1362E-03
            1983            2692     44.3265E-03     40.0207E-03
            1983            2693     42.6229E-03     37.8482E-03
            1983            2699     44.6467E-03     42.1362E-03
            1983            2700     42.9667E-03     39.1766E-03
            1984            2693     42.6229E-03     37.8482E-03
            1984            2694     54.5721E-03     51.5526E-03
            1984            2700     42.9667E-03     39.1766E-03
            1984            2701     56.2334E-03     54.6410E-03
            1985            2694     54.5721E-03     51.5526E-03
            1985            2695     73.9444E-03     73.8988E-03
            1985            2701     56.2334E-03     54.6410E-03
            1985            2702     77.1423E-03     77.8974E-03
            1986            2695     73.9444E-03     73.8988E-03
            1986            2696     95.0509E-03     96.5433E-03
            1986            2702     77.1423E-03     77.8974E-03
            1986            2703     100.623E-03     100.982E-03
            1987             124     112.920E-03     112.174E-03
            1987             125     105.572E-03     106.852E-03
            1987            2696     95.0509E-03     96.5433E-03
            1987            2703     100.623E-03     100.982E-03
            1988             499     99.1133E-03     98.3689E-03
            1988             500     92.9566E-03     92.5340E-03
            1988            2697     80.9249E-03     81.6402E-03
            1988            2704     85.8683E-03     85.7272E-03
            1989            2697     80.9249E-03     81.6402E-03
            1989            2698     59.3813E-03     59.9715E-03
            1989            2704     85.8683E-03     85.7272E-03
            1989            2705     61.7315E-03     62.0038E-03
            1990            2698     59.3813E-03     59.9715E-03
            1990            2699     44.6467E-03     42.1362E-03
            1990            2705     61.7315E-03     62.0038E-03
            1990            2706     45.3679E-03     44.2457E-03
            1991            2699     44.6467E-03     42.1362E-03
            1991            2700     42.9667E-03     39.1766E-03
            1991            2706     45.3679E-03     44.2457E-03
            1991            2707     43.7998E-03     41.7542E-03
            1992            2700     42.9667E-03     39.1766E-03
            1992            2701     56.2334E-03     54.6410E-03
            1992            2707     43.7998E-03     41.7542E-03
            1992            2708     57.7979E-03     56.9378E-03
            1993            2701     56.2334E-03     54.6410E-03
            1993            2702     77.1423E-03     77.8974E-03
            1993            2708     57.7979E-03     56.9378E-03
            1993            2709     80.2430E-03     80.2803E-03
            1994            2702     77.1423E-03     77.8974E-03
            1994            2703     100.623E-03     100.982E-03
            1994            2709     80.2430E-03     80.2803E-03
            1994            2710     106.130E-03     105.479E-03
            1995             123     119.665E-03     118.333E-03
            1995             124     112.920E-03     112.174E-03
            1995            2703     100.623E-03     100.982E-03
            1995            2710     106.130E-03     105.479E-03
            1996             498     104.940E-03     103.568E-03
            1996             499     99.1133E-03     98.3689E-03
            1996            2704     85.8683E-03     85.7272E-03
            1996            2711     90.6924E-03     90.0733E-03
            1997            2704     85.8683E-03     85.7272E-03
            1997            2705     61.7315E-03     62.0038E-03
            1997            2711     90.6924E-03     90.0733E-03
            1997            2712     64.5243E-03     64.6975E-03
            1998            2705     61.7315E-03     62.0038E-03
            1998            2706     45.3679E-03     44.2457E-03
            1998            2712     64.5243E-03     64.6975E-03
            1998            2713     46.4769E-03     46.3152E-03
            1999            2706     45.3679E-03     44.2457E-03
            1999            2707     43.7998E-03     41.7542E-03
            1999            2713     46.4769E-03     46.3152E-03
            1999            2714     44.4763E-03     43.9401E-03
            2000            2707     43.7998E-03     41.7542E-03
            2000            2708     57.7979E-03     56.9378E-03
            2000            2714     44.4763E-03     43.9401E-03
            2000            2715     59.4263E-03     59.0916E-03
            2001            2708     57.7979E-03     56.9378E-03
            2001            2709     80.2430E-03     80.2803E-03
            2001            2715     59.4263E-03     59.0916E-03
            2001            2716     83.5493E-03     83.2479E-03
            2002            2709     80.2430E-03     80.2803E-03
            2002            2710     106.130E-03     105.479E-03
            2002            2716     83.5493E-03     83.2479E-03
            2002            2717     111.302E-03     110.171E-03
            2003             122     125.755E-03     123.964E-03
            2003             123     119.665E-03     118.333E-03
            2003            2710     106.130E-03     105.479E-03
            2003            2717     111.302E-03     110.171E-03
            2004             497     110.608E-03     109.182E-03
            2004             498     104.940E-03     103.568E-03
            2004            2711     90.6924E-03     90.0733E-03
            2004            2718     95.5625E-03     94.8014E-03
            2005            2711     90.6924E-03     90.0733E-03
            2005            2712     64.5243E-03     64.6975E-03
            2005            2718     95.5625E-03     94.8014E-03
            2005            2719     67.6450E-03     68.0299E-03
            2006            2712     64.5243E-03     64.6975E-03
            2006            2713     46.4769E-03     46.3152E-03
            2006            2719     67.6450E-03     68.0299E-03
            2006            2720     47.7572E-03     48.6245E-03
            2007            2713     46.4769E-03     46.3152E-03
            2007            2714     44.4763E-03     43.9401E-03
            2007            2720     47.7572E-03     48.6245E-03
            2007            2721     45.0097E-03     45.7358E-03
            2008            2714     44.4763E-03     43.9401E-03
            2008            2715     59.4263E-03     59.0916E-03
            2008            2721     45.0097E-03     45.7358E-03
            2008            2722     61.0617E-03     61.4960E-03
            2009            2715     59.4263E-03     59.0916E-03
            2009            2716     83.5493E-03     83.2479E-03
            2009            2722     61.0617E-03     61.4960E-03
            2009            2723     86.9955E-03     86.8396E-03
            2010            2716     83.5493E-03     83.2479E-03
            2010            2717     111.302E-03     110.171E-03
            2010            2723     86.9955E-03     86.8396E-03
            2010            2724     116.456E-03     115.163E-03
            2011             121     131.768E-03     129.777E-03
            2011             122     125.755E-03     123.964E-03
            2011            2717     111.302E-03     110.171E-03
            2011            2724     116.456E-03     115.163E-03
            2012             496     116.476E-03     115.049E-03
            2012             497     110.608E-03     109.182E-03
            2012            2718     95.5625E-03     94.8014E-03
            2012            2725     100.560E-03     99.9631E-03
            2013            2718     95.5625E-03     94.8014E-03
            2013            2719     67.6450E-03     68.0299E-03
            2013            2725     100.560E-03     99.9631E-03
            2013            2726     70.6157E-03     71.5270E-03
            2014            2719     67.6450E-03     68.0299E-03
            2014            2720     47.7572E-03     48.6245E-03
            2014            2726     70.6157E-03     71.5270E-03
            2014            2727     48.9372E-03     51.0994E-03
            2015            2720     47.7572E-03     48.6245E-03
            2015            2721     45.0097E-03     45.7358E-03
            2015            2727     48.9372E-03     51.0994E-03
            2015            2728     45.8240E-03     48.3374E-03
            2016            2721     45.0097E-03     45.7358E-03
            2016            2722     61.0617E-03     61.4960E-03
            2016            2728     45.8240E-03     48.3374E-03
            2016            2729     62.6568E-03     64.3181E-03
            2017            2722     61.0617E-03     61.4960E-03
            2017            2723     86.9955E-03     86.8396E-03
            2017            2729     62.6568E-03     64.3181E-03
            2017            2730     90.2337E-03     90.5860E-03
            2018            2723     86.9955E-03     86.8396E-03
            2018            2724     116.456E-03     115.163E-03
            2018            2730     90.2337E-03     90.5860E-03
            2018            2731     121.663E-03     120.557E-03
            2019             120     137.813E-03     135.925E-03
            2019             121     131.768E-03     129.777E-03
            2019            2724     116.456E-03     115.163E-03
            2019            2731     121.663E-03     120.557E-03
            2020             495     121.906E-03     120.684E-03
            2020             496     116.476E-03     115.049E-03
            2020            2725     100.560E-03     99.9631E-03
            2020            2732     105.221E-03     105.145E-03
            2021            2725     100.560E-03     99.9631E-03
            2021            2726     70.6157E-03     71.5270E-03
            2021            2732     105.221E-03     105.145E-03
            2021            2733     73.8551E-03     76.0261E-03
            2022            2726     70.6157E-03     71.5270E-03
            2022            2727     48.9372E-03     51.0994E-03
            2022            2733     73.8551E-03     76.0261E-03
            2022            2734     49.8441E-03     53.8003E-03
            2023            2727     48.9372E-03     51.0994E-03
            2023            2728     45.8240E-03     48.3374E-03
            2023            2734     49.8441E-03     53.8003E-03
            2023            2735     45.1112E-03     49.3974E-03
            2024            2728     45.8240E-03     48.3374E-03
            2024            2729     62.6568E-03     64.3181E-03
            2024            2735     45.1112E-03     49.3974E-03
            2024            2736     63.7771E-03     67.0996E-03
            2025            2729     62.6568E-03     64.3181E-03
            2025            2730     90.2337E-03     90.5860E-03
            2025            2736     63.7771E-03     67.0996E-03
            2025            2737     93.7166E-03     95.4350E-03
            2026            2730     90.2337E-03     90.5860E-03
            2026            2731     121.663E-03     120.557E-03
            2026            2737     93.7166E-03     95.4350E-03
            2026            2738     126.534E-03     125.958E-03
            2027             119     143.481E-03     141.604E-03
            2027             120     137.813E-03     135.925E-03
            2027            2731     121.663E-03     120.557E-03
            2027            2738     126.534E-03     125.958E-03
            2028             494     128.919E-03     128.931E-03
            2028             495     121.906E-03     120.684E-03
            2028            2732     105.221E-03     105.145E-03
            2028            2739     111.268E-03     112.466E-03
            2029            2732     105.221E-03     105.145E-03
            2029            2733     73.8551E-03     76.0261E-03
            2029            2739     111.268E-03     112.466E-03
            2029            2740     76.0400E-03     79.1775E-03
            2030            2733     73.8551E-03     76.0261E-03
            2030            2734     49.8441E-03     53.8003E-03
            2030            2740     76.0400E-03     79.1775E-03
            2030            2741     47.8958E-03     52.5582E-03
            2031            2734     49.8441E-03     53.8003E-03
            2031            2735     45.1112E-03     49.3974E-03
            2031            2741     47.8958E-03     52.5582E-03
            2031            2742     42.2186E-03     46.9482E-03
            2032            2735     45.1112E-03     49.3974E-03
            2032            2736     63.7771E-03     67.0996E-03
            2032            2742     42.2186E-03     46.9482E-03
            2032            2743     62.1457E-03     65.4890E-03
            2033            2736     63.7771E-03     67.0996E-03
            2033            2737     93.7166E-03     95.4350E-03
            2033            2743     62.1457E-03     65.4890E-03
            2033            2744     96.1083E-03     98.4824E-03
            2034            2737     93.7166E-03     95.4350E-03
            2034            2738     126.534E-03     125.958E-03
            2034            2744     96.1083E-03     98.4824E-03
            2034            2745     132.900E-03     133.849E-03
            2035             118     150.764E-03     150.578E-03
            2035             119     143.481E-03     141.604E-03
            2035            2738     126.534E-03     125.958E-03
            2035            2745     132.900E-03     133.849E-03
            2036             493     138.420E-03     134.166E-03
            2036             494     128.919E-03     128.931E-03
            2036            2739     111.268E-03     112.466E-03
            2036            2746     115.512E-03     112.518E-03
            2037            2739     111.268E-03     112.466E-03
            2037            2740     76.0400E-03     79.1775E-03
            2037            2746     115.512E-03     112.518E-03
            2037            2747     73.0456E-03     72.3104E-03
            2038            2740     76.0400E-03     79.1775E-03
            2038            2741     47.8958E-03     52.5582E-03
            2038            2747     73.0456E-03     72.3104E-03
            2038            2748     41.7593E-03     43.8286E-03
            2039            2741     47.8958E-03     52.5582E-03
            2039            2742     42.2186E-03     46.9482E-03
            2039            2748     41.7593E-03     43.8286E-03
            2039            2749     35.6635E-03     38.4479E-03
            2040            2742     42.2186E-03     46.9482E-03
            2040            2743     62.1457E-03     65.4890E-03
            2040            2749     35.6635E-03     38.4479E-03
            2040            2750     56.8422E-03     56.6827E-03
            2041            2743     62.1457E-03     65.4890E-03
            2041            2744     96.1083E-03     98.4824E-03
            2041            2750     56.8422E-03     56.6827E-03
            2041            2751     93.1971E-03     90.4331E-03
            2042            2744     96.1083E-03     98.4824E-03
            2042            2745     132.900E-03     133.849E-03
            2042            2751     93.1971E-03     90.4331E-03
            2042            2752     137.881E-03     133.195E-03
            2043             117     161.758E-03     155.901E-03
            2043             118     150.764E-03     150.578E-03
            2043            2745     132.900E-03     133.849E-03
            2043            2752     137.881E-03     133.195E-03
            2044             492     126.377E-03     113.844E-03
            2044             493     138.420E-03     134.166E-03
            2044            2746     115.512E-03     112.518E-03
            2044            2753     106.370E-03     95.1269E-03
            2045            2746     115.512E-03     112.518E-03
            2045            2747     73.0456E-03     72.3104E-03
            2045            2753     106.370E-03     95.1269E-03
            2045            2754     71.6025E-03     64.2516E-03
            2046            2747     73.0456E-03     72.3104E-03
            2046            2748     41.7593E-03     43.8286E-03
            2046            2754     71.6025E-03     64.2516E-03
            2046            2755     47.3240E-03     44.6401E-03
            2047            2748     41.7593E-03     43.8286E-03
            2047            2749     35.6635E-03     38.4479E-03
            2047            2755     47.3240E-03     44.6401E-03
            2047            2756     42.4226E-03     41.1064E-03
            2048            2749     35.6635E-03     38.4479E-03
            2048            2750     56.8422E-03     56.6827E-03
            2048            2756     42.4226E-03     41.1064E-03
            2048            2757     60.7913E-03     56.7323E-03
            2049            2750     56.8422E-03     56.6827E-03
            2049            2751     93.1971E-03     90.4331E-03
            2049            2757     60.7913E-03     56.7323E-03
            2049            2758     90.6735E-03     82.2017E-03
            2050            2751     93.1971E-03     90.4331E-03
            2050            2752     137.881E-03     133.195E-03
            2050            2758     90.6735E-03     82.2017E-03
            2050            2759     129.097E-03     117.012E-03
            2051             116     151.391E-03     138.058E-03
            2051             117     161.758E-03     155.901E-03
            2051            2752     137.881E-03     133.195E-03
            2051            2759     129.097E-03     117.012E-03
            2052             491     114.131E-03     109.613E-03
            2052             492     126.377E-03     113.844E-03
            2052            2753     106.370E-03     95.1269E-03
            2052            2760     100.947E-03     95.4652E-03
            2053            2753     106.370E-03     95.1269E-03
            2053            2754     71.6025E-03     64.2516E-03
            2053            2760     100.947E-03     95.4652E-03
            2053            2761     74.8128E-03     68.5898E-03
            2054            2754     71.6025E-03     64.2516E-03
            2054            2755     47.3240E-03     44.6401E-03
            2054            2761     74.8128E-03     68.5898E-03
            2054            2762     54.6942E-03     49.2604E-03
            2055            2755     47.3240E-03     44.6401E-03
            2055            2756     42.4226E-03     41.1064E-03
            2055            2762     54.6942E-03     49.2604E-03
            2055            2763     51.6641E-03     47.1211E-03
            2056            2756     42.4226E-03     41.1064E-03
            2056            2757     60.7913E-03     56.7323E-03
            2056            2763     51.6641E-03     47.1211E-03
            2056            2764     67.7799E-03     63.1227E-03
            2057            2757     60.7913E-03     56.7323E-03
            2057            2758     90.6735E-03     82.2017E-03
            2057            2764     67.7799E-03     63.1227E-03
            2057            2765     94.7709E-03     89.6167E-03
            2058            2758     90.6735E-03     82.2017E-03
            2058            2759     129.097E-03     117.012E-03
            2058            2765     94.7709E-03     89.6167E-03
            2058            2766     125.040E-03     120.297E-03
            2059             115     140.297E-03     136.023E-03
            2059             116     151.391E-03     138.058E-03
            2059            2759     129.097E-03     117.012E-03
            2059            2766     125.040E-03     120.297E-03
            2060             490     123.995E-03     126.613E-03
            2060             491     114.131E-03     109.613E-03
            2060            2760     100.947E-03     95.4652E-03
            2060            2767     108.044E-03     110.708E-03
            2061            2760     100.947E-03     95.4652E-03
            2061            2761     74.8128E-03     68.5898E-03
            2061            2767     108.044E-03     110.708E-03
            2061            2768     77.1375E-03     77.2207E-03
            2062            2761     74.8128E-03     68.5898E-03
            2062            2762     54.6942E-03     49.2604E-03
            2062            2768     77.1375E-03     77.2207E-03
            2062            2769     52.7960E-03     48.6016E-03
            2063            2762     54.6942E-03     49.2604E-03
            2063            2763     51.6641E-03     47.1211E-03
            2063            2769     52.7960E-03     48.6016E-03
            2063            2770     48.7083E-03     43.6947E-03
            2064            2763     51.6641E-03     47.1211E-03
            2064            2764     67.7799E-03     63.1227E-03
            2064            2770     48.7083E-03     43.6947E-03
            2064            2771     68.6252E-03     66.0695E-03
            2065            2764     67.7799E-03     63.1227E-03
            2065            2765     94.7709E-03     89.6167E-03
            2065            2771     68.6252E-03     66.0695E-03
            2065            2772     100.261E-03     101.312E-03
            2066            2765     94.7709E-03     89.6167E-03
            2066            2766     125.040E-03     120.297E-03
            2066            2772     100.261E-03     101.312E-03
            2066            2773     133.817E-03     136.225E-03
            2067             114     150.356E-03     152.141E-03
            2067             115     140.297E-03     136.023E-03
            2067            2766     125.040E-03     120.297E-03
            2067            2773     133.817E-03     136.225E-03
            2068             489     132.417E-03     132.071E-03
            2068             490     123.995E-03     126.613E-03
            2068            2767     108.044E-03     110.708E-03
            2068            2774     113.943E-03     115.455E-03
            2069            2767     108.044E-03     110.708E-03
            2069            2768     77.1375E-03     77.2207E-03
            2069            2774     113.943E-03     115.455E-03
            2069            2775     79.4645E-03     81.8117E-03
            2070            2768     77.1375E-03     77.2207E-03
            2070            2769     52.7960E-03     48.6016E-03
            2070            2775     79.4645E-03     81.8117E-03
            2070            2776     53.1661E-03     51.9619E-03
            2071            2769     52.7960E-03     48.6016E-03
            2071            2770     48.7083E-03     43.6947E-03
            2071            2776     53.1661E-03     51.9619E-03
            2071            2777     48.7215E-03     45.7668E-03
            2072            2770     48.7083E-03     43.6947E-03
            2072            2771     68.6252E-03     66.0695E-03
            2072            2777     48.7215E-03     45.7668E-03
            2072            2778     70.6690E-03     70.6037E-03
            2073            2771     68.6252E-03     66.0695E-03
            2073            2772     100.261E-03     101.312E-03
            2073            2778     70.6690E-03     70.6037E-03
            2073            2779     104.219E-03     106.747E-03
            2074            2772     100.261E-03     101.312E-03
            2074            2773     133.817E-03     136.225E-03
            2074            2779     104.219E-03     106.747E-03
            2074            2780     140.131E-03     141.216E-03
            2075             113     158.591E-03     157.750E-03
            2075             114     150.356E-03     152.141E-03
            2075            2773     133.817E-03     136.225E-03
            2075            2780     140.131E-03     141.216E-03
            2076             488     139.583E-03     139.179E-03
            2076             489     132.417E-03     132.071E-03
            2076            2774     113.943E-03     115.455E-03
            2076            2781     119.746E-03     120.590E-03
            2077            2774     113.943E-03     115.455E-03
            2077            2775     79.4645E-03     81.8117E-03
            2077            2781     119.746E-03     120.590E-03
            2077            2782     82.1122E-03     84.5088E-03
            2078            2775     79.4645E-03     81.8117E-03
            2078            2776     53.1661E-03     51.9619E-03
            2078            2782     82.1122E-03     84.5088E-03
            2078            2783     53.9015E-03     55.4992E-03
            2079            2776     53.1661E-03     51.9619E-03
            2079            2777     48.7215E-03     45.7668E-03
            2079            2783     53.9015E-03     55.4992E-03
            2079            2784     49.9250E-03     50.7563E-03
            2080            2777     48.7215E-03     45.7668E-03
            2080            2778     70.6690E-03     70.6037E-03
            2080            2784     49.9250E-03     50.7563E-03
            2080            2785     72.4782E-03     74.3958E-03
            2081            2778     70.6690E-03     70.6037E-03
            2081            2779     104.219E-03     106.747E-03
            2081            2785     72.4782E-03     74.3958E-03
            2081            2786     107.587E-03     109.730E-03
            2082            2779     104.219E-03     106.747E-03
            2082            2780     140.131E-03     141.216E-03
            2082            2786     107.587E-03     109.730E-03
            2082            2787     146.406E-03     146.677E-03
            2083             112     166.232E-03     165.156E-03
            2083             113     158.591E-03     157.750E-03
            2083            2780     140.131E-03     141.216E-03
            2083            2787     146.406E-03     146.677E-03
            2084             487     145.902E-03     144.874E-03
            2084             488     139.583E-03     139.179E-03
            2084            2781     119.746E-03     120.590E-03
            2084            2788     124.955E-03     125.799E-03
            2085            2781     119.746E-03     120.590E-03
            2085            2782     82.1122E-03     84.5088E-03
            2085            2788     124.955E-03     125.799E-03
            2085            2789     85.4630E-03     89.0413E-03
            2086            2782     82.1122E-03     84.5088E-03
            2086            2783     53.9015E-03     55.4992E-03
            2086            2789     85.4630E-03     89.0413E-03
            2086            2790     54.7561E-03     59.1801E-03
            2087            2783     53.9015E-03     55.4992E-03
            2087            2784     49.9250E-03     50.7563E-03
            2087            2790     54.7561E-03     59.1801E-03
            2087            2791     49.1350E-03     53.2487E-03
            2088            2784     49.9250E-03     50.7563E-03
            2088            2785     72.4782E-03     74.3958E-03
            2088            2791     49.1350E-03     53.2487E-03
            2088            2792     73.7135E-03     77.6263E-03
            2089            2785     72.4782E-03     74.3958E-03
            2089            2786     107.587E-03     109.730E-03
            2089            2792     73.7135E-03     77.6263E-03
            2089            2793     111.412E-03     114.551E-03
            2090            2786     107.587E-03     109.730E-03
            2090            2787     146.406E-03     146.677E-03
            2090            2793     111.412E-03     114.551E-03
            2090            2794     151.913E-03     152.177E-03
            2091             111     172.753E-03     171.010E-03
            2091             112     166.232E-03     165.156E-03
            2091            2787     146.406E-03     146.677E-03
            2091            2794     151.913E-03     152.177E-03
            2092             486     153.328E-03     153.882E-03
            2092             487     145.902E-03     144.874E-03
            2092            2788     124.955E-03     125.799E-03
            2092            2795     131.465E-03     133.539E-03
            2093            2788     124.955E-03     125.799E-03
            2093            2789     85.4630E-03     89.0413E-03
            2093            2795     131.465E-03     133.539E-03
            2093            2796     87.7943E-03     92.0637E-03
            2094            2789     85.4630E-03     89.0413E-03
            2094            2790     54.7561E-03     59.1801E-03
            2094            2796     87.7943E-03     92.0637E-03
            2094            2797     52.4515E-03     58.0180E-03
            2095            2790     54.7561E-03     59.1801E-03
            2095            2791     49.1350E-03     53.2487E-03
            2095            2797     52.4515E-03     58.0180E-03
            2095            2798     45.8632E-03     51.1232E-03
            2096            2791     49.1350E-03     53.2487E-03
            2096            2792     73.7135E-03     77.6263E-03
            2096            2798     45.8632E-03     51.1232E-03
            2096            2799     71.8295E-03     75.6990E-03
            2097            2792     73.7135E-03     77.6263E-03
            2097            2793     111.412E-03     114.551E-03
            2097            2799     71.8295E-03     75.6990E-03
            2097            2800     113.947E-03     117.237E-03
            2098            2793     111.412E-03     114.551E-03
            2098            2794     151.913E-03     152.177E-03
            2098            2800     113.947E-03     117.237E-03
            2098            2801     158.838E-03     160.554E-03
            2099             110     180.631E-03     180.890E-03
            2099             111     172.753E-03     171.010E-03
            2099            2794     151.913E-03     152.177E-03
            2099            2801     158.838E-03     160.554E-03
            2100             485     163.490E-03     158.367E-03
            2100             486     153.328E-03     153.882E-03
            2100            2795     131.465E-03     133.539E-03
            2100            2802     135.884E-03     132.223E-03
            2101            2795     131.465E-03     133.539E-03
            2101            2796     87.7943E-03     92.0637E-03
            2101            2802     135.884E-03     132.223E-03
            2101            2803     84.4319E-03     83.3752E-03
            2102            2796     87.7943E-03     92.0637E-03
            2102            2797     52.4515E-03     58.0180E-03
            2102            2803     84.4319E-03     83.3752E-03
            2102            2804     45.4902E-03     47.8483E-03
            2103            2797     52.4515E-03     58.0180E-03
            2103            2798     45.8632E-03     51.1232E-03
            2103            2804     45.4902E-03     47.8483E-03
            2103            2805     38.4230E-03     41.5183E-03
            2104            2798     45.8632E-03     51.1232E-03
            2104            2799     71.8295E-03     75.6990E-03
            2104            2805     38.4230E-03     41.5183E-03
            2104            2806     65.9051E-03     65.3495E-03
            2105            2799     71.8295E-03     75.6990E-03
            2105            2800     113.947E-03     117.237E-03
            2105            2806     65.9051E-03     65.3495E-03
            2105            2807     110.434E-03     106.947E-03
            2106            2800     113.947E-03     117.237E-03
            2106            2801     158.838E-03     160.554E-03
            2106            2807     110.434E-03     106.947E-03
            2106            2808     164.060E-03     158.438E-03
            2107             109     192.611E-03     185.670E-03
            2107             110     180.631E-03     180.890E-03
            2107            2801     158.838E-03     160.554E-03
            2107            2808     164.060E-03     158.438E-03
            2108              25     142.001E-03     161.814E-03
            2108             484     118.985E-03     138.188E-03
            2108             485     163.490E-03     158.367E-03
            2108            2802     135.884E-03     132.223E-03
            2109             483     76.7547E-03     93.5169E-03
            2109             484     118.985E-03     138.188E-03
            2109            2802     135.884E-03     132.223E-03
            2109            2803     84.4319E-03     83.3752E-03
            2110             482     46.4121E-03     57.6061E-03
            2110             483     76.7547E-03     93.5169E-03
            2110            2803     84.4319E-03     83.3752E-03
            2110            2804     45.4902E-03     47.8483E-03
            2111             481     44.2270E-03     44.9963E-03
            2111             482     46.4121E-03     57.6061E-03
            2111            2804     45.4902E-03     47.8483E-03
            2111            2805     38.4230E-03     41.5183E-03
            2112             480     71.5162E-03     63.3120E-03
            2112             481     44.2270E-03     44.9963E-03
            2112            2805     38.4230E-03     41.5183E-03
            2112            2806     65.9051E-03     65.3495E-03
            2113             479     111.233E-03     100.418E-03
            2113             480     71.5162E-03     63.3120E-03
            2113            2806     65.9051E-03     65.3495E-03
            2113            2807     110.434E-03     106.947E-03
            2114             478     157.066E-03     145.954E-03
            2114             479     111.233E-03     100.418E-03
            2114            2807     110.434E-03     106.947E-03
            2114            2808     164.060E-03     158.438E-03
            2115               6     181.529E-03     170.444E-03
            2115             109     192.611E-03     185.670E-03
            2115             478     157.066E-03     145.954E-03
            2115            2808     164.060E-03     158.438E-03
            2116               3     11.2968E-03     11.3607E-03
            2116              50     818.776E-06     812.555E-06
            2116             477     12.4991E-03     12.5596E-03
            2116            2809     922.663E-06     927.224E-06
            2117             476     14.1463E-03     14.1182E-03
            2117             477     12.4991E-03     12.5596E-03
            2117            2809     922.663E-06     927.224E-06
            2117            2810     1.01016E-03     1.02309E-03
            2118             475     14.9538E-03     14.8697E-03
            2118             476     14.1463E-03     14.1182E-03
            2118            2810     1.01016E-03     1.02309E-03
            2118            2811     988.617E-06     999.821E-06
            2119             474     15.3635E-03     15.2605E-03
            2119             475     14.9538E-03     14.8697E-03
            2119            2811     988.617E-06     999.821E-06
            2119            2812     983.465E-06     995.363E-06
            2120             473     15.0744E-03     14.9498E-03
            2120             474     15.3635E-03     15.2605E-03
            2120            2812     983.465E-06     995.363E-06
            2120            2813     988.617E-06     999.821E-06
            2121             472     14.4527E-03     14.3121E-03
            2121             473     15.0744E-03     14.9498E-03
            2121            2813     988.617E-06     999.821E-06
            2121            2814     1.01016E-03     1.02309E-03
            2122             471     13.1027E-03     13.1506E-03
            2122             472     14.4527E-03     14.3121E-03
            2122            2814     1.01016E-03     1.02309E-03
            2122            2815     922.663E-06     927.224E-06
            2123              23     12.0381E-03     12.3172E-03
            2123             456     818.776E-06     812.555E-06
            2123             471     13.1027E-03     13.1506E-03
            2123            2815     922.663E-06     927.224E-06
            2124              50     818.776E-06     812.555E-06
            2124              51     742.881E-06     745.551E-06
            2124            2809     922.663E-06     927.224E-06
            2124            2816     882.549E-06     890.873E-06
            2125            2809     922.663E-06     927.224E-06
            2125            2810     1.01016E-03     1.02309E-03
            2125            2816     882.549E-06     890.873E-06
            2125            2817     1.01389E-03     1.02689E-03
            2126            2810     1.01016E-03     1.02309E-03
            2126            2811     988.617E-06     999.821E-06
            2126            2817     1.01389E-03     1.02689E-03
            2126            2818     1.00188E-03     1.01407E-03
            2127            2811     988.617E-06     999.821E-06
            2127            2812     983.465E-06     995.363E-06
            2127            2818     1.00188E-03     1.01407E-03
            2127            2819     998.200E-06     1.01057E-03
            2128            2812     983.465E-06     995.363E-06
            2128            2813     988.617E-06     999.821E-06
            2128            2819     998.200E-06     1.01057E-03
            2128            2820     1.00188E-03     1.01407E-03
            2129            2813     988.617E-06     999.821E-06
            2129            2814     1.01016E-03     1.02309E-03
            2129            2820     1.00188E-03     1.01407E-03
            2129            2821     1.01389E-03     1.02689E-03
            2130            2814     1.01016E-03     1.02309E-03
            2130            2815     922.663E-06     927.224E-06
            2130            2821     1.01389E-03     1.02689E-03
            2130            2822     882.549E-06     890.873E-06
            2131             456     818.776E-06     812.555E-06
            2131             457     742.881E-06     745.551E-06
            2131            2815     922.663E-06     927.224E-06
            2131            2822     882.549E-06     890.873E-06
            2132               4     726.721E-06     730.015E-06
            2132              51     742.881E-06     745.551E-06
            2132             538     851.858E-06     856.562E-06
            2132            2816     882.549E-06     890.873E-06
            2133             537     996.656E-06     1.00450E-03
            2133             538     851.858E-06     856.562E-06
            2133            2816     882.549E-06     890.873E-06
            2133            2817     1.01389E-03     1.02689E-03
            2134             536     1.01171E-03     1.02083E-03
            2134             537     996.656E-06     1.00450E-03
            2134            2817     1.01389E-03     1.02689E-03
            2134            2818     1.00188E-03     1.01407E-03
            2135             535     1.00710E-03     1.01577E-03
            2135             536     1.01171E-03     1.02083E-03
            2135            2818     1.00188E-03     1.01407E-03
            2135            2819     998.200E-06     1.01057E-03
            2136             534     1.01171E-03     1.02083E-03
            2136             535     1.00710E-03     1.01577E-03
            2136            2819     998.200E-06     1.01057E-03
            2136            2820     1.00188E-03     1.01407E-03
            2137             533     996.656E-06     1.00450E-03
            2137             534     1.01171E-03     1.02083E-03
            2137            2820     1.00188E-03     1.01407E-03
            2137            2821     1.01389E-03     1.02689E-03
            2138             532     851.858E-06     856.562E-06
            2138             533     996.656E-06     1.00450E-03
            2138            2821     1.01389E-03     1.02689E-03
            2138            2822     882.549E-06     890.873E-06
            2139              24     726.721E-06     730.015E-06
            2139             457     742.881E-06     745.551E-06
            2139             532     851.858E-06     856.562E-06
            2139            2822     882.549E-06     890.873E-06
            3835              27     224.967E-03     192.577E-03
            3835             723     184.534E-03     157.657E-03
            3835             742     215.577E-03     208.405E-03
            3835            4247     182.952E-03     177.751E-03
            3836             723     184.534E-03     157.657E-03
            3836             724     116.929E-03     99.2372E-03
            3836            4247     182.952E-03     177.751E-03
            3836            4248     122.187E-03     119.659E-03
            3837             724     116.929E-03     99.2372E-03
            3837             725     66.3543E-03     56.8253E-03
            3837            4248     122.187E-03     119.659E-03
            3837            4249     73.4421E-03     73.4341E-03
            3838             725     66.3543E-03     56.8253E-03
            3838             726     36.9276E-03     37.7437E-03
            3838            4249     73.4421E-03     73.4341E-03
            3838            4250     47.6293E-03     50.5983E-03
            3839             726     36.9276E-03     37.7437E-03
            3839             727     51.8084E-03     56.0902E-03
            3839            4250     47.6293E-03     50.5983E-03
            3839            4251     59.8092E-03     62.3640E-03
            3840             727     51.8084E-03     56.0902E-03
            3840             728     99.3096E-03     97.8136E-03
            3840            4251     59.8092E-03     62.3640E-03
            3840            4252     104.461E-03     104.561E-03
            3841             728     99.3096E-03     97.8136E-03
            3841             729     164.665E-03     156.295E-03
            3841            4252     104.461E-03     104.561E-03
            3841            4253     163.904E-03     160.865E-03
            3842               8     203.424E-03     191.569E-03
            3842             189     196.083E-03     190.787E-03
            3842             729     164.665E-03     156.295E-03
            3842            4253     163.904E-03     160.865E-03
            3843             741     200.018E-03     201.557E-03
            3843             742     215.577E-03     208.405E-03
            3843            4247     182.952E-03     177.751E-03
            3843            4254     175.720E-03     179.291E-03
            3844            4247     182.952E-03     177.751E-03
            3844            4248     122.187E-03     119.659E-03
            3844            4254     175.720E-03     179.291E-03
            3844            4255     126.098E-03     131.553E-03
            3845            4248     122.187E-03     119.659E-03
            3845            4249     73.4421E-03     73.4341E-03
            3845            4255     126.098E-03     131.553E-03
            3845            4256     80.8757E-03     85.3404E-03
            3846            4249     73.4421E-03     73.4341E-03
            3846            4250     47.6293E-03     50.5983E-03
            3846            4256     80.8757E-03     85.3404E-03
            3846            4257     56.5533E-03     60.6292E-03
            3847            4250     47.6293E-03     50.5983E-03
            3847            4251     59.8092E-03     62.3640E-03
            3847            4257     56.5533E-03     60.6292E-03
            3847            4258     68.3062E-03     73.8356E-03
            3848            4251     59.8092E-03     62.3640E-03
            3848            4252     104.461E-03     104.561E-03
            3848            4258     68.3062E-03     73.8356E-03
            3848            4259     108.886E-03     115.167E-03
            3849            4252     104.461E-03     104.561E-03
            3849            4253     163.904E-03     160.865E-03
            3849            4259     108.886E-03     115.167E-03
            3849            4260     157.717E-03     161.621E-03
            3850             188     182.145E-03     183.922E-03
            3850             189     196.083E-03     190.787E-03
            3850            4253     163.904E-03     160.865E-03
            3850            4260     157.717E-03     161.621E-03
            3851             740     188.338E-03     188.258E-03
            3851             741     200.018E-03     201.557E-03
            3851            4254     175.720E-03     179.291E-03
            3851            4261     166.140E-03     169.083E-03
            3852            4254     175.720E-03     179.291E-03
            3852            4255     126.098E-03     131.553E-03
            3852            4261     166.140E-03     169.083E-03
            3852            4262     123.203E-03     129.137E-03
            3853            4255     126.098E-03     131.553E-03
            3853            4256     80.8757E-03     85.3404E-03
            3853            4262     123.203E-03     129.137E-03
            3853            4263     83.2991E-03     87.0180E-03
            3854            4256     80.8757E-03     85.3404E-03
            3854            4257     56.5533E-03     60.6292E-03
            3854            4263     83.2991E-03     87.0180E-03
            3854            4264     60.2495E-03     61.5343E-03
            3855            4257     56.5533E-03     60.6292E-03
            3855            4258     68.3062E-03     73.8356E-03
            3855            4264     60.2495E-03     61.5343E-03
            3855            4265     71.6076E-03     74.9439E-03
            3856            4258     68.3062E-03     73.8356E-03
            3856            4259     108.886E-03     115.167E-03
            3856            4265     71.6076E-03     74.9439E-03
            3856            4266     106.609E-03     112.567E-03
            3857            4259     108.886E-03     115.167E-03
            3857            4260     157.717E-03     161.621E-03
            3857            4266     106.609E-03     112.567E-03
            3857            4267     148.667E-03     151.998E-03
            3858             187     170.965E-03     171.352E-03
            3858             188     182.145E-03     183.922E-03
            3858            4260     157.717E-03     161.621E-03
            3858            4267     148.667E-03     151.998E-03
            3859             739     178.127E-03     180.879E-03
            3859             740     188.338E-03     188.258E-03
            3859            4261     166.140E-03     169.083E-03
            3859            4268     158.388E-03     162.295E-03
            3860            4261     166.140E-03     169.083E-03
            3860            4262     123.203E-03     129.137E-03
            3860            4268     158.388E-03     162.295E-03
            3860            4269     118.366E-03     121.416E-03
            3861            4262     123.203E-03     129.137E-03
            3861            4263     83.2991E-03     87.0180E-03
            3861            4269     118.366E-03     121.416E-03
            3861            4270     81.8635E-03     81.4105E-03
            3862            4263     83.2991E-03     87.0180E-03
            3862            4264     60.2495E-03     61.5343E-03
            3862            4270     81.8635E-03     81.4105E-03
            3862            4271     62.1371E-03     59.7027E-03
            3863            4264     60.2495E-03     61.5343E-03
            3863            4265     71.6076E-03     74.9439E-03
            3863            4271     62.1371E-03     59.7027E-03
            3863            4272     71.4623E-03     69.8220E-03
            3864            4265     71.6076E-03     74.9439E-03
            3864            4266     106.609E-03     112.567E-03
            3864            4272     71.4623E-03     69.8220E-03
            3864            4273     103.142E-03     105.315E-03
            3865            4266     106.609E-03     112.567E-03
            3865            4267     148.667E-03     151.998E-03
            3865            4273     103.142E-03     105.315E-03
            3865            4274     141.322E-03     145.379E-03
            3866             186     160.656E-03     164.069E-03
            3866             187     170.965E-03     171.352E-03
            3866            4267     148.667E-03     151.998E-03
            3866            4274     141.322E-03     145.379E-03
            3867             738     163.645E-03     160.176E-03
            3867             739     178.127E-03     180.879E-03
            3867            4268     158.388E-03     162.295E-03
            3867            4275     146.281E-03     142.605E-03
            3868            4268     158.388E-03     162.295E-03
            3868            4269     118.366E-03     121.416E-03
            3868            4275     146.281E-03     142.605E-03
            3868            4276     111.838E-03     107.969E-03
            3869            4269     118.366E-03     121.416E-03
            3869            4270     81.8635E-03     81.4105E-03
            3869            4276     111.838E-03     107.969E-03
            3869            4277     81.6669E-03     78.0907E-03
            3870            4270     81.8635E-03     81.4105E-03
            3870            4271     62.1371E-03     59.7027E-03
            3870            4277     81.6669E-03     78.0907E-03
            3870            4278     65.9939E-03     62.3139E-03
            3871            4271     62.1371E-03     59.7027E-03
            3871            4272     71.4623E-03     69.8220E-03
            3871            4278     65.9939E-03     62.3139E-03
            3871            4279     73.4367E-03     68.7058E-03
            3872            4272     71.4623E-03     69.8220E-03
            3872            4273     103.142E-03     105.315E-03
            3872            4279     73.4367E-03     68.7058E-03
            3872            4280     99.2215E-03     93.5567E-03
            3873            4273     103.142E-03     105.315E-03
            3873            4274     141.322E-03     145.379E-03
            3873            4280     99.2215E-03     93.5567E-03
            3873            4281     130.884E-03     125.727E-03
            3874             185     146.787E-03     142.403E-03
            3874             186     160.656E-03     164.069E-03
            3874            4274     141.322E-03     145.379E-03
            3874            4281     130.884E-03     125.727E-03
            3875             737     155.051E-03     149.170E-03
            3875             738     163.645E-03     160.176E-03
            3875            4275     146.281E-03     142.605E-03
            3875            4282     136.564E-03     130.688E-03
            3876            4275     146.281E-03     142.605E-03
            3876            4276     111.838E-03     107.969E-03
            3876            4282     136.564E-03     130.688E-03
            3876            4283     100.865E-03     96.4452E-03
            3877            4276     111.838E-03     107.969E-03
            3877            4277     81.6669E-03     78.0907E-03
            3877            4283     100.865E-03     96.4452E-03
            3877            4284     68.6605E-03     66.4240E-03
            3878            4277     81.6669E-03     78.0907E-03
            3878            4278     65.9939E-03     62.3139E-03
            3878            4284     68.6605E-03     66.4240E-03
            3878            4285     50.3676E-03     48.7498E-03
            3879            4278     65.9939E-03     62.3139E-03
            3879            4279     73.4367E-03     68.7058E-03
            3879            4285     50.3676E-03     48.7498E-03
            3879            4286     59.6325E-03     57.0209E-03
            3880            4279     73.4367E-03     68.7058E-03
            3880            4280     99.2215E-03     93.5567E-03
            3880            4286     59.6325E-03     57.0209E-03
            3880            4287     88.7422E-03     83.5081E-03
            3881            4280     99.2215E-03     93.5567E-03
            3881            4281     130.884E-03     125.727E-03
            3881            4287     88.7422E-03     83.5081E-03
            3881            4288     122.917E-03     115.597E-03
            3882             184     140.546E-03     132.885E-03
            3882             185     146.787E-03     142.403E-03
            3882            4281     130.884E-03     125.727E-03
            3882            4288     122.917E-03     115.597E-03
            3883              34     174.350E-03     166.682E-03
            3883             736     146.728E-03     140.367E-03
            3883             737     155.051E-03     149.170E-03
            3883            4282     136.564E-03     130.688E-03
            3884             735     97.6063E-03     93.7310E-03
            3884             736     146.728E-03     140.367E-03
            3884            4282     136.564E-03     130.688E-03
            3884            4283     100.865E-03     96.4452E-03
            3885             734     57.7572E-03     56.5444E-03
            3885             735     97.6063E-03     93.7310E-03
            3885            4283     100.865E-03     96.4452E-03
            3885            4284     68.6605E-03     66.4240E-03
            3886             733     35.4575E-03     36.1416E-03
            3886             734     57.7572E-03     56.5444E-03
            3886            4284     68.6605E-03     66.4240E-03
            3886            4285     50.3676E-03     48.7498E-03
            3887             732     47.7457E-03     47.4710E-03
            3887             733     35.4575E-03     36.1416E-03
            3887            4285     50.3676E-03     48.7498E-03
            3887            4286     59.6325E-03     57.0209E-03
            3888             731     85.0341E-03     82.2436E-03
            3888             732     47.7457E-03     47.4710E-03
            3888            4286     59.6325E-03     57.0209E-03
            3888            4287     88.7422E-03     83.5081E-03
            3889             730     133.079E-03     128.009E-03
            3889             731     85.0341E-03     82.2436E-03
            3889            4287     88.7422E-03     83.5081E-03
            3889            4288     122.917E-03     115.597E-03
            3890              10     160.074E-03     153.869E-03
            3890             184     140.546E-03     132.885E-03
            3890             730     133.079E-03     128.009E-03
            3890            4288     122.917E-03     115.597E-03
            3891              25     142.001E-03     161.814E-03
            3891             484     118.985E-03     138.188E-03
            3891             547     150.081E-03     151.981E-03
            3891            4289     128.855E-03     130.498E-03
            3892             483     76.7547E-03     93.5169E-03
            3892             484     118.985E-03     138.188E-03
            3892            4289     128.855E-03     130.498E-03
            3892            4290     88.1012E-03     88.4169E-03
            3893             482     46.4121E-03     57.6061E-03
            3893             483     76.7547E-03     93.5169E-03
            3893            4290     88.1012E-03     88.4169E-03
            3893            4291     54.4560E-03     54.6139E-03
            3894             481     44.2270E-03     44.9963E-03
            3894             482     46.4121E-03     57.6061E-03
            3894            4291     54.4560E-03     54.6139E-03
            3894            4292     43.3088E-03     47.0483E-03
            3895             480     71.5162E-03     63.3120E-03
            3895             481     44.2270E-03     44.9963E-03
            3895            4292     43.3088E-03     47.0483E-03
            3895            4293     65.1721E-03     69.7041E-03
            3896             479     111.233E-03     100.418E-03
            3896             480     71.5162E-03     63.3120E-03
            3896            4293     65.1721E-03     69.7041E-03
            3896            4294     105.328E-03     107.217E-03
            3897             478     157.066E-03     145.954E-03
            3897             479     111.233E-03     100.418E-03
            3897            4294     105.328E-03     107.217E-03
            3897            4295     148.718E-03     149.351E-03
            3898               6     181.529E-03     170.444E-03
            3898             172     170.843E-03     170.990E-03
            3898             478     157.066E-03     145.954E-03
            3898            4295     148.718E-03     149.351E-03
            3899             547     150.081E-03     151.981E-03
            3899             548     163.963E-03     151.862E-03
            3899            4289     128.855E-03     130.498E-03
            3899            4296     140.456E-03     127.552E-03
            3900            4289     128.855E-03     130.498E-03
            3900            4290     88.1012E-03     88.4169E-03
            3900            4296     140.456E-03     127.552E-03
            3900            4297     98.2966E-03     85.5307E-03
            3901            4290     88.1012E-03     88.4169E-03
            3901            4291     54.4560E-03     54.6139E-03
            3901            4297     98.2966E-03     85.5307E-03
            3901            4298     62.9850E-03     56.1414E-03
            3902            4291     54.4560E-03     54.6139E-03
            3902            4292     43.3088E-03     47.0483E-03
            3902            4298     62.9850E-03     56.1414E-03
            3902            4299     45.8612E-03     49.5226E-03
            3903            4292     43.3088E-03     47.0483E-03
            3903            4293     65.1721E-03     69.7041E-03
            3903            4299     45.8612E-03     49.5226E-03
            3903            4300     62.8089E-03     69.3347E-03
            3904            4293     65.1721E-03     69.7041E-03
            3904            4294     105.328E-03     107.217E-03
            3904            4300     62.8089E-03     69.3347E-03
            3904            4301     100.040E-03     100.749E-03
            3905            4294     105.328E-03     107.217E-03
            3905            4295     148.718E-03     149.351E-03
            3905            4301     100.040E-03     100.749E-03
            3905            4302     144.699E-03     140.714E-03
            3906             171     169.541E-03     164.018E-03
            3906             172     170.843E-03     170.990E-03
            3906            4295     148.718E-03     149.351E-03
            3906            4302     144.699E-03     140.714E-03
            3907             548     163.963E-03     151.862E-03
            3907             549     161.292E-03     171.552E-03
            3907            4296     140.456E-03     127.552E-03
            3907            4303     139.857E-03     151.918E-03
            3908            4296     140.456E-03     127.552E-03
            3908            4297     98.2966E-03     85.5307E-03
            3908            4303     139.857E-03     151.918E-03
            3908            4304     99.4714E-03     112.123E-03
            3909            4297     98.2966E-03     85.5307E-03
            3909            4298     62.9850E-03     56.1414E-03
            3909            4304     99.4714E-03     112.123E-03
            3909            4305     67.5195E-03     76.8181E-03
            3910            4298     62.9850E-03     56.1414E-03
            3910            4299     45.8612E-03     49.5226E-03
            3910            4305     67.5195E-03     76.8181E-03
            3910            4306     56.3330E-03     58.8538E-03
            3911            4299     45.8612E-03     49.5226E-03
            3911            4300     62.8089E-03     69.3347E-03
            3911            4306     56.3330E-03     58.8538E-03
            3911            4307     73.1317E-03     68.2811E-03
            3912            4300     62.8089E-03     69.3347E-03
            3912            4301     100.040E-03     100.749E-03
            3912            4307     73.1317E-03     68.2811E-03
            3912            4308     107.458E-03     100.084E-03
            3913            4301     100.040E-03     100.749E-03
            3913            4302     144.699E-03     140.714E-03
            3913            4308     107.458E-03     100.084E-03
            3913            4309     146.765E-03     140.647E-03
            3914             170     166.731E-03     161.654E-03
            3914             171     169.541E-03     164.018E-03
            3914            4302     144.699E-03     140.714E-03
            3914            4309     146.765E-03     140.647E-03
            3915             549     161.292E-03     171.552E-03
            3915             550     181.932E-03     179.532E-03
            3915            4303     139.857E-03     151.918E-03
            3915            4310     157.917E-03     161.745E-03
            3916            4303     139.857E-03     151.918E-03
            3916            4304     99.4714E-03     112.123E-03
            3916            4310     157.917E-03     161.745E-03
            3916            4311     110.458E-03     121.161E-03
            3917            4304     99.4714E-03     112.123E-03
            3917            4305     67.5195E-03     76.8181E-03
            3917            4311     110.458E-03     121.161E-03
            3917            4312     67.8086E-03     77.2009E-03
            3918            4305     67.5195E-03     76.8181E-03
            3918            4306     56.3330E-03     58.8538E-03
            3918            4312     67.8086E-03     77.2009E-03
            3918            4313     48.9768E-03     54.3825E-03
            3919            4306     56.3330E-03     58.8538E-03
            3919            4307     73.1317E-03     68.2811E-03
            3919            4313     48.9768E-03     54.3825E-03
            3919            4314     69.0120E-03     72.4579E-03
            3920            4307     73.1317E-03     68.2811E-03
            3920            4308     107.458E-03     100.084E-03
            3920            4314     69.0120E-03     72.4579E-03
            3920            4315     110.862E-03     116.124E-03
            3921            4308     107.458E-03     100.084E-03
            3921            4309     146.765E-03     140.647E-03
            3921            4315     110.862E-03     116.124E-03
            3921            4316     154.915E-03     160.222E-03
            3922             169     176.780E-03     180.384E-03
            3922             170     166.731E-03     161.654E-03
            3922            4309     146.765E-03     140.647E-03
            3922            4316     154.915E-03     160.222E-03
            3923             550     181.932E-03     179.532E-03
            3923             551     187.206E-03     193.981E-03
            3923            4310     157.917E-03     161.745E-03
            3923            4317     164.738E-03     170.939E-03
            3924            4310     157.917E-03     161.745E-03
            3924            4311     110.458E-03     121.161E-03
            3924            4317     164.738E-03     170.939E-03
            3924            4318     116.797E-03     121.488E-03
            3925            4311     110.458E-03     121.161E-03
            3925            4312     67.8086E-03     77.2009E-03
            3925            4318     116.797E-03     121.488E-03
            3925            4319     68.9953E-03     73.0364E-03
            3926            4312     67.8086E-03     77.2009E-03
            3926            4313     48.9768E-03     54.3825E-03
            3926            4319     68.9953E-03     73.0364E-03
            3926            4320     44.7684E-03     51.3114E-03
            3927            4313     48.9768E-03     54.3825E-03
            3927            4314     69.0120E-03     72.4579E-03
            3927            4320     44.7684E-03     51.3114E-03
            3927            4321     64.0590E-03     73.8815E-03
            3928            4314     69.0120E-03     72.4579E-03
            3928            4315     110.862E-03     116.124E-03
            3928            4321     64.0590E-03     73.8815E-03
            3928            4322     111.047E-03     121.996E-03
            3929            4315     110.862E-03     116.124E-03
            3929            4316     154.915E-03     160.222E-03
            3929            4322     111.047E-03     121.996E-03
            3929            4323     161.455E-03     168.807E-03
            3930             168     186.065E-03     189.758E-03
            3930             169     176.780E-03     180.384E-03
            3930            4316     154.915E-03     160.222E-03
            3930            4323     161.455E-03     168.807E-03
            3931             551     187.206E-03     193.981E-03
            3931             552     207.868E-03     192.060E-03
            3931            4317     164.738E-03     170.939E-03
            3931            4324     176.507E-03     161.774E-03
            3932            4317     164.738E-03     170.939E-03
            3932            4318     116.797E-03     121.488E-03
            3932            4324     176.507E-03     161.774E-03
            3932            4325     117.290E-03     104.163E-03
            3933            4318     116.797E-03     121.488E-03
            3933            4319     68.9953E-03     73.0364E-03
            3933            4325     117.290E-03     104.163E-03
            3933            4326     66.3381E-03     58.0671E-03
            3934            4319     68.9953E-03     73.0364E-03
            3934            4320     44.7684E-03     51.3114E-03
            3934            4326     66.3381E-03     58.0671E-03
            3934            4327     38.2428E-03     41.9633E-03
            3935            4320     44.7684E-03     51.3114E-03
            3935            4321     64.0590E-03     73.8815E-03
            3935            4327     38.2428E-03     41.9633E-03
            3935            4328     54.6361E-03     64.8062E-03
            3936            4321     64.0590E-03     73.8815E-03
            3936            4322     111.047E-03     121.996E-03
            3936            4328     54.6361E-03     64.8062E-03
            3936            4329     104.384E-03     111.291E-03
            3937            4322     111.047E-03     121.996E-03
            3937            4323     161.455E-03     168.807E-03
            3937            4329     104.384E-03     111.291E-03
            3937            4330     165.111E-03     166.688E-03
            3938             167     197.484E-03     195.774E-03
            3938             168     186.065E-03     189.758E-03
            3938            4323     161.455E-03     168.807E-03
            3938            4330     165.111E-03     166.688E-03
            3939              27     224.967E-03     192.577E-03
            3939             552     207.868E-03     192.060E-03
            3939             723     184.534E-03     157.657E-03
            3939            4324     176.507E-03     161.774E-03
            3940             723     184.534E-03     157.657E-03
            3940             724     116.929E-03     99.2372E-03
            3940            4324     176.507E-03     161.774E-03
            3940            4325     117.290E-03     104.163E-03
            3941             724     116.929E-03     99.2372E-03
            3941             725     66.3543E-03     56.8253E-03
            3941            4325     117.290E-03     104.163E-03
            3941            4326     66.3381E-03     58.0671E-03
            3942             725     66.3543E-03     56.8253E-03
            3942             726     36.9276E-03     37.7437E-03
            3942            4326     66.3381E-03     58.0671E-03
            3942            4327     38.2428E-03     41.9633E-03
            3943             726     36.9276E-03     37.7437E-03
            3943             727     51.8084E-03     56.0902E-03
            3943            4327     38.2428E-03     41.9633E-03
            3943            4328     54.6361E-03     64.8062E-03
            3944             727     51.8084E-03     56.0902E-03
            3944             728     99.3096E-03     97.8136E-03
            3944            4328     54.6361E-03     64.8062E-03
            3944            4329     104.384E-03     111.291E-03
            3945             728     99.3096E-03     97.8136E-03
            3945             729     164.665E-03     156.295E-03
            3945            4329     104.384E-03     111.291E-03
            3945            4330     165.111E-03     166.688E-03
            3946               8     203.424E-03     191.569E-03
            3946             167     197.484E-03     195.774E-03
            3946             729     164.665E-03     156.295E-03
            3946            4330     165.111E-03     166.688E-03
            5375              13     15.3593E-03     15.2624E-03
            5375             201     1.17589E-03     1.15296E-03
            5375             956     17.5233E-03     17.5126E-03
            5375            5519     1.13087E-03     1.12540E-03
            5376             956     17.5233E-03     17.5126E-03
            5376             957     20.1779E-03     20.1708E-03
            5376            5519     1.13087E-03     1.12540E-03
            5376            5520     1.05183E-03     1.06551E-03
            5377             957     20.1779E-03     20.1708E-03
            5377             958     21.1431E-03     21.1273E-03
            5377            5520     1.05183E-03     1.06551E-03
            5377            5521     1.02050E-03     1.03703E-03
            5378             958     21.1431E-03     21.1273E-03
            5378             959     21.6375E-03     21.6523E-03
            5378            5521     1.02050E-03     1.03703E-03
            5378            5522     1.02319E-03     1.04088E-03
            5379             959     21.6375E-03     21.6523E-03
            5379             960     21.1696E-03     21.1163E-03
            5379            5522     1.02319E-03     1.04088E-03
            5379            5523     1.02050E-03     1.03703E-03
            5380             960     21.1696E-03     21.1163E-03
            5380             961     20.2543E-03     20.1651E-03
            5380            5523     1.02050E-03     1.03703E-03
            5380            5524     1.05183E-03     1.06551E-03
            5381             961     20.2543E-03     20.1651E-03
            5381             962     17.7035E-03     17.6085E-03
            5381            5524     1.05183E-03     1.06551E-03
            5381            5525     1.13087E-03     1.12540E-03
            5382              15     15.5803E-03     15.4905E-03
            5382             949     1.17589E-03     1.15296E-03
            5382             962     17.7035E-03     17.6085E-03
            5382            5525     1.13087E-03     1.12540E-03
            5383             201     1.17589E-03     1.15296E-03
            5383             202     924.692E-06     929.689E-06
            5383            5519     1.13087E-03     1.12540E-03
            5383            5526     985.830E-06     995.304E-06
            5384            5519     1.13087E-03     1.12540E-03
            5384            5520     1.05183E-03     1.06551E-03
            5384            5526     985.830E-06     995.304E-06
            5384            5527     1.06471E-03     1.08533E-03
            5385            5520     1.05183E-03     1.06551E-03
            5385            5521     1.02050E-03     1.03703E-03
            5385            5527     1.06471E-03     1.08533E-03
            5385            5528     1.08797E-03     1.11381E-03
            5386            5521     1.02050E-03     1.03703E-03
            5386            5522     1.02319E-03     1.04088E-03
            5386            5528     1.08797E-03     1.11381E-03
            5386            5529     1.09348E-03     1.11788E-03
            5387            5522     1.02319E-03     1.04088E-03
            5387            5523     1.02050E-03     1.03703E-03
            5387            5529     1.09348E-03     1.11788E-03
            5387            5530     1.08797E-03     1.11381E-03
            5388            5523     1.02050E-03     1.03703E-03
            5388            5524     1.05183E-03     1.06551E-03
            5388            5530     1.08797E-03     1.11381E-03
            5388            5531     1.06471E-03     1.08533E-03
            5389            5524     1.05183E-03     1.06551E-03
            5389            5525     1.13087E-03     1.12540E-03
            5389            5531     1.06471E-03     1.08533E-03
            5389            5532     985.830E-06     995.304E-06
            5390             949     1.17589E-03     1.15296E-03
            5390             950     924.692E-06     929.689E-06
            5390            5525     1.13087E-03     1.12540E-03
            5390            5532     985.830E-06     995.304E-06
            5391             202     924.692E-06     929.689E-06
            5391             203     770.704E-06     774.201E-06
            5391            5526     985.830E-06     995.304E-06
            5391            5533     866.754E-06     873.650E-06
            5392            5526     985.830E-06     995.304E-06
            5392            5527     1.06471E-03     1.08533E-03
            5392            5533     866.754E-06     873.650E-06
            5392            5534     1.02939E-03     1.04323E-03
            5393            5527     1.06471E-03     1.08533E-03
            5393            5528     1.08797E-03     1.11381E-03
            5393            5534     1.02939E-03     1.04323E-03
            5393            5535     1.11743E-03     1.13661E-03
            5394            5528     1.08797E-03     1.11381E-03
            5394            5529     1.09348E-03     1.11788E-03
            5394            5535     1.11743E-03     1.13661E-03
            5394            5536     1.13887E-03     1.15985E-03
            5395            5529     1.09348E-03     1.11788E-03
            5395            5530     1.08797E-03     1.11381E-03
            5395            5536     1.13887E-03     1.15985E-03
            5395            5537     1.11743E-03     1.13661E-03
            5396            5530     1.08797E-03     1.11381E-03
            5396            5531     1.06471E-03     1.08533E-03
            5396            5537     1.11743E-03     1.13661E-03
            5396            5538     1.02939E-03     1.04323E-03
            5397            5531     1.06471E-03     1.08533E-03
            5397            5532     985.830E-06     995.304E-06
            5397            5538     1.02939E-03     1.04323E-03
            5397            5539     866.754E-06     873.650E-06
            5398             950     924.692E-06     929.689E-06
            5398             951     770.704E-06     774.201E-06
            5398            5532     985.830E-06     995.304E-06
            5398            5539     866.754E-06     873.650E-06
            5399             203     770.704E-06     774.201E-06
            5399             204     672.985E-06     685.597E-06
            5399            5533     866.754E-06     873.650E-06
            5399            5540     801.795E-06     814.322E-06
            5400            5533     866.754E-06     873.650E-06
            5400            5534     1.02939E-03     1.04323E-03
            5400            5540     801.795E-06     814.322E-06
            5400            5541     1.00839E-03     1.01842E-03
            5401            5534     1.02939E-03     1.04323E-03
            5401            5535     1.11743E-03     1.13661E-03
            5401            5541     1.00839E-03     1.01842E-03
            5401            5542     1.11353E-03     1.12258E-03
            5402            5535     1.11743E-03     1.13661E-03
            5402            5536     1.13887E-03     1.15985E-03
            5402            5542     1.11353E-03     1.12258E-03
            5402            5543     1.14087E-03     1.15138E-03
            5403            5536     1.13887E-03     1.15985E-03
            5403            5537     1.11743E-03     1.13661E-03
            5403            5543     1.14087E-03     1.15138E-03
            5403            5544     1.11353E-03     1.12258E-03
            5404            5537     1.11743E-03     1.13661E-03
            5404            5538     1.02939E-03     1.04323E-03
            5404            5544     1.11353E-03     1.12258E-03
            5404            5545     1.00839E-03     1.01842E-03
            5405            5538     1.02939E-03     1.04323E-03
            5405            5539     866.754E-06     873.650E-06
            5405            5545     1.00839E-03     1.01842E-03
            5405            5546     801.795E-06     814.322E-06
            5406             951     770.704E-06     774.201E-06
            5406             952     672.985E-06     685.597E-06
            5406            5539     866.754E-06     873.650E-06
            5406            5546     801.795E-06     814.322E-06
            5407             204     672.985E-06     685.597E-06
            5407             205     636.876E-06     659.336E-06
            5407            5540     801.795E-06     814.322E-06
            5407            5547     791.029E-06     805.988E-06
            5408            5540     801.795E-06     814.322E-06
            5408            5541     1.00839E-03     1.01842E-03
            5408            5547     791.029E-06     805.988E-06
            5408            5548     1.00707E-03     1.01278E-03
            5409            5541     1.00839E-03     1.01842E-03
            5409            5542     1.11353E-03     1.12258E-03
            5409            5548     1.00707E-03     1.01278E-03
            5409            5549     1.08655E-03     1.08889E-03
            5410            5542     1.11353E-03     1.12258E-03
            5410            5543     1.14087E-03     1.15138E-03
            5410            5549     1.08655E-03     1.08889E-03
            5410            5550     1.10414E-03     1.10485E-03
            5411            5543     1.14087E-03     1.15138E-03
            5411            5544     1.11353E-03     1.12258E-03
            5411            5550     1.10414E-03     1.10485E-03
            5411            5551     1.08655E-03     1.08889E-03
            5412            5544     1.11353E-03     1.12258E-03
            5412            5545     1.00839E-03     1.01842E-03
            5412            5551     1.08655E-03     1.08889E-03
            5412            5552     1.00707E-03     1.01278E-03
            5413            5545     1.00839E-03     1.01842E-03
            5413            5546     801.795E-06     814.322E-06
            5413            5552     1.00707E-03     1.01278E-03
            5413            5553     791.029E-06     805.988E-06
            5414             952     672.985E-06     685.597E-06
            5414             953     636.876E-06     659.336E-06
            5414            5546     801.795E-06     814.322E-06
            5414            5553     791.029E-06     805.988E-06
            5415             205     636.876E-06     659.336E-06
            5415             206     711.163E-06     727.956E-06
            5415            5547     791.029E-06     805.988E-06
            5415            5554     831.779E-06     842.781E-06
            5416            5547     791.029E-06     805.988E-06
            5416            5548     1.00707E-03     1.01278E-03
            5416            5554     831.779E-06     842.781E-06
            5416            5555     985.755E-06     987.783E-06
            5417            5548     1.00707E-03     1.01278E-03
            5417            5549     1.08655E-03     1.08889E-03
            5417            5555     985.755E-06     987.783E-06
            5417            5556     1.04119E-03     1.03957E-03
            5418            5549     1.08655E-03     1.08889E-03
            5418            5550     1.10414E-03     1.10485E-03
            5418            5556     1.04119E-03     1.03957E-03
            5418            5557     1.06326E-03     1.06117E-03
            5419            5550     1.10414E-03     1.10485E-03
            5419            5551     1.08655E-03     1.08889E-03
            5419            5557     1.06326E-03     1.06117E-03
            5419            5558     1.04119E-03     1.03957E-03
            5420            5551     1.08655E-03     1.08889E-03
            5420            5552     1.00707E-03     1.01278E-03
            5420            5558     1.04119E-03     1.03957E-03
            5420            5559     985.755E-06     987.783E-06
            5421            5552     1.00707E-03     1.01278E-03
            5421            5553     791.029E-06     805.988E-06
            5421            5559     985.755E-06     987.783E-06
            5421            5560     831.779E-06     842.781E-06
            5422             953     636.876E-06     659.336E-06
            5422             954     711.163E-06     727.956E-06
            5422            5553     791.029E-06     805.988E-06
            5422            5560     831.779E-06     842.781E-06
            5423              14     770.800E-06     779.492E-06
            5423             206     711.163E-06     727.956E-06
            5423             969     855.965E-06     862.319E-06
            5423            5554     831.779E-06     842.781E-06
            5424             968     964.892E-06     965.580E-06
            5424             969     855.965E-06     862.319E-06
            5424            5554     831.779E-06     842.781E-06
            5424            5555     985.755E-06     987.783E-06
            5425             967     1.01692E-03     1.01466E-03
            5425             968     964.892E-06     965.580E-06
            5425            5555     985.755E-06     987.783E-06
            5425            5556     1.04119E-03     1.03957E-03
            5426             966     1.04519E-03     1.04330E-03
            5426             967     1.01692E-03     1.01466E-03
            5426            5556     1.04119E-03     1.03957E-03
            5426            5557     1.06326E-03     1.06117E-03
            5427             965     1.01692E-03     1.01466E-03
            5427             966     1.04519E-03     1.04330E-03
            5427            5557     1.06326E-03     1.06117E-03
            5427            5558     1.04119E-03     1.03957E-03
            5428             964     964.892E-06     965.580E-06
            5428             965     1.01692E-03     1.01466E-03
            5428            5558     1.04119E-03     1.03957E-03
            5428            5559     985.755E-06     987.783E-06
            5429             963     855.965E-06     862.319E-06
            5429             964     964.892E-06     965.580E-06
            5429            5559     985.755E-06     987.783E-06
            5429            5560     831.779E-06     842.781E-06
            5430              41     770.800E-06     779.492E-06
            5430             954     711.163E-06     727.956E-06
            5430             963     855.965E-06     862.319E-06
            5430            5560     831.779E-06     842.781E-06
            6229              34     174.350E-03     166.682E-03
            6229             736     146.728E-03     140.367E-03
            6229             754     184.608E-03     178.103E-03
            6229            6281     156.802E-03     151.811E-03
            6230             735     97.6063E-03     93.7310E-03
            6230             736     146.728E-03     140.367E-03
            6230            6281     156.802E-03     151.811E-03
            6230            6282     105.208E-03     102.741E-03
            6231             734     57.7572E-03     56.5444E-03
            6231             735     97.6063E-03     93.7310E-03
            6231            6282     105.208E-03     102.741E-03
            6231            6283     65.0266E-03     65.7446E-03
            6232             733     35.4575E-03     36.1416E-03
            6232             734     57.7572E-03     56.5444E-03
            6232            6283     65.0266E-03     65.7446E-03
            6232            6284     45.5042E-03     49.0371E-03
            6233             732     47.7457E-03     47.4710E-03
            6233             733     35.4575E-03     36.1416E-03
            6233            6284     45.5042E-03     49.0371E-03
            6233            6285     56.3618E-03     58.4691E-03
            6234             731     85.0341E-03     82.2436E-03
            6234             732     47.7457E-03     47.4710E-03
            6234            6285     56.3618E-03     58.4691E-03
            6234            6286     93.2927E-03     92.1784E-03
            6235             730     133.079E-03     128.009E-03
            6235             731     85.0341E-03     82.2436E-03
            6235            6286     93.2927E-03     92.1784E-03
            6235            6287     143.428E-03     139.577E-03
            6236              10     160.074E-03     153.869E-03
            6236             284     170.620E-03     165.188E-03
            6236             730     133.079E-03     128.009E-03
            6236            6287     143.428E-03     139.577E-03
            6237             754     184.608E-03     178.103E-03
            6237             755     170.659E-03     170.453E-03
            6237            6281     156.802E-03     151.811E-03
            6237            6288     150.212E-03     151.372E-03
            6238            6281     156.802E-03     151.811E-03
            6238            6282     105.208E-03     102.741E-03
            6238            6288     150.212E-03     151.372E-03
            6238            6289     108.536E-03     111.630E-03
            6239            6282     105.208E-03     102.741E-03
            6239            6283     65.0266E-03     65.7446E-03
            6239            6289     108.536E-03     111.630E-03
            6239            6290     71.7651E-03     76.2482E-03
            6240            6283     65.0266E-03     65.7446E-03
            6240            6284     45.5042E-03     49.0371E-03
            6240            6290     71.7651E-03     76.2482E-03
            6240            6291     53.5192E-03     59.2207E-03
            6241            6284     45.5042E-03     49.0371E-03
            6241            6285     56.3618E-03     58.4691E-03
            6241            6291     53.5192E-03     59.2207E-03
            6241            6292     63.6199E-03     68.8961E-03
            6242            6285     56.3618E-03     58.4691E-03
            6242            6286     93.2927E-03     92.1784E-03
            6242            6292     63.6199E-03     68.8961E-03
            6242            6293     96.7494E-03     100.345E-03
            6243            6286     93.2927E-03     92.1784E-03
            6243            6287     143.428E-03     139.577E-03
            6243            6293     96.7494E-03     100.345E-03
            6243            6294     137.367E-03     138.690E-03
            6244             283     157.660E-03     157.567E-03
            6244             284     170.620E-03     165.188E-03
            6244            6287     143.428E-03     139.577E-03
            6244            6294     137.367E-03     138.690E-03
            6245             755     170.659E-03     170.453E-03
            6245             756     161.113E-03     159.143E-03
            6245            6288     150.212E-03     151.372E-03
            6245            6295     141.954E-03     141.516E-03
            6246            6288     150.212E-03     151.372E-03
            6246            6289     108.536E-03     111.630E-03
            6246            6295     141.954E-03     141.516E-03
            6246            6296     105.449E-03     107.750E-03
            6247            6289     108.536E-03     111.630E-03
            6247            6290     71.7651E-03     76.2482E-03
            6247            6296     105.449E-03     107.750E-03
            6247            6297     73.9353E-03     78.1205E-03
            6248            6290     71.7651E-03     76.2482E-03
            6248            6291     53.5192E-03     59.2207E-03
            6248            6297     73.9353E-03     78.1205E-03
            6248            6298     57.2347E-03     62.2821E-03
            6249            6291     53.5192E-03     59.2207E-03
            6249            6292     63.6199E-03     68.8961E-03
            6249            6298     57.2347E-03     62.2821E-03
            6249            6299     66.0089E-03     70.5509E-03
            6250            6292     63.6199E-03     68.8961E-03
            6250            6293     96.7494E-03     100.345E-03
            6250            6299     66.0089E-03     70.5509E-03
            6250            6300     93.8293E-03     96.4251E-03
            6251            6293     96.7494E-03     100.345E-03
            6251            6294     137.367E-03     138.690E-03
            6251            6300     93.8293E-03     96.4251E-03
            6251            6301     129.323E-03     129.217E-03
            6252             282     148.303E-03     146.752E-03
            6252             283     157.660E-03     157.567E-03
            6252            6294     137.367E-03     138.690E-03
            6252            6301     129.323E-03     129.217E-03
            6253             756     161.113E-03     159.143E-03
            6253             757     153.480E-03     151.678E-03
            6253            6295     141.954E-03     141.516E-03
            6253            6302     135.478E-03     134.632E-03
            6254            6295     141.954E-03     141.516E-03
            6254            6296     105.449E-03     107.750E-03
            6254            6302     135.478E-03     134.632E-03
            6254            6303     101.042E-03     101.903E-03
            6255            6296     105.449E-03     107.750E-03
            6255            6297     73.9353E-03     78.1205E-03
            6255            6303     101.042E-03     101.903E-03
            6255            6304     72.6806E-03     74.7971E-03
            6256            6297     73.9353E-03     78.1205E-03
            6256            6298     57.2347E-03     62.2821E-03
            6256            6304     72.6806E-03     74.7971E-03
            6256            6305     58.2778E-03     60.9905E-03
            6257            6298     57.2347E-03     62.2821E-03
            6257            6299     66.0089E-03     70.5509E-03
            6257            6305     58.2778E-03     60.9905E-03
            6257            6306     64.9201E-03     67.2928E-03
            6258            6299     66.0089E-03     70.5509E-03
            6258            6300     93.8293E-03     96.4251E-03
            6258            6306     64.9201E-03     67.2928E-03
            6258            6307     89.6179E-03     90.8203E-03
            6259            6300     93.8293E-03     96.4251E-03
            6259            6301     129.323E-03     129.217E-03
            6259            6307     89.6179E-03     90.8203E-03
            6259            6308     123.026E-03     122.507E-03
            6260             281     140.853E-03     139.353E-03
            6260             282     148.303E-03     146.752E-03
            6260            6301     129.323E-03     129.217E-03
            6260            6308     123.026E-03     122.507E-03
            6261             757     153.480E-03     151.678E-03
            6261             758     145.590E-03     143.658E-03
            6261            6302     135.478E-03     134.632E-03
            6261            6309     128.695E-03     127.853E-03
            6262            6302     135.478E-03     134.632E-03
            6262            6303     101.042E-03     101.903E-03
            6262            6309     128.695E-03     127.853E-03
            6262            6310     96.9266E-03     97.4245E-03
            6263            6303     101.042E-03     101.903E-03
            6263            6304     72.6806E-03     74.7971E-03
            6263            6310     96.9266E-03     97.4245E-03
            6263            6311     70.8465E-03     71.3085E-03
            6264            6304     72.6806E-03     74.7971E-03
            6264            6305     58.2778E-03     60.9905E-03
            6264            6311     70.8465E-03     71.3085E-03
            6264            6312     57.3408E-03     57.5376E-03
            6265            6305     58.2778E-03     60.9905E-03
            6265            6306     64.9201E-03     67.2928E-03
            6265            6312     57.3408E-03     57.5376E-03
            6265            6313     63.4180E-03     64.0183E-03
            6266            6306     64.9201E-03     67.2928E-03
            6266            6307     89.6179E-03     90.8203E-03
            6266            6313     63.4180E-03     64.0183E-03
            6266            6314     85.7424E-03     86.5253E-03
            6267            6307     89.6179E-03     90.8203E-03
            6267            6308     123.026E-03     122.507E-03
            6267            6314     85.7424E-03     86.5253E-03
            6267            6315     116.416E-03     115.903E-03
            6268             280     133.143E-03     131.533E-03
            6268             281     140.853E-03     139.353E-03
            6268            6308     123.026E-03     122.507E-03
            6268            6315     116.416E-03     115.903E-03
            6269             758     145.590E-03     143.658E-03
            6269             759     137.306E-03     136.257E-03
            6269            6309     128.695E-03     127.853E-03
            6269            6316     121.808E-03     121.545E-03
            6270            6309     128.695E-03     127.853E-03
            6270            6310     96.9266E-03     97.4245E-03
            6270            6316     121.808E-03     121.545E-03
            6270            6317     92.6718E-03     93.1624E-03
            6271            6310     96.9266E-03     97.4245E-03
            6271            6311     70.8465E-03     71.3085E-03
            6271            6317     92.6718E-03     93.1624E-03
            6271            6318     68.9157E-03     68.2168E-03
            6272            6311     70.8465E-03     71.3085E-03
            6272            6312     57.3408E-03     57.5376E-03
            6272            6318     68.9157E-03     68.2168E-03
            6272            6319     56.6139E-03     54.6034E-03
            6273            6312     57.3408E-03     57.5376E-03
            6273            6313     63.4180E-03     64.0183E-03
            6273            6319     56.6139E-03     54.6034E-03
            6273            6320     61.8109E-03     60.9589E-03
            6274            6313     63.4180E-03     64.0183E-03
            6274            6314     85.7424E-03     86.5253E-03
            6274            6320     61.8109E-03     60.9589E-03
            6274            6321     81.8456E-03     82.4787E-03
            6275            6314     85.7424E-03     86.5253E-03
            6275            6315     116.416E-03     115.903E-03
            6275            6321     81.8456E-03     82.4787E-03
            6275            6322     109.773E-03     109.827E-03
            6276             279     125.046E-03     124.349E-03
            6276             280     133.143E-03     131.533E-03
            6276            6315     116.416E-03     115.903E-03
            6276            6322     109.773E-03     109.827E-03
            6277             759     137.306E-03     136.257E-03
            6277             760     128.775E-03     128.141E-03
            6277            6316     121.808E-03     121.545E-03
            6277            6323     114.854E-03     115.608E-03
            6278            6316     121.808E-03     121.545E-03
            6278            6317     92.6718E-03     93.1624E-03
            6278            6323     114.854E-03     115.608E-03
            6278            6324     88.8259E-03     89.8510E-03
            6279            6317     92.6718E-03     93.1624E-03
            6279            6318     68.9157E-03     68.2168E-03
            6279            6324     88.8259E-03     89.8510E-03
            6279            6325     67.1053E-03     65.0114E-03
            6280            6318     68.9157E-03     68.2168E-03
            6280            6319     56.6139E-03     54.6034E-03
            6280            6325     67.1053E-03     65.0114E-03
            6280            6326     55.5380E-03     51.1346E-03
            6281            6319     56.6139E-03     54.6034E-03
            6281            6320     61.8109E-03     60.9589E-03
            6281            6326     55.5380E-03     51.1346E-03
            6281            6327     60.5524E-03     57.9222E-03
            6282            6320     61.8109E-03     60.9589E-03
            6282            6321     81.8456E-03     82.4787E-03
            6282            6327     60.5524E-03     57.9222E-03
            6282            6328     78.5082E-03     79.4130E-03
            6283            6321     81.8456E-03     82.4787E-03
            6283            6322     109.773E-03     109.827E-03
            6283            6328     78.5082E-03     79.4130E-03
            6283            6329     103.180E-03     104.153E-03
            6284             278     116.864E-03     116.450E-03
            6284             279     125.046E-03     124.349E-03
            6284            6322     109.773E-03     109.827E-03
            6284            6329     103.180E-03     104.153E-03
            6285             760     128.775E-03     128.141E-03
            6285             761     118.935E-03     120.958E-03
            6285            6323     114.854E-03     115.608E-03
            6285            6330     107.604E-03     109.568E-03
            6286            6323     114.854E-03     115.608E-03
            6286            6324     88.8259E-03     89.8510E-03
            6286            6330     107.604E-03     109.568E-03
            6286            6331     85.2076E-03     84.8099E-03
            6287            6324     88.8259E-03     89.8510E-03
            6287            6325     67.1053E-03     65.0114E-03
            6287            6331     85.2076E-03     84.8099E-03
            6287            6332     65.4097E-03     61.3599E-03
            6288            6325     67.1053E-03     65.0114E-03
            6288            6326     55.5380E-03     51.1346E-03
            6288            6332     65.4097E-03     61.3599E-03
            6288            6333     54.9533E-03     49.2583E-03
            6289            6326     55.5380E-03     51.1346E-03
            6289            6327     60.5524E-03     57.9222E-03
            6289            6333     54.9533E-03     49.2583E-03
            6289            6334     59.6937E-03     54.8675E-03
            6290            6327     60.5524E-03     57.9222E-03
            6290            6328     78.5082E-03     79.4130E-03
            6290            6334     59.6937E-03     54.8675E-03
            6290            6335     75.8931E-03     74.8617E-03
            6291            6328     78.5082E-03     79.4130E-03
            6291            6329     103.180E-03     104.153E-03
            6291            6335     75.8931E-03     74.8617E-03
            6291            6336     96.3272E-03     98.3943E-03
            6292             277     107.027E-03     109.561E-03
            6292             278     116.864E-03     116.450E-03
            6292            6329     103.180E-03     104.153E-03
            6292            6336     96.3272E-03     98.3943E-03
            6293             761     118.935E-03     120.958E-03
            6293             762     106.935E-03     103.290E-03
            6293            6330     107.604E-03     109.568E-03
            6293            6337     98.6570E-03     94.0478E-03
            6294            6330     107.604E-03     109.568E-03
            6294            6331     85.2076E-03     84.8099E-03
            6294            6337     98.6570E-03     94.0478E-03
            6294            6338     81.0471E-03     75.6052E-03
            6295            6331     85.2076E-03     84.8099E-03
            6295            6332     65.4097E-03     61.3599E-03
            6295            6338     81.0471E-03     75.6052E-03
            6295            6339     64.9959E-03     60.0906E-03
            6296            6332     65.4097E-03     61.3599E-03
            6296            6333     54.9533E-03     49.2583E-03
            6296            6339     64.9959E-03     60.0906E-03
            6296            6340     56.9558E-03     52.3306E-03
            6297            6333     54.9533E-03     49.2583E-03
            6297            6334     59.6937E-03     54.8675E-03
            6297            6340     56.9558E-03     52.3306E-03
            6297            6341     60.3913E-03     55.0780E-03
            6298            6334     59.6937E-03     54.8675E-03
            6298            6335     75.8931E-03     74.8617E-03
            6298            6341     60.3913E-03     55.0780E-03
            6298            6342     73.3841E-03     67.1879E-03
            6299            6335     75.8931E-03     74.8617E-03
            6299            6336     96.3272E-03     98.3943E-03
            6299            6342     73.3841E-03     67.1879E-03
            6299            6343     88.5925E-03     83.2972E-03
            6300             276     95.5642E-03     91.4902E-03
            6300             277     107.027E-03     109.561E-03
            6300            6336     96.3272E-03     98.3943E-03
            6300            6343     88.5925E-03     83.2972E-03
            6301             762     106.935E-03     103.290E-03
            6301             763     121.163E-03     109.972E-03
            6301            6337     98.6570E-03     94.0478E-03
            6301            6344     105.142E-03     95.2224E-03
            6302            6337     98.6570E-03     94.0478E-03
            6302            6338     81.0471E-03     75.6052E-03
            6302            6344     105.142E-03     95.2224E-03
            6302            6345     77.6463E-03     71.0870E-03
            6303            6338     81.0471E-03     75.6052E-03
            6303            6339     64.9959E-03     60.0906E-03
            6303            6345     77.6463E-03     71.0870E-03
            6303            6346     58.0948E-03     55.2389E-03
            6304            6339     64.9959E-03     60.0906E-03
            6304            6340     56.9558E-03     52.3306E-03
            6304            6346     58.0948E-03     55.2389E-03
            6304            6347     48.6846E-03     47.6334E-03
            6305            6340     56.9558E-03     52.3306E-03
            6305            6341     60.3913E-03     55.0780E-03
            6305            6347     48.6846E-03     47.6334E-03
            6305            6348     53.5294E-03     51.2196E-03
            6306            6341     60.3913E-03     55.0780E-03
            6306            6342     73.3841E-03     67.1879E-03
            6306            6348     53.5294E-03     51.2196E-03
            6306            6349     70.4156E-03     64.3959E-03
            6307            6342     73.3841E-03     67.1879E-03
            6307            6343     88.5925E-03     83.2972E-03
            6307            6349     70.4156E-03     64.3959E-03
            6307            6350     95.9275E-03     86.2910E-03
            6308             275     110.730E-03     99.7391E-03
            6308             276     95.5642E-03     91.4902E-03
            6308            6343     88.5925E-03     83.2972E-03
            6308            6350     95.9275E-03     86.2910E-03
            6309             763     121.163E-03     109.972E-03
            6309             764     134.316E-03     129.772E-03
            6309            6344     105.142E-03     95.2224E-03
            6309            6351     114.893E-03     111.663E-03
            6310            6344     105.142E-03     95.2224E-03
            6310            6345     77.6463E-03     71.0870E-03
            6310            6351     114.893E-03     111.663E-03
            6310            6352     79.5319E-03     78.3779E-03
            6311            6345     77.6463E-03     71.0870E-03
            6311            6346     58.0948E-03     55.2389E-03
            6311            6352     79.5319E-03     78.3779E-03
            6311            6353     54.1367E-03     55.0574E-03
            6312            6346     58.0948E-03     55.2389E-03
            6312            6347     48.6846E-03     47.6334E-03
            6312            6353     54.1367E-03     55.0574E-03
            6312            6354     43.0816E-03     45.6502E-03
            6313            6347     48.6846E-03     47.6334E-03
            6313            6348     53.5294E-03     51.2196E-03
            6313            6354     43.0816E-03     45.6502E-03
            6313            6355     49.1649E-03     50.9802E-03
            6314            6348     53.5294E-03     51.2196E-03
            6314            6349     70.4156E-03     64.3959E-03
            6314            6355     49.1649E-03     50.9802E-03
            6314            6356     71.9645E-03     71.8637E-03
            6315            6349     70.4156E-03     64.3959E-03
            6315            6350     95.9275E-03     86.2910E-03
            6315            6356     71.9645E-03     71.8637E-03
            6315            6357     105.955E-03     103.683E-03
            6316             274     124.827E-03     121.210E-03
            6316             275     110.730E-03     99.7391E-03
            6316            6350     95.9275E-03     86.2910E-03
            6316            6357     105.955E-03     103.683E-03
            6317             764     134.316E-03     129.772E-03
            6317             765     121.286E-03     120.956E-03
            6317            6351     114.893E-03     111.663E-03
            6317            6358     108.169E-03     108.793E-03
            6318            6351     114.893E-03     111.663E-03
            6318            6352     79.5319E-03     78.3779E-03
            6318            6358     108.169E-03     108.793E-03
            6318            6359     81.7077E-03     83.8947E-03
            6319            6352     79.5319E-03     78.3779E-03
            6319            6353     54.1367E-03     55.0574E-03
            6319            6359     81.7077E-03     83.8947E-03
            6319            6360     59.6072E-03     62.8506E-03
            6320            6353     54.1367E-03     55.0574E-03
            6320            6354     43.0816E-03     45.6502E-03
            6320            6360     59.6072E-03     62.8506E-03
            6320            6361     49.4757E-03     53.3614E-03
            6321            6354     43.0816E-03     45.6502E-03
            6321            6355     49.1649E-03     50.9802E-03
            6321            6361     49.4757E-03     53.3614E-03
            6321            6362     55.0108E-03     58.6967E-03
            6322            6355     49.1649E-03     50.9802E-03
            6322            6356     71.9645E-03     71.8637E-03
            6322            6362     55.0108E-03     58.6967E-03
            6322            6363     74.4101E-03     76.9198E-03
            6323            6356     71.9645E-03     71.8637E-03
            6323            6357     105.955E-03     103.683E-03
            6323            6363     74.4101E-03     76.9198E-03
            6323            6364     99.7613E-03     100.496E-03
            6324             273     112.623E-03     112.365E-03
            6324             274     124.827E-03     121.210E-03
            6324            6357     105.955E-03     103.683E-03
            6324            6364     99.7613E-03     100.496E-03
            6325             765     121.286E-03     120.956E-03
            6325             766     112.177E-03     110.761E-03
            6325            6358     108.169E-03     108.793E-03
            6325            6365     100.409E-03     99.9557E-03
            6326            6358     108.169E-03     108.793E-03
            6326            6359     81.7077E-03     83.8947E-03
            6326            6365     100.409E-03     99.9557E-03
            6326            6366     78.7363E-03     80.1632E-03
            6327            6359     81.7077E-03     83.8947E-03
            6327            6360     59.6072E-03     62.8506E-03
            6327            6366     78.7363E-03     80.1632E-03
            6327            6367     61.3610E-03     64.1863E-03
            6328            6360     59.6072E-03     62.8506E-03
            6328            6361     49.4757E-03     53.3614E-03
            6328            6367     61.3610E-03     64.1863E-03
            6328            6368     52.6289E-03     56.0050E-03
            6329            6361     49.4757E-03     53.3614E-03
            6329            6362     55.0108E-03     58.6967E-03
            6329            6368     52.6289E-03     56.0050E-03
            6329            6369     56.9677E-03     59.9814E-03
            6330            6362     55.0108E-03     58.6967E-03
            6330            6363     74.4101E-03     76.9198E-03
            6330            6369     56.9677E-03     59.9814E-03
            6330            6370     71.6530E-03     73.3062E-03
            6331            6363     74.4101E-03     76.9198E-03
            6331            6364     99.7613E-03     100.496E-03
            6331            6370     71.6530E-03     73.3062E-03
            6331            6371     92.2092E-03     92.0443E-03
            6332             272     103.681E-03     102.625E-03
            6332             273     112.623E-03     112.365E-03
            6332            6364     99.7613E-03     100.496E-03
            6332            6371     92.2092E-03     92.0443E-03
            6333             766     112.177E-03     110.761E-03
            6333             767     104.865E-03     103.597E-03
            6333            6365     100.409E-03     99.9557E-03
            6333            6372     94.2907E-03     93.6588E-03
            6334            6365     100.409E-03     99.9557E-03
            6334            6366     78.7363E-03     80.1632E-03
            6334            6372     94.2907E-03     93.6588E-03
            6334            6373     74.8504E-03     75.3501E-03
            6335            6366     78.7363E-03     80.1632E-03
            6335            6367     61.3610E-03     64.1863E-03
            6335            6373     74.8504E-03     75.3501E-03
            6335            6374     60.3889E-03     61.7501E-03
            6336            6367     61.3610E-03     64.1863E-03
            6336            6368     52.6289E-03     56.0050E-03
            6336            6374     60.3889E-03     61.7501E-03
            6336            6375     53.5787E-03     55.3594E-03
            6337            6368     52.6289E-03     56.0050E-03
            6337            6369     56.9677E-03     59.9814E-03
            6337            6375     53.5787E-03     55.3594E-03
            6337            6376     56.1803E-03     57.7359E-03
            6338            6369     56.9677E-03     59.9814E-03
            6338            6370     71.6530E-03     73.3062E-03
            6338            6376     56.1803E-03     57.7359E-03
            6338            6377     68.0168E-03     68.8143E-03
            6339            6370     71.6530E-03     73.3062E-03
            6339            6371     92.2092E-03     92.0443E-03
            6339            6377     68.0168E-03     68.8143E-03
            6339            6378     86.3193E-03     85.9606E-03
            6340             271     96.6013E-03     95.5663E-03
            6340             272     103.681E-03     102.625E-03
            6340            6371     92.2092E-03     92.0443E-03
            6340            6378     86.3193E-03     85.9606E-03
            6341             767     104.865E-03     103.597E-03
            6341             768     97.3743E-03     96.1364E-03
            6341            6372     94.2907E-03     93.6588E-03
            6341            6379     87.9955E-03     87.4468E-03
            6342            6372     94.2907E-03     93.6588E-03
            6342            6373     74.8504E-03     75.3501E-03
            6342            6379     87.9955E-03     87.4468E-03
            6342            6380     71.2546E-03     71.5220E-03
            6343            6373     74.8504E-03     75.3501E-03
            6343            6374     60.3889E-03     61.7501E-03
            6343            6380     71.2546E-03     71.5220E-03
            6343            6381     58.9886E-03     59.2161E-03
            6344            6374     60.3889E-03     61.7501E-03
            6344            6375     53.5787E-03     55.3594E-03
            6344            6381     58.9886E-03     59.2161E-03
            6344            6382     52.9948E-03     53.0914E-03
            6345            6375     53.5787E-03     55.3594E-03
            6345            6376     56.1803E-03     57.7359E-03
            6345            6382     52.9948E-03     53.0914E-03
            6345            6383     55.0776E-03     55.4533E-03
            6346            6376     56.1803E-03     57.7359E-03
            6346            6377     68.0168E-03     68.8143E-03
            6346            6383     55.0776E-03     55.4533E-03
            6346            6384     64.7146E-03     65.2443E-03
            6347            6377     68.0168E-03     68.8143E-03
            6347            6378     86.3193E-03     85.9606E-03
            6347            6384     64.7146E-03     65.2443E-03
            6347            6385     80.2457E-03     79.9773E-03
            6348             270     89.3123E-03     88.3355E-03
            6348             271     96.6013E-03     95.5663E-03
            6348            6378     86.3193E-03     85.9606E-03
            6348            6385     80.2457E-03     79.9773E-03
            6349             768     97.3743E-03     96.1364E-03
            6349             769     89.7222E-03     89.1679E-03
            6349            6379     87.9955E-03     87.4468E-03
            6349            6386     81.7480E-03     81.6558E-03
            6350            6379     87.9955E-03     87.4468E-03
            6350            6380     71.2546E-03     71.5220E-03
            6350            6386     81.7480E-03     81.6558E-03
            6350            6387     67.6343E-03     67.8424E-03
            6351            6380     71.2546E-03     71.5220E-03
            6351            6381     58.9886E-03     59.2161E-03
            6351            6387     67.6343E-03     67.8424E-03
            6351            6388     57.4647E-03     56.7944E-03
            6352            6381     58.9886E-03     59.2161E-03
            6352            6382     52.9948E-03     53.0914E-03
            6352            6388     57.4647E-03     56.7944E-03
            6352            6389     52.4453E-03     51.0115E-03
            6353            6382     52.9948E-03     53.0914E-03
            6353            6383     55.0776E-03     55.4533E-03
            6353            6389     52.4453E-03     51.0115E-03
            6353            6390     53.8641E-03     53.1778E-03
            6354            6383     55.0776E-03     55.4533E-03
            6354            6384     64.7146E-03     65.2443E-03
            6354            6390     53.8641E-03     53.1778E-03
            6354            6391     61.4804E-03     61.8443E-03
            6355            6384     64.7146E-03     65.2443E-03
            6355            6385     80.2457E-03     79.9773E-03
            6355            6391     61.4804E-03     61.8443E-03
            6355            6392     74.2878E-03     74.4614E-03
            6356             269     81.8866E-03     81.6147E-03
            6356             270     89.3123E-03     88.3355E-03
            6356            6385     80.2457E-03     79.9773E-03
            6356            6392     74.2878E-03     74.4614E-03
            6357             769     89.7222E-03     89.1679E-03
            6357             770     81.9129E-03     81.7825E-03
            6357            6386     81.7480E-03     81.6558E-03
            6357            6393     75.5696E-03     76.2014E-03
            6358            6386     81.7480E-03     81.6558E-03
            6358            6387     67.6343E-03     67.8424E-03
            6358            6393     75.5696E-03     76.2014E-03
            6358            6394     64.4467E-03     64.8308E-03
            6359            6387     67.6343E-03     67.8424E-03
            6359            6388     57.4647E-03     56.7944E-03
            6359            6394     64.4467E-03     64.8308E-03
            6359            6395     55.9872E-03     54.2265E-03
            6360            6388     57.4647E-03     56.7944E-03
            6360            6389     52.4453E-03     51.0115E-03
            6360            6395     55.9872E-03     54.2265E-03
            6360            6396     51.4694E-03     48.4365E-03
            6361            6389     52.4453E-03     51.0115E-03
            6361            6390     53.8641E-03     53.1778E-03
            6361            6396     51.4694E-03     48.4365E-03
            6361            6397     52.8368E-03     50.7956E-03
            6362            6390     53.8641E-03     53.1778E-03
            6362            6391     61.4804E-03     61.8443E-03
            6362            6397     52.8368E-03     50.7956E-03
            6362            6398     58.8141E-03     59.1416E-03
            6363            6391     61.4804E-03     61.8443E-03
            6363            6392     74.2878E-03     74.4614E-03
            6363            6398     58.8141E-03     59.1416E-03
            6363            6399     68.5095E-03     69.3183E-03
            6364             268     74.4330E-03     74.4835E-03
            6364             269     81.8866E-03     81.6147E-03
            6364            6392     74.2878E-03     74.4614E-03
            6364            6399     68.5095E-03     69.3183E-03
            6365             770     81.9129E-03     81.7825E-03
            6365             771     72.9895E-03     74.8099E-03
            6365            6393     75.5696E-03     76.2014E-03
            6365            6400     69.2542E-03     70.6336E-03
            6366            6393     75.5696E-03     76.2014E-03
            6366            6394     64.4467E-03     64.8308E-03
            6366            6400     69.2542E-03     70.6336E-03
            6366            6401     61.6502E-03     60.9595E-03
            6367            6394     64.4467E-03     64.8308E-03
            6367            6395     55.9872E-03     54.2265E-03
            6367            6401     61.6502E-03     60.9595E-03
            6367            6402     54.4693E-03     51.4541E-03
            6368            6395     55.9872E-03     54.2265E-03
            6368            6396     51.4694E-03     48.4365E-03
            6368            6402     54.4693E-03     51.4541E-03
            6368            6403     50.4417E-03     46.6005E-03
            6369            6396     51.4694E-03     48.4365E-03
            6369            6397     52.8368E-03     50.7956E-03
            6369            6403     50.4417E-03     46.6005E-03
            6369            6404     51.8936E-03     48.4021E-03
            6370            6397     52.8368E-03     50.7956E-03
            6370            6398     58.8141E-03     59.1416E-03
            6370            6404     51.8936E-03     48.4021E-03
            6370            6405     56.9198E-03     55.7162E-03
            6371            6398     58.8141E-03     59.1416E-03
            6371            6399     68.5095E-03     69.3183E-03
            6371            6405     56.9198E-03     55.7162E-03
            6371            6406     62.7195E-03     64.1610E-03
            6372             267     65.6604E-03     67.9392E-03
            6372             268     74.4330E-03     74.4835E-03
            6372            6399     68.5095E-03     69.3183E-03
            6372            6406     62.7195E-03     64.1610E-03
            6373             771     72.9895E-03     74.8099E-03
            6373             772     62.1158E-03     60.5679E-03
            6373            6400     69.2542E-03     70.6336E-03
            6373            6407     61.8933E-03     59.3890E-03
            6374            6400     69.2542E-03     70.6336E-03
            6374            6401     61.6502E-03     60.9595E-03
            6374            6407     61.8933E-03     59.3890E-03
            6374            6408     58.7192E-03     55.3137E-03
            6375            6401     61.6502E-03     60.9595E-03
            6375            6402     54.4693E-03     51.4541E-03
            6375            6408     58.7192E-03     55.3137E-03
            6375            6409     53.5729E-03     50.4193E-03
            6376            6402     54.4693E-03     51.4541E-03
            6376            6403     50.4417E-03     46.6005E-03
            6376            6409     53.5729E-03     50.4193E-03
            6376            6410     50.8690E-03     47.8415E-03
            6377            6403     50.4417E-03     46.6005E-03
            6377            6404     51.8936E-03     48.4021E-03
            6377            6410     50.8690E-03     47.8415E-03
            6377            6411     51.6301E-03     48.1868E-03
            6378            6404     51.8936E-03     48.4021E-03
            6378            6405     56.9198E-03     55.7162E-03
            6378            6411     51.6301E-03     48.1868E-03
            6378            6412     55.2206E-03     51.1618E-03
            6379            6405     56.9198E-03     55.7162E-03
            6379            6406     62.7195E-03     64.1610E-03
            6379            6412     55.2206E-03     51.1618E-03
            6379            6413     56.6502E-03     53.4849E-03
            6380             266     55.7595E-03     53.7580E-03
            6380             267     65.6604E-03     67.9392E-03
            6380            6406     62.7195E-03     64.1610E-03
            6380            6413     56.6502E-03     53.4849E-03
            6381             772     62.1158E-03     60.5679E-03
            6381             773     75.2191E-03     69.0852E-03
            6381            6407     61.8933E-03     59.3890E-03
            6381            6414     68.3179E-03     63.0524E-03
            6382            6407     61.8933E-03     59.3890E-03
            6382            6408     58.7192E-03     55.3137E-03
            6382            6414     68.3179E-03     63.0524E-03
            6382            6415     56.2743E-03     52.9826E-03
            6383            6408     58.7192E-03     55.3137E-03
            6383            6409     53.5729E-03     50.4193E-03
            6383            6415     56.2743E-03     52.9826E-03
            6383            6416     48.2976E-03     46.8524E-03
            6384            6409     53.5729E-03     50.4193E-03
            6384            6410     50.8690E-03     47.8415E-03
            6384            6416     48.2976E-03     46.8524E-03
            6384            6417     45.0253E-03     44.3509E-03
            6385            6410     50.8690E-03     47.8415E-03
            6385            6411     51.6301E-03     48.1868E-03
            6385            6417     45.0253E-03     44.3509E-03
            6385            6418     46.5184E-03     45.3080E-03
            6386            6411     51.6301E-03     48.1868E-03
            6386            6412     55.2206E-03     51.1618E-03
            6386            6418     46.5184E-03     45.3080E-03
            6386            6419     53.1178E-03     50.1172E-03
            6387            6412     55.2206E-03     51.1618E-03
            6387            6413     56.6502E-03     53.4849E-03
            6387            6419     53.1178E-03     50.1172E-03
            6387            6420     63.8054E-03     58.6569E-03
            6388             265     69.8245E-03     63.7528E-03
            6388             266     55.7595E-03     53.7580E-03
            6388            6413     56.6502E-03     53.4849E-03
            6388            6420     63.8054E-03     58.6569E-03
            6389             773     75.2191E-03     69.0852E-03
            6389             774     87.5270E-03     84.9594E-03
            6389            6414     68.3179E-03     63.0524E-03
            6389            6421     76.6389E-03     75.0792E-03
            6390            6414     68.3179E-03     63.0524E-03
            6390            6415     56.2743E-03     52.9826E-03
            6390            6421     76.6389E-03     75.0792E-03
            6390            6422     57.5142E-03     57.3611E-03
            6391            6415     56.2743E-03     52.9826E-03
            6391            6416     48.2976E-03     46.8524E-03
            6391            6422     57.5142E-03     57.3611E-03
            6391            6423     45.6617E-03     46.3948E-03
            6392            6416     48.2976E-03     46.8524E-03
            6392            6417     45.0253E-03     44.3509E-03
            6392            6423     45.6617E-03     46.3948E-03
            6392            6424     41.5346E-03     42.8737E-03
            6393            6417     45.0253E-03     44.3509E-03
            6393            6418     46.5184E-03     45.3080E-03
            6393            6424     41.5346E-03     42.8737E-03
            6393            6425     43.8409E-03     44.9769E-03
            6394            6418     46.5184E-03     45.3080E-03
            6394            6419     53.1178E-03     50.1172E-03
            6394            6425     43.8409E-03     44.9769E-03
            6394            6426     54.2940E-03     54.7325E-03
            6395            6419     53.1178E-03     50.1172E-03
            6395            6420     63.8054E-03     58.6569E-03
            6395            6426     54.2940E-03     54.7325E-03
            6395            6427     72.3182E-03     71.4462E-03
            6396             264     82.7069E-03     80.9001E-03
            6396             265     69.8245E-03     63.7528E-03
            6396            6420     63.8054E-03     58.6569E-03
            6396            6427     72.3182E-03     71.4462E-03
            6397             774     87.5270E-03     84.9594E-03
            6397             775     75.6895E-03     75.3627E-03
            6397            6421     76.6389E-03     75.0792E-03
            6397            6428     70.0810E-03     70.2310E-03
            6398            6421     76.6389E-03     75.0792E-03
            6398            6422     57.5142E-03     57.3611E-03
            6398            6428     70.0810E-03     70.2310E-03
            6398            6429     58.7411E-03     59.8599E-03
            6399            6422     57.5142E-03     57.3611E-03
            6399            6423     45.6617E-03     46.3948E-03
            6399            6429     58.7411E-03     59.8599E-03
            6399            6430     49.8205E-03     51.5606E-03
            6400            6423     45.6617E-03     46.3948E-03
            6400            6424     41.5346E-03     42.8737E-03
            6400            6430     49.8205E-03     51.5606E-03
            6400            6431     46.2084E-03     48.1415E-03
            6401            6424     41.5346E-03     42.8737E-03
            6401            6425     43.8409E-03     44.9769E-03
            6401            6431     46.2084E-03     48.1415E-03
            6401            6432     48.2383E-03     50.1083E-03
            6402            6425     43.8409E-03     44.9769E-03
            6402            6426     54.2940E-03     54.7325E-03
            6402            6432     48.2383E-03     50.1083E-03
            6402            6433     55.8390E-03     57.0505E-03
            6403            6426     54.2940E-03     54.7325E-03
            6403            6427     72.3182E-03     71.4462E-03
            6403            6433     55.8390E-03     57.0505E-03
            6403            6434     66.2534E-03     66.4588E-03
            6404             263     71.5197E-03     71.2509E-03
            6404             264     82.7069E-03     80.9001E-03
            6404            6427     72.3182E-03     71.4462E-03
            6404            6434     66.2534E-03     66.4588E-03
            6405             775     75.6895E-03     75.3627E-03
            6405             776     67.3738E-03     66.5585E-03
            6405            6428     70.0810E-03     70.2310E-03
            6405            6435     63.1648E-03     62.7360E-03
            6406            6428     70.0810E-03     70.2310E-03
            6406            6429     58.7411E-03     59.8599E-03
            6406            6435     63.1648E-03     62.7360E-03
            6406            6436     56.1520E-03     56.6694E-03
            6407            6429     58.7411E-03     59.8599E-03
            6407            6430     49.8205E-03     51.5606E-03
            6407            6436     56.1520E-03     56.6694E-03
            6407            6437     51.2223E-03     52.6035E-03
            6408            6430     49.8205E-03     51.5606E-03
            6408            6431     46.2084E-03     48.1415E-03
            6408            6437     51.2223E-03     52.6035E-03
            6408            6438     48.7378E-03     50.4257E-03
            6409            6431     46.2084E-03     48.1415E-03
            6409            6432     48.2383E-03     50.1083E-03
            6409            6438     48.7378E-03     50.4257E-03
            6409            6439     49.7845E-03     51.2304E-03
            6410            6432     48.2383E-03     50.1083E-03
            6410            6433     55.8390E-03     57.0505E-03
            6410            6439     49.7845E-03     51.2304E-03
            6410            6440     53.4553E-03     54.1246E-03
            6411            6433     55.8390E-03     57.0505E-03
            6411            6434     66.2534E-03     66.4588E-03
            6411            6440     53.4553E-03     54.1246E-03
            6411            6441     59.5488E-03     59.3734E-03
            6412             262     63.3770E-03     62.8888E-03
            6412             263     71.5197E-03     71.2509E-03
            6412            6434     66.2534E-03     66.4588E-03
            6412            6441     59.5488E-03     59.3734E-03
            6413             776     67.3738E-03     66.5585E-03
            6413             777     60.7882E-03     60.0237E-03
            6413            6435     63.1648E-03     62.7360E-03
            6413            6442     57.8710E-03     57.4093E-03
            6414            6435     63.1648E-03     62.7360E-03
            6414            6436     56.1520E-03     56.6694E-03
            6414            6442     57.8710E-03     57.4093E-03
            6414            6443     53.1678E-03     53.2735E-03
            6415            6436     56.1520E-03     56.6694E-03
            6415            6437     51.2223E-03     52.6035E-03
            6415            6443     53.1678E-03     53.2735E-03
            6415            6444     50.6515E-03     51.3013E-03
            6416            6437     51.2223E-03     52.6035E-03
            6416            6438     48.7378E-03     50.4257E-03
            6416            6444     50.6515E-03     51.3013E-03
            6416            6445     49.5778E-03     50.5487E-03
            6417            6438     48.7378E-03     50.4257E-03
            6417            6439     49.7845E-03     51.2304E-03
            6417            6445     49.5778E-03     50.5487E-03
            6417            6446     49.3448E-03     50.1502E-03
            6418            6439     49.7845E-03     51.2304E-03
            6418            6440     53.4553E-03     54.1246E-03
            6418            6446     49.3448E-03     50.1502E-03
            6418            6447     50.7225E-03     51.0818E-03
            6419            6440     53.4553E-03     54.1246E-03
            6419            6441     59.5488E-03     59.3734E-03
            6419            6447     50.7225E-03     51.0818E-03
            6419            6448     54.5589E-03     54.3187E-03
            6420             261     57.1281E-03     56.5272E-03
            6420             262     63.3770E-03     62.8888E-03
            6420            6441     59.5488E-03     59.3734E-03
            6420            6448     54.5589E-03     54.3187E-03
            6421             777     60.7882E-03     60.0237E-03
            6421             778     54.2983E-03     53.6444E-03
            6421            6442     57.8710E-03     57.4093E-03
            6421            6449     52.6666E-03     52.2561E-03
            6422            6442     57.8710E-03     57.4093E-03
            6422            6443     53.1678E-03     53.2735E-03
            6422            6449     52.6666E-03     52.2561E-03
            6422            6450     50.5584E-03     50.5478E-03
            6423            6443     53.1678E-03     53.2735E-03
            6423            6444     50.6515E-03     51.3013E-03
            6423            6450     50.5584E-03     50.5478E-03
            6423            6451     49.8357E-03     50.0294E-03
            6424            6444     50.6515E-03     51.3013E-03
            6424            6445     49.5778E-03     50.5487E-03
            6424            6451     49.8357E-03     50.0294E-03
            6424            6452     49.3115E-03     49.5991E-03
            6425            6445     49.5778E-03     50.5487E-03
            6425            6446     49.3448E-03     50.1502E-03
            6425            6452     49.3115E-03     49.5991E-03
            6425            6453     48.7130E-03     49.0857E-03
            6426            6446     49.3448E-03     50.1502E-03
            6426            6447     50.7225E-03     51.0818E-03
            6426            6453     48.7130E-03     49.0857E-03
            6426            6454     48.3963E-03     48.6469E-03
            6427            6447     50.7225E-03     51.0818E-03
            6427            6448     54.5589E-03     54.3187E-03
            6427            6454     48.3963E-03     48.6469E-03
            6427            6455     49.6507E-03     49.4861E-03
            6428             260     50.9013E-03     50.4827E-03
            6428             261     57.1281E-03     56.5272E-03
            6428            6448     54.5589E-03     54.3187E-03
            6428            6455     49.6507E-03     49.4861E-03
            6429             778     54.2983E-03     53.6444E-03
            6429             779     48.0792E-03     47.6421E-03
            6429            6449     52.6666E-03     52.2561E-03
            6429            6456     47.8143E-03     47.5771E-03
            6430            6449     52.6666E-03     52.2561E-03
            6430            6450     50.5584E-03     50.5478E-03
            6430            6456     47.8143E-03     47.5771E-03
            6430            6457     48.0817E-03     47.9930E-03
            6431            6450     50.5584E-03     50.5478E-03
            6431            6451     49.8357E-03     50.0294E-03
            6431            6457     48.0817E-03     47.9930E-03
            6431            6458     48.9753E-03     48.7711E-03
            6432            6451     49.8357E-03     50.0294E-03
            6432            6452     49.3115E-03     49.5991E-03
            6432            6458     48.9753E-03     48.7711E-03
            6432            6459     49.0974E-03     48.8676E-03
            6433            6452     49.3115E-03     49.5991E-03
            6433            6453     48.7130E-03     49.0857E-03
            6433            6459     49.0974E-03     48.8676E-03
            6433            6460     48.0345E-03     47.9828E-03
            6434            6453     48.7130E-03     49.0857E-03
            6434            6454     48.3963E-03     48.6469E-03
            6434            6460     48.0345E-03     47.9828E-03
            6434            6461     46.2287E-03     46.4037E-03
            6435            6454     48.3963E-03     48.6469E-03
            6435            6455     49.6507E-03     49.4861E-03
            6435            6461     46.2287E-03     46.4037E-03
            6435            6462     45.1490E-03     45.1431E-03
            6436             259     45.0511E-03     44.7775E-03
            6436             260     50.9013E-03     50.4827E-03
            6436            6455     49.6507E-03     49.4861E-03
            6436            6462     45.1490E-03     45.1431E-03
            6437             779     48.0792E-03     47.6421E-03
            6437             780     42.1645E-03     42.0976E-03
            6437            6456     47.8143E-03     47.5771E-03
            6437            6463     43.3709E-03     43.3992E-03
            6438            6456     47.8143E-03     47.5771E-03
            6438            6457     48.0817E-03     47.9930E-03
            6438            6463     43.3709E-03     43.3992E-03
            6438            6464     45.9933E-03     45.8848E-03
            6439            6457     48.0817E-03     47.9930E-03
            6439            6458     48.9753E-03     48.7711E-03
            6439            6464     45.9933E-03     45.8848E-03
            6439            6465     48.1807E-03     47.5555E-03
            6440            6458     48.9753E-03     48.7711E-03
            6440            6459     49.0974E-03     48.8676E-03
            6440            6465     48.1807E-03     47.5555E-03
            6440            6466     48.7770E-03     47.8855E-03
            6441            6459     49.0974E-03     48.8676E-03
            6441            6460     48.0345E-03     47.9828E-03
            6441            6466     48.7770E-03     47.8855E-03
            6441            6467     47.4474E-03     46.9195E-03
            6442            6460     48.0345E-03     47.9828E-03
            6442            6461     46.2287E-03     46.4037E-03
            6442            6467     47.4474E-03     46.9195E-03
            6442            6468     44.4988E-03     44.5796E-03
            6443            6461     46.2287E-03     46.4037E-03
            6443            6462     45.1490E-03     45.1431E-03
            6443            6468     44.4988E-03     44.5796E-03
            6443            6469     41.1058E-03     41.3653E-03
            6444             258     39.5069E-03     39.6815E-03
            6444             259     45.0511E-03     44.7775E-03
            6444            6462     45.1490E-03     45.1431E-03
            6444            6469     41.1058E-03     41.3653E-03
            6445             780     42.1645E-03     42.0976E-03
            6445             781     36.3830E-03     36.8890E-03
            6445            6463     43.3709E-03     43.3992E-03
            6445            6470     39.2921E-03     39.7468E-03
            6446            6463     43.3709E-03     43.3992E-03
            6446            6464     45.9933E-03     45.8848E-03
            6446            6470     39.2921E-03     39.7468E-03
            6446            6471     44.4802E-03     44.2651E-03
            6447            6464     45.9933E-03     45.8848E-03
            6447            6465     48.1807E-03     47.5555E-03
            6447            6471     44.4802E-03     44.2651E-03
            6447            6472     47.3944E-03     46.2215E-03
            6448            6465     48.1807E-03     47.5555E-03
            6448            6466     48.7770E-03     47.8855E-03
            6448            6472     47.3944E-03     46.2215E-03
            6448            6473     47.9282E-03     46.3665E-03
            6449            6466     48.7770E-03     47.8855E-03
            6449            6467     47.4474E-03     46.9195E-03
            6449            6473     47.9282E-03     46.3665E-03
            6449            6474     46.9347E-03     45.6887E-03
            6450            6467     47.4474E-03     46.9195E-03
            6450            6468     44.4988E-03     44.5796E-03
            6450            6474     46.9347E-03     45.6887E-03
            6450            6475     43.4265E-03     43.2687E-03
            6451            6468     44.4988E-03     44.5796E-03
            6451            6469     41.1058E-03     41.3653E-03
            6451            6475     43.4265E-03     43.2687E-03
            6451            6476     37.5361E-03     38.1757E-03
            6452             257     34.2618E-03     34.9760E-03
            6452             258     39.5069E-03     39.6815E-03
            6452            6469     41.1058E-03     41.3653E-03
            6452            6476     37.5361E-03     38.1757E-03
            6453             781     36.3830E-03     36.8890E-03
            6453             782     31.1825E-03     32.7111E-03
            6453            6470     39.2921E-03     39.7468E-03
            6453            6477     36.3270E-03     37.0509E-03
            6454            6470     39.2921E-03     39.7468E-03
            6454            6471     44.4802E-03     44.2651E-03
            6454            6477     36.3270E-03     37.0509E-03
            6454            6478     43.5637E-03     42.8233E-03
            6455            6471     44.4802E-03     44.2651E-03
            6455            6472     47.3944E-03     46.2215E-03
            6455            6478     43.5637E-03     42.8233E-03
            6455            6479     46.0855E-03     44.4709E-03
            6456            6472     47.3944E-03     46.2215E-03
            6456            6473     47.9282E-03     46.3665E-03
            6456            6479     46.0855E-03     44.4709E-03
            6456            6480     46.4487E-03     44.5813E-03
            6457            6473     47.9282E-03     46.3665E-03
            6457            6474     46.9347E-03     45.6887E-03
            6457            6480     46.4487E-03     44.5813E-03
            6457            6481     45.8899E-03     44.0584E-03
            6458            6474     46.9347E-03     45.6887E-03
            6458            6475     43.4265E-03     43.2687E-03
            6458            6481     45.8899E-03     44.0584E-03
            6458            6482     43.1555E-03     42.1142E-03
            6459            6475     43.4265E-03     43.2687E-03
            6459            6476     37.5361E-03     38.1757E-03
            6459            6482     43.1555E-03     42.1142E-03
            6459            6483     35.3682E-03     36.1035E-03
            6460             256     29.8230E-03     31.6186E-03
            6460             257     34.2618E-03     34.9760E-03
            6460            6476     37.5361E-03     38.1757E-03
            6460            6483     35.3682E-03     36.1035E-03
            6461             782     31.1825E-03     32.7111E-03
            6461             783     27.8710E-03     29.0652E-03
            6461            6477     36.3270E-03     37.0509E-03
            6461            6484     34.2913E-03     34.3585E-03
            6462            6477     36.3270E-03     37.0509E-03
            6462            6478     43.5637E-03     42.8233E-03
            6462            6484     34.2913E-03     34.3585E-03
            6462            6485     42.1660E-03     40.9879E-03
            6463            6478     43.5637E-03     42.8233E-03
            6463            6479     46.0855E-03     44.4709E-03
            6463            6485     42.1660E-03     40.9879E-03
            6463            6486     44.3334E-03     43.0036E-03
            6464            6479     46.0855E-03     44.4709E-03
            6464            6480     46.4487E-03     44.5813E-03
            6464            6486     44.3334E-03     43.0036E-03
            6464            6487     45.0487E-03     43.6509E-03
            6465            6480     46.4487E-03     44.5813E-03
            6465            6481     45.8899E-03     44.0584E-03
            6465            6487     45.0487E-03     43.6509E-03
            6465            6488     44.3303E-03     42.8363E-03
            6466            6481     45.8899E-03     44.0584E-03
            6466            6482     43.1555E-03     42.1142E-03
            6466            6488     44.3303E-03     42.8363E-03
            6466            6489     42.3201E-03     40.7248E-03
            6467            6482     43.1555E-03     42.1142E-03
            6467            6483     35.3682E-03     36.1035E-03
            6467            6489     42.3201E-03     40.7248E-03
            6467            6490     34.6184E-03     34.4238E-03
            6468             255     28.2064E-03     29.4522E-03
            6468             256     29.8230E-03     31.6186E-03
            6468            6483     35.3682E-03     36.1035E-03
            6468            6490     34.6184E-03     34.4238E-03
            6469             783     27.8710E-03     29.0652E-03
            6469             784     33.8258E-03     33.2303E-03
            6469            6484     34.2913E-03     34.3585E-03
            6469            6491     36.8009E-03     36.2320E-03
            6470            6484     34.2913E-03     34.3585E-03
            6470            6485     42.1660E-03     40.9879E-03
            6470            6491     36.8009E-03     36.2320E-03
            6470            6492     40.3570E-03     39.7910E-03
            6471            6485     42.1660E-03     40.9879E-03
            6471            6486     44.3334E-03     43.0036E-03
            6471            6492     40.3570E-03     39.7910E-03
            6471            6493     41.6912E-03     41.1945E-03
            6472            6486     44.3334E-03     43.0036E-03
            6472            6487     45.0487E-03     43.6509E-03
            6472            6493     41.6912E-03     41.1945E-03
            6472            6494     42.4665E-03     42.0161E-03
            6473            6487     45.0487E-03     43.6509E-03
            6473            6488     44.3303E-03     42.8363E-03
            6473            6494     42.4665E-03     42.0161E-03
            6473            6495     41.6364E-03     41.1791E-03
            6474            6488     44.3303E-03     42.8363E-03
            6474            6489     42.3201E-03     40.7248E-03
            6474            6495     41.6364E-03     41.1791E-03
            6474            6496     40.3107E-03     39.7732E-03
            6475            6489     42.3201E-03     40.7248E-03
            6475            6490     34.6184E-03     34.4238E-03
            6475            6496     40.3107E-03     39.7732E-03
            6475            6497     36.9095E-03     36.4905E-03
            6476             254     33.9817E-03     33.8014E-03
            6476             255     28.2064E-03     29.4522E-03
            6476            6490     34.6184E-03     34.4238E-03
            6476            6497     36.9095E-03     36.4905E-03
            6477             784     33.8258E-03     33.2303E-03
            6477             785     35.8562E-03     35.2530E-03
            6477            6491     36.8009E-03     36.2320E-03
            6477            6498     38.2622E-03     38.0406E-03
            6478            6491     36.8009E-03     36.2320E-03
            6478            6492     40.3570E-03     39.7910E-03
            6478            6498     38.2622E-03     38.0406E-03
            6478            6499     40.7675E-03     40.8590E-03
            6479            6492     40.3570E-03     39.7910E-03
            6479            6493     41.6912E-03     41.1945E-03
            6479            6499     40.7675E-03     40.8590E-03
            6479            6500     40.9206E-03     40.9342E-03
            6480            6493     41.6912E-03     41.1945E-03
            6480            6494     42.4665E-03     42.0161E-03
            6480            6500     40.9206E-03     40.9342E-03
            6480            6501     40.9459E-03     40.9605E-03
            6481            6494     42.4665E-03     42.0161E-03
            6481            6495     41.6364E-03     41.1791E-03
            6481            6501     40.9459E-03     40.9605E-03
            6481            6502     40.7946E-03     40.8907E-03
            6482            6495     41.6364E-03     41.1791E-03
            6482            6496     40.3107E-03     39.7732E-03
            6482            6502     40.7946E-03     40.8907E-03
            6482            6503     40.4528E-03     40.7458E-03
            6483            6496     40.3107E-03     39.7732E-03
            6483            6497     36.9095E-03     36.4905E-03
            6483            6503     40.4528E-03     40.7458E-03
            6483            6504     37.5775E-03     37.8395E-03
            6484             253     34.9212E-03     35.0267E-03
            6484             254     33.9817E-03     33.8014E-03
            6484            6497     36.9095E-03     36.4905E-03
            6484            6504     37.5775E-03     37.8395E-03
            6485             785     35.8562E-03     35.2530E-03
            6485             786     28.8174E-03     28.8950E-03
            6485            6498     38.2622E-03     38.0406E-03
            6485            6505     34.9097E-03     34.8371E-03
            6486            6498     38.2622E-03     38.0406E-03
            6486            6499     40.7675E-03     40.8590E-03
            6486            6505     34.9097E-03     34.8371E-03
            6486            6506     41.7618E-03     41.7400E-03
            6487            6499     40.7675E-03     40.8590E-03
            6487            6500     40.9206E-03     40.9342E-03
            6487            6506     41.7618E-03     41.7400E-03
            6487            6507     42.1206E-03     42.1974E-03
            6488            6500     40.9206E-03     40.9342E-03
            6488            6501     40.9459E-03     40.9605E-03
            6488            6507     42.1206E-03     42.1974E-03
            6488            6508     41.6904E-03     41.7004E-03
            6489            6501     40.9459E-03     40.9605E-03
            6489            6502     40.7946E-03     40.8907E-03
            6489            6508     41.6904E-03     41.7004E-03
            6489            6509     42.0976E-03     42.1226E-03
            6490            6502     40.7946E-03     40.8907E-03
            6490            6503     40.4528E-03     40.7458E-03
            6490            6509     42.0976E-03     42.1226E-03
            6490            6510     41.6652E-03     41.6315E-03
            6491            6503     40.4528E-03     40.7458E-03
            6491            6504     37.5775E-03     37.8395E-03
            6491            6510     41.6652E-03     41.6315E-03
            6491            6511     34.5283E-03     34.8382E-03
            6492             252     28.2604E-03     28.9519E-03
            6492             253     34.9212E-03     35.0267E-03
            6492            6504     37.5775E-03     37.8395E-03
            6492            6511     34.5283E-03     34.8382E-03
            6493             786     28.8174E-03     28.8950E-03
            6493             787     28.0749E-03     28.0628E-03
            6493            6505     34.9097E-03     34.8371E-03
            6493            6512     33.7070E-03     33.6095E-03
            6494            6505     34.9097E-03     34.8371E-03
            6494            6506     41.7618E-03     41.7400E-03
            6494            6512     33.7070E-03     33.6095E-03
            6494            6513     40.4542E-03     40.3541E-03
            6495            6506     41.7618E-03     41.7400E-03
            6495            6507     42.1206E-03     42.1974E-03
            6495            6513     40.4542E-03     40.3541E-03
            6495            6514     41.8236E-03     41.8353E-03
            6496            6507     42.1206E-03     42.1974E-03
            6496            6508     41.6904E-03     41.7004E-03
            6496            6514     41.8236E-03     41.8353E-03
            6496            6515     42.0918E-03     42.1023E-03
            6497            6508     41.6904E-03     41.7004E-03
            6497            6509     42.0976E-03     42.1226E-03
            6497            6515     42.0918E-03     42.1023E-03
            6497            6516     41.8579E-03     41.7821E-03
            6498            6509     42.0976E-03     42.1226E-03
            6498            6510     41.6652E-03     41.6315E-03
            6498            6516     41.8579E-03     41.7821E-03
            6498            6517     40.5381E-03     40.3033E-03
            6499            6510     41.6652E-03     41.6315E-03
            6499            6511     34.5283E-03     34.8382E-03
            6499            6517     40.5381E-03     40.3033E-03
            6499            6518     33.7507E-03     33.8164E-03
            6500             251     28.0354E-03     28.5046E-03
            6500             252     28.2604E-03     28.9519E-03
            6500            6511     34.5283E-03     34.8382E-03
            6500            6518     33.7507E-03     33.8164E-03
            6501              13     15.3593E-03     15.2624E-03
            6501             787     28.0749E-03     28.0628E-03
            6501             956     17.5233E-03     17.5126E-03
            6501            6512     33.7070E-03     33.6095E-03
            6502             956     17.5233E-03     17.5126E-03
            6502             957     20.1779E-03     20.1708E-03
            6502            6512     33.7070E-03     33.6095E-03
            6502            6513     40.4542E-03     40.3541E-03
            6503             957     20.1779E-03     20.1708E-03
            6503             958     21.1431E-03     21.1273E-03
            6503            6513     40.4542E-03     40.3541E-03
            6503            6514     41.8236E-03     41.8353E-03
            6504             958     21.1431E-03     21.1273E-03
            6504             959     21.6375E-03     21.6523E-03
            6504            6514     41.8236E-03     41.8353E-03
            6504            6515     42.0918E-03     42.1023E-03
            6505             959     21.6375E-03     21.6523E-03
            6505             960     21.1696E-03     21.1163E-03
            6505            6515     42.0918E-03     42.1023E-03
            6505            6516     41.8579E-03     41.7821E-03
            6506             960     21.1696E-03     21.1163E-03
            6506             961     20.2543E-03     20.1651E-03
            6506            6516     41.8579E-03     41.7821E-03
            6506            6517     40.5381E-03     40.3033E-03
            6507             961     20.2543E-03     20.1651E-03
            6507             962     17.7035E-03     17.6085E-03
            6507            6517     40.5381E-03     40.3033E-03
            6507            6518     33.7507E-03     33.8164E-03
            6508              15     15.5803E-03     15.4905E-03
            6508             251     28.0354E-03     28.5046E-03
            6508             962     17.7035E-03     17.6085E-03
            6508            6518     33.7507E-03     33.8164E-03


  Minimum                            636.876E-06     659.336E-06
      At Element                            5422            5422
            Node                             953             953

  Maximum                            224.967E-03     208.405E-03
      At Element                            3939            3843
            Node                              27             742

           Total                         216.244         214.926


